C H O Si                                
   1.00000000000000     
     9.2874599999999994    0.0000000000000000    0.0000000000000000
     0.0000000000000000   17.5126199999999983    0.0000000000000000
     0.0000000000000000    0.0000000000000000   58.0000000000000000
   C    H    O    Si
    72    57    28    72
Selective dynamics
Direct
  0.9967573633505210  0.0651807360050726  0.0594799504675406   T   T   T
  0.3302679133627874  0.0652274661153484  0.0595625026953812   T   T   T
  0.6634024323999248  0.0652216215826456  0.0595875748381070   T   T   T
  0.9967256807547371  0.3153328007211240  0.0595153741715672   T   T   T
  0.3301547264322487  0.3151883651225141  0.0595802225215184   T   T   T
  0.6635105491173646  0.3151678036880013  0.0596195297681409   T   T   T
  0.1622771131628969  0.1880175172366522  0.1383022860922154   T   T   T
  0.4953374594213637  0.1884293075882023  0.1387063639923660   T   T   T
  0.8286251015562334  0.1880915851005416  0.1383573642356263   T   T   T
  0.1621911815224495  0.4381679992240063  0.1384577475287136   T   T   T
  0.4952755535419875  0.4372962011575540  0.1384729234942791   T   T   T
  0.8287414672195519  0.4382140207946291  0.1385318290048013   T   T   T
  0.3294947494771487  0.0633067384968367  0.1656638098268992   T   T   T
  0.6615088146241285  0.0635490420867078  0.1657083547083031   T   T   T
  0.9951521320518093  0.0625663145488384  0.1654067578538536   T   T   T
  0.3282491004169226  0.3133816886672866  0.1658113401239497   T   T   T
  0.6623986627662909  0.3134663163862950  0.1657832147992296   T   T   T
  0.9951933257979163  0.3131354323714549  0.1654792124674532   T   T   T
  0.1617187734016876  0.1886543434712258  0.1903655475309914   T   T   T
  0.4948783103308914  0.1923504452373163  0.1918183277004506   T   T   T
  0.8290597329356251  0.1891733162064599  0.1906176426801820   T   T   T
  0.1618390615923967  0.4403301898682710  0.1909049523238245   T   T   T
  0.4950190882199986  0.4387488343163589  0.1914671461066104   T   T   T
  0.8289456801576092  0.4404007721192257  0.1910856938957462   T   T   T
  0.1628787919557297  0.1882530782487250  0.0848344169092663   T   T   T
  0.4960566940134860  0.1883536794309484  0.0850215965114648   T   T   T
  0.8295166182767814  0.1882724195436077  0.0848753236481141   T   T   T
  0.1628853076550692  0.4383352992626484  0.0849190159723997   T   T   T
  0.4961094499945410  0.4382681073050108  0.0848646211639043   T   T   T
  0.8294465313841300  0.4383541784307152  0.0849603364245755   T   T   T
  0.3292108034245830  0.0631694092853015  0.1121097807622187   T   T   T
  0.6624040878649543  0.0631677143149076  0.1121281285918309   T   T   T
  0.9956570232781247  0.0630478898283132  0.1120242497050109   T   T   T
  0.3290054049357671  0.3130598804251086  0.1121390078596278   T   T   T
  0.6625344579126258  0.3130483297751937  0.1121521171989811   T   T   T
  0.9956588173821347  0.3131265221661057  0.1120338911970524   T   T   T
  0.9967008109872545  0.5653305913206429  0.0595849762625193   T   T   T
  0.3301009757914961  0.5653336034418450  0.0595645002022198   T   T   T
  0.6634512028014734  0.5652688914222103  0.0596327666985368   T   T   T
  0.9967302570713409  0.8153792832941703  0.0595474776066409   T   T   T
  0.3301734693561620  0.8152466295460565  0.0595539835630288   T   T   T
  0.6634331586584904  0.8152099371742697  0.0595779672110922   T   T   T
  0.1620648276772096  0.6883816977762277  0.1384523754952372   T   T   T
  0.4954863051971010  0.6880802731100777  0.1385235249844695   T   T   T
  0.8290576971485445  0.6883665959727496  0.1384894650137800   T   T   T
  0.1625306944280817  0.9381399368104258  0.1384491672853931   T   T   T
  0.4954148907279224  0.9380611608584206  0.1384616713639603   T   T   T
  0.8283970091971122  0.9381713341164504  0.1384414845242462   T   T   T
  0.3279608973602176  0.5633888989414702  0.1657521793310222   T   T   T
  0.6629566448405158  0.5632399400496166  0.1658342704053857   T   T   T
  0.9953981489994030  0.5635732743240256  0.1656273898628709   T   T   T
  0.3290030436696460  0.8133102934252462  0.1656373238150652   T   T   T
  0.6623073951646067  0.8132162116331049  0.1656456538091589   T   T   T
  0.9954992913003186  0.8133980439527099  0.1656062094947559   T   T   T
  0.1620685256482267  0.6904710197190285  0.1909870108934103   T   T   T
  0.4955755386521262  0.6902151237043440  0.1910562637467298   T   T   T
  0.8290225184840209  0.6904278632466964  0.1910200682462294   T   T   T
  0.1621406174837096  0.9401276041140005  0.1909783559282362   T   T   T
  0.4956491961308473  0.9401115067438692  0.1910084244577584   T   T   T
  0.8288040493272639  0.9401648337844662  0.1909889908215656   T   T   T
  0.1628126125797786  0.6884119632165749  0.0849291550872728   T   T   T
  0.4960567663229232  0.6883420434159030  0.0849370212130535   T   T   T
  0.8294714867976934  0.6883947623918719  0.0849518870057104   T   T   T
  0.1629881740405492  0.9383828570624604  0.0849041354059148   T   T   T
  0.4961207499197903  0.9383522482823295  0.0849189746051226   T   T   T
  0.8293602281635317  0.9383926554529627  0.0849200809829561   T   T   T
  0.3291076532533478  0.5630702060767044  0.1121314225487978   T   T   T
  0.6625043851044093  0.5630165628416118  0.1121844291429391   T   T   T
  0.9956987632427691  0.5631587051008886  0.1121186099757975   T   T   T
  0.3291515086566280  0.8131879475850238  0.1120858006935310   T   T   T
  0.6624522052909966  0.8131333049456921  0.1121032025383270   T   T   T
  0.9956448404480250  0.8133627501540178  0.1120791300920802   T   T   T
  0.0773938616583748  0.1808921728407481  0.0267090529328186   T   T   T
  0.4103665675842619  0.1810204644111443  0.0268691668954381   T   T   T
  0.7433121117830603  0.1808787853130562  0.0267742154158622   T   T   T
  0.0774071408720408  0.4309660991684458  0.0267600669702144   T   T   T
  0.4106261535425075  0.4307519026566627  0.0267234115841001   T   T   T
  0.7428860454393429  0.4308106395237080  0.0268320950319487   T   T   T
  0.3282760464417072  0.0287445990956598  0.0441006692115216   T   T   T
  0.6606076875975555  0.0287660829071540  0.0441210274802655   T   T   T
  0.9942879215713384  0.0287521119800133  0.0440060253413746   T   T   T
  0.3275763615050158  0.2787147019801438  0.0441186712132428   T   T   T
  0.6612627541498255  0.2787165907178071  0.0441512687624056   T   T   T
  0.9942639730723132  0.2789808199190994  0.0440249358666283   T   T   T
  0.8314623156619012  0.4034085052711192  0.2064260897137832   T   T   T
  0.8321542905249261  0.1529987424353082  0.2061391310333016   T   T   T
  0.1635143355977859  0.1528296790000945  0.2059637149141432   T   T   T
  0.4978566659384746  0.1554165454662830  0.2071832034558754   T   T   T
  0.1638427568561223  0.4033338846230364  0.2062514323137774   T   T   T
  0.5385721311445036  0.4659625682414182  0.2621942880032375   T   T   T
  0.0839736373587431  0.0565582727094591  0.2233092608573542   T   T   T
  0.4174599366339746  0.0563821595840181  0.2233968398503886   T   T   T
  0.7504368118267786  0.0565547835089143  0.2234570764588700   T   T   T
  0.0944912064354031  0.2994001618411326  0.2222356199014733   T   T   T
  0.3681566458954288  0.2819535267939347  0.2302851245360690   T   T   T
  0.7824912387090178  0.2956939054685306  0.2225994854821786   T   T   T
  0.5054778516609195  0.2697585665550420  0.2660806671366025   T   T   T
  0.4737833022624053  0.2273576773139261  0.3007865709670845   T   T   T
  0.5218325276817009  0.3114242992314710  0.3087976505875766   T   T   T
  0.2890157594723148  0.1367239590466161  0.2962591141885930   T   T   T
  0.4370303763827554  0.1068827362987919  0.2880349912165360   T   T   T
  0.6374715739352170  0.3866274479320643  0.3349101416261572   T   T   T
  0.5029940180762487  0.4318386177645315  0.3268589204801273   T   T   T
  0.5074213606099923  0.4414616270633872  0.2715729858325856   T   T   T
  0.5707535622763412  0.2669310448305856  0.2403505086156013   T   T   T
  0.0764520746765511  0.6809226959677479  0.0268197633522247   T   T   T
  0.4105155138834570  0.6809201898621009  0.0267809633960208   T   T   T
  0.7432850644441031  0.6808768365396274  0.0268192752916666   T   T   T
  0.0774706227156293  0.9309461008964864  0.0267360933584598   T   T   T
  0.4102467249637528  0.9307947726906016  0.0267661354018272   T   T   T
  0.7429607606139805  0.9308003814794402  0.0267969827156194   T   T   T
  0.3277546470016285  0.5288745794993727  0.0440955931848252   T   T   T
  0.6611719003999762  0.5288439333570023  0.0441575464811057   T   T   T
  0.9943325353448599  0.5288853767825276  0.0441137739532820   T   T   T
  0.3277894339254632  0.7788596810109760  0.0440718738430225   T   T   T
  0.6609918681880900  0.7788529349807585  0.0440902844649875   T   T   T
  0.9943365946291848  0.7789760947142146  0.0440676745191358   T   T   T
  0.8311853939616828  0.9037688868051474  0.2064644015596152   T   T   T
  0.8311745464533359  0.6538625097537408  0.2064559206441648   T   T   T
  0.1651892270591724  0.6536287156008874  0.2063595818535867   T   T   T
  0.4973134173723683  0.6532511775431453  0.2064182138888351   T   T   T
  0.1644921833588384  0.9037685582530779  0.2064627645204166   T   T   T
  0.4979676755647181  0.9036961183438084  0.2064787126571308   T   T   T
  0.0900721901079446  0.5544325397175901  0.2229753736058564   T   T   T
  0.4173454332284173  0.5502582146540538  0.2240441852198745   T   T   T
  0.7565908614189875  0.5564334670655303  0.2224770289390675   T   T   T
  0.0848124178307830  0.8054338754588805  0.2235562871379179   T   T   T
  0.4177974024387772  0.8054519947577793  0.2235803740146729   T   T   T
  0.7514486567722994  0.8053771928184295  0.2235625290972789   T   T   T
  0.1723021534687560  0.1681230715267918  0.0328793900751397   T   T   T
  0.5053604661651340  0.1684708446179147  0.0330480181043905   T   T   T
  0.8384060308063865  0.1681931453633129  0.0328919071332823   T   T   T
  0.1723146159576660  0.4181868619637783  0.0329249408845549   T   T   T
  0.5055569658332293  0.4179956974562919  0.0328753824833190   T   T   T
  0.8380467769101226  0.4184288240529056  0.0329745381989840   T   T   T
  0.3218386675346201  0.0428047214193629  0.2176687710936245   T   T   T
  0.6549629048949787  0.0429616711490015  0.2176722689301873   T   T   T
  0.9884311083117896  0.0430977150183055  0.2175247544928172   T   T   T
  0.2982813600618069  0.2936160038566492  0.2176853433160542   T   T   T
  0.6804950869994882  0.2913539974569908  0.2182871584933514   T   T   T
  0.9936076656465868  0.2911397816738156  0.2173287919950587   T   T   T
  0.5299299318549828  0.2730356148015500  0.2963138443392571   T   T   T
  0.3896434544121603  0.1325817510708230  0.3008862317331025   T   T   T
  0.5354814014329122  0.3809720826066231  0.3312901269862962   T   T   T
  0.4885496173752026  0.2504797204873201  0.2502500896743314   T   T   T
  0.1715957501235890  0.6683879413831080  0.0329525702709808   T   T   T
  0.5054704561245246  0.6682127524281223  0.0329550142858936   T   T   T
  0.8383793052198706  0.6684043356731145  0.0329753350930278   T   T   T
  0.1723354274779962  0.9182283153896809  0.0329249813120111   T   T   T
  0.5053265663215935  0.9182595772428402  0.0329408071404322   T   T   T
  0.8381164560525592  0.9184013417128583  0.0329389845696589   T   T   T
  0.3213567421134337  0.5452047034921399  0.2173180261108781   T   T   T
  0.6582830203272162  0.5447035734857755  0.2176324516963420   T   T   T
  0.9921242680960324  0.5440798884748165  0.2175675900198716   T   T   T
  0.3219716751596373  0.7936816890763552  0.2175923964777715   T   T   T
  0.6554374924150365  0.7935141517059474  0.2176458340760772   T   T   T
  0.9888121710466508  0.7936325903900907  0.2176105708542170   T   T   T
  0.4970190749695041  0.1239629479026013  0.0591122027821131   T   T   T
  0.8302556570449003  0.1238745345278675  0.0589870897421049   T   T   T
  0.1637652707593123  0.3739173268110238  0.0590360371785329   T   T   T
  0.4970480804303896  0.3738956604078567  0.0590319391273405   T   T   T
  0.8301614173206844  0.3739901613770595  0.0590590999220251   T   T   T
  0.1637122129418885  0.1238202848383814  0.0589689221208352   T   T   T
  0.9953444368803808  0.0001346993438658  0.1385896831561517   T   T   T
  0.3292384739594556  0.0005417244966195  0.1387216034446011   T   T   T
  0.6617007555155241  0.0006153500212259  0.1387457325033163   T   T   T
  0.9954189922420100  0.2504903493764702  0.1386660940004478   T   T   T
  0.3286646158250522  0.2510707834916080  0.1389782020336565   T   T   T
  0.6620321855756656  0.2510438120604625  0.1389584014051416   T   T   T
  0.1618882854535403  0.1246268448960314  0.1646796182770999   T   T   T
  0.4951888324044228  0.1265272184058070  0.1654520098366581   T   T   T
  0.8288863622539762  0.1249065277700972  0.1647716434103833   T   T   T
  0.1623030938702706  0.3754276433053071  0.1650955542667920   T   T   T
  0.4950781831006806  0.3771768326625268  0.1664382758922820   T   T   T
  0.8284225094966418  0.3755404782661769  0.1651869643179220   T   T   T
  0.3342020430942321  0.4956565048214417  0.1917483155993449   T   T   T
  0.6557221757615889  0.4956202211029107  0.1919761477630585   T   T   T
  0.9954981228295769  0.4986254473484232  0.1915183492381586   T   T   T
  0.3251959920285005  0.2502917143969246  0.1920109619006786   T   T   T
  0.9956850040325040  0.2476031441437995  0.1910730063373267   T   T   T
  0.6641167048818031  0.2497696816089546  0.1917499799849251   T   T   T
  0.9961121630083203  0.0002883616046709  0.0855562951646625   T   T   T
  0.3295581734387465  0.0003621723886374  0.0856215166024186   T   T   T
  0.6627312795286784  0.0003681490442150  0.0856420142754924   T   T   T
  0.9961015447806738  0.2503546858285428  0.0855701302748677   T   T   T
  0.3294006911192136  0.2503973448470521  0.0856849603149534   T   T   T
  0.6628344479481598  0.2503771110152094  0.0857008646686201   T   T   T
  0.1624124238101164  0.1254916176384467  0.1118203910037777   T   T   T
  0.4957069499876356  0.1257075989849949  0.1120774644110962   T   T   T
  0.8289764039196085  0.1255071632529224  0.1118593637545803   T   T   T
  0.1625049738297100  0.3755611325723179  0.1119714466870575   T   T   T
  0.4956650705456225  0.3756939106313659  0.1120609603213610   T   T   T
  0.8288583593186089  0.3756024701820662  0.1120216838793914   T   T   T
  0.4970047778733470  0.6239002092167977  0.0590564149912737   T   T   T
  0.8301844482474402  0.6239644724542013  0.0590664744623394   T   T   T
  0.1637552957469524  0.8739174312042738  0.0590177789761471   T   T   T
  0.4970002478348698  0.8738890512358835  0.0590311959563350   T   T   T
  0.8301448513522376  0.8739767309044096  0.0590236097362668   T   T   T
  0.1636037579801413  0.6239744245599622  0.0590394926627322   T   T   T
  0.9953964081879511  0.5004917689186309  0.1388184146772342   T   T   T
  0.3298015139692799  0.5002891075257851  0.1389653025165949   T   T   T
  0.6609104159495377  0.5002618796328702  0.1390308954672661   T   T   T
  0.9954733302350728  0.7504762864900787  0.1386828350493998   T   T   T
  0.3289777988986345  0.7503024767050744  0.1387063596095558   T   T   T
  0.6621071639021265  0.7502645912576337  0.1387201972846007   T   T   T
  0.1627478107065641  0.6249633921123474  0.1650101530772181   T   T   T
  0.4955174194912368  0.6243008135566975  0.1651162434998691   T   T   T
  0.8281112699505505  0.6248777921074795  0.1650596163338064   T   T   T
  0.1623099470411005  0.8751789303455525  0.1649474967491019   T   T   T
  0.4956037292992884  0.8751487866629634  0.1649773992587227   T   T   T
  0.8287401571311694  0.8752106973148726  0.1649594266095579   T   T   T
  0.3286689559171608  0.9987305106581787  0.1915260210744406   T   T   T
  0.6619765419546445  0.9988266365690436  0.1915424226545043   T   T   T
  0.9952704486868600  0.9987171448387029  0.1914223635612268   T   T   T
  0.3288245348536732  0.7486183989692966  0.1915427535085184   T   T   T
  0.9953938009671285  0.7487776936377825  0.1915358964470107   T   T   T
  0.6618763609297750  0.7485690173641610  0.1915810676465699   T   T   T
  0.9961458673937833  0.5003672007460060  0.0856513950189103   T   T   T
  0.3296011004375131  0.5003673880031898  0.0856585028883069   T   T   T
  0.6626461974910035  0.5003442520498855  0.0857085456417134   T   T   T
  0.9960980678482588  0.7504268554305035  0.0856195339750685   T   T   T
  0.3294412067975764  0.7503158935628828  0.0856175883824046   T   T   T
  0.6627419127851804  0.7502890078741651  0.0856326902335874   T   T   T
  0.1625597335587079  0.6254323578002606  0.1119485451053883   T   T   T
  0.4957524300116729  0.6253547126816572  0.1119730969246210   T   T   T
  0.8288472687963820  0.6254580401381972  0.1119829025776327   T   T   T
  0.1625457328994169  0.8754956095307934  0.1118737008544422   T   T   T
  0.4957182144085727  0.8754249281692310  0.1118907476383395   T   T   T
  0.8287846118464818  0.8754880332578526  0.1118821135060242   T   T   T
 
  0.00000000E+00  0.00000000E+00  0.00000000E+00
  0.00000000E+00  0.00000000E+00  0.00000000E+00
  0.00000000E+00  0.00000000E+00  0.00000000E+00
  0.00000000E+00  0.00000000E+00  0.00000000E+00
  0.00000000E+00  0.00000000E+00  0.00000000E+00
  0.00000000E+00  0.00000000E+00  0.00000000E+00
  0.00000000E+00  0.00000000E+00  0.00000000E+00
  0.00000000E+00  0.00000000E+00  0.00000000E+00
  0.00000000E+00  0.00000000E+00  0.00000000E+00
  0.00000000E+00  0.00000000E+00  0.00000000E+00
  0.00000000E+00  0.00000000E+00  0.00000000E+00
  0.00000000E+00  0.00000000E+00  0.00000000E+00
  0.00000000E+00  0.00000000E+00  0.00000000E+00
  0.00000000E+00  0.00000000E+00  0.00000000E+00
  0.00000000E+00  0.00000000E+00  0.00000000E+00
  0.00000000E+00  0.00000000E+00  0.00000000E+00
  0.00000000E+00  0.00000000E+00  0.00000000E+00
  0.00000000E+00  0.00000000E+00  0.00000000E+00
  0.00000000E+00  0.00000000E+00  0.00000000E+00
  0.00000000E+00  0.00000000E+00  0.00000000E+00
  0.00000000E+00  0.00000000E+00  0.00000000E+00
  0.00000000E+00  0.00000000E+00  0.00000000E+00
  0.00000000E+00  0.00000000E+00  0.00000000E+00
  0.00000000E+00  0.00000000E+00  0.00000000E+00
  0.00000000E+00  0.00000000E+00  0.00000000E+00
  0.00000000E+00  0.00000000E+00  0.00000000E+00
  0.00000000E+00  0.00000000E+00  0.00000000E+00
  0.00000000E+00  0.00000000E+00  0.00000000E+00
  0.00000000E+00  0.00000000E+00  0.00000000E+00
  0.00000000E+00  0.00000000E+00  0.00000000E+00
  0.00000000E+00  0.00000000E+00  0.00000000E+00
  0.00000000E+00  0.00000000E+00  0.00000000E+00
  0.00000000E+00  0.00000000E+00  0.00000000E+00
  0.00000000E+00  0.00000000E+00  0.00000000E+00
  0.00000000E+00  0.00000000E+00  0.00000000E+00
  0.00000000E+00  0.00000000E+00  0.00000000E+00
  0.00000000E+00  0.00000000E+00  0.00000000E+00
  0.00000000E+00  0.00000000E+00  0.00000000E+00
  0.00000000E+00  0.00000000E+00  0.00000000E+00
  0.00000000E+00  0.00000000E+00  0.00000000E+00
  0.00000000E+00  0.00000000E+00  0.00000000E+00
  0.00000000E+00  0.00000000E+00  0.00000000E+00
  0.00000000E+00  0.00000000E+00  0.00000000E+00
  0.00000000E+00  0.00000000E+00  0.00000000E+00
  0.00000000E+00  0.00000000E+00  0.00000000E+00
  0.00000000E+00  0.00000000E+00  0.00000000E+00
  0.00000000E+00  0.00000000E+00  0.00000000E+00
  0.00000000E+00  0.00000000E+00  0.00000000E+00
  0.00000000E+00  0.00000000E+00  0.00000000E+00
  0.00000000E+00  0.00000000E+00  0.00000000E+00
  0.00000000E+00  0.00000000E+00  0.00000000E+00
  0.00000000E+00  0.00000000E+00  0.00000000E+00
  0.00000000E+00  0.00000000E+00  0.00000000E+00
  0.00000000E+00  0.00000000E+00  0.00000000E+00
  0.00000000E+00  0.00000000E+00  0.00000000E+00
  0.00000000E+00  0.00000000E+00  0.00000000E+00
  0.00000000E+00  0.00000000E+00  0.00000000E+00
  0.00000000E+00  0.00000000E+00  0.00000000E+00
  0.00000000E+00  0.00000000E+00  0.00000000E+00
  0.00000000E+00  0.00000000E+00  0.00000000E+00
  0.00000000E+00  0.00000000E+00  0.00000000E+00
  0.00000000E+00  0.00000000E+00  0.00000000E+00
  0.00000000E+00  0.00000000E+00  0.00000000E+00
  0.00000000E+00  0.00000000E+00  0.00000000E+00
  0.00000000E+00  0.00000000E+00  0.00000000E+00
  0.00000000E+00  0.00000000E+00  0.00000000E+00
  0.00000000E+00  0.00000000E+00  0.00000000E+00
  0.00000000E+00  0.00000000E+00  0.00000000E+00
  0.00000000E+00  0.00000000E+00  0.00000000E+00
  0.00000000E+00  0.00000000E+00  0.00000000E+00
  0.00000000E+00  0.00000000E+00  0.00000000E+00
  0.00000000E+00  0.00000000E+00  0.00000000E+00
  0.00000000E+00  0.00000000E+00  0.00000000E+00
  0.00000000E+00  0.00000000E+00  0.00000000E+00
  0.00000000E+00  0.00000000E+00  0.00000000E+00
  0.00000000E+00  0.00000000E+00  0.00000000E+00
  0.00000000E+00  0.00000000E+00  0.00000000E+00
  0.00000000E+00  0.00000000E+00  0.00000000E+00
  0.00000000E+00  0.00000000E+00  0.00000000E+00
  0.00000000E+00  0.00000000E+00  0.00000000E+00
  0.00000000E+00  0.00000000E+00  0.00000000E+00
  0.00000000E+00  0.00000000E+00  0.00000000E+00
  0.00000000E+00  0.00000000E+00  0.00000000E+00
  0.00000000E+00  0.00000000E+00  0.00000000E+00
  0.00000000E+00  0.00000000E+00  0.00000000E+00
  0.00000000E+00  0.00000000E+00  0.00000000E+00
  0.00000000E+00  0.00000000E+00  0.00000000E+00
  0.00000000E+00  0.00000000E+00  0.00000000E+00
  0.00000000E+00  0.00000000E+00  0.00000000E+00
  0.00000000E+00  0.00000000E+00  0.00000000E+00
  0.00000000E+00  0.00000000E+00  0.00000000E+00
  0.00000000E+00  0.00000000E+00  0.00000000E+00
  0.00000000E+00  0.00000000E+00  0.00000000E+00
  0.00000000E+00  0.00000000E+00  0.00000000E+00
  0.00000000E+00  0.00000000E+00  0.00000000E+00
  0.00000000E+00  0.00000000E+00  0.00000000E+00
  0.00000000E+00  0.00000000E+00  0.00000000E+00
  0.00000000E+00  0.00000000E+00  0.00000000E+00
  0.00000000E+00  0.00000000E+00  0.00000000E+00
  0.00000000E+00  0.00000000E+00  0.00000000E+00
  0.00000000E+00  0.00000000E+00  0.00000000E+00
  0.00000000E+00  0.00000000E+00  0.00000000E+00
  0.00000000E+00  0.00000000E+00  0.00000000E+00
  0.00000000E+00  0.00000000E+00  0.00000000E+00
  0.00000000E+00  0.00000000E+00  0.00000000E+00
  0.00000000E+00  0.00000000E+00  0.00000000E+00
  0.00000000E+00  0.00000000E+00  0.00000000E+00
  0.00000000E+00  0.00000000E+00  0.00000000E+00
  0.00000000E+00  0.00000000E+00  0.00000000E+00
  0.00000000E+00  0.00000000E+00  0.00000000E+00
  0.00000000E+00  0.00000000E+00  0.00000000E+00
  0.00000000E+00  0.00000000E+00  0.00000000E+00
  0.00000000E+00  0.00000000E+00  0.00000000E+00
  0.00000000E+00  0.00000000E+00  0.00000000E+00
  0.00000000E+00  0.00000000E+00  0.00000000E+00
  0.00000000E+00  0.00000000E+00  0.00000000E+00
  0.00000000E+00  0.00000000E+00  0.00000000E+00
  0.00000000E+00  0.00000000E+00  0.00000000E+00
  0.00000000E+00  0.00000000E+00  0.00000000E+00
  0.00000000E+00  0.00000000E+00  0.00000000E+00
  0.00000000E+00  0.00000000E+00  0.00000000E+00
  0.00000000E+00  0.00000000E+00  0.00000000E+00
  0.00000000E+00  0.00000000E+00  0.00000000E+00
  0.00000000E+00  0.00000000E+00  0.00000000E+00
  0.00000000E+00  0.00000000E+00  0.00000000E+00
  0.00000000E+00  0.00000000E+00  0.00000000E+00
  0.00000000E+00  0.00000000E+00  0.00000000E+00
  0.00000000E+00  0.00000000E+00  0.00000000E+00
  0.00000000E+00  0.00000000E+00  0.00000000E+00
  0.00000000E+00  0.00000000E+00  0.00000000E+00
  0.00000000E+00  0.00000000E+00  0.00000000E+00
  0.00000000E+00  0.00000000E+00  0.00000000E+00
  0.00000000E+00  0.00000000E+00  0.00000000E+00
  0.00000000E+00  0.00000000E+00  0.00000000E+00
  0.00000000E+00  0.00000000E+00  0.00000000E+00
  0.00000000E+00  0.00000000E+00  0.00000000E+00
  0.00000000E+00  0.00000000E+00  0.00000000E+00
  0.00000000E+00  0.00000000E+00  0.00000000E+00
  0.00000000E+00  0.00000000E+00  0.00000000E+00
  0.00000000E+00  0.00000000E+00  0.00000000E+00
  0.00000000E+00  0.00000000E+00  0.00000000E+00
  0.00000000E+00  0.00000000E+00  0.00000000E+00
  0.00000000E+00  0.00000000E+00  0.00000000E+00
  0.00000000E+00  0.00000000E+00  0.00000000E+00
  0.00000000E+00  0.00000000E+00  0.00000000E+00
  0.00000000E+00  0.00000000E+00  0.00000000E+00
  0.00000000E+00  0.00000000E+00  0.00000000E+00
  0.00000000E+00  0.00000000E+00  0.00000000E+00
  0.00000000E+00  0.00000000E+00  0.00000000E+00
  0.00000000E+00  0.00000000E+00  0.00000000E+00
  0.00000000E+00  0.00000000E+00  0.00000000E+00
  0.00000000E+00  0.00000000E+00  0.00000000E+00
  0.00000000E+00  0.00000000E+00  0.00000000E+00
  0.00000000E+00  0.00000000E+00  0.00000000E+00
  0.00000000E+00  0.00000000E+00  0.00000000E+00
  0.00000000E+00  0.00000000E+00  0.00000000E+00
  0.00000000E+00  0.00000000E+00  0.00000000E+00
  0.00000000E+00  0.00000000E+00  0.00000000E+00
  0.00000000E+00  0.00000000E+00  0.00000000E+00
  0.00000000E+00  0.00000000E+00  0.00000000E+00
  0.00000000E+00  0.00000000E+00  0.00000000E+00
  0.00000000E+00  0.00000000E+00  0.00000000E+00
  0.00000000E+00  0.00000000E+00  0.00000000E+00
  0.00000000E+00  0.00000000E+00  0.00000000E+00
  0.00000000E+00  0.00000000E+00  0.00000000E+00
  0.00000000E+00  0.00000000E+00  0.00000000E+00
  0.00000000E+00  0.00000000E+00  0.00000000E+00
  0.00000000E+00  0.00000000E+00  0.00000000E+00
  0.00000000E+00  0.00000000E+00  0.00000000E+00
  0.00000000E+00  0.00000000E+00  0.00000000E+00
  0.00000000E+00  0.00000000E+00  0.00000000E+00
  0.00000000E+00  0.00000000E+00  0.00000000E+00
  0.00000000E+00  0.00000000E+00  0.00000000E+00
  0.00000000E+00  0.00000000E+00  0.00000000E+00
  0.00000000E+00  0.00000000E+00  0.00000000E+00
  0.00000000E+00  0.00000000E+00  0.00000000E+00
  0.00000000E+00  0.00000000E+00  0.00000000E+00
  0.00000000E+00  0.00000000E+00  0.00000000E+00
  0.00000000E+00  0.00000000E+00  0.00000000E+00
  0.00000000E+00  0.00000000E+00  0.00000000E+00
  0.00000000E+00  0.00000000E+00  0.00000000E+00
  0.00000000E+00  0.00000000E+00  0.00000000E+00
  0.00000000E+00  0.00000000E+00  0.00000000E+00
  0.00000000E+00  0.00000000E+00  0.00000000E+00
  0.00000000E+00  0.00000000E+00  0.00000000E+00
  0.00000000E+00  0.00000000E+00  0.00000000E+00
  0.00000000E+00  0.00000000E+00  0.00000000E+00
  0.00000000E+00  0.00000000E+00  0.00000000E+00
  0.00000000E+00  0.00000000E+00  0.00000000E+00
  0.00000000E+00  0.00000000E+00  0.00000000E+00
  0.00000000E+00  0.00000000E+00  0.00000000E+00
  0.00000000E+00  0.00000000E+00  0.00000000E+00
  0.00000000E+00  0.00000000E+00  0.00000000E+00
  0.00000000E+00  0.00000000E+00  0.00000000E+00
  0.00000000E+00  0.00000000E+00  0.00000000E+00
  0.00000000E+00  0.00000000E+00  0.00000000E+00
  0.00000000E+00  0.00000000E+00  0.00000000E+00
  0.00000000E+00  0.00000000E+00  0.00000000E+00
  0.00000000E+00  0.00000000E+00  0.00000000E+00
  0.00000000E+00  0.00000000E+00  0.00000000E+00
  0.00000000E+00  0.00000000E+00  0.00000000E+00
  0.00000000E+00  0.00000000E+00  0.00000000E+00
  0.00000000E+00  0.00000000E+00  0.00000000E+00
  0.00000000E+00  0.00000000E+00  0.00000000E+00
  0.00000000E+00  0.00000000E+00  0.00000000E+00
  0.00000000E+00  0.00000000E+00  0.00000000E+00
  0.00000000E+00  0.00000000E+00  0.00000000E+00
  0.00000000E+00  0.00000000E+00  0.00000000E+00
  0.00000000E+00  0.00000000E+00  0.00000000E+00
  0.00000000E+00  0.00000000E+00  0.00000000E+00
  0.00000000E+00  0.00000000E+00  0.00000000E+00
  0.00000000E+00  0.00000000E+00  0.00000000E+00
  0.00000000E+00  0.00000000E+00  0.00000000E+00
  0.00000000E+00  0.00000000E+00  0.00000000E+00
  0.00000000E+00  0.00000000E+00  0.00000000E+00
  0.00000000E+00  0.00000000E+00  0.00000000E+00
  0.00000000E+00  0.00000000E+00  0.00000000E+00
  0.00000000E+00  0.00000000E+00  0.00000000E+00
  0.00000000E+00  0.00000000E+00  0.00000000E+00
  0.00000000E+00  0.00000000E+00  0.00000000E+00
  0.00000000E+00  0.00000000E+00  0.00000000E+00
  0.00000000E+00  0.00000000E+00  0.00000000E+00
  0.00000000E+00  0.00000000E+00  0.00000000E+00
  0.00000000E+00  0.00000000E+00  0.00000000E+00
  0.00000000E+00  0.00000000E+00  0.00000000E+00
  0.00000000E+00  0.00000000E+00  0.00000000E+00
  0.00000000E+00  0.00000000E+00  0.00000000E+00
  0.00000000E+00  0.00000000E+00  0.00000000E+00
  0.00000000E+00  0.00000000E+00  0.00000000E+00
