C H O Si                                
   1.00000000000000     
     9.2874599999999994    0.0000000000000000    0.0000000000000000
     0.0000000000000000   17.5126199999999983    0.0000000000000000
     0.0000000000000000    0.0000000000000000   58.0000000000000000
   C    H    O    Si
    72    57    28    72
Selective dynamics
Direct
  0.9968430108389167  0.0651670042263898  0.0594885333071328   T   T   T
  0.3303159131966515  0.0652348676975637  0.0595704018019946   T   T   T
  0.6634076882347695  0.0652634409891275  0.0595767849059870   T   T   T
  0.9967966921958324  0.3153458246313329  0.0595137866901811   T   T   T
  0.3302661805083849  0.3152392429560352  0.0595826914416145   T   T   T
  0.6635246934919978  0.3152130384364875  0.0596075376748307   T   T   T
  0.1620942372019026  0.1879451330132475  0.1383210938529409   T   T   T
  0.4953088480686771  0.1883542554371208  0.1387166404844061   T   T   T
  0.8286440645579783  0.1880233069260128  0.1383673172839918   T   T   T
  0.1620573955565594  0.4381771690944683  0.1384876730570406   T   T   T
  0.4953648574504615  0.4372647083822709  0.1385036413750107   T   T   T
  0.8286455523843276  0.4381891555109690  0.1385614379084212   T   T   T
  0.3292396133580022  0.0633203128151819  0.1656750450943771   T   T   T
  0.6613767644300518  0.0634575921423720  0.1657242274196292   T   T   T
  0.9951738134666864  0.0625491881793557  0.1654316667260206   T   T   T
  0.3280375629151854  0.3133400767376704  0.1658100466751512   T   T   T
  0.6621244878578663  0.3133615304957396  0.1658090943564831   T   T   T
  0.9951083538825916  0.3131276854584338  0.1654879945633619   T   T   T
  0.1614855522623859  0.1886052830651168  0.1903576782644033   T   T   T
  0.4948120384914128  0.1923061355186088  0.1917875138447570   T   T   T
  0.8287969694407606  0.1892125375532020  0.1906229957183250   T   T   T
  0.1620374594126264  0.4404084678425687  0.1909100749812481   T   T   T
  0.4951229746972725  0.4387816785736046  0.1914824212634206   T   T   T
  0.8288090949748418  0.4404799303560081  0.1911110233898688   T   T   T
  0.1626402157902934  0.1882143675282688  0.0848262559663487   T   T   T
  0.4960216190228657  0.1882562448824706  0.0850383734722865   T   T   T
  0.8292813475841788  0.1882000388375749  0.0848561949383294   T   T   T
  0.1627863075866293  0.4382978487046561  0.0849019598206650   T   T   T
  0.4960310783826508  0.4381863315150859  0.0848584307143933   T   T   T
  0.8293794479488718  0.4383292377527198  0.0849625642581934   T   T   T
  0.3290727214462815  0.0631285631461251  0.1121192765201710   T   T   T
  0.6620655209543764  0.0632091712657452  0.1121383709424275   T   T   T
  0.9955276819393547  0.0630327242832884  0.1120248353662288   T   T   T
  0.3288184019382884  0.3129976204550277  0.1121477273113503   T   T   T
  0.6621915048303307  0.3130475277628547  0.1121628418571737   T   T   T
  0.9954395281220809  0.3130976942394826  0.1120482001178319   T   T   T
  0.9967733448420184  0.5653730162886521  0.0595797512249775   T   T   T
  0.3300895916246908  0.5653583527502685  0.0595679136829036   T   T   T
  0.6635268860996164  0.5653480661262220  0.0596187042790301   T   T   T
  0.9967913577165994  0.8154347397796932  0.0595479142568857   T   T   T
  0.3302465066337349  0.8152806006150061  0.0595572156128311   T   T   T
  0.6634598510821241  0.8152731560584264  0.0595635093600300   T   T   T
  0.1620639440305855  0.6883580144307162  0.1384596739144261   T   T   T
  0.4955060449083504  0.6880496603836826  0.1385536843741718   T   T   T
  0.8290189483415099  0.6882955365970342  0.1385093028349839   T   T   T
  0.1623154862551911  0.9381482882184236  0.1384633678520366   T   T   T
  0.4955523075378526  0.9380567383387636  0.1384930393742071   T   T   T
  0.8283885827656866  0.9381198769494521  0.1384732178708827   T   T   T
  0.3279023408834136  0.5633662780227162  0.1657419232660539   T   T   T
  0.6625874665254634  0.5632251587582071  0.1658773591961891   T   T   T
  0.9953669917268632  0.5635274605646483  0.1656340597736111   T   T   T
  0.3288316820980900  0.8133001280728021  0.1656301684347273   T   T   T
  0.6620794002280198  0.8132178894031774  0.1656635854250269   T   T   T
  0.9954521417843822  0.8133643838111948  0.1656341329626050   T   T   T
  0.1620727361573068  0.6905448190409669  0.1909782061756795   T   T   T
  0.4954004403230585  0.6902399847353595  0.1910596057842015   T   T   T
  0.8289245389068385  0.6905227058559678  0.1910356578212736   T   T   T
  0.1621384399188458  0.9401603213557431  0.1909774358389648   T   T   T
  0.4954837852600510  0.9401837297999799  0.1910121088827729   T   T   T
  0.8286890726036396  0.9401693150898498  0.1909796547473642   T   T   T
  0.1625708561027358  0.6884062850759741  0.0849300937408218   T   T   T
  0.4959404079807388  0.6883279025659667  0.0849508275520209   T   T   T
  0.8292971781241179  0.6883841368387013  0.0849673847302957   T   T   T
  0.1627532729499722  0.9383607307851697  0.0848924778928530   T   T   T
  0.4960474388394330  0.9383420695607091  0.0849209492923119   T   T   T
  0.8292097332353984  0.9383887630680868  0.0849146858358216   T   T   T
  0.3288891546382183  0.5630370495834258  0.1121387906631552   T   T   T
  0.6621232914222781  0.5630226499069748  0.1121992642099041   T   T   T
  0.9955146116415766  0.5631853908871018  0.1121346917978761   T   T   T
  0.3289165497666801  0.8131826915624506  0.1120993044291002   T   T   T
  0.6620379176356743  0.8131300371338669  0.1121048103266186   T   T   T
  0.9954098577380598  0.8133395364154925  0.1120980359683460   T   T   T
  0.0774974087046358  0.1808227162175346  0.0267072777471695   T   T   T
  0.4104842923542624  0.1809528365426679  0.0268655669046218   T   T   T
  0.7434376972625213  0.1808094142548802  0.0267723776145542   T   T   T
  0.0775201376388371  0.4309053933111042  0.0267539680612968   T   T   T
  0.4107487935792282  0.4306841800566162  0.0267176477640171   T   T   T
  0.7430067694617627  0.4307771113156344  0.0268076091552807   T   T   T
  0.3284321500880218  0.0287574854172668  0.0441132381942270   T   T   T
  0.6607701950755617  0.0287740951120384  0.0441259652398321   T   T   T
  0.9944410347849134  0.0287764029711943  0.0440159913254911   T   T   T
  0.3276828670463306  0.2787685596588693  0.0441288419527231   T   T   T
  0.6613883478941717  0.2787419518954355  0.0441506459822158   T   T   T
  0.9944284629563265  0.2789988433048672  0.0440279139658878   T   T   T
  0.8315590010664282  0.4033873617432702  0.2064250818764017   T   T   T
  0.8322268893441853  0.1530189404886927  0.2061292767774123   T   T   T
  0.1635241923595467  0.1528058869718865  0.2059542103384359   T   T   T
  0.4978637839171947  0.1554764651505838  0.2071626398916351   T   T   T
  0.1639173003920120  0.4033488743396090  0.2062366744988343   T   T   T
  0.5386449006210010  0.4658848207348332  0.2621422836966320   T   T   T
  0.0842232629460184  0.0565361458045229  0.2232930688336569   T   T   T
  0.4177037268315756  0.0563159305035708  0.2233676815633505   T   T   T
  0.7507243506819322  0.0565195646247490  0.2234422886919361   T   T   T
  0.0945225742599105  0.2993804781281130  0.2221901254091159   T   T   T
  0.3681896014675726  0.2819419005247594  0.2302400605298081   T   T   T
  0.7823534520331809  0.2957168326773589  0.2226175880909155   T   T   T
  0.5056652309883025  0.2698728979021224  0.2660301776983074   T   T   T
  0.4736764979704968  0.2272851458373454  0.3007933507697742   T   T   T
  0.5218503354391930  0.3115316816845189  0.3087635003020010   T   T   T
  0.2890241327975138  0.1366597905701412  0.2962185645861725   T   T   T
  0.4371122335894063  0.1069456720091042  0.2879749208466128   T   T   T
  0.6375148224378974  0.3866095167990439  0.3348840670706240   T   T   T
  0.5032190582602871  0.4318763321347386  0.3268813406267267   T   T   T
  0.5073072520317661  0.4413235616801686  0.2714901428597312   T   T   T
  0.5707510301778982  0.2670303646817767  0.2403738273708230   T   T   T
  0.0765231857195215  0.6808875779255673  0.0268052480468762   T   T   T
  0.4106141894190452  0.6808594023828011  0.0267801299094352   T   T   T
  0.7433899152305381  0.6808344469575951  0.0268075634366818   T   T   T
  0.0775597320958923  0.9308671526817655  0.0267420330610413   T   T   T
  0.4103470264386564  0.9307411014809759  0.0267626502677175   T   T   T
  0.7430705859357088  0.9307483901327743  0.0267904654448963   T   T   T
  0.3279325295817843  0.5289030905584305  0.0441053647068113   T   T   T
  0.6613372475356752  0.5288701056710878  0.0441603180586815   T   T   T
  0.9945227819686142  0.5288958346375999  0.0441201779762502   T   T   T
  0.3279185137037222  0.7789141239826517  0.0440785043649509   T   T   T
  0.6611329979816264  0.7788865907512388  0.0440911987030355   T   T   T
  0.9945101859705671  0.7790302540976572  0.0440773386731602   T   T   T
  0.8312342614001832  0.9037943260829757  0.2064538908582549   T   T   T
  0.8312022608643506  0.6538585181496434  0.2064465026580798   T   T   T
  0.1652566150334110  0.6536379182499983  0.2063335161861005   T   T   T
  0.4973695856665010  0.6532588444449939  0.2064121264896182   T   T   T
  0.1644859793122852  0.9037965940299251  0.2064551031105017   T   T   T
  0.4979949167915924  0.9036981460888900  0.2064635938813119   T   T   T
  0.0901733688977945  0.5544044208838244  0.2229537908234898   T   T   T
  0.4177113171481033  0.5502204863332456  0.2240336908698895   T   T   T
  0.7566604706247221  0.5563545385765573  0.2224578828564435   T   T   T
  0.0850058019334659  0.8053672459471655  0.2235282365097786   T   T   T
  0.4180460311451681  0.8054239127596167  0.2235679525295040   T   T   T
  0.7517137683865617  0.8053221525021029  0.2235451055639897   T   T   T
  0.1724807795186136  0.1682114684228766  0.0328814785341322   T   T   T
  0.5055688655234211  0.1685374090074399  0.0330338023531420   T   T   T
  0.8386046627758437  0.1682925691196260  0.0328920249046814   T   T   T
  0.1724711528928392  0.4182255220991648  0.0329188009743908   T   T   T
  0.5057675474749892  0.4181184564268980  0.0328670439393833   T   T   T
  0.8381796906334702  0.4184986507378515  0.0329677104864213   T   T   T
  0.3219870146841104  0.0427884178257404  0.2176718956312463   T   T   T
  0.6551711127967483  0.0430628241624096  0.2176623532730660   T   T   T
  0.9885489268573531  0.0431563292616918  0.2175411367460727   T   T   T
  0.2982489282513691  0.2935150166987693  0.2176528288391429   T   T   T
  0.6802908193933647  0.2914511901354642  0.2183285373577733   T   T   T
  0.9935086131447285  0.2913103952419869  0.2173267367684968   T   T   T
  0.5295202491587468  0.2730530552035046  0.2962985616712655   T   T   T
  0.3896974126049632  0.1325176168788742  0.3008380642587870   T   T   T
  0.5355303982169478  0.3809484062738602  0.3312806098171091   T   T   T
  0.4885021891782946  0.2504128491152587  0.2502340279055198   T   T   T
  0.1717014866176177  0.6684803704856298  0.0329499741831611   T   T   T
  0.5056837484238307  0.6682456410909691  0.0329278684096861   T   T   T
  0.8385176636260140  0.6684768231602188  0.0329682804824398   T   T   T
  0.1725676739089959  0.9183088677131405  0.0329067131466739   T   T   T
  0.5055007865744636  0.9183025624256841  0.0329237748248914   T   T   T
  0.8382455376282537  0.9184606389278986  0.0329409295134089   T   T   T
  0.3216087221653855  0.5450311776204005  0.2173542464605532   T   T   T
  0.6582993262755596  0.5446279156426950  0.2176419759618117   T   T   T
  0.9920466748950730  0.5442056874962456  0.2175940429183411   T   T   T
  0.3220731267734295  0.7937652124944833  0.2176154372723862   T   T   T
  0.6555408576805700  0.7935933056002351  0.2176652987450566   T   T   T
  0.9888157987942777  0.7937031965629674  0.2176343501604914   T   T   T
  0.4970409363266149  0.1239501462674359  0.0590917584338218   T   T   T
  0.8303393416638131  0.1238298884522343  0.0589619026882138   T   T   T
  0.1638156339389917  0.3738838268574702  0.0590085454522298   T   T   T
  0.4971153834649318  0.3739113676039870  0.0590020222755151   T   T   T
  0.8301988893915548  0.3739628214268576  0.0590483539712784   T   T   T
  0.1637472688499697  0.1237839732139983  0.0589569902045863   T   T   T
  0.9953692697034805  0.0001586148367186  0.1386077587651940   T   T   T
  0.3292925406467196  0.0005016509294712  0.1387340221935748   T   T   T
  0.6617734872054467  0.0006239845354102  0.1387617499574433   T   T   T
  0.9954694999348072  0.2504345620733083  0.1386750908392810   T   T   T
  0.3286753414326783  0.2510301186368221  0.1389885251364423   T   T   T
  0.6620644674740406  0.2509886962328258  0.1389636100843252   T   T   T
  0.1618649348972577  0.1246468569412687  0.1646858811192132   T   T   T
  0.4951801659200081  0.1264853427900164  0.1654526762159997   T   T   T
  0.8288786550970971  0.1248828465180821  0.1647951845365638   T   T   T
  0.1622316903321175  0.3754445851946678  0.1651123262736185   T   T   T
  0.4950741726942297  0.3771780309227020  0.1664758439935763   T   T   T
  0.8283152403635183  0.3755159994212872  0.1652106391689967   T   T   T
  0.3344049401832669  0.4956884986749014  0.1917489560595546   T   T   T
  0.6556661015338450  0.4955983816872733  0.1919891152929733   T   T   T
  0.9955333186894868  0.4986397582133755  0.1915392291259169   T   T   T
  0.3252647759300635  0.2502182597834913  0.1919929178499780   T   T   T
  0.9956031665458969  0.2476049814967761  0.1910966397421092   T   T   T
  0.6640177059230538  0.2497544975563564  0.1917694683174935   T   T   T
  0.9960989261491793  0.0002926645341974  0.0855545879456432   T   T   T
  0.3295438990622486  0.0003311588000637  0.0856292156874111   T   T   T
  0.6626713186686635  0.0004009945909019  0.0856383051863476   T   T   T
  0.9960682288267315  0.2503345666279748  0.0855685727127577   T   T   T
  0.3294284543206495  0.2503692476891957  0.0856787825704772   T   T   T
  0.6627309678415296  0.2503813859430264  0.0856948229837604   T   T   T
  0.1622997970760246  0.1254929370932038  0.1118237027750385   T   T   T
  0.4955585486525367  0.1257401726839086  0.1120913531439719   T   T   T
  0.8289317356817807  0.1255361146857470  0.1118551238561432   T   T   T
  0.1624080496738825  0.3755917452242624  0.1119664718047834   T   T   T
  0.4955346490647759  0.3757081389356548  0.1120800002011299   T   T   T
  0.8287083415098411  0.3756222297431761  0.1120251795743947   T   T   T
  0.4970158017267668  0.6239155018322750  0.0590353683662484   T   T   T
  0.8302748312559534  0.6239916441626030  0.0590438516157291   T   T   T
  0.1638384560526367  0.8739145734884278  0.0589915732873180   T   T   T
  0.4970901660493808  0.8739182573762744  0.0590058654145529   T   T   T
  0.8301912392566897  0.8739564297639095  0.0590050950390038   T   T   T
  0.1636444604008760  0.6239705319154575  0.0590214972725877   T   T   T
  0.9955435390233260  0.5004706168015867  0.1388257391735846   T   T   T
  0.3298748627895997  0.5003002992262979  0.1389671952681870   T   T   T
  0.6609672390244186  0.5002916767207823  0.1390559493547565   T   T   T
  0.9956690940615394  0.7504319230360932  0.1386930738711160   T   T   T
  0.3290719599540903  0.7502828351052820  0.1387097987079539   T   T   T
  0.6621749879234720  0.7502305727724782  0.1387238208139444   T   T   T
  0.1628063295893949  0.6249880455496523  0.1650140685270733   T   T   T
  0.4954118449706977  0.6243176443784492  0.1651244682934326   T   T   T
  0.8279861229639055  0.6248636171854074  0.1650677812666480   T   T   T
  0.1622252032871468  0.8752124973172766  0.1649546948613733   T   T   T
  0.4955700597027835  0.8751722186773007  0.1649903069931203   T   T   T
  0.8287348833797968  0.8751715944425152  0.1649546320090587   T   T   T
  0.3286504069917798  0.9987625535554584  0.1915292224944769   T   T   T
  0.6619808306557737  0.9988317161778459  0.1915543491332021   T   T   T
  0.9952929277082766  0.9987044898649144  0.1914398404827968   T   T   T
  0.3288776577809675  0.7486747507626659  0.1915602526011605   T   T   T
  0.9953473976302164  0.7488346309897044  0.1915569927321075   T   T   T
  0.6618266978801109  0.7486038886343409  0.1915977333669541   T   T   T
  0.9961553181424849  0.5003690036415063  0.0856490957713543   T   T   T
  0.3296903686792785  0.5003221262841594  0.0856518426470922   T   T   T
  0.6626155214090131  0.5003308976583680  0.0856992656657231   T   T   T
  0.9959687745795077  0.7503987422517931  0.0856128822730827   T   T   T
  0.3294489112264868  0.7503116887052393  0.0856153999986596   T   T   T
  0.6626643872237115  0.7502933422749155  0.0856211356419469   T   T   T
  0.1624581461157829  0.6254897199230931  0.1119496864710166   T   T   T
  0.4955618112643772  0.6253725743404559  0.1119924952562218   T   T   T
  0.8287175389441229  0.6254129143515351  0.1119871089922064   T   T   T
  0.1623147485543751  0.8755028624474251  0.1118822251573275   T   T   T
  0.4956324877354271  0.8755073417280991  0.1118946261020248   T   T   T
  0.8286113784903768  0.8755258538262348  0.1118885714855475   T   T   T
 
  0.00000000E+00  0.00000000E+00  0.00000000E+00
  0.00000000E+00  0.00000000E+00  0.00000000E+00
  0.00000000E+00  0.00000000E+00  0.00000000E+00
  0.00000000E+00  0.00000000E+00  0.00000000E+00
  0.00000000E+00  0.00000000E+00  0.00000000E+00
  0.00000000E+00  0.00000000E+00  0.00000000E+00
  0.00000000E+00  0.00000000E+00  0.00000000E+00
  0.00000000E+00  0.00000000E+00  0.00000000E+00
  0.00000000E+00  0.00000000E+00  0.00000000E+00
  0.00000000E+00  0.00000000E+00  0.00000000E+00
  0.00000000E+00  0.00000000E+00  0.00000000E+00
  0.00000000E+00  0.00000000E+00  0.00000000E+00
  0.00000000E+00  0.00000000E+00  0.00000000E+00
  0.00000000E+00  0.00000000E+00  0.00000000E+00
  0.00000000E+00  0.00000000E+00  0.00000000E+00
  0.00000000E+00  0.00000000E+00  0.00000000E+00
  0.00000000E+00  0.00000000E+00  0.00000000E+00
  0.00000000E+00  0.00000000E+00  0.00000000E+00
  0.00000000E+00  0.00000000E+00  0.00000000E+00
  0.00000000E+00  0.00000000E+00  0.00000000E+00
  0.00000000E+00  0.00000000E+00  0.00000000E+00
  0.00000000E+00  0.00000000E+00  0.00000000E+00
  0.00000000E+00  0.00000000E+00  0.00000000E+00
  0.00000000E+00  0.00000000E+00  0.00000000E+00
  0.00000000E+00  0.00000000E+00  0.00000000E+00
  0.00000000E+00  0.00000000E+00  0.00000000E+00
  0.00000000E+00  0.00000000E+00  0.00000000E+00
  0.00000000E+00  0.00000000E+00  0.00000000E+00
  0.00000000E+00  0.00000000E+00  0.00000000E+00
  0.00000000E+00  0.00000000E+00  0.00000000E+00
  0.00000000E+00  0.00000000E+00  0.00000000E+00
  0.00000000E+00  0.00000000E+00  0.00000000E+00
  0.00000000E+00  0.00000000E+00  0.00000000E+00
  0.00000000E+00  0.00000000E+00  0.00000000E+00
  0.00000000E+00  0.00000000E+00  0.00000000E+00
  0.00000000E+00  0.00000000E+00  0.00000000E+00
  0.00000000E+00  0.00000000E+00  0.00000000E+00
  0.00000000E+00  0.00000000E+00  0.00000000E+00
  0.00000000E+00  0.00000000E+00  0.00000000E+00
  0.00000000E+00  0.00000000E+00  0.00000000E+00
  0.00000000E+00  0.00000000E+00  0.00000000E+00
  0.00000000E+00  0.00000000E+00  0.00000000E+00
  0.00000000E+00  0.00000000E+00  0.00000000E+00
  0.00000000E+00  0.00000000E+00  0.00000000E+00
  0.00000000E+00  0.00000000E+00  0.00000000E+00
  0.00000000E+00  0.00000000E+00  0.00000000E+00
  0.00000000E+00  0.00000000E+00  0.00000000E+00
  0.00000000E+00  0.00000000E+00  0.00000000E+00
  0.00000000E+00  0.00000000E+00  0.00000000E+00
  0.00000000E+00  0.00000000E+00  0.00000000E+00
  0.00000000E+00  0.00000000E+00  0.00000000E+00
  0.00000000E+00  0.00000000E+00  0.00000000E+00
  0.00000000E+00  0.00000000E+00  0.00000000E+00
  0.00000000E+00  0.00000000E+00  0.00000000E+00
  0.00000000E+00  0.00000000E+00  0.00000000E+00
  0.00000000E+00  0.00000000E+00  0.00000000E+00
  0.00000000E+00  0.00000000E+00  0.00000000E+00
  0.00000000E+00  0.00000000E+00  0.00000000E+00
  0.00000000E+00  0.00000000E+00  0.00000000E+00
  0.00000000E+00  0.00000000E+00  0.00000000E+00
  0.00000000E+00  0.00000000E+00  0.00000000E+00
  0.00000000E+00  0.00000000E+00  0.00000000E+00
  0.00000000E+00  0.00000000E+00  0.00000000E+00
  0.00000000E+00  0.00000000E+00  0.00000000E+00
  0.00000000E+00  0.00000000E+00  0.00000000E+00
  0.00000000E+00  0.00000000E+00  0.00000000E+00
  0.00000000E+00  0.00000000E+00  0.00000000E+00
  0.00000000E+00  0.00000000E+00  0.00000000E+00
  0.00000000E+00  0.00000000E+00  0.00000000E+00
  0.00000000E+00  0.00000000E+00  0.00000000E+00
  0.00000000E+00  0.00000000E+00  0.00000000E+00
  0.00000000E+00  0.00000000E+00  0.00000000E+00
  0.00000000E+00  0.00000000E+00  0.00000000E+00
  0.00000000E+00  0.00000000E+00  0.00000000E+00
  0.00000000E+00  0.00000000E+00  0.00000000E+00
  0.00000000E+00  0.00000000E+00  0.00000000E+00
  0.00000000E+00  0.00000000E+00  0.00000000E+00
  0.00000000E+00  0.00000000E+00  0.00000000E+00
  0.00000000E+00  0.00000000E+00  0.00000000E+00
  0.00000000E+00  0.00000000E+00  0.00000000E+00
  0.00000000E+00  0.00000000E+00  0.00000000E+00
  0.00000000E+00  0.00000000E+00  0.00000000E+00
  0.00000000E+00  0.00000000E+00  0.00000000E+00
  0.00000000E+00  0.00000000E+00  0.00000000E+00
  0.00000000E+00  0.00000000E+00  0.00000000E+00
  0.00000000E+00  0.00000000E+00  0.00000000E+00
  0.00000000E+00  0.00000000E+00  0.00000000E+00
  0.00000000E+00  0.00000000E+00  0.00000000E+00
  0.00000000E+00  0.00000000E+00  0.00000000E+00
  0.00000000E+00  0.00000000E+00  0.00000000E+00
  0.00000000E+00  0.00000000E+00  0.00000000E+00
  0.00000000E+00  0.00000000E+00  0.00000000E+00
  0.00000000E+00  0.00000000E+00  0.00000000E+00
  0.00000000E+00  0.00000000E+00  0.00000000E+00
  0.00000000E+00  0.00000000E+00  0.00000000E+00
  0.00000000E+00  0.00000000E+00  0.00000000E+00
  0.00000000E+00  0.00000000E+00  0.00000000E+00
  0.00000000E+00  0.00000000E+00  0.00000000E+00
  0.00000000E+00  0.00000000E+00  0.00000000E+00
  0.00000000E+00  0.00000000E+00  0.00000000E+00
  0.00000000E+00  0.00000000E+00  0.00000000E+00
  0.00000000E+00  0.00000000E+00  0.00000000E+00
  0.00000000E+00  0.00000000E+00  0.00000000E+00
  0.00000000E+00  0.00000000E+00  0.00000000E+00
  0.00000000E+00  0.00000000E+00  0.00000000E+00
  0.00000000E+00  0.00000000E+00  0.00000000E+00
  0.00000000E+00  0.00000000E+00  0.00000000E+00
  0.00000000E+00  0.00000000E+00  0.00000000E+00
  0.00000000E+00  0.00000000E+00  0.00000000E+00
  0.00000000E+00  0.00000000E+00  0.00000000E+00
  0.00000000E+00  0.00000000E+00  0.00000000E+00
  0.00000000E+00  0.00000000E+00  0.00000000E+00
  0.00000000E+00  0.00000000E+00  0.00000000E+00
  0.00000000E+00  0.00000000E+00  0.00000000E+00
  0.00000000E+00  0.00000000E+00  0.00000000E+00
  0.00000000E+00  0.00000000E+00  0.00000000E+00
  0.00000000E+00  0.00000000E+00  0.00000000E+00
  0.00000000E+00  0.00000000E+00  0.00000000E+00
  0.00000000E+00  0.00000000E+00  0.00000000E+00
  0.00000000E+00  0.00000000E+00  0.00000000E+00
  0.00000000E+00  0.00000000E+00  0.00000000E+00
  0.00000000E+00  0.00000000E+00  0.00000000E+00
  0.00000000E+00  0.00000000E+00  0.00000000E+00
  0.00000000E+00  0.00000000E+00  0.00000000E+00
  0.00000000E+00  0.00000000E+00  0.00000000E+00
  0.00000000E+00  0.00000000E+00  0.00000000E+00
  0.00000000E+00  0.00000000E+00  0.00000000E+00
  0.00000000E+00  0.00000000E+00  0.00000000E+00
  0.00000000E+00  0.00000000E+00  0.00000000E+00
  0.00000000E+00  0.00000000E+00  0.00000000E+00
  0.00000000E+00  0.00000000E+00  0.00000000E+00
  0.00000000E+00  0.00000000E+00  0.00000000E+00
  0.00000000E+00  0.00000000E+00  0.00000000E+00
  0.00000000E+00  0.00000000E+00  0.00000000E+00
  0.00000000E+00  0.00000000E+00  0.00000000E+00
  0.00000000E+00  0.00000000E+00  0.00000000E+00
  0.00000000E+00  0.00000000E+00  0.00000000E+00
  0.00000000E+00  0.00000000E+00  0.00000000E+00
  0.00000000E+00  0.00000000E+00  0.00000000E+00
  0.00000000E+00  0.00000000E+00  0.00000000E+00
  0.00000000E+00  0.00000000E+00  0.00000000E+00
  0.00000000E+00  0.00000000E+00  0.00000000E+00
  0.00000000E+00  0.00000000E+00  0.00000000E+00
  0.00000000E+00  0.00000000E+00  0.00000000E+00
  0.00000000E+00  0.00000000E+00  0.00000000E+00
  0.00000000E+00  0.00000000E+00  0.00000000E+00
  0.00000000E+00  0.00000000E+00  0.00000000E+00
  0.00000000E+00  0.00000000E+00  0.00000000E+00
  0.00000000E+00  0.00000000E+00  0.00000000E+00
  0.00000000E+00  0.00000000E+00  0.00000000E+00
  0.00000000E+00  0.00000000E+00  0.00000000E+00
  0.00000000E+00  0.00000000E+00  0.00000000E+00
  0.00000000E+00  0.00000000E+00  0.00000000E+00
  0.00000000E+00  0.00000000E+00  0.00000000E+00
  0.00000000E+00  0.00000000E+00  0.00000000E+00
  0.00000000E+00  0.00000000E+00  0.00000000E+00
  0.00000000E+00  0.00000000E+00  0.00000000E+00
  0.00000000E+00  0.00000000E+00  0.00000000E+00
  0.00000000E+00  0.00000000E+00  0.00000000E+00
  0.00000000E+00  0.00000000E+00  0.00000000E+00
  0.00000000E+00  0.00000000E+00  0.00000000E+00
  0.00000000E+00  0.00000000E+00  0.00000000E+00
  0.00000000E+00  0.00000000E+00  0.00000000E+00
  0.00000000E+00  0.00000000E+00  0.00000000E+00
  0.00000000E+00  0.00000000E+00  0.00000000E+00
  0.00000000E+00  0.00000000E+00  0.00000000E+00
  0.00000000E+00  0.00000000E+00  0.00000000E+00
  0.00000000E+00  0.00000000E+00  0.00000000E+00
  0.00000000E+00  0.00000000E+00  0.00000000E+00
  0.00000000E+00  0.00000000E+00  0.00000000E+00
  0.00000000E+00  0.00000000E+00  0.00000000E+00
  0.00000000E+00  0.00000000E+00  0.00000000E+00
  0.00000000E+00  0.00000000E+00  0.00000000E+00
  0.00000000E+00  0.00000000E+00  0.00000000E+00
  0.00000000E+00  0.00000000E+00  0.00000000E+00
  0.00000000E+00  0.00000000E+00  0.00000000E+00
  0.00000000E+00  0.00000000E+00  0.00000000E+00
  0.00000000E+00  0.00000000E+00  0.00000000E+00
  0.00000000E+00  0.00000000E+00  0.00000000E+00
  0.00000000E+00  0.00000000E+00  0.00000000E+00
  0.00000000E+00  0.00000000E+00  0.00000000E+00
  0.00000000E+00  0.00000000E+00  0.00000000E+00
  0.00000000E+00  0.00000000E+00  0.00000000E+00
  0.00000000E+00  0.00000000E+00  0.00000000E+00
  0.00000000E+00  0.00000000E+00  0.00000000E+00
  0.00000000E+00  0.00000000E+00  0.00000000E+00
  0.00000000E+00  0.00000000E+00  0.00000000E+00
  0.00000000E+00  0.00000000E+00  0.00000000E+00
  0.00000000E+00  0.00000000E+00  0.00000000E+00
  0.00000000E+00  0.00000000E+00  0.00000000E+00
  0.00000000E+00  0.00000000E+00  0.00000000E+00
  0.00000000E+00  0.00000000E+00  0.00000000E+00
  0.00000000E+00  0.00000000E+00  0.00000000E+00
  0.00000000E+00  0.00000000E+00  0.00000000E+00
  0.00000000E+00  0.00000000E+00  0.00000000E+00
  0.00000000E+00  0.00000000E+00  0.00000000E+00
  0.00000000E+00  0.00000000E+00  0.00000000E+00
  0.00000000E+00  0.00000000E+00  0.00000000E+00
  0.00000000E+00  0.00000000E+00  0.00000000E+00
  0.00000000E+00  0.00000000E+00  0.00000000E+00
  0.00000000E+00  0.00000000E+00  0.00000000E+00
  0.00000000E+00  0.00000000E+00  0.00000000E+00
  0.00000000E+00  0.00000000E+00  0.00000000E+00
  0.00000000E+00  0.00000000E+00  0.00000000E+00
  0.00000000E+00  0.00000000E+00  0.00000000E+00
  0.00000000E+00  0.00000000E+00  0.00000000E+00
  0.00000000E+00  0.00000000E+00  0.00000000E+00
  0.00000000E+00  0.00000000E+00  0.00000000E+00
  0.00000000E+00  0.00000000E+00  0.00000000E+00
  0.00000000E+00  0.00000000E+00  0.00000000E+00
  0.00000000E+00  0.00000000E+00  0.00000000E+00
  0.00000000E+00  0.00000000E+00  0.00000000E+00
  0.00000000E+00  0.00000000E+00  0.00000000E+00
  0.00000000E+00  0.00000000E+00  0.00000000E+00
  0.00000000E+00  0.00000000E+00  0.00000000E+00
  0.00000000E+00  0.00000000E+00  0.00000000E+00
  0.00000000E+00  0.00000000E+00  0.00000000E+00
  0.00000000E+00  0.00000000E+00  0.00000000E+00
  0.00000000E+00  0.00000000E+00  0.00000000E+00
  0.00000000E+00  0.00000000E+00  0.00000000E+00
  0.00000000E+00  0.00000000E+00  0.00000000E+00
  0.00000000E+00  0.00000000E+00  0.00000000E+00
  0.00000000E+00  0.00000000E+00  0.00000000E+00
  0.00000000E+00  0.00000000E+00  0.00000000E+00
  0.00000000E+00  0.00000000E+00  0.00000000E+00
  0.00000000E+00  0.00000000E+00  0.00000000E+00
  0.00000000E+00  0.00000000E+00  0.00000000E+00
  0.00000000E+00  0.00000000E+00  0.00000000E+00
  0.00000000E+00  0.00000000E+00  0.00000000E+00
