C H O Si                                
   1.00000000000000     
     9.2874599999999994    0.0000000000000000    0.0000000000000000
     0.0000000000000000    8.7563099999999991    0.0000000000000000
     0.0000000000000000    0.0000000000000000   58.0000000000000000
   C    H    O    Si
    36    32    16    36
Selective dynamics
Direct
  0.9933627403283045  0.1260940244671682  0.0604303725651681   T   T   T
  0.3266819065403124  0.1260980953880853  0.0605268692262009   T   T   T
  0.6599184851468259  0.1261503782331142  0.0604888272509670   T   T   T
  0.9932957597418727  0.6262567018482489  0.0604364452538668   T   T   T
  0.3266891381224802  0.6259730308690716  0.0605567292636099   T   T   T
  0.6599415454681373  0.6261612587820258  0.0604721446545960   T   T   T
  0.1603116523014448  0.3715462043140672  0.1393364555857940   T   T   T
  0.4934832957103473  0.3719668570916976  0.1395863819538492   T   T   T
  0.8267979544738316  0.3714760245639546  0.1392782410747098   T   T   T
  0.1605292401738173  0.8715920654702458  0.1393964388590619   T   T   T
  0.4934857605501125  0.8713316378545644  0.1394560151289973   T   T   T
  0.8266592344820120  0.8716985785597094  0.1393660565953149   T   T   T
  0.3278740148513566  0.1222170088672403  0.1666349932509197   T   T   T
  0.6599976683303931  0.1221909822903725  0.1666166299849819   T   T   T
  0.9941645575841608  0.1211176544077655  0.1663272468826995   T   T   T
  0.3270933131263859  0.6216692847471044  0.1667895084957864   T   T   T
  0.6608839362720190  0.6219067234321676  0.1665031331769576   T   T   T
  0.9940529459997818  0.6217187251679027  0.1664368072695186   T   T   T
  0.1614599885384150  0.3744262811166777  0.1916626102189689   T   T   T
  0.4947184865573930  0.3798069620126086  0.1926615851184919   T   T   T
  0.8287242834391972  0.3738307664336322  0.1914728108516181   T   T   T
  0.1607839101766299  0.8767714436657464  0.1918966747225953   T   T   T
  0.4943222361240062  0.8758630877498467  0.1920517973805766   T   T   T
  0.8277597634069275  0.8767331698410057  0.1918255297769143   T   T   T
  0.1598102877829852  0.3718797365404959  0.0858269952315447   T   T   T
  0.4931267517759925  0.3717592949093139  0.0859653775407398   T   T   T
  0.8263937021615895  0.3718559389535036  0.0857827342353193   T   T   T
  0.1598941295092393  0.8718287613170932  0.0858583112032135   T   T   T
  0.4931072879102816  0.8717037980202262  0.0859122584485985   T   T   T
  0.8263664674378811  0.8718910592830245  0.0858290535581901   T   T   T
  0.3266447897142929  0.1216201486162437  0.1130428304006570   T   T   T
  0.6597975649512956  0.1215703052344918  0.1130241670134214   T   T   T
  0.9932319818199935  0.1214972567511051  0.1129216589901054   T   T   T
  0.3265713895273495  0.6214686352406255  0.1130848085109318   T   T   T
  0.6598752822747844  0.6215160564228758  0.1129895938418152   T   T   T
  0.9931794566365070  0.6216817564712904  0.1129461852069309   T   T   T
  0.0796043213684599  0.3540888697636088  0.0263758595200241   T   T   T
  0.4113261200555655  0.3540586128283408  0.0265656113918929   T   T   T
  0.7448213885344211  0.3538859703807574  0.0264313373751361   T   T   T
  0.0799827369007290  0.8541335768454955  0.0263910922928439   T   T   T
  0.4110365803443238  0.8538232962255030  0.0265534201702933   T   T   T
  0.7445844094775865  0.8540142658622241  0.0264506029499230   T   T   T
  0.3242721132019367  0.0538747840803136  0.0449792192402185   T   T   T
  0.6569327262781970  0.0539049186628872  0.0449461337636384   T   T   T
  0.9907654759240099  0.0540332155251515  0.0448682003700456   T   T   T
  0.3241098447599128  0.5536587517917365  0.0450220893264485   T   T   T
  0.6571583472151742  0.5539751936505209  0.0449237143313466   T   T   T
  0.9906999185578363  0.5541539028892136  0.0448758596904549   T   T   T
  0.8295340915189110  0.8050939194589668  0.2074079625425013   T   T   T
  0.8306864902610005  0.3018904762457731  0.2070440301201545   T   T   T
  0.1622177163573098  0.3023500311767287  0.2072217259285131   T   T   T
  0.4980400957037134  0.3064657634633982  0.2080876260414230   T   T   T
  0.1628899769210893  0.8041313458496532  0.2073942658476751   T   T   T
  0.4943733363599677  0.8042008891670553  0.2076691377552010   T   T   T
  0.0759802605725677  0.1043904191574418  0.2258629493213739   T   T   T
  0.4101687892931598  0.1025830523839241  0.2261155228572882   T   T   T
  0.7447770930575643  0.1039350495602624  0.2259016433293342   T   T   T
  0.0812754636058205  0.5997120063463514  0.2249109089756862   T   T   T
  0.3737233733915559  0.6166599799371986  0.2304475695208636   T   T   T
  0.7789565276703390  0.5919496242460431  0.2234437927884338   T   T   T
  0.5126549693123915  0.6366384590004956  0.2647108573738777   T   T   T
  0.5058598437829500  0.4778782421543151  0.2936062913765906   T   T   T
  0.5779757966925055  0.6313439190070442  0.3024893791208658   T   T   T
  0.3052644765454287  0.3746011829442983  0.3100762146447706   T   T   T
  0.4092346506487187  0.2430176286910638  0.3034141666877012   T   T   T
  0.6496471433456918  0.7421188760657393  0.3370074365023478   T   T   T
  0.4858804234878530  0.7652677839246886  0.3330111100785383   T   T   T
  0.5697147798661657  0.6564660922905078  0.2393234910775007   T   T   T
  0.1708385078900194  0.3351153493772624  0.0342247569887444   T   T   T
  0.5030233019272707  0.3359761861233670  0.0343415115454498   T   T   T
  0.8364903914813955  0.3350822611444070  0.0341702410135111   T   T   T
  0.1711363713116409  0.8351021130076017  0.0342572955067905   T   T   T
  0.5028479022051552  0.8356895798672055  0.0342952711732115   T   T   T
  0.8362427031549339  0.8355485327725374  0.0342151794830564   T   T   T
  0.3186325909435092  0.0861348009348787  0.2182111837097586   T   T   T
  0.6527180734596585  0.0863191750088566  0.2181998387766168   T   T   T
  0.9844656112479946  0.0867059076366233  0.2180138633816701   T   T   T
  0.3007255037767722  0.5872870064968981  0.2183170521542909   T   T   T
  0.6786768494800117  0.5878710307000498  0.2179183080569082   T   T   T
  0.9860566900383959  0.5821941397450314  0.2180059986437927   T   T   T
  0.5764535749163808  0.5584779001277531  0.2893339823302721   T   T   T
  0.3707620794068598  0.3402432046048940  0.2980137542333946   T   T   T
  0.5786636442425056  0.7658369106282865  0.3251519047377030   T   T   T
  0.4877056742609883  0.6840670687492200  0.2494418933938314   T   T   T
  0.4933648783333440  0.2437841605648580  0.0596934835494342   T   T   T
  0.8267385674109179  0.2436038765306775  0.0595694019301667   T   T   T
  0.1602594861422261  0.7435700928931919  0.0596467000398753   T   T   T
  0.4933311215181102  0.7436853322245518  0.0596616007438616   T   T   T
  0.8266642337797626  0.7437807495286732  0.0595917705359587   T   T   T
  0.1601949069233290  0.2436209398954282  0.0596176127100684   T   T   T
  0.9936586696786094  0.9965817756938609  0.1395765726053945   T   T   T
  0.3272393799514482  0.9971981440702669  0.1397510105718060   T   T   T
  0.6597659100513682  0.9971032952295424  0.1397304883054336   T   T   T
  0.9935844887191303  0.4968451710698494  0.1395886405362957   T   T   T
  0.3267821983162614  0.4972081711368915  0.1398582129892410   T   T   T
  0.6602336547231117  0.4970113448132596  0.1396619930704899   T   T   T
  0.1607735081686837  0.2458645821816015  0.1659360720701199   T   T   T
  0.4938605071423005  0.2483673510194141  0.1664682533915794   T   T   T
  0.8276056129249980  0.2452110333893565  0.1658053791987096   T   T   T
  0.1607389150431446  0.7466199350611499  0.1661052640846486   T   T   T
  0.4936860129570083  0.7462031509378133  0.1661778975102899   T   T   T
  0.8274379011482971  0.7466723325089124  0.1660357375733802   T   T   T
  0.3275480194042865  0.9939611573044165  0.1928625881529449   T   T   T
  0.6609829453933934  0.9939383163131185  0.1928626218462796   T   T   T
  0.9941980808582280  0.9942070420795955  0.1926745064108384   T   T   T
  0.3256472769955639  0.4959289048752265  0.1935068877334117   T   T   T
  0.9949775115735645  0.4916067794432527  0.1924140995782996   T   T   T
  0.6640383379273027  0.4936469584536900  0.1926270790076498   T   T   T
  0.9931810714944631  0.9964095970811505  0.0862627232064502   T   T   T
  0.3265703194638177  0.9964474481107906  0.0863582819885523   T   T   T
  0.6596753271567527  0.9964792798501475  0.0863376344051354   T   T   T
  0.9931144824529851  0.4965113489352290  0.0862666732190474   T   T   T
  0.3265326367720449  0.4963912769183757  0.0863979404151612   T   T   T
  0.6597519598580346  0.4964825496482858  0.0863129115850461   T   T   T
  0.1599662029034358  0.2470133300717792  0.1126799307103938   T   T   T
  0.4932379791227627  0.2470938759969367  0.1128508776710474   T   T   T
  0.8265697096716669  0.2469120468187097  0.1126296908972441   T   T   T
  0.1600813065601907  0.7469855121620236  0.1127261054215496   T   T   T
  0.4932300177713033  0.7468606943732958  0.1127661831876044   T   T   T
  0.8264772434995379  0.7470717758978659  0.1126892815793481   T   T   T
 
  0.00000000E+00  0.00000000E+00  0.00000000E+00
  0.00000000E+00  0.00000000E+00  0.00000000E+00
  0.00000000E+00  0.00000000E+00  0.00000000E+00
  0.00000000E+00  0.00000000E+00  0.00000000E+00
  0.00000000E+00  0.00000000E+00  0.00000000E+00
  0.00000000E+00  0.00000000E+00  0.00000000E+00
  0.00000000E+00  0.00000000E+00  0.00000000E+00
  0.00000000E+00  0.00000000E+00  0.00000000E+00
  0.00000000E+00  0.00000000E+00  0.00000000E+00
  0.00000000E+00  0.00000000E+00  0.00000000E+00
  0.00000000E+00  0.00000000E+00  0.00000000E+00
  0.00000000E+00  0.00000000E+00  0.00000000E+00
  0.00000000E+00  0.00000000E+00  0.00000000E+00
  0.00000000E+00  0.00000000E+00  0.00000000E+00
  0.00000000E+00  0.00000000E+00  0.00000000E+00
  0.00000000E+00  0.00000000E+00  0.00000000E+00
  0.00000000E+00  0.00000000E+00  0.00000000E+00
  0.00000000E+00  0.00000000E+00  0.00000000E+00
  0.00000000E+00  0.00000000E+00  0.00000000E+00
  0.00000000E+00  0.00000000E+00  0.00000000E+00
  0.00000000E+00  0.00000000E+00  0.00000000E+00
  0.00000000E+00  0.00000000E+00  0.00000000E+00
  0.00000000E+00  0.00000000E+00  0.00000000E+00
  0.00000000E+00  0.00000000E+00  0.00000000E+00
  0.00000000E+00  0.00000000E+00  0.00000000E+00
  0.00000000E+00  0.00000000E+00  0.00000000E+00
  0.00000000E+00  0.00000000E+00  0.00000000E+00
  0.00000000E+00  0.00000000E+00  0.00000000E+00
  0.00000000E+00  0.00000000E+00  0.00000000E+00
  0.00000000E+00  0.00000000E+00  0.00000000E+00
  0.00000000E+00  0.00000000E+00  0.00000000E+00
  0.00000000E+00  0.00000000E+00  0.00000000E+00
  0.00000000E+00  0.00000000E+00  0.00000000E+00
  0.00000000E+00  0.00000000E+00  0.00000000E+00
  0.00000000E+00  0.00000000E+00  0.00000000E+00
  0.00000000E+00  0.00000000E+00  0.00000000E+00
  0.00000000E+00  0.00000000E+00  0.00000000E+00
  0.00000000E+00  0.00000000E+00  0.00000000E+00
  0.00000000E+00  0.00000000E+00  0.00000000E+00
  0.00000000E+00  0.00000000E+00  0.00000000E+00
  0.00000000E+00  0.00000000E+00  0.00000000E+00
  0.00000000E+00  0.00000000E+00  0.00000000E+00
  0.00000000E+00  0.00000000E+00  0.00000000E+00
  0.00000000E+00  0.00000000E+00  0.00000000E+00
  0.00000000E+00  0.00000000E+00  0.00000000E+00
  0.00000000E+00  0.00000000E+00  0.00000000E+00
  0.00000000E+00  0.00000000E+00  0.00000000E+00
  0.00000000E+00  0.00000000E+00  0.00000000E+00
  0.00000000E+00  0.00000000E+00  0.00000000E+00
  0.00000000E+00  0.00000000E+00  0.00000000E+00
  0.00000000E+00  0.00000000E+00  0.00000000E+00
  0.00000000E+00  0.00000000E+00  0.00000000E+00
  0.00000000E+00  0.00000000E+00  0.00000000E+00
  0.00000000E+00  0.00000000E+00  0.00000000E+00
  0.00000000E+00  0.00000000E+00  0.00000000E+00
  0.00000000E+00  0.00000000E+00  0.00000000E+00
  0.00000000E+00  0.00000000E+00  0.00000000E+00
  0.00000000E+00  0.00000000E+00  0.00000000E+00
  0.00000000E+00  0.00000000E+00  0.00000000E+00
  0.00000000E+00  0.00000000E+00  0.00000000E+00
  0.00000000E+00  0.00000000E+00  0.00000000E+00
  0.00000000E+00  0.00000000E+00  0.00000000E+00
  0.00000000E+00  0.00000000E+00  0.00000000E+00
  0.00000000E+00  0.00000000E+00  0.00000000E+00
  0.00000000E+00  0.00000000E+00  0.00000000E+00
  0.00000000E+00  0.00000000E+00  0.00000000E+00
  0.00000000E+00  0.00000000E+00  0.00000000E+00
  0.00000000E+00  0.00000000E+00  0.00000000E+00
  0.00000000E+00  0.00000000E+00  0.00000000E+00
  0.00000000E+00  0.00000000E+00  0.00000000E+00
  0.00000000E+00  0.00000000E+00  0.00000000E+00
  0.00000000E+00  0.00000000E+00  0.00000000E+00
  0.00000000E+00  0.00000000E+00  0.00000000E+00
  0.00000000E+00  0.00000000E+00  0.00000000E+00
  0.00000000E+00  0.00000000E+00  0.00000000E+00
  0.00000000E+00  0.00000000E+00  0.00000000E+00
  0.00000000E+00  0.00000000E+00  0.00000000E+00
  0.00000000E+00  0.00000000E+00  0.00000000E+00
  0.00000000E+00  0.00000000E+00  0.00000000E+00
  0.00000000E+00  0.00000000E+00  0.00000000E+00
  0.00000000E+00  0.00000000E+00  0.00000000E+00
  0.00000000E+00  0.00000000E+00  0.00000000E+00
  0.00000000E+00  0.00000000E+00  0.00000000E+00
  0.00000000E+00  0.00000000E+00  0.00000000E+00
  0.00000000E+00  0.00000000E+00  0.00000000E+00
  0.00000000E+00  0.00000000E+00  0.00000000E+00
  0.00000000E+00  0.00000000E+00  0.00000000E+00
  0.00000000E+00  0.00000000E+00  0.00000000E+00
  0.00000000E+00  0.00000000E+00  0.00000000E+00
  0.00000000E+00  0.00000000E+00  0.00000000E+00
  0.00000000E+00  0.00000000E+00  0.00000000E+00
  0.00000000E+00  0.00000000E+00  0.00000000E+00
  0.00000000E+00  0.00000000E+00  0.00000000E+00
  0.00000000E+00  0.00000000E+00  0.00000000E+00
  0.00000000E+00  0.00000000E+00  0.00000000E+00
  0.00000000E+00  0.00000000E+00  0.00000000E+00
  0.00000000E+00  0.00000000E+00  0.00000000E+00
  0.00000000E+00  0.00000000E+00  0.00000000E+00
  0.00000000E+00  0.00000000E+00  0.00000000E+00
  0.00000000E+00  0.00000000E+00  0.00000000E+00
  0.00000000E+00  0.00000000E+00  0.00000000E+00
  0.00000000E+00  0.00000000E+00  0.00000000E+00
  0.00000000E+00  0.00000000E+00  0.00000000E+00
  0.00000000E+00  0.00000000E+00  0.00000000E+00
  0.00000000E+00  0.00000000E+00  0.00000000E+00
  0.00000000E+00  0.00000000E+00  0.00000000E+00
  0.00000000E+00  0.00000000E+00  0.00000000E+00
  0.00000000E+00  0.00000000E+00  0.00000000E+00
  0.00000000E+00  0.00000000E+00  0.00000000E+00
  0.00000000E+00  0.00000000E+00  0.00000000E+00
  0.00000000E+00  0.00000000E+00  0.00000000E+00
  0.00000000E+00  0.00000000E+00  0.00000000E+00
  0.00000000E+00  0.00000000E+00  0.00000000E+00
  0.00000000E+00  0.00000000E+00  0.00000000E+00
  0.00000000E+00  0.00000000E+00  0.00000000E+00
  0.00000000E+00  0.00000000E+00  0.00000000E+00
  0.00000000E+00  0.00000000E+00  0.00000000E+00
  0.00000000E+00  0.00000000E+00  0.00000000E+00
  0.00000000E+00  0.00000000E+00  0.00000000E+00
  0.00000000E+00  0.00000000E+00  0.00000000E+00
