C H O Si                                
   1.00000000000000     
     9.2874599999999994    0.0000000000000000    0.0000000000000000
     0.0000000000000000    8.7563099999999991    0.0000000000000000
     0.0000000000000000    0.0000000000000000   58.0000000000000000
   C    H    O    Si
    36    32    16    36
Selective dynamics
Direct
  0.9931072998721436  0.1262334386788524  0.0604289360301554   T   T   T
  0.3265530052829887  0.1261708067194376  0.0605196608554472   T   T   T
  0.6596563480109954  0.1262242933551190  0.0604706351176435   T   T   T
  0.9930053938222559  0.6263718594318679  0.0604257956193344   T   T   T
  0.3265386817574213  0.6260313005139717  0.0605486316558017   T   T   T
  0.6597002111639154  0.6262621574463714  0.0604588779757677   T   T   T
  0.1603165592376434  0.3714282237565094  0.1393299743022564   T   T   T
  0.4935182626077844  0.3718505859177412  0.1395791816975432   T   T   T
  0.8268977750809609  0.3713461426051838  0.1392447149232534   T   T   T
  0.1604566196046857  0.8716085102230315  0.1393802383523199   T   T   T
  0.4934825684738562  0.8713060402583428  0.1394572243913496   T   T   T
  0.8266852338088572  0.8717011283233667  0.1393548543205237   T   T   T
  0.3279014757061913  0.1220876925161348  0.1666279565106635   T   T   T
  0.6598966599984030  0.1219882420207797  0.1665938132457042   T   T   T
  0.9941120502460402  0.1211613916528773  0.1662993113661614   T   T   T
  0.3271106702626835  0.6216943968893945  0.1667525911255841   T   T   T
  0.6607733072867444  0.6217733751608748  0.1664917560620454   T   T   T
  0.9939046180855252  0.6216324435632827  0.1664099661712743   T   T   T
  0.1612603313522084  0.3743506187333988  0.1916748040611150   T   T   T
  0.4947295826200322  0.3797727342717541  0.1926783455831576   T   T   T
  0.8285900473619677  0.3738813336109811  0.1915062586752917   T   T   T
  0.1606953171680900  0.8766825445396604  0.1918942531290692   T   T   T
  0.4941879070094561  0.8758733497317649  0.1920578616489556   T   T   T
  0.8277533366537563  0.8766098627038401  0.1918376249499650   T   T   T
  0.1597072858216585  0.3717197666092192  0.0858492798635046   T   T   T
  0.4931435353448107  0.3716858619599577  0.0859476008174070   T   T   T
  0.8263771439270411  0.3717494093987062  0.0858002316545532   T   T   T
  0.1597891585481856  0.8716697118625408  0.0858842056248076   T   T   T
  0.4931205033513817  0.8715931835979522  0.0859124002313110   T   T   T
  0.8263525617337658  0.8717487024675092  0.0858485310268751   T   T   T
  0.3264791460856858  0.1215630375516767  0.1130352470858940   T   T   T
  0.6596452339473435  0.1215517650086577  0.1130211889179354   T   T   T
  0.9931183069448632  0.1215787370508717  0.1129379941059060   T   T   T
  0.3263630874787578  0.6214138966986379  0.1130876615742347   T   T   T
  0.6597362283154218  0.6215387038582350  0.1129933747186497   T   T   T
  0.9930827296101620  0.6217078233179363  0.1129603716677577   T   T   T
  0.0796608130527334  0.3538769007181413  0.0264569530465442   T   T   T
  0.4113438198238628  0.3539056791708597  0.0266268321362486   T   T   T
  0.7447930624471829  0.3537283293563197  0.0264939380332752   T   T   T
  0.0800718818416664  0.8539013517615108  0.0264764658965229   T   T   T
  0.4110426713780154  0.8536828415795382  0.0266093361181963   T   T   T
  0.7445340827785945  0.8538954263947506  0.0265027706579214   T   T   T
  0.3242989259628888  0.0539141062062724  0.0449803688719528   T   T   T
  0.6569069459864681  0.0538811465323953  0.0449417729330641   T   T   T
  0.9908012362937132  0.0541146129869781  0.0448717880411128   T   T   T
  0.3241376667385760  0.5536903766053906  0.0450211744988856   T   T   T
  0.6571576717020351  0.5539760150656708  0.0449239133005832   T   T   T
  0.9907291647045253  0.5541762977450377  0.0448737020304305   T   T   T
  0.8294072615843578  0.8050378352527152  0.2074280954166448   T   T   T
  0.8307001268251811  0.3017637978622790  0.2070604719390513   T   T   T
  0.1621720414852976  0.3022328737236222  0.2072287638298816   T   T   T
  0.4980405260443984  0.3064626099413844  0.2081064622613281   T   T   T
  0.1628397576886094  0.8041548393847786  0.2074021836135906   T   T   T
  0.4943117203792297  0.8042489768298073  0.2076725388275483   T   T   T
  0.0760385943917648  0.1045974779681894  0.2258766387862788   T   T   T
  0.4103359037716378  0.1028226176440461  0.2261421487836024   T   T   T
  0.7449748013491405  0.1042404114396610  0.2259427459064523   T   T   T
  0.0814307540466912  0.5997697540569916  0.2249348508821206   T   T   T
  0.3738781878831833  0.6168100946219954  0.2305061946588062   T   T   T
  0.7789265086602396  0.5919119651908404  0.2234031356428520   T   T   T
  0.5129187914125756  0.6365065594397902  0.2647226474945350   T   T   T
  0.5063724921061019  0.4781361386152110  0.2936124448361325   T   T   T
  0.5782785565076993  0.6313187858548532  0.3024837971280489   T   T   T
  0.3054221947122838  0.3747376684247898  0.3100816117456345   T   T   T
  0.4091457862673153  0.2432425460241603  0.3034045700983647   T   T   T
  0.6494666911845848  0.7422139360933709  0.3370170906431779   T   T   T
  0.4859471878290046  0.7651426473649731  0.3330201747809589   T   T   T
  0.5697049386329880  0.6564978795928467  0.2393028176711603   T   T   T
  0.1713655045505194  0.3350399502933394  0.0341884058732987   T   T   T
  0.5034210833481370  0.3361191832129808  0.0343105155815243   T   T   T
  0.8368877942516096  0.3350445954488416  0.0341452581985282   T   T   T
  0.1716448579191018  0.8349317138499608  0.0342457197266955   T   T   T
  0.5032557641315722  0.8357613371895247  0.0342713348589285   T   T   T
  0.8365808007261325  0.8355628373861890  0.0341797880388887   T   T   T
  0.3190361530096073  0.0859650063273530  0.2182155238707203   T   T   T
  0.6531790435886702  0.0862787892277333  0.2182010500481156   T   T   T
  0.9848615072928132  0.0864559905818741  0.2179469553133823   T   T   T
  0.3013525840370151  0.5872103164563333  0.2183109166439700   T   T   T
  0.6785235905671995  0.5878485812720314  0.2179256352515070   T   T   T
  0.9863646127300995  0.5821451376564302  0.2179844476872382   T   T   T
  0.5768435476291062  0.5586883356630571  0.2893053916970877   T   T   T
  0.3706639738670686  0.3403422206918049  0.2979773150764382   T   T   T
  0.5786476834850974  0.7657042541205005  0.3251325854262945   T   T   T
  0.4879351038453285  0.6840324071309317  0.2494691385906762   T   T   T
  0.4931921298211840  0.2438247484650757  0.0596567497709342   T   T   T
  0.8264929730396355  0.2436875397414512  0.0595546360818984   T   T   T
  0.1600896975566719  0.7435654802446062  0.0596377214041812   T   T   T
  0.4931656488385587  0.7437343486400455  0.0596309913791737   T   T   T
  0.8264026328611854  0.7438959164452059  0.0595665126759323   T   T   T
  0.1600544668284722  0.2436430811883221  0.0595985138198202   T   T   T
  0.9936617531696644  0.9967352218612773  0.1395547973660043   T   T   T
  0.3272078607902428  0.9972509075409717  0.1397227852883799   T   T   T
  0.6597675980726562  0.9971960144317588  0.1397087968462218   T   T   T
  0.9936344574991187  0.4968497994318335  0.1395596536996814   T   T   T
  0.3267667906295538  0.4972849969261318  0.1398356368200302   T   T   T
  0.6603014283744163  0.4970083919469273  0.1396410703900524   T   T   T
  0.1607475139270029  0.2459430641740142  0.1659356118006507   T   T   T
  0.4937661899905187  0.2484356318254689  0.1664681932489356   T   T   T
  0.8274089632565675  0.2453279762411816  0.1657923040530310   T   T   T
  0.1605899949096639  0.7467298899715273  0.1660845852959308   T   T   T
  0.4936342046053610  0.7463566386518055  0.1661703279012973   T   T   T
  0.8273004318267559  0.7467594537498785  0.1660287127431118   T   T   T
  0.3274662109019295  0.9938675642542084  0.1928691708173043   T   T   T
  0.6609800968599805  0.9938086347961916  0.1928700378486051   T   T   T
  0.9942634972345433  0.9941030155784698  0.1926309190273086   T   T   T
  0.3256439468763791  0.4958803998792826  0.1934974110765078   T   T   T
  0.9949136237033741  0.4915564270978767  0.1924063346906499   T   T   T
  0.6639558896179735  0.4936472926168075  0.1926303986609129   T   T   T
  0.9931546795388765  0.9965202043858450  0.0862989855647644   T   T   T
  0.3265977940952921  0.9964720392580646  0.0863723588580121   T   T   T
  0.6597245547218158  0.9965768121163047  0.0863422239661251   T   T   T
  0.9931118188444147  0.4966164663110471  0.0862894488105507   T   T   T
  0.3265173067489275  0.4964533970990139  0.0864059095573263   T   T   T
  0.6597742662542195  0.4966086011603181  0.0863257393757625   T   T   T
  0.1597098642312292  0.2470018769881778  0.1126960677222554   T   T   T
  0.4929684805778030  0.2471393149076840  0.1128471867359758   T   T   T
  0.8262965918348553  0.2469306868969192  0.1126306742858677   T   T   T
  0.1598184931048244  0.7470322959113347  0.1127462831550504   T   T   T
  0.4928962776461927  0.7469095374085518  0.1127807948473359   T   T   T
  0.8261993586909093  0.7470603984109998  0.1127103615592737   T   T   T
 
  0.00000000E+00  0.00000000E+00  0.00000000E+00
  0.00000000E+00  0.00000000E+00  0.00000000E+00
  0.00000000E+00  0.00000000E+00  0.00000000E+00
  0.00000000E+00  0.00000000E+00  0.00000000E+00
  0.00000000E+00  0.00000000E+00  0.00000000E+00
  0.00000000E+00  0.00000000E+00  0.00000000E+00
  0.00000000E+00  0.00000000E+00  0.00000000E+00
  0.00000000E+00  0.00000000E+00  0.00000000E+00
  0.00000000E+00  0.00000000E+00  0.00000000E+00
  0.00000000E+00  0.00000000E+00  0.00000000E+00
  0.00000000E+00  0.00000000E+00  0.00000000E+00
  0.00000000E+00  0.00000000E+00  0.00000000E+00
  0.00000000E+00  0.00000000E+00  0.00000000E+00
  0.00000000E+00  0.00000000E+00  0.00000000E+00
  0.00000000E+00  0.00000000E+00  0.00000000E+00
  0.00000000E+00  0.00000000E+00  0.00000000E+00
  0.00000000E+00  0.00000000E+00  0.00000000E+00
  0.00000000E+00  0.00000000E+00  0.00000000E+00
  0.00000000E+00  0.00000000E+00  0.00000000E+00
  0.00000000E+00  0.00000000E+00  0.00000000E+00
  0.00000000E+00  0.00000000E+00  0.00000000E+00
  0.00000000E+00  0.00000000E+00  0.00000000E+00
  0.00000000E+00  0.00000000E+00  0.00000000E+00
  0.00000000E+00  0.00000000E+00  0.00000000E+00
  0.00000000E+00  0.00000000E+00  0.00000000E+00
  0.00000000E+00  0.00000000E+00  0.00000000E+00
  0.00000000E+00  0.00000000E+00  0.00000000E+00
  0.00000000E+00  0.00000000E+00  0.00000000E+00
  0.00000000E+00  0.00000000E+00  0.00000000E+00
  0.00000000E+00  0.00000000E+00  0.00000000E+00
  0.00000000E+00  0.00000000E+00  0.00000000E+00
  0.00000000E+00  0.00000000E+00  0.00000000E+00
  0.00000000E+00  0.00000000E+00  0.00000000E+00
  0.00000000E+00  0.00000000E+00  0.00000000E+00
  0.00000000E+00  0.00000000E+00  0.00000000E+00
  0.00000000E+00  0.00000000E+00  0.00000000E+00
  0.00000000E+00  0.00000000E+00  0.00000000E+00
  0.00000000E+00  0.00000000E+00  0.00000000E+00
  0.00000000E+00  0.00000000E+00  0.00000000E+00
  0.00000000E+00  0.00000000E+00  0.00000000E+00
  0.00000000E+00  0.00000000E+00  0.00000000E+00
  0.00000000E+00  0.00000000E+00  0.00000000E+00
  0.00000000E+00  0.00000000E+00  0.00000000E+00
  0.00000000E+00  0.00000000E+00  0.00000000E+00
  0.00000000E+00  0.00000000E+00  0.00000000E+00
  0.00000000E+00  0.00000000E+00  0.00000000E+00
  0.00000000E+00  0.00000000E+00  0.00000000E+00
  0.00000000E+00  0.00000000E+00  0.00000000E+00
  0.00000000E+00  0.00000000E+00  0.00000000E+00
  0.00000000E+00  0.00000000E+00  0.00000000E+00
  0.00000000E+00  0.00000000E+00  0.00000000E+00
  0.00000000E+00  0.00000000E+00  0.00000000E+00
  0.00000000E+00  0.00000000E+00  0.00000000E+00
  0.00000000E+00  0.00000000E+00  0.00000000E+00
  0.00000000E+00  0.00000000E+00  0.00000000E+00
  0.00000000E+00  0.00000000E+00  0.00000000E+00
  0.00000000E+00  0.00000000E+00  0.00000000E+00
  0.00000000E+00  0.00000000E+00  0.00000000E+00
  0.00000000E+00  0.00000000E+00  0.00000000E+00
  0.00000000E+00  0.00000000E+00  0.00000000E+00
  0.00000000E+00  0.00000000E+00  0.00000000E+00
  0.00000000E+00  0.00000000E+00  0.00000000E+00
  0.00000000E+00  0.00000000E+00  0.00000000E+00
  0.00000000E+00  0.00000000E+00  0.00000000E+00
  0.00000000E+00  0.00000000E+00  0.00000000E+00
  0.00000000E+00  0.00000000E+00  0.00000000E+00
  0.00000000E+00  0.00000000E+00  0.00000000E+00
  0.00000000E+00  0.00000000E+00  0.00000000E+00
  0.00000000E+00  0.00000000E+00  0.00000000E+00
  0.00000000E+00  0.00000000E+00  0.00000000E+00
  0.00000000E+00  0.00000000E+00  0.00000000E+00
  0.00000000E+00  0.00000000E+00  0.00000000E+00
  0.00000000E+00  0.00000000E+00  0.00000000E+00
  0.00000000E+00  0.00000000E+00  0.00000000E+00
  0.00000000E+00  0.00000000E+00  0.00000000E+00
  0.00000000E+00  0.00000000E+00  0.00000000E+00
  0.00000000E+00  0.00000000E+00  0.00000000E+00
  0.00000000E+00  0.00000000E+00  0.00000000E+00
  0.00000000E+00  0.00000000E+00  0.00000000E+00
  0.00000000E+00  0.00000000E+00  0.00000000E+00
  0.00000000E+00  0.00000000E+00  0.00000000E+00
  0.00000000E+00  0.00000000E+00  0.00000000E+00
  0.00000000E+00  0.00000000E+00  0.00000000E+00
  0.00000000E+00  0.00000000E+00  0.00000000E+00
  0.00000000E+00  0.00000000E+00  0.00000000E+00
  0.00000000E+00  0.00000000E+00  0.00000000E+00
  0.00000000E+00  0.00000000E+00  0.00000000E+00
  0.00000000E+00  0.00000000E+00  0.00000000E+00
  0.00000000E+00  0.00000000E+00  0.00000000E+00
  0.00000000E+00  0.00000000E+00  0.00000000E+00
  0.00000000E+00  0.00000000E+00  0.00000000E+00
  0.00000000E+00  0.00000000E+00  0.00000000E+00
  0.00000000E+00  0.00000000E+00  0.00000000E+00
  0.00000000E+00  0.00000000E+00  0.00000000E+00
  0.00000000E+00  0.00000000E+00  0.00000000E+00
  0.00000000E+00  0.00000000E+00  0.00000000E+00
  0.00000000E+00  0.00000000E+00  0.00000000E+00
  0.00000000E+00  0.00000000E+00  0.00000000E+00
  0.00000000E+00  0.00000000E+00  0.00000000E+00
  0.00000000E+00  0.00000000E+00  0.00000000E+00
  0.00000000E+00  0.00000000E+00  0.00000000E+00
  0.00000000E+00  0.00000000E+00  0.00000000E+00
  0.00000000E+00  0.00000000E+00  0.00000000E+00
  0.00000000E+00  0.00000000E+00  0.00000000E+00
  0.00000000E+00  0.00000000E+00  0.00000000E+00
  0.00000000E+00  0.00000000E+00  0.00000000E+00
  0.00000000E+00  0.00000000E+00  0.00000000E+00
  0.00000000E+00  0.00000000E+00  0.00000000E+00
  0.00000000E+00  0.00000000E+00  0.00000000E+00
  0.00000000E+00  0.00000000E+00  0.00000000E+00
  0.00000000E+00  0.00000000E+00  0.00000000E+00
  0.00000000E+00  0.00000000E+00  0.00000000E+00
  0.00000000E+00  0.00000000E+00  0.00000000E+00
  0.00000000E+00  0.00000000E+00  0.00000000E+00
  0.00000000E+00  0.00000000E+00  0.00000000E+00
  0.00000000E+00  0.00000000E+00  0.00000000E+00
  0.00000000E+00  0.00000000E+00  0.00000000E+00
  0.00000000E+00  0.00000000E+00  0.00000000E+00
  0.00000000E+00  0.00000000E+00  0.00000000E+00
  0.00000000E+00  0.00000000E+00  0.00000000E+00
