C H O Si                                
   1.00000000000000     
    18.5749199999999988    0.0000000000000000    0.0000000000000000
     0.0000000000000000   17.5126199999999983    0.0000000000000000
     0.0000000000000000    0.0000000000000000   58.0000000000000000
   C    H    O    Si
   144   105    52   144
Selective dynamics
Direct
  0.4994884288002410  0.0654522348282143  0.0601015808080589   T   T   T
  0.1662025536085636  0.0655032555595909  0.0601395486608638   T   T   T
  0.3328156633636610  0.0655004297378170  0.0601447732765337   T   T   T
  0.4995081249983429  0.3154549710898209  0.0600965031772773   T   T   T
  0.1661781289627697  0.3154432314454283  0.0601384873340365   T   T   T
  0.3328642288724453  0.3154359487512224  0.0601541114073996   T   T   T
  0.0828657145505645  0.1880217414164704  0.1389778279309652   T   T   T
  0.2495160791678543  0.1879940535989206  0.1390252395450275   T   T   T
  0.4161343992630151  0.1880611057963009  0.1390157653874127   T   T   T
  0.0828976986378223  0.4381443405594609  0.1390291416013127   T   T   T
  0.2495207302195297  0.4381199589015097  0.1390455830810069   T   T   T
  0.4161260809500860  0.4381434142770360  0.1390507993318550   T   T   T
  0.1663864737605820  0.0630929629318331  0.1661248020593291   T   T   T
  0.3327986623121078  0.0631335843577006  0.1661404410051617   T   T   T
  0.4994496924266585  0.0629892619042138  0.1660915304284671   T   T   T
  0.1662755134661680  0.3131763095864102  0.1661013016661386   T   T   T
  0.3328586877482138  0.3132213287378107  0.1661570035371653   T   T   T
  0.4994222674889244  0.3131823899872899  0.1661271012027399   T   T   T
  0.0832610940302843  0.1900879399117272  0.1914229320429115   T   T   T
  0.2497007055553553  0.1903858948171120  0.1915176689637406   T   T   T
  0.4161296031467501  0.1901699727948341  0.1915244366745483   T   T   T
  0.0829392488285592  0.4404347474858525  0.1915198154100679   T   T   T
  0.2495014280088697  0.4403806692738499  0.1915290856570806   T   T   T
  0.4161153142303462  0.4404256200565158  0.1915515868453852   T   T   T
  0.0828829249974490  0.1882758484334062  0.0855182400353272   T   T   T
  0.2495497537761224  0.1883013691703397  0.0855628764839480   T   T   T
  0.4162131979203423  0.1882724291212909  0.0855313901986392   T   T   T
  0.0828084960580995  0.4383044635479081  0.0854950903328628   T   T   T
  0.2494776125982199  0.4383065435475828  0.0855037447844680   T   T   T
  0.4161508109976921  0.4382939788589866  0.0855049937523020   T   T   T
  0.1661958824578420  0.0629696705094958  0.1126336675192974   T   T   T
  0.3329021711644415  0.0629682493163486  0.1126463347649960   T   T   T
  0.4995125842846448  0.0630185521503250  0.1126317731998370   T   T   T
  0.1661742101340238  0.3131911661505029  0.1126286610880243   T   T   T
  0.3328315866672114  0.3131669151593997  0.1126659609084371   T   T   T
  0.4994786025829754  0.3131923406505379  0.1126268576793663   T   T   T
  0.4995266766205191  0.5655448143681525  0.0601194968024430   T   T   T
  0.1661850287546258  0.5655457727666473  0.0601465842744346   T   T   T
  0.3328546902663163  0.5655323606360199  0.0601535771380313   T   T   T
  0.4995330878210282  0.8154921201818155  0.0601277645267686   T   T   T
  0.1662108432178044  0.8154295729426693  0.0601462588353883   T   T   T
  0.3328459986538164  0.8154364585303284  0.0601445085137087   T   T   T
  0.0828510150115846  0.6881708396148838  0.1390288256149574   T   T   T
  0.2495171753870764  0.6881269800216998  0.1390619556216706   T   T   T
  0.4161349296763461  0.6881761486192062  0.1390230694723016   T   T   T
  0.0829086103735648  0.9379723884211160  0.1390318695201671   T   T   T
  0.2495753989549669  0.9379441360832104  0.1390481705301170   T   T   T
  0.4162118886698494  0.9379844180398322  0.1390394189874371   T   T   T
  0.1662324586887038  0.5633029304669179  0.1661949524914448   T   T   T
  0.3328170961879664  0.5632477240739888  0.1661927391441438   T   T   T
  0.4993707936721634  0.5633377241279760  0.1661326226539757   T   T   T
  0.1662056174301725  0.8132062506696016  0.1662032470453241   T   T   T
  0.3328691891905535  0.8132058867591923  0.1662032207211368   T   T   T
  0.4995302206354353  0.8132219258689020  0.1661867319238794   T   T   T
  0.0828573060132669  0.6903575098669066  0.1915584844837923   T   T   T
  0.2495176614239583  0.6904266916134461  0.1916155863840245   T   T   T
  0.4161659230717447  0.6902791117685396  0.1915417463087508   T   T   T
  0.0828478601107889  0.9403775300568711  0.1915724772667105   T   T   T
  0.2495345547831249  0.9403657821329787  0.1915895626923430   T   T   T
  0.4161793092979309  0.9404219363486419  0.1915784315935198   T   T   T
  0.0828823920955344  0.6882996465903304  0.0855444319333714   T   T   T
  0.2495631976770127  0.6882628267207096  0.0855607989419056   T   T   T
  0.4162301190689064  0.6883053435057818  0.0855401533442048   T   T   T
  0.0828012744030531  0.9382466579062765  0.0854953285952291   T   T   T
  0.2494794583043856  0.9382672508966294  0.0855127423926660   T   T   T
  0.4161505998755430  0.9382570589255863  0.0854987556462277   T   T   T
  0.1662022709571218  0.5630720887775595  0.1126691420372126   T   T   T
  0.3328584202084954  0.5630666887626319  0.1126717386625344   T   T   T
  0.4994976891955929  0.5630842848361368  0.1126374804205312   T   T   T
  0.1661906373327042  0.8131297316016912  0.1126499509962784   T   T   T
  0.3328486005009950  0.8131411553188315  0.1126474395458956   T   T   T
  0.4995625896946834  0.8132013745159270  0.1126529278441950   T   T   T
  0.9995293659602495  0.0654597610368484  0.0601005304118871   T   T   T
  0.6661930620083538  0.0654984242216088  0.0601647255673043   T   T   T
  0.8328173574435951  0.0654985148518819  0.0601633354657309   T   T   T
  0.9995191851828480  0.3154643511774751  0.0600892404918554   T   T   T
  0.6661813710961866  0.3153614201128505  0.0601138615799357   T   T   T
  0.8328553700605568  0.3153621599430920  0.0601312535503027   T   T   T
  0.5827506143616290  0.1880560752579470  0.1389776886364018   T   T   T
  0.7494320391853933  0.1883133501014385  0.1392146461944108   T   T   T
  0.9162228132197328  0.1880895811863823  0.1389585887949494   T   T   T
  0.5827339453661651  0.4381968118770843  0.1390217100460376   T   T   T
  0.7494961653612791  0.4380084436390987  0.1388421094702537   T   T   T
  0.9162413152725293  0.4381092049815294  0.1390680211356283   T   T   T
  0.6663983759260574  0.0635319743019309  0.1662880661329780   T   T   T
  0.8326159382867289  0.0636955149335918  0.1662852374106691   T   T   T
  0.9996693248766206  0.0629492998380314  0.1660738210713149   T   T   T
  0.6657548020971262  0.3133682291165840  0.1661476458087350   T   T   T
  0.8330595351760977  0.3132304064744034  0.1662177378467362   T   T   T
  0.9996319496035468  0.3132190523873390  0.1660877176837374   T   T   T
  0.5827737110127131  0.1897783083545335  0.1912586854100908   T   T   T
  0.7492558637727740  0.1925247273487045  0.1922222613971698   T   T   T
  0.9167343891542643  0.1898023448937920  0.1912543290540469   T   T   T
  0.5822630826270938  0.4404955195790734  0.1915396313513185   T   T   T
  0.7493899622348792  0.4448478079304081  0.1894159430671394   T   T   T
  0.9166229654862832  0.4403376980634590  0.1916131794266249   T   T   T
  0.5828392925512276  0.1882238075615561  0.0855066722135760   T   T   T
  0.7495377535498733  0.1882630247462131  0.0856245186197313   T   T   T
  0.9162385099197436  0.1882259300703666  0.0855026971061221   T   T   T
  0.5828081683584330  0.4382990665880584  0.0854835192331151   T   T   T
  0.7494797654201619  0.4382738128135060  0.0854277356715372   T   T   T
  0.9161352052095495  0.4383015652755020  0.0855013502130717   T   T   T
  0.6661952743954558  0.0630919140168231  0.1127110211606137   T   T   T
  0.8328214696022442  0.0631143239350536  0.1127043485073642   T   T   T
  0.9995406533270383  0.0629950058614597  0.1126202249436759   T   T   T
  0.6660969866285171  0.3131097764962760  0.1126373577324600   T   T   T
  0.8328768200223706  0.3131138755506555  0.1126542182853854   T   T   T
  0.9995303260408548  0.3132207356610266  0.1126132423216575   T   T   T
  0.9995234791861733  0.5655393852560664  0.0601231702760998   T   T   T
  0.6661934087272243  0.5655450081760662  0.0601315867103835   T   T   T
  0.8328509814373461  0.5655455463506343  0.0601426120778754   T   T   T
  0.9995263239729297  0.8154890076513226  0.0601279158583097   T   T   T
  0.6662116693691758  0.8154443240891425  0.0601505538297502   T   T   T
  0.8328502805581621  0.8154494927235163  0.0601503277635587   T   T   T
  0.5827830685763473  0.6881618680317914  0.1390208681830032   T   T   T
  0.7495073738106228  0.6880070137199681  0.1390992535346598   T   T   T
  0.9161971690452404  0.6881261610806817  0.1390271186192749   T   T   T
  0.5829745743142993  0.9381900937691725  0.1390882720862265   T   T   T
  0.7495150535703772  0.9381228812358842  0.1390975185674748   T   T   T
  0.9160549774866666  0.9381823947169465  0.1390838255651090   T   T   T
  0.6659271846676731  0.5633852371969681  0.1661702906551525   T   T   T
  0.8330412688721580  0.5632553384732617  0.1662274624717384   T   T   T
  0.9996364930422885  0.5632869154841060  0.1661460672998700   T   T   T
  0.6661896168721384  0.8131863103707175  0.1662119579263504   T   T   T
  0.8328847456438311  0.8131761000217281  0.1662126263196271   T   T   T
  0.9995055596978659  0.8132208643308942  0.1661854696912002   T   T   T
  0.5827722757204441  0.6903424913678862  0.1915606933723737   T   T   T
  0.7495141147083189  0.6903264752165441  0.1916442898713555   T   T   T
  0.9162508475004287  0.6902580470585349  0.1915474227657015   T   T   T
  0.5828330309399092  0.9404529631642973  0.1915712115136827   T   T   T
  0.7495459345281077  0.9404028646215465  0.1915866971956461   T   T   T
  0.9161854749708525  0.9405286771118710  0.1915701680628104   T   T   T
  0.5828963140972618  0.6882927890121735  0.0855411003558757   T   T   T
  0.7495616480152520  0.6882747026160487  0.0855782136112850   T   T   T
  0.9162231883985470  0.6882804171647408  0.0855449452223382   T   T   T
  0.5828241435704626  0.9383054230258452  0.0855246663246305   T   T   T
  0.7494667446784220  0.9382953524245679  0.0855343084657676   T   T   T
  0.9161173240057536  0.9383122524298528  0.0855235325557899   T   T   T
  0.6661829672908581  0.5630319255240863  0.1126609747540286   T   T   T
  0.8328750433917520  0.5630160663953987  0.1126823492696900   T   T   T
  0.9995423570139650  0.5630496326355257  0.1126485062666518   T   T   T
  0.6661892200146724  0.8131730596267488  0.1126865362413696   T   T   T
  0.8328197112276499  0.8131617547049146  0.1126832020719561   T   T   T
  0.9994468650735513  0.8131946153019030  0.1126514594947992   T   T   T
  0.0401240037657828  0.1771612404305785  0.0265143720378731   T   T   T
  0.2065696270820965  0.1772631596905612  0.0266104517293826   T   T   T
  0.3731539456073634  0.1771371745486618  0.0265660831172028   T   T   T
  0.0401764725082217  0.4272055487581241  0.0264975844824065   T   T   T
  0.2067351771317050  0.4269509024744593  0.0265309676739207   T   T   T
  0.3730959829757765  0.4270333027695941  0.0265569678840833   T   T   T
  0.1650559843164388  0.0293099338768172  0.0445882863060163   T   T   T
  0.3314526145042365  0.0293223297141694  0.0445912323548825   T   T   T
  0.4981924266080426  0.0293170038875488  0.0445351622041201   T   T   T
  0.1649143569109341  0.2792478124790847  0.0445921163506355   T   T   T
  0.3315945790640811  0.2792554306334978  0.0446031317903319   T   T   T
  0.4982201964170443  0.2793316617312271  0.0445288637983268   T   T   T
  0.4177848358352065  0.4042579488198470  0.2071066129238304   T   T   T
  0.4173247092497121  0.1540583979175452  0.2070971804323918   T   T   T
  0.0841847461712817  0.1540386415103541  0.2070016844279650   T   T   T
  0.2507206532038708  0.1540701836174065  0.2070484476600711   T   T   T
  0.0841264812027944  0.4044736834640545  0.2071115056279353   T   T   T
  0.2508498739035545  0.4042696599307334  0.2070925267264059   T   T   T
  0.0425278814157295  0.0526779871467724  0.2250382749667779   T   T   T
  0.2089280154830746  0.0532507061427836  0.2249708302492124   T   T   T
  0.3754030666343056  0.0528166915423469  0.2251007096086468   T   T   T
  0.0428394116622073  0.3022044811476619  0.2248832862331511   T   T   T
  0.2085045762025430  0.3031192153786861  0.2250485087204268   T   T   T
  0.3759823041626760  0.3029442932258348  0.2249812530003936   T   T   T
  0.0400712859613961  0.6772657257758183  0.0265554419239464   T   T   T
  0.2066347301599549  0.6772815997483477  0.0266006455800820   T   T   T
  0.3732025675522479  0.6772234436587254  0.0265783913617170   T   T   T
  0.0402262416578054  0.9272038042903574  0.0265054170521282   T   T   T
  0.2066432306503216  0.9271153056483001  0.0265526995204510   T   T   T
  0.3731155109516138  0.9270861670812138  0.0265662468811030   T   T   T
  0.1649634315596344  0.5293652279554166  0.0445901351129692   T   T   T
  0.3315949272048897  0.5293485094187247  0.0445983312093148   T   T   T
  0.4982643092457977  0.5294089227553371  0.0445526092811690   T   T   T
  0.1649604483314207  0.7792658492166140  0.0445891187041312   T   T   T
  0.3315492098052744  0.7792760183752634  0.0445872790991899   T   T   T
  0.4982536225396856  0.7793336229246677  0.0445693951683097   T   T   T
  0.4173854652033171  0.9042615950472594  0.2071368369568845   T   T   T
  0.4174369853825297  0.6540630515584596  0.2070896724342148   T   T   T
  0.0840140498352042  0.6541754285801744  0.2071112011638903   T   T   T
  0.2506413158319276  0.6542413855520408  0.2071705045333800   T   T   T
  0.0839780430117543  0.9041762457944742  0.2071269545132566   T   T   T
  0.2508789536776561  0.9042380086995223  0.2071562443356001   T   T   T
  0.0426434331201548  0.5522623950203283  0.2251385818709153   T   T   T
  0.2090420638307791  0.5509368969102013  0.2253124633370760   T   T   T
  0.3756774070803601  0.5516760870318151  0.2251904516481531   T   T   T
  0.0422884582479881  0.8021093827013388  0.2251348374464044   T   T   T
  0.2083189326138282  0.8025493619237096  0.2252523758808778   T   T   T
  0.3766349539210907  0.8015502677540525  0.2250419613320531   T   T   T
  0.5401278076574272  0.1771651884521148  0.0265037950358931   T   T   T
  0.7066148426094756  0.1772548179515141  0.0266312398581121   T   T   T
  0.8731562952899523  0.1771386605233047  0.0265608492017222   T   T   T
  0.5401864907684413  0.4272093346317476  0.0264927184480825   T   T   T
  0.7067232684871740  0.4269790083311378  0.0264695714506402   T   T   T
  0.8731022563363453  0.4270396741692579  0.0265505770057999   T   T   T
  0.6650829894288748  0.0292967822186370  0.0446110073908130   T   T   T
  0.8314262262137078  0.0293131577012531  0.0446085959012308   T   T   T
  0.9982593013964234  0.0293166550841875  0.0445365455423428   T   T   T
  0.6648295611840069  0.2791799817958207  0.0445601676201122   T   T   T
  0.8316680944413335  0.2791534084960645  0.0445821216224687   T   T   T
  0.9982179888780180  0.2793403446529652  0.0445207614225680   T   T   T
  0.9178467834657624  0.4044327912842718  0.2071944379394282   T   T   T
  0.9179762534655396  0.1537291195765675  0.2068302926280197   T   T   T
  0.5839358804110333  0.1540012111236777  0.2069014684749533   T   T   T
  0.7505178753141735  0.1561920529878051  0.2077517601908383   T   T   T
  0.5838858521080041  0.4042297010326550  0.2070528275539516   T   T   T
  0.7704672984609715  0.4631539360804453  0.2608658205829784   T   T   T
  0.5426992900349958  0.0531833548422753  0.2248356436509980   T   T   T
  0.7091558127980306  0.0547827246710426  0.2247716314399497   T   T   T
  0.8754227557058272  0.0530588892086499  0.2251269459743810   T   T   T
  0.5456112388592729  0.3036293891964874  0.2236118846550923   T   T   T
  0.6841183859997670  0.2859920700257348  0.2308086882004474   T   T   T
  0.8897279913180327  0.2992979496326456  0.2232707831130085   T   T   T
  0.7446991311455804  0.2702749118668351  0.2658856601765649   T   T   T
  0.7357113391329761  0.2280783069773165  0.3008846141795729   T   T   T
  0.7576172599986464  0.3128324151639532  0.3078207275911922   T   T   T
  0.6444797608847423  0.1355198483204134  0.2949979013907509   T   T   T
  0.7193217805300378  0.1122467341456996  0.2860256466000166   T   T   T
  0.8197464493523583  0.3864799443244991  0.3348798198444172   T   T   T
  0.7532941482462761  0.4345934602695252  0.3279957941847087   T   T   T
  0.7510512284717663  0.4358326981713603  0.2687351919444509   T   T   T
  0.7820728365680125  0.2670180877657629  0.2411784282205716   T   T   T
  0.5400549986710459  0.6772840949677246  0.0265459260297050   T   T   T
  0.7066439969261538  0.6772890491749024  0.0265983011815791   T   T   T
  0.8732164656291914  0.6772268472480789  0.0265736226280140   T   T   T
  0.5402373487268548  0.9272079045654280  0.0265093019866285   T   T   T
  0.7066563573800835  0.9271228637035307  0.0265538051600629   T   T   T
  0.8731261773259149  0.9270828252062628  0.0265708586748232   T   T   T
  0.6649728371716179  0.5294039009460363  0.0445656700215835   T   T   T
  0.8315821124377720  0.5293800819235699  0.0445831652917903   T   T   T
  0.9982640913157184  0.5294018744917039  0.0445566115119220   T   T   T
  0.6649556735471478  0.7792746936027015  0.0445924079173494   T   T   T
  0.8315481726760581  0.7792818539845854  0.0445921119903048   T   T   T
  0.9982375207155130  0.7793283169788836  0.0445698631291265   T   T   T
  0.9173468704270249  0.9043923371998730  0.2071319591725711   T   T   T
  0.9174905209190811  0.6540463566669246  0.2070947686617828   T   T   T
  0.5839151582699884  0.6541337394728117  0.2071089534833561   T   T   T
  0.7505232162810600  0.6541832124146794  0.2072136690709812   T   T   T
  0.5839452673456265  0.9042731331104150  0.2071229107407859   T   T   T
  0.7508851763928419  0.9042468227688190  0.2071482475708564   T   T   T
  0.5421734708698409  0.5517754433352380  0.2251708433162349   T   T   T
  0.7089532844744895  0.5491976244803922  0.2255084102991205   T   T   T
  0.8759549836486968  0.5513642510682999  0.2254066178130216   T   T   T
  0.5422234776051056  0.8020094064263290  0.2251189441990959   T   T   T
  0.7083750420676935  0.8024957808561837  0.2252185936036142   T   T   T
  0.8767266456453342  0.8015981426200298  0.2250166997010794   T   T   T
  0.0869855566302533  0.1703205757448671  0.0339045501453512   T   T   T
  0.2535248979855780  0.1704669643327392  0.0339503906806797   T   T   T
  0.4201010736353297  0.1702900243272225  0.0339053590749359   T   T   T
  0.0870387599930282  0.4202097400349345  0.0338743988205934   T   T   T
  0.2536371322867836  0.4201807183638948  0.0339029536629383   T   T   T
  0.4200712069804950  0.4202273465675290  0.0338836825783986   T   T   T
  0.1619652658204487  0.0453733736714170  0.2177449156733715   T   T   T
  0.3285426691222142  0.0452462652756154  0.2177843240775559   T   T   T
  0.4954539116996983  0.0450433375787469  0.2178196918195923   T   T   T
  0.1617290319879814  0.2952495359359446  0.2176961724240130   T   T   T
  0.3289680379184503  0.2952788716365475  0.2177833169984353   T   T   T
  0.4966296386944435  0.2944493661918486  0.2177506710042110   T   T   T
  0.0869490777506172  0.6704246839906460  0.0339355763141143   T   T   T
  0.2535494329759942  0.6704154027426981  0.0339569179866146   T   T   T
  0.4201283358071137  0.6703942890317407  0.0339317708401410   T   T   T
  0.0870772915182982  0.9201971081653397  0.0338870681788563   T   T   T
  0.2535687962342763  0.9201963853383575  0.0338994969829969   T   T   T
  0.4200898348030364  0.9202083032223953  0.0338871927319389   T   T   T
  0.1621481107440559  0.5447345716440566  0.2178910368400082   T   T   T
  0.3286997852426765  0.5447918214838197  0.2178691662218526   T   T   T
  0.4952473397913906  0.5455340219662830  0.2177700252456205   T   T   T
  0.1616021397850034  0.7950171106393356  0.2178515032498751   T   T   T
  0.3293988852040144  0.7950316627121126  0.2178496679578217   T   T   T
  0.4952383061873391  0.7949107851380646  0.2178301887063441   T   T   T
  0.5869935996539866  0.1702450342731225  0.0338859766730408   T   T   T
  0.7535318794789276  0.1704413814736014  0.0339935642627296   T   T   T
  0.9201171220099127  0.1702668883172223  0.0338895897794202   T   T   T
  0.5870499124090571  0.4201966782105231  0.0338673498527271   T   T   T
  0.7536397221576152  0.4199829758903846  0.0338160048407730   T   T   T
  0.9200684573189548  0.4202266409798980  0.0338835204430055   T   T   T
  0.6619508108579382  0.0445001836432368  0.2179796612520519   T   T   T
  0.8285126654632364  0.0449477924868020  0.2178937599987449   T   T   T
  0.9955500984344212  0.0454240643787429  0.2177539817601897   T   T   T
  0.6551909951323012  0.3021884066646976  0.2167697996419875   T   T   T
  0.8395461842670997  0.2955936943612443  0.2179728333577771   T   T   T
  0.9959058353531773  0.2946855226601883  0.2175811789392412   T   T   T
  0.7594156387449758  0.2749073841176255  0.2953245279334737   T   T   T
  0.6945282452482715  0.1304881637692716  0.2997755145601246   T   T   T
  0.7685958170130220  0.3826636658660618  0.3313757540669968   T   T   T
  0.7384786770539264  0.2515353834119267  0.2498098748393076   T   T   T
  0.5869425110057520  0.6704506292222518  0.0339218903293386   T   T   T
  0.7535646879701829  0.6704579279362051  0.0339554409760581   T   T   T
  0.9201546595441741  0.6704186500218015  0.0339226601252705   T   T   T
  0.5870823570493187  0.9201914792949353  0.0338945671587823   T   T   T
  0.7535839028652447  0.9201888702493619  0.0338993206706633   T   T   T
  0.9200964545307855  0.9202165806501270  0.0338964016017442   T   T   T
  0.6621095353900230  0.5450536880307268  0.2179313606955517   T   T   T
  0.8289551991314283  0.5445400558957303  0.2180981415119376   T   T   T
  0.9956816486684090  0.5451936377562063  0.2178255164267711   T   T   T
  0.6616085446699032  0.7949387025510504  0.2178520467794414   T   T   T
  0.8294666192746831  0.7949342564215556  0.2178534530972698   T   T   T
  0.9953291674749423  0.7948732320127405  0.2178392383398915   T   T   T
  0.2495828605199719  0.1241746469629561  0.0594150821857440   T   T   T
  0.4162216730160608  0.1241248190003006  0.0593832026829020   T   T   T
  0.0829116970438690  0.3740886374834815  0.0593590266725883   T   T   T
  0.2495839937122710  0.3740354673398016  0.0593827176700472   T   T   T
  0.4162251150158909  0.3740984180719593  0.0593662126859940   T   T   T
  0.0829168817993491  0.1241174681627513  0.0593768419130782   T   T   T
  0.4995331861386489  0.0004887700020291  0.1392878250122109   T   T   T
  0.1662863321487507  0.0004366540833445  0.1392852661622257   T   T   T
  0.3328999022101371  0.0004547428857720  0.1393014572728219   T   T   T
  0.4994824980917230  0.2506389882501594  0.1392758099227436   T   T   T
  0.1661900207314346  0.2505263213708488  0.1392379941246986   T   T   T
  0.3328468814828440  0.2505675852074276  0.1392969831738853   T   T   T
  0.0829974781312472  0.1250798986579085  0.1655578431059439   T   T   T
  0.2495995045241415  0.1253091179261006  0.1656248092682375   T   T   T
  0.4161786263073566  0.1252450428535070  0.1656305834477720   T   T   T
  0.0829379859731887  0.3753915441092417  0.1656316999706533   T   T   T
  0.2495619073802899  0.3753572554259677  0.1656459888544646   T   T   T
  0.4162130143087737  0.3753759137280142  0.1656706595165076   T   T   T
  0.1662044825169531  0.4990521559645771  0.1923220259164395   T   T   T
  0.3327610712721665  0.4989883969971487  0.1923283552938244   T   T   T
  0.4992527361200274  0.4992480409169175  0.1922944733020771   T   T   T
  0.1663443877066797  0.2490142301671838  0.1922345278386146   T   T   T
  0.4995828277614009  0.2486593521204910  0.1922724469703354   T   T   T
  0.3329695862198108  0.2490477921758725  0.1923132730564845   T   T   T
  0.4994725221444583  0.0004358111608056  0.0859946192669270   T   T   T
  0.1661432724650780  0.0003659672489107  0.0859887070677559   T   T   T
  0.3328276651496793  0.0003833806380769  0.0859990225000189   T   T   T
  0.4995564889386301  0.2504620905145742  0.0860067249310248   T   T   T
  0.1662305779128772  0.2504233261644373  0.0860145337034126   T   T   T
  0.3329114807147064  0.2504406156245338  0.0860393123407803   T   T   T
  0.0828686528702320  0.1254855799511958  0.1123461802176280   T   T   T
  0.2495736654985095  0.1254737870801392  0.1123903818032659   T   T   T
  0.4162197405537214  0.1255438259256039  0.1123813173640471   T   T   T
  0.0828407293470619  0.3757297887812001  0.1123668505108881   T   T   T
  0.2495268181377597  0.3757300098377243  0.1123811787296418   T   T   T
  0.4161862788537007  0.3757118129516144  0.1123917099425000   T   T   T
  0.2495891384825768  0.6241447352019236  0.0594162269043039   T   T   T
  0.4162472290555783  0.6241642929685227  0.0593974482821977   T   T   T
  0.0829332519757102  0.8740643877945615  0.0593676697102197   T   T   T
  0.2495830616403794  0.8740814890061941  0.0593842358500538   T   T   T
  0.4162299632242181  0.8740822918497528  0.0593679364586919   T   T   T
  0.0829192584746110  0.6241663101169550  0.0593979350151415   T   T   T
  0.4994570759323409  0.5006298181885001  0.1392942822631582   T   T   T
  0.1662367945048118  0.5006286435277900  0.1393323851057033   T   T   T
  0.3328563107124083  0.5006123429150620  0.1393329600864419   T   T   T
  0.4994531864653808  0.7506772107810491  0.1392943409120946   T   T   T
  0.1661993122961505  0.7506412206375117  0.1393074564998926   T   T   T
  0.3328162459794797  0.7506662246093043  0.1393053671851874   T   T   T
  0.0828983378956636  0.6254443007278923  0.1656521806894915   T   T   T
  0.2495321741109180  0.6254296734415092  0.1657001904629922   T   T   T
  0.4161027211493362  0.6254105308084448  0.1656395959115642   T   T   T
  0.0828407348790350  0.8753425208176111  0.1656768594162799   T   T   T
  0.2495368865373635  0.8753289997801517  0.1656968338075302   T   T   T
  0.4161950300741353  0.8753725787089977  0.1656831166287063   T   T   T
  0.1661574338521916  0.9990328625063825  0.1923033614970677   T   T   T
  0.3328023669837918  0.9990648934158770  0.1923071113549000   T   T   T
  0.4994487957512490  0.9991062288186754  0.1922861158595808   T   T   T
  0.1661026774772409  0.7490077453194885  0.1923410466596494   T   T   T
  0.4994025032775795  0.7489506749364807  0.1923075110399779   T   T   T
  0.3328624273660239  0.7489941775091395  0.1923460676624060   T   T   T
  0.4994859689071021  0.5004549963257361  0.0859933784077853   T   T   T
  0.1661502268670105  0.5004615817505780  0.0860121059241550   T   T   T
  0.3328283409120232  0.5004516397796266  0.0860187421361047   T   T   T
  0.4995992886889766  0.7504605943464568  0.0860231718832551   T   T   T
  0.1662563651093762  0.7504119613457050  0.0860353765070627   T   T   T
  0.3329011523761736  0.7504212262865693  0.0860319144587862   T   T   T
  0.0828712938391192  0.6255863770157220  0.1123953667264246   T   T   T
  0.2495562013173540  0.6255799729517832  0.1124165587920558   T   T   T
  0.4161994172823640  0.6255962625451019  0.1123925055719681   T   T   T
  0.0828556337275259  0.8756045921792790  0.1123675464675884   T   T   T
  0.2495314710275309  0.8756129352891335  0.1123747378676541   T   T   T
  0.4161940034997684  0.8756492960905717  0.1123749899185782   T   T   T
  0.7495615343026287  0.1241576161388238  0.0594577468946298   T   T   T
  0.9162271150671870  0.1240834948452374  0.0593645530272511   T   T   T
  0.5829248550518997  0.3740603551050441  0.0593519404290177   T   T   T
  0.7495671737208909  0.3739866118666129  0.0593201147488642   T   T   T
  0.9161978678082150  0.3740707789100099  0.0593613795521506   T   T   T
  0.5828944938142229  0.1240910117918830  0.0593694777614004   T   T   T
  0.9995595806573476  0.0004005051278000  0.1392626070548388   T   T   T
  0.6663511835017033  0.0007857131568656  0.1394105624510118   T   T   T
  0.8326763121641392  0.0008058316704194  0.1393986543138652   T   T   T
  0.9995041510985914  0.2505926020420048  0.1392134094394848   T   T   T
  0.6659510797391874  0.2507177707654691  0.1393509761854830   T   T   T
  0.8328460095267474  0.2506172693510109  0.1393270473344117   T   T   T
  0.5827842152258214  0.1252397674561507  0.1656020294843259   T   T   T
  0.7493409934872801  0.1265444528263089  0.1661080003136206   T   T   T
  0.9163396168335964  0.1251186643094684  0.1655247911735955   T   T   T
  0.5826470201250729  0.3755729910665622  0.1656487605943653   T   T   T
  0.7492917781869508  0.3746668432687130  0.1656368995508330   T   T   T
  0.9162224005327602  0.3754734074823176  0.1656834593352059   T   T   T
  0.6653582915221534  0.4986893616482320  0.1925455263695923   T   T   T
  0.8333241378566143  0.4985994078307243  0.1926350249078936   T   T   T
  0.9996889750361362  0.4992127032384985  0.1922985654415683   T   T   T
  0.6647855948034405  0.2511581907484839  0.1927441308755320   T   T   T
  0.9999121920216751  0.2484991695927263  0.1920419324389826   T   T   T
  0.8338860443105318  0.2495130321857744  0.1924374914336084   T   T   T
  0.9994778098577015  0.0004063823946154  0.0859822146840159   T   T   T
  0.6661548169624965  0.0004888759002668  0.0860535305775869   T   T   T
  0.8327696107694607  0.0004811301651131  0.0860473623281592   T   T   T
  0.9995541744510277  0.2504517399564605  0.0859894575588029   T   T   T
  0.6661822598225342  0.2503960605570441  0.0860323980327919   T   T   T
  0.8329081115228831  0.2503801331248567  0.0860374164783408   T   T   T
  0.5828227178331957  0.1255906005296410  0.1123840612933478   T   T   T
  0.7494863308230606  0.1256550597672401  0.1125297706225936   T   T   T
  0.9162115719540367  0.1255366687832051  0.1123535204153328   T   T   T