C H O Si                                
   1.00000000000000     
    18.5749199999999988    0.0000000000000000    0.0000000000000000
     0.0000000000000000   17.5126199999999983    0.0000000000000000
     0.0000000000000000    0.0000000000000000   58.0000000000000000
   C    H    O    Si
   144   105    52   144
Selective dynamics
Direct
  0.4994884288002435  0.0654522348282175  0.0601015808080609   T   T   T
  0.1662025536085620  0.0655032555595906  0.0601395486608661   T   T   T
  0.3328156633636642  0.0655004297378143  0.0601447732765325   T   T   T
  0.4995081249983396  0.3154549710898203  0.0600965031772788   T   T   T
  0.1661781289627671  0.3154432314454290  0.0601384873340362   T   T   T
  0.3328642288724474  0.3154359487512205  0.0601541114074014   T   T   T
  0.0828657145505654  0.1880217414164712  0.1389778279309675   T   T   T
  0.2495160791678509  0.1879940535989239  0.1390252395450247   T   T   T
  0.4161343992630132  0.1880611057963044  0.1390157653874151   T   T   T
  0.0828976986378203  0.4381443405594625  0.1390291416013156   T   T   T
  0.2495207302195263  0.4381199589015098  0.1390455830810048   T   T   T
  0.4161260809500856  0.4381434142770370  0.1390507993318543   T   T   T
  0.1663864737605838  0.0630929629318325  0.1661248020593324   T   T   T
  0.3327986623121043  0.0631335843577004  0.1661404410051610   T   T   T
  0.4994496924266598  0.0629892619042147  0.1660915304284654   T   T   T
  0.1662755134661668  0.3131763095864127  0.1661013016661357   T   T   T
  0.3328586877482129  0.3132213287378099  0.1661570035371620   T   T   T
  0.4994222674889257  0.3131823899872930  0.1661271012027432   T   T   T
  0.0832610940302845  0.1900879399117260  0.1914229320429119   T   T   T
  0.2497007055553555  0.1903858948171153  0.1915176689637413   T   T   T
  0.4161296031467504  0.1901699727948331  0.1915244366745475   T   T   T
  0.0829392488285574  0.4404347474858495  0.1915198154100650   T   T   T
  0.2495014280088723  0.4403806692738526  0.1915290856570787   T   T   T
  0.4161153142303449  0.4404256200565153  0.1915515868453830   T   T   T
  0.0828829249974486  0.1882758484334073  0.0855182400353279   T   T   T
  0.2495497537761242  0.1883013691703385  0.0855628764839476   T   T   T
  0.4162131979203411  0.1882724291212900  0.0855313901986402   T   T   T
  0.0828084960580970  0.4383044635479082  0.0854950903328656   T   T   T
  0.2494776125982213  0.4383065435475797  0.0855037447844703   T   T   T
  0.4161508109976907  0.4382939788589880  0.0855049937522995   T   T   T
  0.1661958824578413  0.0629696705094931  0.1126336675192970   T   T   T
  0.3329021711644430  0.0629682493163482  0.1126463347649936   T   T   T
  0.4995125842846416  0.0630185521503253  0.1126317731998352   T   T   T
  0.1661742101340237  0.3131911661505013  0.1126286610880275   T   T   T
  0.3328315866672111  0.3131669151594009  0.1126659609084337   T   T   T
  0.4994786025829763  0.3131923406505377  0.1126268576793682   T   T   T
  0.4995266766205174  0.5655448143681554  0.0601194968024433   T   T   T
  0.1661850287546275  0.5655457727666497  0.0601465842744313   T   T   T
  0.3328546902663188  0.5655323606360206  0.0601535771380347   T   T   T
  0.4995330878210297  0.8154921201818143  0.0601277645267671   T   T   T
  0.1662108432178057  0.8154295729426666  0.0601462588353913   T   T   T
  0.3328459986538184  0.8154364585303316  0.0601445085137117   T   T   T
  0.0828510150115814  0.6881708396148817  0.1390288256149555   T   T   T
  0.2495171753870769  0.6881269800217011  0.1390619556216720   T   T   T
  0.4161349296763447  0.6881761486192028  0.1390230694723002   T   T   T
  0.0829086103735662  0.9379723884211169  0.1390318695201639   T   T   T
  0.2495753989549686  0.9379441360832097  0.1390481705301197   T   T   T
  0.4162118886698493  0.9379844180398345  0.1390394189874350   T   T   T
  0.1662324586887032  0.5633029304669147  0.1661949524914443   T   T   T
  0.3328170961879666  0.5632477240739859  0.1661927391441470   T   T   T
  0.4993707936721605  0.5633377241279768  0.1661326226539774   T   T   T
  0.1662056174301735  0.8132062506696034  0.1662032470453235   T   T   T
  0.3328691891905515  0.8132058867591906  0.1662032207211335   T   T   T
  0.4995302206354333  0.8132219258689055  0.1661867319238791   T   T   T
  0.0828573060132667  0.6903575098669088  0.1915584844837928   T   T   T
  0.2495176614239564  0.6904266916134432  0.1916155863840210   T   T   T
  0.4161659230717463  0.6902791117685410  0.1915417463087534   T   T   T
  0.0828478601107882  0.9403775300568735  0.1915724772667073   T   T   T
  0.2495345547831255  0.9403657821329814  0.1915895626923453   T   T   T
  0.4161793092979325  0.9404219363486426  0.1915784315935199   T   T   T
  0.0828823920955366  0.6882996465903330  0.0855444319333702   T   T   T
  0.2495631976770131  0.6882628267207080  0.0855607989419058   T   T   T
  0.4162301190689074  0.6883053435057794  0.0855401533442032   T   T   T
  0.0828012744030508  0.9382466579062786  0.0854953285952301   T   T   T
  0.2494794583043876  0.9382672508966259  0.0855127423926658   T   T   T
  0.4161505998755457  0.9382570589255840  0.0854987556462242   T   T   T
  0.1662022709571236  0.5630720887775562  0.1126691420372127   T   T   T
  0.3328584202084978  0.5630666887626284  0.1126717386625324   T   T   T
  0.4994976891955928  0.5630842848361365  0.1126374804205279   T   T   T
  0.1661906373327019  0.8131297316016927  0.1126499509962760   T   T   T
  0.3328486005009929  0.8131411553188342  0.1126474395458934   T   T   T
  0.4995625896946799  0.8132013745159253  0.1126529278441942   T   T   T
  0.9995293659602519  0.0654597610368502  0.0601005304118839   T   T   T
  0.6661930620083552  0.0654984242216104  0.0601647255673044   T   T   T
  0.8328173574435934  0.0654985148518835  0.0601633354657303   T   T   T
  0.9995191851828475  0.3154643511774724  0.0600892404918571   T   T   T
  0.6661813710961901  0.3153614201128507  0.0601138615799380   T   T   T
  0.8328553700605539  0.3153621599430948  0.0601312535503016   T   T   T
  0.5827506143616280  0.1880560752579471  0.1389776886363999   T   T   T
  0.7494320391853913  0.1883133501014377  0.1392146461944114   T   T   T
  0.9162228132197292  0.1880895811863835  0.1389585887949464   T   T   T
  0.5827339453661672  0.4381968118770844  0.1390217100460363   T   T   T
  0.7494961653612794  0.4380084436391004  0.1388421094702530   T   T   T
  0.9162413152725263  0.4381092049815263  0.1390680211356294   T   T   T
  0.6663983759260587  0.0635319743019288  0.1662880661329759   T   T   T
  0.8326159382867295  0.0636955149335920  0.1662852374106663   T   T   T
  0.9996693248766202  0.0629492998380345  0.1660738210713148   T   T   T
  0.6657548020971227  0.3133682291165824  0.1661476458087355   T   T   T
  0.8330595351761011  0.3132304064744037  0.1662177378467396   T   T   T
  0.9996319496035497  0.3132190523873418  0.1660877176837392   T   T   T
  0.5827737110127125  0.1897783083545325  0.1912586854100879   T   T   T
  0.7492558637727752  0.1925247273487046  0.1922222613971680   T   T   T
  0.9167343891542650  0.1898023448937901  0.1912543290540442   T   T   T
  0.5822630826270911  0.4404955195790752  0.1915396313513202   T   T   T
  0.7493899622348791  0.4448478079304056  0.1894159430671360   T   T   T
  0.9166229654862855  0.4403376980634620  0.1916131794266220   T   T   T
  0.5828392925512240  0.1882238075615570  0.0855066722135788   T   T   T
  0.7495377535498723  0.1882630247462132  0.0856245186197320   T   T   T
  0.9162385099197441  0.1882259300703696  0.0855026971061222   T   T   T
  0.5828081683584310  0.4382990665880558  0.0854835192331120   T   T   T
  0.7494797654201631  0.4382738128135039  0.0854277356715395   T   T   T
  0.9161352052095522  0.4383015652754985  0.0855013502130751   T   T   T
  0.6661952743954536  0.0630919140168242  0.1127110211606165   T   T   T
  0.8328214696022462  0.0631143239350539  0.1127043485073614   T   T   T
  0.9995406533270360  0.0629950058614584  0.1126202249436734   T   T   T
  0.6660969866285184  0.3131097764962795  0.1126373577324603   T   T   T
  0.8328768200223733  0.3131138755506560  0.1126542182853864   T   T   T
  0.9995303260408548  0.3132207356610257  0.1126132423216604   T   T   T
  0.9995234791861736  0.5655393852560640  0.0601231702760985   T   T   T
  0.6661934087272239  0.5655450081760640  0.0601315867103831   T   T   T
  0.8328509814373446  0.5655455463506370  0.0601426120778746   T   T   T
  0.9995263239729293  0.8154890076513258  0.0601279158583085   T   T   T
  0.6662116693691762  0.8154443240891446  0.0601505538297527   T   T   T
  0.8328502805581635  0.8154494927235177  0.0601503277635601   T   T   T
  0.5827830685763503  0.6881618680317905  0.1390208681830002   T   T   T
  0.7495073738106215  0.6880070137199655  0.1390992535346602   T   T   T
  0.9161971690452423  0.6881261610806810  0.1390271186192773   T   T   T
  0.5829745743143009  0.9381900937691751  0.1390882720862251   T   T   T
  0.7495150535703785  0.9381228812358854  0.1390975185674757   T   T   T
  0.9160549774866648  0.9381823947169433  0.1390838255651078   T   T   T
  0.6659271846676705  0.5633852371969652  0.1661702906551499   T   T   T
  0.8330412688721605  0.5632553384732608  0.1662274624717372   T   T   T
  0.9996364930422905  0.5632869154841057  0.1661460672998732   T   T   T
  0.6661896168721382  0.8131863103707182  0.1662119579263497   T   T   T
  0.8328847456438330  0.8131761000217286  0.1662126263196255   T   T   T
  0.9995055596978673  0.8132208643308911  0.1661854696911969   T   T   T
  0.5827722757204444  0.6903424913678873  0.1915606933723723   T   T   T
  0.7495141147083192  0.6903264752165462  0.1916442898713555   T   T   T
  0.9162508475004282  0.6902580470585313  0.1915474227657010   T   T   T
  0.5828330309399067  0.9404529631642941  0.1915712115136792   T   T   T
  0.7495459345281078  0.9404028646215501  0.1915866971956456   T   T   T
  0.9161854749708507  0.9405286771118719  0.1915701680628125   T   T   T
  0.5828963140972604  0.6882927890121756  0.0855411003558737   T   T   T
  0.7495616480152547  0.6882747026160485  0.0855782136112847   T   T   T
  0.9162231883985464  0.6882804171647432  0.0855449452223402   T   T   T
  0.5828241435704604  0.9383054230258466  0.0855246663246319   T   T   T
  0.7494667446784198  0.9382953524245712  0.0855343084657708   T   T   T
  0.9161173240057556  0.9383122524298549  0.0855235325557931   T   T   T
  0.6661829672908555  0.5630319255240829  0.1126609747540282   T   T   T
  0.8328750433917550  0.5630160663954002  0.1126823492696932   T   T   T
  0.9995423570139679  0.5630496326355233  0.1126485062666490   T   T   T
  0.6661892200146732  0.8131730596267510  0.1126865362413697   T   T   T
  0.8328197112276526  0.8131617547049173  0.1126832020719536   T   T   T
  0.9994468650735507  0.8131946153019054  0.1126514594947982   T   T   T
  0.0401240037657838  0.1771612404305759  0.0265143720378754   T   T   T
  0.2065696270820953  0.1772631596905624  0.0266104517293808   T   T   T
  0.3731539456073608  0.1771371745486632  0.0265660831172062   T   T   T
  0.0401764725082235  0.4272055487581273  0.0264975844824045   T   T   T
  0.2067351771317027  0.4269509024744590  0.0265309676739186   T   T   T
  0.3730959829757786  0.4270333027695907  0.0265569678840846   T   T   T
  0.1650559843164369  0.0293099338768147  0.0445882863060188   T   T   T
  0.3314526145042348  0.0293223297141677  0.0445912323548804   T   T   T
  0.4981924266080417  0.0293170038875478  0.0445351622041202   T   T   T
  0.1649143569109342  0.2792478124790833  0.0445921163506346   T   T   T
  0.3315945790640783  0.2792554306335002  0.0446031317903330   T   T   T
  0.4982201964170433  0.2793316617312254  0.0445288637983263   T   T   T
  0.4177848358352055  0.4042579488198473  0.2071066129238314   T   T   T
  0.4173247092497093  0.1540583979175464  0.2070971804323913   T   T   T
  0.0841847461712850  0.1540386415103545  0.2070016844279654   T   T   T
  0.2507206532038702  0.1540701836174073  0.2070484476600718   T   T   T
  0.0841264812027923  0.4044736834640512  0.2071115056279372   T   T   T
  0.2508498739035530  0.4042696599307324  0.2070925267264085   T   T   T
  0.0425278814157315  0.0526779871467719  0.2250382749667811   T   T   T
  0.2089280154830768  0.0532507061427834  0.2249708302492110   T   T   T
  0.3754030666343035  0.0528166915423469  0.2251007096086489   T   T   T
  0.0428394116622039  0.3022044811476622  0.2248832862331503   T   T   T
  0.2085045762025396  0.3031192153786870  0.2250485087204237   T   T   T
  0.3759823041626780  0.3029442932258373  0.2249812530003961   T   T   T
  0.0400712859613945  0.6772657257758169  0.0265554419239498   T   T   T
  0.2066347301599578  0.6772815997483502  0.0266006455800824   T   T   T
  0.3732025675522508  0.6772234436587263  0.0265783913617163   T   T   T
  0.0402262416578076  0.9272038042903596  0.0265054170521283   T   T   T
  0.2066432306503214  0.9271153056482980  0.0265526995204478   T   T   T
  0.3731155109516118  0.9270861670812134  0.0265662468811014   T   T   T
  0.1649634315596317  0.5293652279554144  0.0445901351129687   T   T   T
  0.3315949272048883  0.5293485094187219  0.0445983312093177   T   T   T
  0.4982643092457976  0.5294089227553357  0.0445526092811700   T   T   T
  0.1649604483314173  0.7792658492166108  0.0445891187041340   T   T   T
  0.3315492098052728  0.7792760183752631  0.0445872790991894   T   T   T
  0.4982536225396859  0.7793336229246672  0.0445693951683108   T   T   T
  0.4173854652033166  0.9042615950472574  0.2071368369568821   T   T   T
  0.4174369853825312  0.6540630515584576  0.2070896724342173   T   T   T
  0.0840140498352064  0.6541754285801726  0.2071112011638923   T   T   T
  0.2506413158319246  0.6542413855520433  0.2071705045333812   T   T   T
  0.0839780430117545  0.9041762457944762  0.2071269545132572   T   T   T
  0.2508789536776570  0.9042380086995201  0.2071562443355971   T   T   T
  0.0426434331201537  0.5522623950203297  0.2251385818709163   T   T   T
  0.2090420638307781  0.5509368969102031  0.2253124633370792   T   T   T
  0.3756774070803588  0.5516760870318155  0.2251904516481542   T   T   T
  0.0422884582479850  0.8021093827013366  0.2251348374464049   T   T   T
  0.2083189326138299  0.8025493619237068  0.2252523758808743   T   T   T
  0.3766349539210904  0.8015502677540560  0.2250419613320538   T   T   T
  0.5401278076574295  0.1771651884521135  0.0265037950358965   T   T   T
  0.7066148426094773  0.1772548179515123  0.0266312398581151   T   T   T
  0.8731562952899544  0.1771386605233038  0.0265608492017202   T   T   T
  0.5401864907684427  0.4272093346317507  0.0264927184480793   T   T   T
  0.7067232684871714  0.4269790083311386  0.0264695714506371   T   T   T
  0.8731022563363448  0.4270396741692614  0.0265505770057995   T   T   T
  0.6650829894288760  0.0292967822186347  0.0446110073908100   T   T   T
  0.8314262262137059  0.0293131577012526  0.0446085959012314   T   T   T
  0.9982593013964203  0.0293166550841849  0.0445365455423424   T   T   T
  0.6648295611840102  0.2791799817958214  0.0445601676201100   T   T   T
  0.8316680944413324  0.2791534084960662  0.0445821216224707   T   T   T
  0.9982179888780190  0.2793403446529621  0.0445207614225657   T   T   T
  0.9178467834657654  0.4044327912842737  0.2071944379394273   T   T   T
  0.9179762534655371  0.1537291195765656  0.2068302926280203   T   T   T
  0.5839358804110309  0.1540012111236775  0.2069014684749555   T   T   T
  0.7505178753141748  0.1561920529878024  0.2077517601908385   T   T   T
  0.5838858521080035  0.4042297010326576  0.2070528275539494   T   T   T
  0.7704672984609683  0.4631539360804429  0.2608658205829775   T   T   T
  0.5426992900349971  0.0531833548422764  0.2248356436509981   T   T   T
  0.7091558127980302  0.0547827246710417  0.2247716314399470   T   T   T
  0.8754227557058296  0.0530588892086534  0.2251269459743815   T   T   T
  0.5456112388592711  0.3036293891964875  0.2236118846550892   T   T   T
  0.6841183859997705  0.2859920700257372  0.2308086882004470   T   T   T
  0.8897279913180319  0.2992979496326486  0.2232707831130099   T   T   T
  0.7446991311455822  0.2702749118668386  0.2658856601765658   T   T   T
  0.7357113391329780  0.2280783069773160  0.3008846141795751   T   T   T
  0.7576172599986436  0.3128324151639548  0.3078207275911931   T   T   T
  0.6444797608847453  0.1355198483204103  0.2949979013907513   T   T   T
  0.7193217805300390  0.1122467341457004  0.2860256466000200   T   T   T
  0.8197464493523593  0.3864799443244979  0.3348798198444138   T   T   T
  0.7532941482462779  0.4345934602695259  0.3279957941847053   T   T   T
  0.7510512284717679  0.4358326981713578  0.2687351919444522   T   T   T
  0.7820728365680149  0.2670180877657621  0.2411784282205727   T   T   T
  0.5400549986710480  0.6772840949677230  0.0265459260297061   T   T   T
  0.7066439969261546  0.6772890491749027  0.0265983011815791   T   T   T
  0.8732164656291905  0.6772268472480810  0.0265736226280172   T   T   T
  0.5402373487268547  0.9272079045654305  0.0265093019866305   T   T   T
  0.7066563573800807  0.9271228637035323  0.0265538051600614   T   T   T
  0.8731261773259174  0.9270828252062601  0.0265708586748250   T   T   T
  0.6649728371716177  0.5294039009460360  0.0445656700215814   T   T   T
  0.8315821124377699  0.5293800819235688  0.0445831652917883   T   T   T
  0.9982640913157217  0.5294018744917015  0.0445566115119253   T   T   T
  0.6649556735471491  0.7792746936027041  0.0445924079173486   T   T   T
  0.8315481726760591  0.7792818539845843  0.0445921119903077   T   T   T
  0.9982375207155139  0.7793283169788824  0.0445698631291257   T   T   T
  0.9173468704270265  0.9043923371998733  0.2071319591725687   T   T   T
  0.9174905209190797  0.6540463566669273  0.2070947686617831   T   T   T
  0.5839151582699875  0.6541337394728144  0.2071089534833567   T   T   T
  0.7505232162810573  0.6541832124146794  0.2072136690709791   T   T   T
  0.5839452673456262  0.9042731331104118  0.2071229107407844   T   T   T
  0.7508851763928392  0.9042468227688187  0.2071482475708590   T   T   T
  0.5421734708698388  0.5517754433352400  0.2251708433162368   T   T   T
  0.7089532844744878  0.5491976244803894  0.2255084102991214   T   T   T
  0.8759549836486991  0.5513642510682979  0.2254066178130249   T   T   T
  0.5422234776051055  0.8020094064263262  0.2251189441990986   T   T   T
  0.7083750420676967  0.8024957808561854  0.2252185936036147   T   T   T
  0.8767266456453358  0.8015981426200328  0.2250166997010820   T   T   T
  0.0869855566302558  0.1703205757448639  0.0339045501453543   T   T   T
  0.2535248979855778  0.1704669643327371  0.0339503906806811   T   T   T
  0.4201010736353319  0.1702900243272247  0.0339053590749363   T   T   T
  0.0870387599930296  0.4202097400349343  0.0338743988205969   T   T   T
  0.2536371322867805  0.4201807183638938  0.0339029536629399   T   T   T
  0.4200712069804966  0.4202273465675294  0.0338836825783961   T   T   T
  0.1619652658204477  0.0453733736714165  0.2177449156733742   T   T   T
  0.3285426691222171  0.0452462652756175  0.2177843240775567   T   T   T
  0.4954539116996950  0.0450433375787501  0.2178196918195932   T   T   T
  0.1617290319879799  0.2952495359359480  0.2176961724240113   T   T   T
  0.3289680379184499  0.2952788716365444  0.2177833169984353   T   T   T
  0.4966296386944454  0.2944493661918466  0.2177506710042085   T   T   T
  0.0869490777506145  0.6704246839906456  0.0339355763141154   T   T   T
  0.2535494329759912  0.6704154027426980  0.0339569179866150   T   T   T
  0.4201283358071148  0.6703942890317408  0.0339317708401418   T   T   T
  0.0870772915182999  0.9201971081653404  0.0338870681788579   T   T   T
  0.2535687962342764  0.9201963853383575  0.0338994969829965   T   T   T
  0.4200898348030394  0.9202083032223931  0.0338871927319419   T   T   T
  0.1621481107440562  0.5447345716440531  0.2178910368400070   T   T   T
  0.3286997852426731  0.5447918214838197  0.2178691662218523   T   T   T
  0.4952473397913899  0.5455340219662841  0.2177700252456183   T   T   T
  0.1616021397850014  0.7950171106393328  0.2178515032498752   T   T   T
  0.3293988852040171  0.7950316627121109  0.2178496679578183   T   T   T
  0.4952383061873424  0.7949107851380651  0.2178301887063449   T   T   T
  0.5869935996539853  0.1702450342731240  0.0338859766730388   T   T   T
  0.7535318794789279  0.1704413814735993  0.0339935642627268   T   T   T
  0.9201171220099135  0.1702668883172255  0.0338895897794205   T   T   T
  0.5870499124090556  0.4201966782105241  0.0338673498527298   T   T   T
  0.7536397221576173  0.4199829758903831  0.0338160048407744   T   T   T
  0.9200684573189524  0.4202266409798984  0.0338835204430070   T   T   T
  0.6619508108579354  0.0445001836432359  0.2179796612520516   T   T   T
  0.8285126654632343  0.0449477924868010  0.2178937599987454   T   T   T
  0.9955500984344223  0.0454240643787409  0.2177539817601873   T   T   T
  0.6551909951323044  0.3021884066646996  0.2167697996419881   T   T   T
  0.8395461842670973  0.2955936943612427  0.2179728333577739   T   T   T
  0.9959058353531759  0.2946855226601889  0.2175811789392414   T   T   T
  0.7594156387449723  0.2749073841176289  0.2953245279334704   T   T   T
  0.6945282452482723  0.1304881637692740  0.2997755145601240   T   T   T
  0.7685958170130195  0.3826636658660604  0.3313757540669950   T   T   T
  0.7384786770539284  0.2515353834119257  0.2498098748393061   T   T   T
  0.5869425110057508  0.6704506292222491  0.0339218903293419   T   T   T
  0.7535646879701844  0.6704579279362058  0.0339554409760598   T   T   T
  0.9201546595441730  0.6704186500218033  0.0339226601252672   T   T   T
  0.5870823570493156  0.9201914792949358  0.0338945671587788   T   T   T
  0.7535839028652429  0.9201888702493637  0.0338993206706654   T   T   T
  0.9200964545307845  0.9202165806501282  0.0338964016017429   T   T   T
  0.6621095353900196  0.5450536880307266  0.2179313606955552   T   T   T
  0.8289551991314255  0.5445400558957292  0.2180981415119344   T   T   T
  0.9956816486684058  0.5451936377562061  0.2178255164267689   T   T   T
  0.6616085446699040  0.7949387025510474  0.2178520467794417   T   T   T
  0.8294666192746812  0.7949342564215555  0.2178534530972663   T   T   T
  0.9953291674749416  0.7948732320127426  0.2178392383398937   T   T   T
  0.2495828605199706  0.1241746469629563  0.0594150821857407   T   T   T
  0.4162216730160577  0.1241248190003025  0.0593832026829023   T   T   T
  0.0829116970438705  0.3740886374834825  0.0593590266725888   T   T   T
  0.2495839937122709  0.3740354673397988  0.0593827176700500   T   T   T
  0.4162251150158943  0.3740984180719585  0.0593662126859943   T   T   T
  0.0829168817993517  0.1241174681627511  0.0593768419130782   T   T   T
  0.4995331861386489  0.0004887700020306  0.1392878250122088   T   T   T
  0.1662863321487473  0.0004366540833447  0.1392852661622257   T   T   T
  0.3328999022101403  0.0004547428857719  0.1393014572728233   T   T   T
  0.4994824980917255  0.2506389882501565  0.1392758099227405   T   T   T
  0.1661900207314341  0.2505263213708495  0.1392379941246959   T   T   T
  0.3328468814828441  0.2505675852074274  0.1392969831738841   T   T   T
  0.0829974781312443  0.1250798986579110  0.1655578431059468   T   T   T
  0.2495995045241385  0.1253091179261001  0.1656248092682410   T   T   T
  0.4161786263073539  0.1252450428535071  0.1656305834477735   T   T   T
  0.0829379859731912  0.3753915441092408  0.1656316999706534   T   T   T
  0.2495619073802919  0.3753572554259643  0.1656459888544637   T   T   T
  0.4162130143087746  0.3753759137280140  0.1656706595165072   T   T   T
  0.1662044825169552  0.4990521559645757  0.1923220259164378   T   T   T
  0.3327610712721653  0.4989883969971502  0.1923283552938238   T   T   T
  0.4992527361200244  0.4992480409169196  0.1922944733020780   T   T   T
  0.1663443877066785  0.2490142301671844  0.1922345278386171   T   T   T
  0.4995828277614019  0.2486593521204918  0.1922724469703321   T   T   T
  0.3329695862198086  0.2490477921758742  0.1923132730564836   T   T   T
  0.4994725221444615  0.0004358111608070  0.0859946192669257   T   T   T
  0.1661432724650770  0.0003659672489084  0.0859887070677530   T   T   T
  0.3328276651496763  0.0003833806380747  0.0859990225000221   T   T   T
  0.4995564889386270  0.2504620905145723  0.0860067249310242   T   T   T
  0.1662305779128750  0.2504233261644370  0.0860145337034095   T   T   T
  0.3329114807147092  0.2504406156245364  0.0860393123407801   T   T   T
  0.0828686528702347  0.1254855799511958  0.1123461802176314   T   T   T
  0.2495736654985121  0.1254737870801390  0.1123903818032677   T   T   T
  0.4162197405537242  0.1255438259256004  0.1123813173640457   T   T   T
  0.0828407293470649  0.3757297887812033  0.1123668505108895   T   T   T
  0.2495268181377593  0.3757300098377248  0.1123811787296383   T   T   T
  0.4161862788537020  0.3757118129516160  0.1123917099425032   T   T   T
  0.2495891384825796  0.6241447352019266  0.0594162269043022   T   T   T
  0.4162472290555778  0.6241642929685249  0.0593974482821984   T   T   T
  0.0829332519757112  0.8740643877945604  0.0593676697102207   T   T   T
  0.2495830616403758  0.8740814890061959  0.0593842358500544   T   T   T
  0.4162299632242174  0.8740822918497514  0.0593679364586953   T   T   T
  0.0829192584746140  0.6241663101169549  0.0593979350151448   T   T   T
  0.4994570759323436  0.5006298181884978  0.1392942822631575   T   T   T
  0.1662367945048089  0.5006286435277916  0.1393323851057051   T   T   T
  0.3328563107124083  0.5006123429150637  0.1393329600864398   T   T   T
  0.4994531864653816  0.7506772107810502  0.1392943409120947   T   T   T
  0.1661993122961504  0.7506412206375136  0.1393074564998911   T   T   T
  0.3328162459794829  0.7506662246093062  0.1393053671851868   T   T   T
  0.0828983378956646  0.6254443007278944  0.1656521806894938   T   T   T
  0.2495321741109195  0.6254296734415078  0.1657001904629929   T   T   T
  0.4161027211493352  0.6254105308084416  0.1656395959115619   T   T   T
  0.0828407348790356  0.8753425208176143  0.1656768594162809   T   T   T
  0.2495368865373635  0.8753289997801542  0.1656968338075331   T   T   T
  0.4161950300741321  0.8753725787089991  0.1656831166287072   T   T   T
  0.1661574338521890  0.9990328625063848  0.1923033614970674   T   T   T
  0.3328023669837928  0.9990648934158772  0.1923071113548983   T   T   T
  0.4994487957512493  0.9991062288186727  0.1922861158595785   T   T   T
  0.1661026774772407  0.7490077453194878  0.1923410466596517   T   T   T
  0.4994025032775760  0.7489506749364783  0.1923075110399808   T   T   T
  0.3328624273660210  0.7489941775091374  0.1923460676624095   T   T   T
  0.4994859689071011  0.5004549963257378  0.0859933784077840   T   T   T
  0.1661502268670098  0.5004615817505782  0.0860121059241564   T   T   T
  0.3328283409120263  0.5004516397796248  0.0860187421361048   T   T   T
  0.4995992886889755  0.7504605943464536  0.0860231718832578   T   T   T
  0.1662563651093767  0.7504119613457040  0.0860353765070625   T   T   T
  0.3329011523761753  0.7504212262865722  0.0860319144587869   T   T   T
  0.0828712938391212  0.6255863770157232  0.1123953667264222   T   T   T
  0.2495562013173514  0.6255799729517814  0.1124165587920542   T   T   T
  0.4161994172823633  0.6255962625451041  0.1123925055719687   T   T   T
  0.0828556337275270  0.8756045921792759  0.1123675464675890   T   T   T
  0.2495314710275327  0.8756129352891333  0.1123747378676572   T   T   T
  0.4161940034997695  0.8756492960905717  0.1123749899185747   T   T   T
  0.7495615343026305  0.1241576161388247  0.0594577468946302   T   T   T
  0.9162271150671840  0.1240834948452398  0.0593645530272500   T   T   T
  0.5829248550518995  0.3740603551050416  0.0593519404290182   T   T   T
  0.7495671737208890  0.3739866118666104  0.0593201147488663   T   T   T
  0.9161978678082120  0.3740707789100082  0.0593613795521517   T   T   T
  0.5828944938142260  0.1240910117918836  0.0593694777614032   T   T   T
  0.9995595806573470  0.0004005051278020  0.1392626070548361   T   T   T
  0.6663511835017004  0.0007857131568659  0.1394105624510124   T   T   T
  0.8326763121641368  0.0008058316704212  0.1393986543138633   T   T   T
  0.9995041510985917  0.2505926020420037  0.1392134094394865   T   T   T
  0.6659510797391850  0.2507177707654704  0.1393509761854826   T   T   T
  0.8328460095267456  0.2506172693510115  0.1393270473344115   T   T   T
  0.5827842152258222  0.1252397674561493  0.1656020294843226   T   T   T
  0.7493409934872833  0.1265444528263065  0.1661080003136176   T   T   T
  0.9163396168335943  0.1251186643094715  0.1655247911735946   T   T   T
  0.5826470201250757  0.3755729910665643  0.1656487605943639   T   T   T
  0.7492917781869503  0.3746668432687149  0.1656368995508312   T   T   T
  0.9162224005327591  0.3754734074823164  0.1656834593352055   T   T   T
  0.6653582915221550  0.4986893616482335  0.1925455263695940   T   T   T
  0.8333241378566165  0.4985994078307243  0.1926350249078949   T   T   T
  0.9996889750361345  0.4992127032384956  0.1922985654415712   T   T   T
  0.6647855948034381  0.2511581907484844  0.1927441308755354   T   T   T
  0.9999121920216777  0.2484991695927294  0.1920419324389829   T   T   T
  0.8338860443105298  0.2495130321857731  0.1924374914336096   T   T   T
  0.9994778098577007  0.0004063823946138  0.0859822146840139   T   T   T
  0.6661548169624970  0.0004888759002644  0.0860535305775845   T   T   T
  0.8327696107694637  0.0004811301651127  0.0860473623281607   T   T   T
  0.9995541744510246  0.2504517399564581  0.0859894575587994   T   T   T
  0.6661822598225329  0.2503960605570444  0.0860323980327947   T   T   T
  0.8329081115228844  0.2503801331248540  0.0860374164783428   T   T   T
  0.5828227178331957  0.1255906005296432  0.1123840612933494   T   T   T
  0.7494863308230597  0.1256550597672428  0.1125297706225908   T   T   T
  0.9162115719540372  0.1255366687832024  0.1123535204153320   T   T   T