C H O Si                                
   1.00000000000000     
     9.2874599999999994    0.0000000000000000    0.0000000000000000
     0.0000000000000000    8.7562999999999995    0.0000000000000000
     0.0000000000000000    0.0000000000000000   90.0000000000000000
   C    H    O    Si
    36    33    16    36
Selective dynamics
Direct
  0.0006142810695215  0.1351418511319190  0.4232238298440755   T   T   T
  0.0005796058725202  0.6352916482211092  0.4232352126814070   T   T   T
  0.3339266941066392  0.1352115314324034  0.4232818158383057   T   T   T
  0.3338848363743542  0.6351262830461120  0.4232891833249511   T   T   T
  0.6672060493353791  0.1351323036807928  0.4232739940661108   T   T   T
  0.6672328950635580  0.6351036304735318  0.4232741361203294   T   T   T
  0.1675870918742896  0.3816216686217869  0.4395957089816872   T   T   T
  0.1676504730982337  0.8816297712610337  0.4396116833217929   T   T   T
  0.5009379220160481  0.3815754592566157  0.4396653237546693   T   T   T
  0.5009318978487201  0.8815292812128139  0.4396321168844426   T   T   T
  0.8342243985816401  0.3815871400511071  0.4395714537806946   T   T   T
  0.8341466768737098  0.8816767788437633  0.4395967177150134   T   T   T
  0.0009746418860017  0.1313006860557135  0.4570906712789352   T   T   T
  0.0009353514589080  0.6314728790027001  0.4570984841412256   T   T   T
  0.3344231279876455  0.1313455657876146  0.4571489672584742   T   T   T
  0.3343522222806503  0.6312196914141295  0.4571648949639183   T   T   T
  0.6674827276884778  0.1313892856569420  0.4571444943509718   T   T   T
  0.6675565101197892  0.6313521586955851  0.4571407034164361   T   T   T
  0.1677262797174140  0.3813277583504903  0.4740844828540073   T   T   T
  0.1679673097562442  0.8814392819052282  0.4741232412328509   T   T   T
  0.5009750782029865  0.3817688063790551  0.4742463931372268   T   T   T
  0.5010162140444997  0.8811564935395686  0.4741591475261201   T   T   T
  0.8342943785427559  0.3813166776238937  0.4740595697417858   T   T   T
  0.8341293056627469  0.8815122891773833  0.4741205822259396   T   T   T
  0.0011699753426780  0.1310458656434002  0.4915360452824863   T   T   T
  0.0011326710587581  0.6317665008535291  0.4915888626180038   T   T   T
  0.3348612974823700  0.1321958230658842  0.4916995173080741   T   T   T
  0.3341124405683178  0.6318953193690189  0.4917536986593681   T   T   T
  0.6670139680209047  0.1321025236311260  0.4916876699711323   T   T   T
  0.6679782855485158  0.6320034762915131  0.4916774280513359   T   T   T
  0.1673177725827369  0.3834973143340294  0.5078144944581919   T   T   T
  0.1670547493296163  0.8858493447597449  0.5080028760949412   T   T   T
  0.5009069071940354  0.3892017182473500  0.5084969010570065   T   T   T
  0.5005727121678316  0.8851597271900220  0.5080650452766816   T   T   T
  0.8349826432091064  0.3829539135590403  0.5077202531573168   T   T   T
  0.8340861248410012  0.8858208003152360  0.5079607742098060   T   T   T
  0.0033858263945691  0.0618072823012311  0.4132831304143130   T   T   T
  0.0032558432112249  0.5619721938795010  0.4132929946875750   T   T   T
  0.3366970213538796  0.0618200892448230  0.4133454390899237   T   T   T
  0.3365065187328082  0.5616392614679327  0.4133603454505111   T   T   T
  0.6695330477679671  0.0617074777202356  0.4133393278490340   T   T   T
  0.6698115433338988  0.5617100533413732  0.4133383480941220   T   T   T
  0.1693423562153294  0.3106985686212167  0.5177890419790998   T   T   T
  0.1691555043652490  0.8121940382265681  0.5179169282086882   T   T   T
  0.5043050564023538  0.3145128359950900  0.5183417088913148   T   T   T
  0.5016821930916184  0.8120646444933498  0.5180260262960463   T   T   T
  0.8377220152359239  0.3100817467149879  0.5176870539129184   T   T   T
  0.8361985285102114  0.8130958069936528  0.5179271606518500   T   T   T
  0.0882659667207272  0.1181638929770452  0.5288030242280308   T   T   T
  0.0893219037311409  0.6116887068296669  0.5286007104838029   T   T   T
  0.4218912289536676  0.1186530765972893  0.5288407249164967   T   T   T
  0.3832084391520923  0.6363131888040409  0.5309631428972008   T   T   T
  0.7573413167456042  0.1166488354189723  0.5287820228293415   T   T   T
  0.7904465784989209  0.6002214964522334  0.5277842914363897   T   T   T
  0.2569767624757660  0.3661773621793882  0.4024456670996262   T   T   T
  0.2571144533958902  0.8661174613935599  0.4024620025870881   T   T   T
  0.5896747418422790  0.3663924399772882  0.4024803460856065   T   T   T
  0.5895155928612787  0.8662081144538675  0.4024440071332738   T   T   T
  0.9218135558207035  0.3667710399578299  0.4023535870805130   T   T   T
  0.9217974830876370  0.8669131402190607  0.4023811057985298   T   T   T
  0.5462636116332791  0.6173594437551919  0.5594850442829288   T   T   T
  0.4889583541927455  0.4773244402944120  0.5718143072800800   T   T   T
  0.5680585135642201  0.6392954825644754  0.5783654355043520   T   T   T
  0.3101772046505014  0.3852402677481155  0.5823586049099678   T   T   T
  0.4233299774678658  0.2602867680818075  0.5781728512438219   T   T   T
  0.6457627180254755  0.7344331073586381  0.5979834131687111   T   T   T
  0.4813553695458512  0.7649597061257464  0.5957431561613804   T   T   T
  0.5332901644680597  0.8049180639834033  0.5466252578434408   T   T   T
  0.5947174133916542  0.6586712085260942  0.5374680360642274   T   T   T
  0.1605207912400418  0.3403587409000783  0.4060011069372569   T   T   T
  0.1606172099995581  0.8404252693771662  0.4060170757562351   T   T   T
  0.4933240272486811  0.3405612634906497  0.4060686174506944   T   T   T
  0.4932237361148549  0.8402218707217349  0.4060343297536517   T   T   T
  0.8258673688739121  0.3400208082523024  0.4059765488215938   T   T   T
  0.8258291504750829  0.8402404574260939  0.4060044717699008   T   T   T
  0.9923942280809628  0.0914206922347054  0.5251558080074845   T   T   T
  0.9918577197353757  0.5876310312403636  0.5250424210568793   T   T   T
  0.3260561240631981  0.0908793710625471  0.5252573193898817   T   T   T
  0.3045969883616351  0.5897527963336866  0.5252886947681987   T   T   T
  0.6607465070483007  0.0912612433377006  0.5252254654585640   T   T   T
  0.6871515797754203  0.5911734726400817  0.5252793588556911   T   T   T
  0.5666806939505939  0.5604059032286531  0.5697017464886157   T   T   T
  0.3789653653181607  0.3548696244388045  0.5747128532202117   T   T   T
  0.5730648275421212  0.7576509339335969  0.5904907663367275   T   T   T
  0.5224344375469202  0.6947375246243087  0.5454705520106031   T   T   T
  0.1670679723723945  0.2523566534058443  0.4229929542503166   T   T   T
  0.1670991524365453  0.7523694577728738  0.4230055617640351   T   T   T
  0.5003583321790113  0.2522953074291748  0.4230511330501969   T   T   T
  0.5003307441858096  0.7521989617916525  0.4230282910851886   T   T   T
  0.8336346140480863  0.2522032403054769  0.4229786240392636   T   T   T
  0.8335636035447241  0.7523153080662999  0.4230015473106934   T   T   T
  0.0008932331164107  0.0053946753751751  0.4400876766711690   T   T   T
  0.0008771121268822  0.5054616985480480  0.4400882935549095   T   T   T
  0.3343163058006209  0.0054080452805045  0.4401306196352846   T   T   T
  0.3342569097942478  0.5053558337919186  0.4401437674725854   T   T   T
  0.6674433659837141  0.0054371211293711  0.4401268799322141   T   T   T
  0.6675169534336644  0.5053668091405038  0.4401245594683042   T   T   T
  0.1677110103331435  0.2558019929251687  0.4569767956682812   T   T   T
  0.1678105260315422  0.7558454023380460  0.4570025039146810   T   T   T
  0.5009297753739173  0.2559633503280267  0.4570741289062823   T   T   T
  0.5009105524373709  0.7557518904133590  0.4570207639876306   T   T   T
  0.8342716013971063  0.2557677648966912  0.4569548277257581   T   T   T
  0.8341848598836714  0.7559110343188076  0.4569960649181853   T   T   T
  0.0011038661281457  0.0055464003007767  0.4741930399281087   T   T   T
  0.0010510416528123  0.5058651383713600  0.4741891077700178   T   T   T
  0.3346895369184939  0.0060499207013366  0.4742729999381025   T   T   T
  0.3341615872573335  0.5060281010111339  0.4743124257632659   T   T   T
  0.6672960302283111  0.0060245503184599  0.4742667520833922   T   T   T
  0.6678069817958717  0.5058983721676453  0.4742473720371754   T   T   T
  0.1676205689290617  0.2548169537846637  0.4910315730172295   T   T   T
  0.1676227214481353  0.7559423194020575  0.4911482331845276   T   T   T
  0.5009191540275595  0.2572332517697702  0.4913519543822658   T   T   T
  0.5008264984267166  0.7554300945068860  0.4911840447095281   T   T   T
  0.8345745001089133  0.2542099488646141  0.4909563554056695   T   T   T
  0.8346199932570919  0.7559210879069507  0.4911263562087052   T   T   T
  0.0003313808860581  0.0028706421508893  0.5081882685610948   T   T   T
  0.0009058852756695  0.5004727662092411  0.5079814102826603   T   T   T
  0.3334959934399089  0.0027633676234582  0.5082778070151285   T   T   T
  0.3314321302597414  0.5039537998486183  0.5084721672013485   T   T   T
  0.6672068791947060  0.0026851958238256  0.5082658473462540   T   T   T
  0.6702063945947875  0.5018978315566648  0.5081062265493571   T   T   T
 
  0.00000000E+00  0.00000000E+00  0.00000000E+00
  0.00000000E+00  0.00000000E+00  0.00000000E+00
  0.00000000E+00  0.00000000E+00  0.00000000E+00
  0.00000000E+00  0.00000000E+00  0.00000000E+00
  0.00000000E+00  0.00000000E+00  0.00000000E+00
  0.00000000E+00  0.00000000E+00  0.00000000E+00
  0.00000000E+00  0.00000000E+00  0.00000000E+00
  0.00000000E+00  0.00000000E+00  0.00000000E+00
  0.00000000E+00  0.00000000E+00  0.00000000E+00
  0.00000000E+00  0.00000000E+00  0.00000000E+00
  0.00000000E+00  0.00000000E+00  0.00000000E+00
  0.00000000E+00  0.00000000E+00  0.00000000E+00
  0.00000000E+00  0.00000000E+00  0.00000000E+00
  0.00000000E+00  0.00000000E+00  0.00000000E+00
  0.00000000E+00  0.00000000E+00  0.00000000E+00
  0.00000000E+00  0.00000000E+00  0.00000000E+00
  0.00000000E+00  0.00000000E+00  0.00000000E+00
  0.00000000E+00  0.00000000E+00  0.00000000E+00
  0.00000000E+00  0.00000000E+00  0.00000000E+00
  0.00000000E+00  0.00000000E+00  0.00000000E+00
  0.00000000E+00  0.00000000E+00  0.00000000E+00
  0.00000000E+00  0.00000000E+00  0.00000000E+00
  0.00000000E+00  0.00000000E+00  0.00000000E+00
  0.00000000E+00  0.00000000E+00  0.00000000E+00
  0.00000000E+00  0.00000000E+00  0.00000000E+00
  0.00000000E+00  0.00000000E+00  0.00000000E+00
  0.00000000E+00  0.00000000E+00  0.00000000E+00
  0.00000000E+00  0.00000000E+00  0.00000000E+00
  0.00000000E+00  0.00000000E+00  0.00000000E+00
  0.00000000E+00  0.00000000E+00  0.00000000E+00
  0.00000000E+00  0.00000000E+00  0.00000000E+00
  0.00000000E+00  0.00000000E+00  0.00000000E+00
  0.00000000E+00  0.00000000E+00  0.00000000E+00
  0.00000000E+00  0.00000000E+00  0.00000000E+00
  0.00000000E+00  0.00000000E+00  0.00000000E+00
  0.00000000E+00  0.00000000E+00  0.00000000E+00
  0.00000000E+00  0.00000000E+00  0.00000000E+00
  0.00000000E+00  0.00000000E+00  0.00000000E+00
  0.00000000E+00  0.00000000E+00  0.00000000E+00
  0.00000000E+00  0.00000000E+00  0.00000000E+00
  0.00000000E+00  0.00000000E+00  0.00000000E+00
  0.00000000E+00  0.00000000E+00  0.00000000E+00
  0.00000000E+00  0.00000000E+00  0.00000000E+00
  0.00000000E+00  0.00000000E+00  0.00000000E+00
  0.00000000E+00  0.00000000E+00  0.00000000E+00
  0.00000000E+00  0.00000000E+00  0.00000000E+00
  0.00000000E+00  0.00000000E+00  0.00000000E+00
  0.00000000E+00  0.00000000E+00  0.00000000E+00
  0.00000000E+00  0.00000000E+00  0.00000000E+00
  0.00000000E+00  0.00000000E+00  0.00000000E+00
  0.00000000E+00  0.00000000E+00  0.00000000E+00
  0.00000000E+00  0.00000000E+00  0.00000000E+00
  0.00000000E+00  0.00000000E+00  0.00000000E+00
  0.00000000E+00  0.00000000E+00  0.00000000E+00
  0.00000000E+00  0.00000000E+00  0.00000000E+00
  0.00000000E+00  0.00000000E+00  0.00000000E+00
  0.00000000E+00  0.00000000E+00  0.00000000E+00
  0.00000000E+00  0.00000000E+00  0.00000000E+00
  0.00000000E+00  0.00000000E+00  0.00000000E+00
  0.00000000E+00  0.00000000E+00  0.00000000E+00
  0.00000000E+00  0.00000000E+00  0.00000000E+00
  0.00000000E+00  0.00000000E+00  0.00000000E+00
  0.00000000E+00  0.00000000E+00  0.00000000E+00
  0.00000000E+00  0.00000000E+00  0.00000000E+00
  0.00000000E+00  0.00000000E+00  0.00000000E+00
  0.00000000E+00  0.00000000E+00  0.00000000E+00
  0.00000000E+00  0.00000000E+00  0.00000000E+00
  0.00000000E+00  0.00000000E+00  0.00000000E+00
  0.00000000E+00  0.00000000E+00  0.00000000E+00
  0.00000000E+00  0.00000000E+00  0.00000000E+00
  0.00000000E+00  0.00000000E+00  0.00000000E+00
  0.00000000E+00  0.00000000E+00  0.00000000E+00
  0.00000000E+00  0.00000000E+00  0.00000000E+00
  0.00000000E+00  0.00000000E+00  0.00000000E+00
  0.00000000E+00  0.00000000E+00  0.00000000E+00
  0.00000000E+00  0.00000000E+00  0.00000000E+00
  0.00000000E+00  0.00000000E+00  0.00000000E+00
  0.00000000E+00  0.00000000E+00  0.00000000E+00
  0.00000000E+00  0.00000000E+00  0.00000000E+00
  0.00000000E+00  0.00000000E+00  0.00000000E+00
  0.00000000E+00  0.00000000E+00  0.00000000E+00
  0.00000000E+00  0.00000000E+00  0.00000000E+00
  0.00000000E+00  0.00000000E+00  0.00000000E+00
  0.00000000E+00  0.00000000E+00  0.00000000E+00
  0.00000000E+00  0.00000000E+00  0.00000000E+00
  0.00000000E+00  0.00000000E+00  0.00000000E+00
  0.00000000E+00  0.00000000E+00  0.00000000E+00
  0.00000000E+00  0.00000000E+00  0.00000000E+00
  0.00000000E+00  0.00000000E+00  0.00000000E+00
  0.00000000E+00  0.00000000E+00  0.00000000E+00
  0.00000000E+00  0.00000000E+00  0.00000000E+00
  0.00000000E+00  0.00000000E+00  0.00000000E+00
  0.00000000E+00  0.00000000E+00  0.00000000E+00
  0.00000000E+00  0.00000000E+00  0.00000000E+00
  0.00000000E+00  0.00000000E+00  0.00000000E+00
  0.00000000E+00  0.00000000E+00  0.00000000E+00
  0.00000000E+00  0.00000000E+00  0.00000000E+00
  0.00000000E+00  0.00000000E+00  0.00000000E+00
  0.00000000E+00  0.00000000E+00  0.00000000E+00
  0.00000000E+00  0.00000000E+00  0.00000000E+00
  0.00000000E+00  0.00000000E+00  0.00000000E+00
  0.00000000E+00  0.00000000E+00  0.00000000E+00
  0.00000000E+00  0.00000000E+00  0.00000000E+00
  0.00000000E+00  0.00000000E+00  0.00000000E+00
  0.00000000E+00  0.00000000E+00  0.00000000E+00
  0.00000000E+00  0.00000000E+00  0.00000000E+00
  0.00000000E+00  0.00000000E+00  0.00000000E+00
  0.00000000E+00  0.00000000E+00  0.00000000E+00
  0.00000000E+00  0.00000000E+00  0.00000000E+00
  0.00000000E+00  0.00000000E+00  0.00000000E+00
  0.00000000E+00  0.00000000E+00  0.00000000E+00
  0.00000000E+00  0.00000000E+00  0.00000000E+00
  0.00000000E+00  0.00000000E+00  0.00000000E+00
  0.00000000E+00  0.00000000E+00  0.00000000E+00
  0.00000000E+00  0.00000000E+00  0.00000000E+00
  0.00000000E+00  0.00000000E+00  0.00000000E+00
  0.00000000E+00  0.00000000E+00  0.00000000E+00
  0.00000000E+00  0.00000000E+00  0.00000000E+00
  0.00000000E+00  0.00000000E+00  0.00000000E+00
  0.00000000E+00  0.00000000E+00  0.00000000E+00
  0.00000000E+00  0.00000000E+00  0.00000000E+00
