C H O Si                                
   1.00000000000000     
     9.2874599999999994    0.0000000000000000    0.0000000000000000
     0.0000000000000000   17.5126199999999983    0.0000000000000000
     0.0000000000000000    0.0000000000000000   58.0000000000000000
   C    H    O    Si
    72    57    28    72
Selective dynamics
Direct
  0.9965078250289884  0.0651915195596272  0.0594965582024834   T   T   T
  0.3300280824535957  0.0652353584787865  0.0595885060280644   T   T   T
  0.6632038845814173  0.0651838714500369  0.0596122312503226   T   T   T
  0.9964557371413461  0.3152648240340119  0.0595184647787276   T   T   T
  0.3298888804722434  0.3151083436610208  0.0595682889986230   T   T   T
  0.6631897200791605  0.3150804065795967  0.0596064013605258   T   T   T
  0.1623249270732854  0.1879774690132123  0.1383235913886488   T   T   T
  0.4954257632954072  0.1884220139946576  0.1387216507112850   T   T   T
  0.8287249661845347  0.1880802302172559  0.1383591417558607   T   T   T
  0.1622695452762931  0.4381256119635811  0.1384568936334387   T   T   T
  0.4954021522647787  0.4372281128859712  0.1384258055324621   T   T   T
  0.8287848530199488  0.4381659322324477  0.1385167608660816   T   T   T
  0.3297908549206552  0.0633710389981151  0.1657009965689119   T   T   T
  0.6616799038960456  0.0635325501337176  0.1657514044453147   T   T   T
  0.9954314539639686  0.0625431331081349  0.1654170301063099   T   T   T
  0.3284042203242747  0.3133692619079485  0.1658177053197425   T   T   T
  0.6627292147877112  0.3134304171945841  0.1658185841321881   T   T   T
  0.9955500109829004  0.3131525172786772  0.1654786929371200   T   T   T
  0.1620616618453970  0.1888147212008157  0.1904283079400402   T   T   T
  0.4950561457280455  0.1925145050163493  0.1918502233308622   T   T   T
  0.8293208503162216  0.1892757574837353  0.1906307053651575   T   T   T
  0.1622117725182971  0.4404203086804691  0.1908918752405129   T   T   T
  0.4953984802894048  0.4388477762029322  0.1913834909546863   T   T   T
  0.8293038298970460  0.4404734847415777  0.1910858732733078   T   T   T
  0.1627233316580713  0.1881504378569165  0.0848517378964164   T   T   T
  0.4959121226841569  0.1882299368838859  0.0850419139523581   T   T   T
  0.8293290310619347  0.1881261799594825  0.0848860404092999   T   T   T
  0.1627376278032424  0.4381898531671914  0.0849169516646186   T   T   T
  0.4959060274772820  0.4381115475566624  0.0848448745261848   T   T   T
  0.8292728101110021  0.4382174296113213  0.0849446026234356   T   T   T
  0.3291921961631346  0.0631610520951010  0.1121308442133603   T   T   T
  0.6623679379301524  0.0631164965365092  0.1121513947507037   T   T   T
  0.9955897893754290  0.0630096019003702  0.1120486692823035   T   T   T
  0.3289783758318283  0.3129784817367625  0.1121328581126236   T   T   T
  0.6625417692035498  0.3130007340413544  0.1121566097340429   T   T   T
  0.9955926360810552  0.3130577861988239  0.1120504644051990   T   T   T
  0.9965260920969213  0.5652856153713622  0.0596036966881329   T   T   T
  0.3299207951158959  0.5652721549837093  0.0595751231578830   T   T   T
  0.6632842536436988  0.5652565049948840  0.0596214204730843   T   T   T
  0.9965584311402796  0.8153966889546413  0.0595766307575282   T   T   T
  0.3299924448495008  0.8152761928291701  0.0595778713395426   T   T   T
  0.6632581114951537  0.8152572587917358  0.0595953463201687   T   T   T
  0.1620618746432881  0.6883107197714893  0.1384472973616609   T   T   T
  0.4955059261657860  0.6880356176169976  0.1385065423574566   T   T   T
  0.8290656201142769  0.6883281358410325  0.1384735266737014   T   T   T
  0.1625879333590257  0.9380943912553291  0.1384620191210426   T   T   T
  0.4954903845989050  0.9380199102916982  0.1384881431936452   T   T   T
  0.8285071778560503  0.9381372409823863  0.1384680879476120   T   T   T
  0.3282853637144034  0.5634145409732768  0.1656944765467150   T   T   T
  0.6631729297462905  0.5631856488767990  0.1658458618361985   T   T   T
  0.9956664992108016  0.5635115930366743  0.1656265181704475   T   T   T
  0.3292777935762559  0.8132361489291010  0.1656476368327964   T   T   T
  0.6626013614038917  0.8131855634250094  0.1656600754722557   T   T   T
  0.9958118210618950  0.8133489928514724  0.1656484476827954   T   T   T
  0.1626506335809869  0.6903643627760451  0.1909746731143622   T   T   T
  0.4962019646974762  0.6902586268407064  0.1910474334231465   T   T   T
  0.8295458920691465  0.6904304655709546  0.1910203638626874   T   T   T
  0.1626341220502717  0.9402695891257088  0.1910036136245773   T   T   T
  0.4960232953007717  0.9402342880838650  0.1910462082584233   T   T   T
  0.8292080583141564  0.9402724526047163  0.1910143917973113   T   T   T
  0.1627379549917562  0.6882919991419718  0.0849315154995287   T   T   T
  0.4959841873582586  0.6882438737920179  0.0849339060879182   T   T   T
  0.8293980997243446  0.6883038500731106  0.0849531636075184   T   T   T
  0.1628773430753310  0.9383157693280566  0.0849231453706023   T   T   T
  0.4959609416383302  0.9382760536024826  0.0849485414031407   T   T   T
  0.8292510854047124  0.9382917312573169  0.0849317918128544   T   T   T
  0.3290708908998527  0.5630184452905188  0.1121165875154222   T   T   T
  0.6624802289084831  0.5629877766464838  0.1121706830106862   T   T   T
  0.9956473173504552  0.5631243704288578  0.1121244330285803   T   T   T
  0.3291633310892489  0.8131354069878949  0.1121032568728583   T   T   T
  0.6624838061379403  0.8130957194233799  0.1121140033511445   T   T   T
  0.9956768676315163  0.8133284949102659  0.1121070532094184   T   T   T
  0.0786315611006277  0.1799460481979149  0.0262599723865243   T   T   T
  0.4118137275229891  0.1800951146098478  0.0264092689300586   T   T   T
  0.7442008974704873  0.1798721394926514  0.0263467799622488   T   T   T
  0.0783848401998742  0.4299495760309107  0.0263305439126082   T   T   T
  0.4118659200588864  0.4297418401295498  0.0262289360902726   T   T   T
  0.7439545995238838  0.4297376868817537  0.0263933325642091   T   T   T
  0.3281464478234840  0.0288440675196863  0.0441036844975394   T   T   T
  0.6604733201648995  0.0288202219171197  0.0441222269314556   T   T   T
  0.9941869670233545  0.0287954646010759  0.0440141041615382   T   T   T
  0.3272308354240326  0.2786781476643610  0.0440943487035924   T   T   T
  0.6611146756253655  0.2786691936258092  0.0441242874118241   T   T   T
  0.9941481694069789  0.2789674394453734  0.0440111367616441   T   T   T
  0.8318801662725519  0.4036590500092535  0.2064716159055570   T   T   T
  0.8327550488309282  0.1531454687823464  0.2061642378787028   T   T   T
  0.1637157638057329  0.1530764585281649  0.2060493923245627   T   T   T
  0.4982013356908512  0.1556375599128645  0.2072262542400670   T   T   T
  0.1649012764251049  0.4036538934291806  0.2062868912738682   T   T   T
  0.5391288103372643  0.4652677350146497  0.2617686088251011   T   T   T
  0.0829173034375328  0.0558237606002350  0.2238096290822211   T   T   T
  0.4160705073389189  0.0557864293142760  0.2239728841149330   T   T   T
  0.7487167274381177  0.0559243470749535  0.2240416745553107   T   T   T
  0.0926355347554380  0.3004527740469227  0.2224784962571869   T   T   T
  0.3666183453258827  0.2833720759446882  0.2304637575733508   T   T   T
  0.7821129526315442  0.2960629615354423  0.2228592346861903   T   T   T
  0.5006758472595650  0.2713860248718236  0.2661387276138393   T   T   T
  0.4719610238751257  0.2278396644449599  0.3007075580542796   T   T   T
  0.5199267952075428  0.3121004379004054  0.3086241519630284   T   T   T
  0.2894428787169887  0.1365337286781089  0.2961023392578379   T   T   T
  0.4375715930306344  0.1074700454575761  0.2876949923736029   T   T   T
  0.6377934698095551  0.3861022983861320  0.3348849816670447   T   T   T
  0.5033472531773898  0.4318425713274047  0.3270996508074376   T   T   T
  0.5058949193132951  0.4401919831303812  0.2708242296939102   T   T   T
  0.5682882024120604  0.2685952405611000  0.2406098162330493   T   T   T
  0.0780358094462616  0.6799798116670763  0.0263644341279207   T   T   T
  0.4115652915303186  0.6799503441454638  0.0263363190750696   T   T   T
  0.7449901608227179  0.6799436141943613  0.0263515330456974   T   T   T
  0.0787349312420348  0.9299947922186993  0.0262762989072980   T   T   T
  0.4114723056044172  0.9298590450735197  0.0263447540431494   T   T   T
  0.7446042625300605  0.9298709537148019  0.0263289394860420   T   T   T
  0.3275591750693023  0.5289539162768929  0.0440749656272663   T   T   T
  0.6610501538432699  0.5289589248630445  0.0441185995125001   T   T   T
  0.9942429833660953  0.5289476135024509  0.0441088853851499   T   T   T
  0.3276583196891038  0.7789559183388335  0.0440775336393310   T   T   T
  0.6608157766610282  0.7789687733876393  0.0440897399159086   T   T   T
  0.9942509154064139  0.7790292638077871  0.0440842598096347   T   T   T
  0.8317413807982216  0.9039840264685222  0.2065183621810931   T   T   T
  0.8317777889198580  0.6538509713065291  0.2064606367855217   T   T   T
  0.1659459500196073  0.6536617264086718  0.2063870493078397   T   T   T
  0.4981469334488152  0.6533746306882311  0.2064342899527238   T   T   T
  0.1651772122363573  0.9039712322554497  0.2065088502293080   T   T   T
  0.4985597872216125  0.9039107308806127  0.2065409081164539   T   T   T
  0.0887557250150246  0.5539140057452835  0.2234453236889125   T   T   T
  0.4163376629853660  0.5498892403863549  0.2243167995153298   T   T   T
  0.7555800589835131  0.5552316400529043  0.2230116267271843   T   T   T
  0.0838438952939054  0.8045714398305281  0.2240551971887169   T   T   T
  0.4163687026484572  0.8046130117098531  0.2240822649904567   T   T   T
  0.7513611148131158  0.8043367725061294  0.2240080001100584   T   T   T
  0.1726037948401625  0.1684632524706097  0.0329776200029858   T   T   T
  0.5058137138641108  0.1686120874325854  0.0331218608786169   T   T   T
  0.8384709855354336  0.1685053112023226  0.0329934892702536   T   T   T
  0.1724429615409667  0.4185280941239424  0.0330333103529159   T   T   T
  0.5058719245283610  0.4183313667621378  0.0329539797218587   T   T   T
  0.8382474098673134  0.4185625410524863  0.0330453492778458   T   T   T
  0.3214062287055799  0.0435629127921751  0.2176005405696588   T   T   T
  0.6543058060441078  0.0433476230952494  0.2176550329219441   T   T   T
  0.9881753062105343  0.0436734049193334  0.2174477837572617   T   T   T
  0.2979874719790269  0.2945404536947078  0.2175731355921492   T   T   T
  0.6805048748611940  0.2913431185723063  0.2183173425213941   T   T   T
  0.9925204132937758  0.2915748291924724  0.2172896302814443   T   T   T
  0.5274459103114555  0.2736406818035342  0.2961254006296197   T   T   T
  0.3899770402500568  0.1319674434754606  0.3007407401303815   T   T   T
  0.5357192057746554  0.3807291539727042  0.3312808269758015   T   T   T
  0.4840572307589245  0.2532225158947352  0.2501610222022280   T   T   T
  0.1721809868746694  0.6685171435564162  0.0330365181408006   T   T   T
  0.5056643551990115  0.6684794173191773  0.0330245860954653   T   T   T
  0.8390603781534782  0.6685855361623841  0.0330597532018680   T   T   T
  0.1726688432727576  0.9185825425899066  0.0330310592900796   T   T   T
  0.5055892075176482  0.9186970791096812  0.0330691422192503   T   T   T
  0.8387302476731596  0.9186244053087875  0.0330439083056605   T   T   T
  0.3214124400614733  0.5457597007040376  0.2171570274068713   T   T   T
  0.6579256025042586  0.5447381343600554  0.2175999058385046   T   T   T
  0.9916555329083214  0.5442252391163066  0.2175411466249252   T   T   T
  0.3215425546197027  0.7938838975944106  0.2175342941996620   T   T   T
  0.6561292870133278  0.7940692979897469  0.2175502153567025   T   T   T
  0.9888727155444832  0.7938132074658675  0.2175709907654352   T   T   T
  0.4968048102845344  0.1239476668083160  0.0590166221388297   T   T   T
  0.8299599600014574  0.1238700271170708  0.0588885987036355   T   T   T
  0.1634494902905392  0.3738642680334350  0.0589348867018087   T   T   T
  0.4967040939199015  0.3738536851975157  0.0589036008175756   T   T   T
  0.8298375955636755  0.3739065700697799  0.0589495639084496   T   T   T
  0.1634442259050712  0.1238451411547377  0.0588719491130781   T   T   T
  0.9954919071549868  0.0002260773877219  0.1386412255063719   T   T   T
  0.3293665684756653  0.0006428239978129  0.1387870710365775   T   T   T
  0.6617723372807787  0.0006975736388167  0.1388081666752504   T   T   T
  0.9955178195916285  0.2505762748797570  0.1387113188684083   T   T   T
  0.3287531777300245  0.2511743211920789  0.1390175202620184   T   T   T
  0.6621412514878566  0.2511567094905466  0.1390086734093211   T   T   T
  0.1621152071866100  0.1247933398173944  0.1647875373654591   T   T   T
  0.4953738859845059  0.1267030084354165  0.1655531974707746   T   T   T
  0.8290531343821347  0.1250237397130948  0.1648573553742700   T   T   T
  0.1625531034446618  0.3754889204297773  0.1651529485690220   T   T   T
  0.4952871049006899  0.3771442221193540  0.1664629516524108   T   T   T
  0.8286821101578247  0.3755986452267675  0.1652546717451777   T   T   T
  0.3345670339367932  0.4957558610219163  0.1917991250874618   T   T   T
  0.6561386178725604  0.4956432368939585  0.1920825190169661   T   T   T
  0.9958753660815876  0.4986999406266867  0.1916360844582554   T   T   T
  0.3254756158304822  0.2505821171853166  0.1921629783433214   T   T   T
  0.9959730428899906  0.2477577572667566  0.1911933523242595   T   T   T
  0.6644047737829624  0.2498722050461615  0.1918941312651933   T   T   T
  0.9960119425619440  0.0003521802026021  0.0855054621415153   T   T   T
  0.3294667634740055  0.0004049119533286  0.0855762647750206   T   T   T
  0.6626260920756234  0.0003795296693651  0.0855915307829069   T   T   T
  0.9959905636430267  0.2503706784672495  0.0855189691792002   T   T   T
  0.3292961117399448  0.2504186098239666  0.0856246659594042   T   T   T
  0.6627289727442673  0.2504056787542426  0.0856423087890589   T   T   T
  0.1623216056703791  0.1255799205483094  0.1118223548868107   T   T   T
  0.4956498042545621  0.1257964373053716  0.1120749474861926   T   T   T
  0.8289251817043551  0.1255801323171877  0.1118535352403337   T   T   T
  0.1624593962830872  0.3755626980759813  0.1119542787239916   T   T   T
  0.4956489565979679  0.3756875161031356  0.1120244628317827   T   T   T
  0.8288073939463260  0.3756114543344972  0.1119945853130256   T   T   T
  0.4967651388282801  0.6238563029539217  0.0589402897175932   T   T   T
  0.8300428581566446  0.6239204151498209  0.0589623096870711   T   T   T
  0.1635199061358770  0.8739412693846076  0.0589202934424528   T   T   T
  0.4967826565971142  0.8739024078103892  0.0589393402304409   T   T   T
  0.8299529283476268  0.8739523015254018  0.0589274603136566   T   T   T
  0.1634350606534153  0.6238860239317913  0.0589406010653274   T   T   T
  0.9955653545296813  0.5004846058184783  0.1388477905622846   T   T   T
  0.3300043578466624  0.5002814875938879  0.1389707988204685   T   T   T
  0.6610272227953466  0.5002534619153414  0.1390515171618958   T   T   T
  0.9956416942331814  0.7504690130877008  0.1387338518598109   T   T   T
  0.3290489103042778  0.7502674170198642  0.1387498055926246   T   T   T
  0.6622095880651000  0.7502786185364786  0.1387646600155844   T   T   T
  0.1629804766000496  0.6249146759439472  0.1650616791472382   T   T   T
  0.4957905933954275  0.6243206530326787  0.1651597797416729   T   T   T
  0.8282934422329455  0.6248610914955800  0.1651184885971684   T   T   T
  0.1625147723432423  0.8752338966122228  0.1650523499885706   T   T   T
  0.4958256481325594  0.8751997106188943  0.1650877874492437   T   T   T
  0.8289637631498713  0.8752518530156372  0.1650624255721071   T   T   T
  0.3291379177887469  0.9989763736234413  0.1916846658455309   T   T   T
  0.6624186201576771  0.9989721650214656  0.1917117267655681   T   T   T
  0.9957302303407374  0.9988518993396094  0.1915638454585189   T   T   T
  0.3293718737065003  0.7485588638164694  0.1916723414525363   T   T   T
  0.9960195425743831  0.7487183265749739  0.1916752668968708   T   T   T
  0.6625703714328257  0.7486338975058452  0.1917082632207076   T   T   T
  0.9959844436846248  0.5003112134733628  0.0855939361940944   T   T   T
  0.3294987925523050  0.5003027426693385  0.0855881702852011   T   T   T
  0.6625050600887924  0.5002978088487182  0.0856253836321209   T   T   T
  0.9960592759035165  0.7503849941267169  0.0855660099065287   T   T   T
  0.3294174860756250  0.7502767959228962  0.0855566225045867   T   T   T
  0.6627088623847543  0.7502756004985990  0.0855630506752234   T   T   T
  0.1625054963847306  0.6253895562619252  0.1119283043214124   T   T   T
  0.4956862817880787  0.6253114710217003  0.1119457993071919   T   T   T
  0.8287877985953437  0.6254058135870867  0.1119567485523173   T   T   T
  0.1625335313137899  0.8755087862320253  0.1118655350487236   T   T   T
  0.4957379791725312  0.8754434798134618  0.1118867768503347   T   T   T
  0.8288137869594322  0.8755049174785089  0.1118748471868674   T   T   T
 
  0.00000000E+00  0.00000000E+00  0.00000000E+00
  0.00000000E+00  0.00000000E+00  0.00000000E+00
  0.00000000E+00  0.00000000E+00  0.00000000E+00
  0.00000000E+00  0.00000000E+00  0.00000000E+00
  0.00000000E+00  0.00000000E+00  0.00000000E+00
  0.00000000E+00  0.00000000E+00  0.00000000E+00
  0.00000000E+00  0.00000000E+00  0.00000000E+00
  0.00000000E+00  0.00000000E+00  0.00000000E+00
  0.00000000E+00  0.00000000E+00  0.00000000E+00
  0.00000000E+00  0.00000000E+00  0.00000000E+00
  0.00000000E+00  0.00000000E+00  0.00000000E+00
  0.00000000E+00  0.00000000E+00  0.00000000E+00
  0.00000000E+00  0.00000000E+00  0.00000000E+00
  0.00000000E+00  0.00000000E+00  0.00000000E+00
  0.00000000E+00  0.00000000E+00  0.00000000E+00
  0.00000000E+00  0.00000000E+00  0.00000000E+00
  0.00000000E+00  0.00000000E+00  0.00000000E+00
  0.00000000E+00  0.00000000E+00  0.00000000E+00
  0.00000000E+00  0.00000000E+00  0.00000000E+00
  0.00000000E+00  0.00000000E+00  0.00000000E+00
  0.00000000E+00  0.00000000E+00  0.00000000E+00
  0.00000000E+00  0.00000000E+00  0.00000000E+00
  0.00000000E+00  0.00000000E+00  0.00000000E+00
  0.00000000E+00  0.00000000E+00  0.00000000E+00
  0.00000000E+00  0.00000000E+00  0.00000000E+00
  0.00000000E+00  0.00000000E+00  0.00000000E+00
  0.00000000E+00  0.00000000E+00  0.00000000E+00
  0.00000000E+00  0.00000000E+00  0.00000000E+00
  0.00000000E+00  0.00000000E+00  0.00000000E+00
  0.00000000E+00  0.00000000E+00  0.00000000E+00
  0.00000000E+00  0.00000000E+00  0.00000000E+00
  0.00000000E+00  0.00000000E+00  0.00000000E+00
  0.00000000E+00  0.00000000E+00  0.00000000E+00
  0.00000000E+00  0.00000000E+00  0.00000000E+00
  0.00000000E+00  0.00000000E+00  0.00000000E+00
  0.00000000E+00  0.00000000E+00  0.00000000E+00
  0.00000000E+00  0.00000000E+00  0.00000000E+00
  0.00000000E+00  0.00000000E+00  0.00000000E+00
  0.00000000E+00  0.00000000E+00  0.00000000E+00
  0.00000000E+00  0.00000000E+00  0.00000000E+00
  0.00000000E+00  0.00000000E+00  0.00000000E+00
  0.00000000E+00  0.00000000E+00  0.00000000E+00
  0.00000000E+00  0.00000000E+00  0.00000000E+00
  0.00000000E+00  0.00000000E+00  0.00000000E+00
  0.00000000E+00  0.00000000E+00  0.00000000E+00
  0.00000000E+00  0.00000000E+00  0.00000000E+00
  0.00000000E+00  0.00000000E+00  0.00000000E+00
  0.00000000E+00  0.00000000E+00  0.00000000E+00
  0.00000000E+00  0.00000000E+00  0.00000000E+00
  0.00000000E+00  0.00000000E+00  0.00000000E+00
  0.00000000E+00  0.00000000E+00  0.00000000E+00
  0.00000000E+00  0.00000000E+00  0.00000000E+00
  0.00000000E+00  0.00000000E+00  0.00000000E+00
  0.00000000E+00  0.00000000E+00  0.00000000E+00
  0.00000000E+00  0.00000000E+00  0.00000000E+00
  0.00000000E+00  0.00000000E+00  0.00000000E+00
  0.00000000E+00  0.00000000E+00  0.00000000E+00
  0.00000000E+00  0.00000000E+00  0.00000000E+00
  0.00000000E+00  0.00000000E+00  0.00000000E+00
  0.00000000E+00  0.00000000E+00  0.00000000E+00
  0.00000000E+00  0.00000000E+00  0.00000000E+00
  0.00000000E+00  0.00000000E+00  0.00000000E+00
  0.00000000E+00  0.00000000E+00  0.00000000E+00
  0.00000000E+00  0.00000000E+00  0.00000000E+00
  0.00000000E+00  0.00000000E+00  0.00000000E+00
  0.00000000E+00  0.00000000E+00  0.00000000E+00
  0.00000000E+00  0.00000000E+00  0.00000000E+00
  0.00000000E+00  0.00000000E+00  0.00000000E+00
  0.00000000E+00  0.00000000E+00  0.00000000E+00
  0.00000000E+00  0.00000000E+00  0.00000000E+00
  0.00000000E+00  0.00000000E+00  0.00000000E+00
  0.00000000E+00  0.00000000E+00  0.00000000E+00
  0.00000000E+00  0.00000000E+00  0.00000000E+00
  0.00000000E+00  0.00000000E+00  0.00000000E+00
  0.00000000E+00  0.00000000E+00  0.00000000E+00
  0.00000000E+00  0.00000000E+00  0.00000000E+00
  0.00000000E+00  0.00000000E+00  0.00000000E+00
  0.00000000E+00  0.00000000E+00  0.00000000E+00
  0.00000000E+00  0.00000000E+00  0.00000000E+00
  0.00000000E+00  0.00000000E+00  0.00000000E+00
  0.00000000E+00  0.00000000E+00  0.00000000E+00
  0.00000000E+00  0.00000000E+00  0.00000000E+00
  0.00000000E+00  0.00000000E+00  0.00000000E+00
  0.00000000E+00  0.00000000E+00  0.00000000E+00
  0.00000000E+00  0.00000000E+00  0.00000000E+00
  0.00000000E+00  0.00000000E+00  0.00000000E+00
  0.00000000E+00  0.00000000E+00  0.00000000E+00
  0.00000000E+00  0.00000000E+00  0.00000000E+00
  0.00000000E+00  0.00000000E+00  0.00000000E+00
  0.00000000E+00  0.00000000E+00  0.00000000E+00
  0.00000000E+00  0.00000000E+00  0.00000000E+00
  0.00000000E+00  0.00000000E+00  0.00000000E+00
  0.00000000E+00  0.00000000E+00  0.00000000E+00
  0.00000000E+00  0.00000000E+00  0.00000000E+00
  0.00000000E+00  0.00000000E+00  0.00000000E+00
  0.00000000E+00  0.00000000E+00  0.00000000E+00
  0.00000000E+00  0.00000000E+00  0.00000000E+00
  0.00000000E+00  0.00000000E+00  0.00000000E+00
  0.00000000E+00  0.00000000E+00  0.00000000E+00
  0.00000000E+00  0.00000000E+00  0.00000000E+00
  0.00000000E+00  0.00000000E+00  0.00000000E+00
  0.00000000E+00  0.00000000E+00  0.00000000E+00
  0.00000000E+00  0.00000000E+00  0.00000000E+00
  0.00000000E+00  0.00000000E+00  0.00000000E+00
  0.00000000E+00  0.00000000E+00  0.00000000E+00
  0.00000000E+00  0.00000000E+00  0.00000000E+00
  0.00000000E+00  0.00000000E+00  0.00000000E+00
  0.00000000E+00  0.00000000E+00  0.00000000E+00
  0.00000000E+00  0.00000000E+00  0.00000000E+00
  0.00000000E+00  0.00000000E+00  0.00000000E+00
  0.00000000E+00  0.00000000E+00  0.00000000E+00
  0.00000000E+00  0.00000000E+00  0.00000000E+00
  0.00000000E+00  0.00000000E+00  0.00000000E+00
  0.00000000E+00  0.00000000E+00  0.00000000E+00
  0.00000000E+00  0.00000000E+00  0.00000000E+00
  0.00000000E+00  0.00000000E+00  0.00000000E+00
  0.00000000E+00  0.00000000E+00  0.00000000E+00
  0.00000000E+00  0.00000000E+00  0.00000000E+00
  0.00000000E+00  0.00000000E+00  0.00000000E+00
  0.00000000E+00  0.00000000E+00  0.00000000E+00
  0.00000000E+00  0.00000000E+00  0.00000000E+00
  0.00000000E+00  0.00000000E+00  0.00000000E+00
  0.00000000E+00  0.00000000E+00  0.00000000E+00
  0.00000000E+00  0.00000000E+00  0.00000000E+00
  0.00000000E+00  0.00000000E+00  0.00000000E+00
  0.00000000E+00  0.00000000E+00  0.00000000E+00
  0.00000000E+00  0.00000000E+00  0.00000000E+00
  0.00000000E+00  0.00000000E+00  0.00000000E+00
  0.00000000E+00  0.00000000E+00  0.00000000E+00
  0.00000000E+00  0.00000000E+00  0.00000000E+00
  0.00000000E+00  0.00000000E+00  0.00000000E+00
  0.00000000E+00  0.00000000E+00  0.00000000E+00
  0.00000000E+00  0.00000000E+00  0.00000000E+00
  0.00000000E+00  0.00000000E+00  0.00000000E+00
  0.00000000E+00  0.00000000E+00  0.00000000E+00
  0.00000000E+00  0.00000000E+00  0.00000000E+00
  0.00000000E+00  0.00000000E+00  0.00000000E+00
  0.00000000E+00  0.00000000E+00  0.00000000E+00
  0.00000000E+00  0.00000000E+00  0.00000000E+00
  0.00000000E+00  0.00000000E+00  0.00000000E+00
  0.00000000E+00  0.00000000E+00  0.00000000E+00
  0.00000000E+00  0.00000000E+00  0.00000000E+00
  0.00000000E+00  0.00000000E+00  0.00000000E+00
  0.00000000E+00  0.00000000E+00  0.00000000E+00
  0.00000000E+00  0.00000000E+00  0.00000000E+00
  0.00000000E+00  0.00000000E+00  0.00000000E+00
  0.00000000E+00  0.00000000E+00  0.00000000E+00
  0.00000000E+00  0.00000000E+00  0.00000000E+00
  0.00000000E+00  0.00000000E+00  0.00000000E+00
  0.00000000E+00  0.00000000E+00  0.00000000E+00
  0.00000000E+00  0.00000000E+00  0.00000000E+00
  0.00000000E+00  0.00000000E+00  0.00000000E+00
  0.00000000E+00  0.00000000E+00  0.00000000E+00
  0.00000000E+00  0.00000000E+00  0.00000000E+00
  0.00000000E+00  0.00000000E+00  0.00000000E+00
  0.00000000E+00  0.00000000E+00  0.00000000E+00
  0.00000000E+00  0.00000000E+00  0.00000000E+00
  0.00000000E+00  0.00000000E+00  0.00000000E+00
  0.00000000E+00  0.00000000E+00  0.00000000E+00
  0.00000000E+00  0.00000000E+00  0.00000000E+00
  0.00000000E+00  0.00000000E+00  0.00000000E+00
  0.00000000E+00  0.00000000E+00  0.00000000E+00
  0.00000000E+00  0.00000000E+00  0.00000000E+00
  0.00000000E+00  0.00000000E+00  0.00000000E+00
  0.00000000E+00  0.00000000E+00  0.00000000E+00
  0.00000000E+00  0.00000000E+00  0.00000000E+00
  0.00000000E+00  0.00000000E+00  0.00000000E+00
  0.00000000E+00  0.00000000E+00  0.00000000E+00
  0.00000000E+00  0.00000000E+00  0.00000000E+00
  0.00000000E+00  0.00000000E+00  0.00000000E+00
  0.00000000E+00  0.00000000E+00  0.00000000E+00
  0.00000000E+00  0.00000000E+00  0.00000000E+00
  0.00000000E+00  0.00000000E+00  0.00000000E+00
  0.00000000E+00  0.00000000E+00  0.00000000E+00
  0.00000000E+00  0.00000000E+00  0.00000000E+00
  0.00000000E+00  0.00000000E+00  0.00000000E+00
  0.00000000E+00  0.00000000E+00  0.00000000E+00
  0.00000000E+00  0.00000000E+00  0.00000000E+00
  0.00000000E+00  0.00000000E+00  0.00000000E+00
  0.00000000E+00  0.00000000E+00  0.00000000E+00
  0.00000000E+00  0.00000000E+00  0.00000000E+00
  0.00000000E+00  0.00000000E+00  0.00000000E+00
  0.00000000E+00  0.00000000E+00  0.00000000E+00
  0.00000000E+00  0.00000000E+00  0.00000000E+00
  0.00000000E+00  0.00000000E+00  0.00000000E+00
  0.00000000E+00  0.00000000E+00  0.00000000E+00
  0.00000000E+00  0.00000000E+00  0.00000000E+00
  0.00000000E+00  0.00000000E+00  0.00000000E+00
  0.00000000E+00  0.00000000E+00  0.00000000E+00
  0.00000000E+00  0.00000000E+00  0.00000000E+00
  0.00000000E+00  0.00000000E+00  0.00000000E+00
  0.00000000E+00  0.00000000E+00  0.00000000E+00
  0.00000000E+00  0.00000000E+00  0.00000000E+00
  0.00000000E+00  0.00000000E+00  0.00000000E+00
  0.00000000E+00  0.00000000E+00  0.00000000E+00
  0.00000000E+00  0.00000000E+00  0.00000000E+00
  0.00000000E+00  0.00000000E+00  0.00000000E+00
  0.00000000E+00  0.00000000E+00  0.00000000E+00
  0.00000000E+00  0.00000000E+00  0.00000000E+00
  0.00000000E+00  0.00000000E+00  0.00000000E+00
  0.00000000E+00  0.00000000E+00  0.00000000E+00
  0.00000000E+00  0.00000000E+00  0.00000000E+00
  0.00000000E+00  0.00000000E+00  0.00000000E+00
  0.00000000E+00  0.00000000E+00  0.00000000E+00
  0.00000000E+00  0.00000000E+00  0.00000000E+00
  0.00000000E+00  0.00000000E+00  0.00000000E+00
  0.00000000E+00  0.00000000E+00  0.00000000E+00
  0.00000000E+00  0.00000000E+00  0.00000000E+00
  0.00000000E+00  0.00000000E+00  0.00000000E+00
  0.00000000E+00  0.00000000E+00  0.00000000E+00
  0.00000000E+00  0.00000000E+00  0.00000000E+00
  0.00000000E+00  0.00000000E+00  0.00000000E+00
  0.00000000E+00  0.00000000E+00  0.00000000E+00
  0.00000000E+00  0.00000000E+00  0.00000000E+00
  0.00000000E+00  0.00000000E+00  0.00000000E+00
  0.00000000E+00  0.00000000E+00  0.00000000E+00
  0.00000000E+00  0.00000000E+00  0.00000000E+00
  0.00000000E+00  0.00000000E+00  0.00000000E+00
  0.00000000E+00  0.00000000E+00  0.00000000E+00
  0.00000000E+00  0.00000000E+00  0.00000000E+00
  0.00000000E+00  0.00000000E+00  0.00000000E+00
  0.00000000E+00  0.00000000E+00  0.00000000E+00
  0.00000000E+00  0.00000000E+00  0.00000000E+00
  0.00000000E+00  0.00000000E+00  0.00000000E+00
  0.00000000E+00  0.00000000E+00  0.00000000E+00
  0.00000000E+00  0.00000000E+00  0.00000000E+00
  0.00000000E+00  0.00000000E+00  0.00000000E+00
  0.00000000E+00  0.00000000E+00  0.00000000E+00
  0.00000000E+00  0.00000000E+00  0.00000000E+00
