C H O Si                                
   1.00000000000000     
     9.2874599999999994    0.0000000000000000    0.0000000000000000
     0.0000000000000000   17.5126199999999983    0.0000000000000000
     0.0000000000000000    0.0000000000000000   58.0000000000000000
   C    H    O    Si
    72    57    28    72
Selective dynamics
Direct
  0.9967304837451436  0.0651765028605366  0.0594945820120390   T   T   T
  0.3301802494663769  0.0652793947966670  0.0595903910270374   T   T   T
  0.6632504374208884  0.0651979854782553  0.0595980180654830   T   T   T
  0.9965310894033155  0.3152072271130728  0.0595272313180898   T   T   T
  0.3299116327131066  0.3151017427003652  0.0595569188640246   T   T   T
  0.6631875784110043  0.3150831952132143  0.0595851931414235   T   T   T
  0.1622065631373450  0.1879830379567213  0.1383560772749450   T   T   T
  0.4954344359188560  0.1884013257605760  0.1387340795858181   T   T   T
  0.8286060033819296  0.1880139577957829  0.1383938079865377   T   T   T
  0.1622016400516466  0.4381675563362203  0.1384610006420209   T   T   T
  0.4955072244916929  0.4372267243312119  0.1384620591952858   T   T   T
  0.8288631185249489  0.4381739573071118  0.1385432744761300   T   T   T
  0.3293649924346369  0.0633049046535521  0.1656879963651737   T   T   T
  0.6614712455899666  0.0634969668165763  0.1657473839760210   T   T   T
  0.9952479290728702  0.0625644553350247  0.1654398412099850   T   T   T
  0.3283489619291384  0.3132961533567633  0.1657994083542478   T   T   T
  0.6624834853842012  0.3134383828438154  0.1658278278900873   T   T   T
  0.9953627751793132  0.3131276976935126  0.1655020031888556   T   T   T
  0.1616429131299835  0.1887064217995611  0.1904360353008943   T   T   T
  0.4951315051569472  0.1925248126019848  0.1918393580524462   T   T   T
  0.8292409520097034  0.1892985794534794  0.1906294465941080   T   T   T
  0.1624247705675073  0.4405150604015918  0.1908759631571834   T   T   T
  0.4952866399549453  0.4387928560118508  0.1914266126873216   T   T   T
  0.8291580710946796  0.4406017559278831  0.1910921238795922   T   T   T
  0.1625384802807730  0.1881421953738753  0.0848517404833381   T   T   T
  0.4958698052832173  0.1881888339244503  0.0850353972329754   T   T   T
  0.8291724422156082  0.1881388254646232  0.0848732343869180   T   T   T
  0.1624778885183726  0.4381809478359227  0.0849266091770898   T   T   T
  0.4958062822491404  0.4380763113692632  0.0848334871948802   T   T   T
  0.8290500340114666  0.4381707089297496  0.0849470724093751   T   T   T
  0.3289321133343324  0.0630948597268296  0.1121442895588984   T   T   T
  0.6619769821521886  0.0631183920739503  0.1121512584565662   T   T   T
  0.9954391579041381  0.0629977864321463  0.1120327515560059   T   T   T
  0.3288032491201004  0.3129692764871405  0.1121362747339037   T   T   T
  0.6621806577110422  0.3129730294905747  0.1121505599707927   T   T   T
  0.9954427889842622  0.3130373888907144  0.1120305737359746   T   T   T
  0.9966716888438466  0.5652917443458380  0.0596130041359617   T   T   T
  0.3299676300899040  0.5652911075817391  0.0595878349347631   T   T   T
  0.6633686336605050  0.5653098749781319  0.0596079089302351   T   T   T
  0.9967343511384732  0.8154080387071283  0.0595905131102539   T   T   T
  0.3300681755886082  0.8153013573565140  0.0595850174667941   T   T   T
  0.6633027128284463  0.8152794964396159  0.0595911240815056   T   T   T
  0.1620638861363540  0.6883547315457015  0.1384618160317713   T   T   T
  0.4955691786118608  0.6880988833159867  0.1385335010205440   T   T   T
  0.8290169522134642  0.6883095018162717  0.1385103015714084   T   T   T
  0.1625478077164339  0.9381284858383913  0.1384992230994326   T   T   T
  0.4956265429119752  0.9380228546424241  0.1385093603646315   T   T   T
  0.8285298117257752  0.9380896396680368  0.1384970052046793   T   T   T
  0.3281911476957226  0.5632911269105271  0.1656991610514666   T   T   T
  0.6627056975733764  0.5631922822697160  0.1658476431259679   T   T   T
  0.9954446858728234  0.5634835536502534  0.1656303966923314   T   T   T
  0.3289898498166138  0.8132328851122183  0.1656623855187390   T   T   T
  0.6621985510935712  0.8132481349007528  0.1656747880751663   T   T   T
  0.9956057443737457  0.8133078314949790  0.1656676079868955   T   T   T
  0.1627071118241211  0.6904484320092948  0.1909626377715969   T   T   T
  0.4961095254753390  0.6903279581577390  0.1910503748662769   T   T   T
  0.8295622136839937  0.6904908693575263  0.1910106975462909   T   T   T
  0.1626685655174675  0.9403265066044831  0.1909938482805358   T   T   T
  0.4958508423243624  0.9402991034143613  0.1910616134269548   T   T   T
  0.8291099217496607  0.9403365628657322  0.1910258667185842   T   T   T
  0.1625369043140059  0.6883446075472315  0.0849400589831479   T   T   T
  0.4959005071397485  0.6882729221113809  0.0849237039169494   T   T   T
  0.8292804836226058  0.6883377511041031  0.0849507239289814   T   T   T
  0.1625775251023419  0.9383357493593477  0.0849172590408691   T   T   T
  0.4958388844326647  0.9382610601758112  0.0849512711269070   T   T   T
  0.8290822479133736  0.9383235195833198  0.0849306295601088   T   T   T
  0.3288661496596884  0.5629784147362470  0.1121224520861080   T   T   T
  0.6621012659965322  0.5629417170987894  0.1121762387935000   T   T   T
  0.9953982027898155  0.5631001526483832  0.1121221780239621   T   T   T
  0.3289729875347527  0.8131291556876994  0.1121054662972871   T   T   T
  0.6621852561234047  0.8130994022540522  0.1121054165546692   T   T   T
  0.9955306993893719  0.8133280060391596  0.1121066731438069   T   T   T
  0.0787049983296353  0.1798619436926672  0.0262633580794044   T   T   T
  0.4119210270597474  0.1800128783466935  0.0264153401512205   T   T   T
  0.7442882744463156  0.1798002986506087  0.0263463345045034   T   T   T
  0.0785168255460556  0.4298515298671709  0.0263369185252054   T   T   T
  0.4120048306111183  0.4296499150906158  0.0262188909793946   T   T   T
  0.7440335229609225  0.4296614486728143  0.0263870395937614   T   T   T
  0.3283075001974576  0.0288534738985516  0.0441115247985444   T   T   T
  0.6606199047812598  0.0288134979929676  0.0441110597145829   T   T   T
  0.9942962760825824  0.0287570219199488  0.0440182481167214   T   T   T
  0.3273690560729095  0.2786428215017243  0.0440848001770956   T   T   T
  0.6613197233773416  0.2786513439043757  0.0441084988846189   T   T   T
  0.9943061407954163  0.2789790299537166  0.0440058255075267   T   T   T
  0.8319723093697280  0.4037309497708138  0.2064640744366425   T   T   T
  0.8329796050903827  0.1531707882067010  0.2061577830202911   T   T   T
  0.1638370057228721  0.1530340548714245  0.2060626003337961   T   T   T
  0.4983749885031437  0.1556692645713706  0.2072215417664265   T   T   T
  0.1651389871660781  0.4037744998108073  0.2062731300961332   T   T   T
  0.5391855789162103  0.4651906187104491  0.2617155640302480   T   T   T
  0.0831023827570411  0.0558002896375247  0.2238101799072209   T   T   T
  0.4163175158485777  0.0557859977346121  0.2239897777720849   T   T   T
  0.7489547302338090  0.0559012951086406  0.2240488998379822   T   T   T
  0.0925903242244872  0.3005213194548991  0.2224555214373136   T   T   T
  0.3667243837530772  0.2833513901504619  0.2304740755865216   T   T   T
  0.7820834777073588  0.2961597254560068  0.2228741380203737   T   T   T
  0.5004900032042426  0.2713816646697542  0.2661155026996463   T   T   T
  0.4716555607614820  0.2280211842137154  0.3007007074370755   T   T   T
  0.5195838869302459  0.3122005933929563  0.3085958313815426   T   T   T
  0.2894995911031200  0.1365589924913860  0.2960558704714728   T   T   T
  0.4376868809835370  0.1075853127726266  0.2876229997029879   T   T   T
  0.6379317747231431  0.3861008431465236  0.3348710966547613   T   T   T
  0.5035545818121340  0.4318547358643434  0.3271199371932815   T   T   T
  0.5057788881611200  0.4400508337809335  0.2707387660703914   T   T   T
  0.5684177194748407  0.2685651977213712  0.2405613613442329   T   T   T
  0.0781203985205941  0.6799121335506861  0.0263658005553252   T   T   T
  0.4116572260345662  0.6798779011200885  0.0263450158203926   T   T   T
  0.7451102200163211  0.6798560392117494  0.0263620334132416   T   T   T
  0.0788023620732809  0.9299112073782271  0.0262825660727881   T   T   T
  0.4115761166244755  0.9297712867385757  0.0263560954186285   T   T   T
  0.7446960173743735  0.9297796724533312  0.0263378858888729   T   T   T
  0.3277077668298800  0.5290071906657383  0.0440792765306664   T   T   T
  0.6611774314405944  0.5289884880110490  0.0441086864219806   T   T   T
  0.9943902848158416  0.5289792984767659  0.0441141453596425   T   T   T
  0.3277745411302290  0.7789916715076366  0.0440796741474351   T   T   T
  0.6609608044770734  0.7789920570711779  0.0440808664357587   T   T   T
  0.9943762021837786  0.7790797408207606  0.0440907026313564   T   T   T
  0.8319415980977899  0.9039775216955270  0.2065163376007962   T   T   T
  0.8319920838504027  0.6538793699495495  0.2064411883489822   T   T   T
  0.1661119379972266  0.6537304529658206  0.2063690606928793   T   T   T
  0.4983510997985611  0.6533895944003011  0.2064240953565902   T   T   T
  0.1654087655023276  0.9040168358598422  0.2064928649251847   T   T   T
  0.4987873210685649  0.9039074775167472  0.2065422092328127   T   T   T
  0.0888823725891836  0.5539128026278611  0.2234486839617715   T   T   T
  0.4166594297233303  0.5498584271186771  0.2242963657587177   T   T   T
  0.7556934470193537  0.5551608060001727  0.2230054784383363   T   T   T
  0.0840620324986584  0.8045507348319180  0.2240534053843834   T   T   T
  0.4165853032887291  0.8045792636499485  0.2240718821337347   T   T   T
  0.7517056066280834  0.8043144909036003  0.2240156261233237   T   T   T
  0.1727315162964369  0.1685277857824735  0.0329827026346321   T   T   T
  0.5060337565529870  0.1685726089139349  0.0330910904444943   T   T   T
  0.8386332776787920  0.1685714846699513  0.0329879374051175   T   T   T
  0.1726529556219407  0.4185705884055027  0.0330319357012298   T   T   T
  0.5060672265534697  0.4184712346723238  0.0329576401399714   T   T   T
  0.8384653660406775  0.4186068886228544  0.0330138723427737   T   T   T
  0.3216610511333645  0.0436692430711360  0.2175969850118152   T   T   T
  0.6545535891745738  0.0433975264770799  0.2176507429213215   T   T   T
  0.9883800013443039  0.0437393151490309  0.2174291715811043   T   T   T
  0.2980832093609962  0.2944118592342566  0.2175660541570421   T   T   T
  0.6802860045159645  0.2913046834625725  0.2184396613392217   T   T   T
  0.9924108119642083  0.2916496443886652  0.2172981891518218   T   T   T
  0.5276101339788125  0.2736513798927518  0.2961282712254563   T   T   T
  0.3899478740827617  0.1316082119781291  0.3007276351346517   T   T   T
  0.5358596224591878  0.3807100291189967  0.3312817522546162   T   T   T
  0.4840248573071623  0.2533572999960870  0.2501222267485081   T   T   T
  0.1723972519221266  0.6685081541097858  0.0330080066272144   T   T   T
  0.5059123112915271  0.6684599079483204  0.0329847208877858   T   T   T
  0.8393273518866137  0.6685727274238479  0.0330315458961763   T   T   T
  0.1728722469141870  0.9186143151964852  0.0330099178746855   T   T   T
  0.5057923154018028  0.9187035931079911  0.0330541005432416   T   T   T
  0.8389584309445380  0.9186423314741082  0.0330232970718987   T   T   T
  0.3217488625941594  0.5455703314602209  0.2171494692587471   T   T   T
  0.6579172021983855  0.5445577648749045  0.2176602161367515   T   T   T
  0.9916540340592298  0.5442487627199414  0.2175877157297256   T   T   T
  0.3217364114885747  0.7938476846740051  0.2175312920995079   T   T   T
  0.6563667389401772  0.7941796646262875  0.2175757170833771   T   T   T
  0.9889964075807375  0.7937931144211304  0.2176039057556808   T   T   T
  0.4969255202016869  0.1239543159272486  0.0589938018655309   T   T   T
  0.8301112193305777  0.1238451815473132  0.0588662286531603   T   T   T
  0.1634730031202447  0.3738601019581974  0.0589214559548418   T   T   T
  0.4967627962993660  0.3738558123626253  0.0588823890275423   T   T   T
  0.8298926413508052  0.3738564701193930  0.0589237160458734   T   T   T
  0.1635973426280992  0.1238636756551778  0.0588684836798316   T   T   T
  0.9954531362812242  0.0002290498692999  0.1386580099841467   T   T   T
  0.3293460569322474  0.0006122339689204  0.1387877004717850   T   T   T
  0.6618092251481477  0.0006835518040247  0.1388248420885683   T   T   T
  0.9954743511337866  0.2505532438148771  0.1387150839699926   T   T   T
  0.3287717393215109  0.2511498341674186  0.1390204270897303   T   T   T
  0.6621274948397872  0.2511609453109380  0.1390135259993243   T   T   T
  0.1619258208602259  0.1247545420610654  0.1647959090474340   T   T   T
  0.4952226738555167  0.1267054234195485  0.1655553013928686   T   T   T
  0.8289272846324814  0.1249763610436405  0.1648680329066843   T   T   T
  0.1625981644655956  0.3754772920311437  0.1651428277412897   T   T   T
  0.4953453435607242  0.3772163844196871  0.1664839227823210   T   T   T
  0.8286167182069665  0.3756248310831738  0.1652513636226088   T   T   T
  0.3347195785542997  0.4957551804366106  0.1917980057934080   T   T   T
  0.6559358535047427  0.4955874400462306  0.1921192653097109   T   T   T
  0.9959338661849659  0.4987286768670648  0.1916611138242405   T   T   T
  0.3252314600588999  0.2505057693654086  0.1921504107327171   T   T   T
  0.9958277587870313  0.2477514943859360  0.1912067788132403   T   T   T
  0.6644388647536922  0.2499477923132361  0.1919406383435834   T   T   T
  0.9958786975328530  0.0003527852160008  0.0855057719707409   T   T   T
  0.3293308553822743  0.0004208763078230  0.0855858231297039   T   T   T
  0.6624778460875383  0.0003844438036577  0.0855946082476596   T   T   T
  0.9958797788035053  0.2503059811565466  0.0855255971887022   T   T   T
  0.3292773849267841  0.2503915261222201  0.0856202499447348   T   T   T
  0.6625851473181328  0.2503826413987147  0.0856407199448940   T   T   T
  0.1622340275527967  0.1255946625138319  0.1118300690759447   T   T   T
  0.4955405362854898  0.1257969519295098  0.1120777449892648   T   T   T
  0.8287861643897552  0.1255948302317245  0.1118477972939079   T   T   T
  0.1623911417095017  0.3755889327389962  0.1119447575781461   T   T   T
  0.4955355459538978  0.3757215472680786  0.1120230881090287   T   T   T
  0.8287145129746545  0.3756225533084834  0.1119872562972364   T   T   T
  0.4968334311499663  0.6238836761957933  0.0589085022473830   T   T   T
  0.8301696472479725  0.6239130141395366  0.0589421649251687   T   T   T
  0.1636549827550144  0.8739666427655437  0.0588980040675227   T   T   T
  0.4968583482170772  0.8739483113487697  0.0589282524833020   T   T   T
  0.8301039900888696  0.8739504579270545  0.0589028007303292   T   T   T
  0.1634993024792388  0.6239052744673605  0.0589308971784832   T   T   T
  0.9955157606393650  0.5004960285350484  0.1388517748361600   T   T   T
  0.3299601855986980  0.5002674537062360  0.1389663087510294   T   T   T
  0.6610199523493697  0.5002762690004267  0.1390662593905354   T   T   T
  0.9954750270801417  0.7504766880507526  0.1387413889575345   T   T   T
  0.3289805410393524  0.7503135356975877  0.1387547210321947   T   T   T
  0.6621140608401500  0.7503053254635796  0.1387640470468777   T   T   T
  0.1630109056694149  0.6248619749564884  0.1650538227752817   T   T   T
  0.4956488785601537  0.6243164580489178  0.1651667197907647   T   T   T
  0.8280888618607730  0.6248116792951792  0.1651156494516575   T   T   T
  0.1624594570205465  0.8752038582339854  0.1650536166173960   T   T   T
  0.4956169361966155  0.8752284155892633  0.1650877487379218   T   T   T
  0.8288955666293507  0.8752290542061691  0.1650707405562193   T   T   T
  0.3290853786091519  0.9990159375903720  0.1916990318691301   T   T   T
  0.6622926934026152  0.9989905655481075  0.1917186928541910   T   T   T
  0.9957117169618421  0.9988832759269475  0.1915623169038490   T   T   T
  0.3293782789186244  0.7485832934634765  0.1916638362035969   T   T   T
  0.9960455931690015  0.7487469724102148  0.1916926872701357   T   T   T
  0.6625478877951516  0.7487018742104702  0.1917217386293175   T   T   T
  0.9958431604574410  0.5002804012423728  0.0856106403393514   T   T   T
  0.3293920425927817  0.5002651632367537  0.0856006921110558   T   T   T
  0.6623200921573573  0.5002871121726840  0.0856344975022724   T   T   T
  0.9959918293033848  0.7503937043442155  0.0855811351251048   T   T   T
  0.3293668789249024  0.7502924463367769  0.0855701121386627   T   T   T
  0.6626051212642869  0.7502594183039722  0.0855738124405408   T   T   T
  0.1623971457443204  0.6254264841311196  0.1119191817710299   T   T   T
  0.4955897479502547  0.6253665638600894  0.1119393325298692   T   T   T
  0.8286792765972038  0.6254437433281502  0.1119485072024646   T   T   T
  0.1624777290566913  0.8755512489059503  0.1118691675498991   T   T   T
  0.4956756753730639  0.8754719792607255  0.1118823019179951   T   T   T
  0.8287404069331962  0.8755653058460586  0.1118741755612276   T   T   T
 
  0.00000000E+00  0.00000000E+00  0.00000000E+00
  0.00000000E+00  0.00000000E+00  0.00000000E+00
  0.00000000E+00  0.00000000E+00  0.00000000E+00
  0.00000000E+00  0.00000000E+00  0.00000000E+00
  0.00000000E+00  0.00000000E+00  0.00000000E+00
  0.00000000E+00  0.00000000E+00  0.00000000E+00
  0.00000000E+00  0.00000000E+00  0.00000000E+00
  0.00000000E+00  0.00000000E+00  0.00000000E+00
  0.00000000E+00  0.00000000E+00  0.00000000E+00
  0.00000000E+00  0.00000000E+00  0.00000000E+00
  0.00000000E+00  0.00000000E+00  0.00000000E+00
  0.00000000E+00  0.00000000E+00  0.00000000E+00
  0.00000000E+00  0.00000000E+00  0.00000000E+00
  0.00000000E+00  0.00000000E+00  0.00000000E+00
  0.00000000E+00  0.00000000E+00  0.00000000E+00
  0.00000000E+00  0.00000000E+00  0.00000000E+00
  0.00000000E+00  0.00000000E+00  0.00000000E+00
  0.00000000E+00  0.00000000E+00  0.00000000E+00
  0.00000000E+00  0.00000000E+00  0.00000000E+00
  0.00000000E+00  0.00000000E+00  0.00000000E+00
  0.00000000E+00  0.00000000E+00  0.00000000E+00
  0.00000000E+00  0.00000000E+00  0.00000000E+00
  0.00000000E+00  0.00000000E+00  0.00000000E+00
  0.00000000E+00  0.00000000E+00  0.00000000E+00
  0.00000000E+00  0.00000000E+00  0.00000000E+00
  0.00000000E+00  0.00000000E+00  0.00000000E+00
  0.00000000E+00  0.00000000E+00  0.00000000E+00
  0.00000000E+00  0.00000000E+00  0.00000000E+00
  0.00000000E+00  0.00000000E+00  0.00000000E+00
  0.00000000E+00  0.00000000E+00  0.00000000E+00
  0.00000000E+00  0.00000000E+00  0.00000000E+00
  0.00000000E+00  0.00000000E+00  0.00000000E+00
  0.00000000E+00  0.00000000E+00  0.00000000E+00
  0.00000000E+00  0.00000000E+00  0.00000000E+00
  0.00000000E+00  0.00000000E+00  0.00000000E+00
  0.00000000E+00  0.00000000E+00  0.00000000E+00
  0.00000000E+00  0.00000000E+00  0.00000000E+00
  0.00000000E+00  0.00000000E+00  0.00000000E+00
  0.00000000E+00  0.00000000E+00  0.00000000E+00
  0.00000000E+00  0.00000000E+00  0.00000000E+00
  0.00000000E+00  0.00000000E+00  0.00000000E+00
  0.00000000E+00  0.00000000E+00  0.00000000E+00
  0.00000000E+00  0.00000000E+00  0.00000000E+00
  0.00000000E+00  0.00000000E+00  0.00000000E+00
  0.00000000E+00  0.00000000E+00  0.00000000E+00
  0.00000000E+00  0.00000000E+00  0.00000000E+00
  0.00000000E+00  0.00000000E+00  0.00000000E+00
  0.00000000E+00  0.00000000E+00  0.00000000E+00
  0.00000000E+00  0.00000000E+00  0.00000000E+00
  0.00000000E+00  0.00000000E+00  0.00000000E+00
  0.00000000E+00  0.00000000E+00  0.00000000E+00
  0.00000000E+00  0.00000000E+00  0.00000000E+00
  0.00000000E+00  0.00000000E+00  0.00000000E+00
  0.00000000E+00  0.00000000E+00  0.00000000E+00
  0.00000000E+00  0.00000000E+00  0.00000000E+00
  0.00000000E+00  0.00000000E+00  0.00000000E+00
  0.00000000E+00  0.00000000E+00  0.00000000E+00
  0.00000000E+00  0.00000000E+00  0.00000000E+00
  0.00000000E+00  0.00000000E+00  0.00000000E+00
  0.00000000E+00  0.00000000E+00  0.00000000E+00
  0.00000000E+00  0.00000000E+00  0.00000000E+00
  0.00000000E+00  0.00000000E+00  0.00000000E+00
  0.00000000E+00  0.00000000E+00  0.00000000E+00
  0.00000000E+00  0.00000000E+00  0.00000000E+00
  0.00000000E+00  0.00000000E+00  0.00000000E+00
  0.00000000E+00  0.00000000E+00  0.00000000E+00
  0.00000000E+00  0.00000000E+00  0.00000000E+00
  0.00000000E+00  0.00000000E+00  0.00000000E+00
  0.00000000E+00  0.00000000E+00  0.00000000E+00
  0.00000000E+00  0.00000000E+00  0.00000000E+00
  0.00000000E+00  0.00000000E+00  0.00000000E+00
  0.00000000E+00  0.00000000E+00  0.00000000E+00
  0.00000000E+00  0.00000000E+00  0.00000000E+00
  0.00000000E+00  0.00000000E+00  0.00000000E+00
  0.00000000E+00  0.00000000E+00  0.00000000E+00
  0.00000000E+00  0.00000000E+00  0.00000000E+00
  0.00000000E+00  0.00000000E+00  0.00000000E+00
  0.00000000E+00  0.00000000E+00  0.00000000E+00
  0.00000000E+00  0.00000000E+00  0.00000000E+00
  0.00000000E+00  0.00000000E+00  0.00000000E+00
  0.00000000E+00  0.00000000E+00  0.00000000E+00
  0.00000000E+00  0.00000000E+00  0.00000000E+00
  0.00000000E+00  0.00000000E+00  0.00000000E+00
  0.00000000E+00  0.00000000E+00  0.00000000E+00
  0.00000000E+00  0.00000000E+00  0.00000000E+00
  0.00000000E+00  0.00000000E+00  0.00000000E+00
  0.00000000E+00  0.00000000E+00  0.00000000E+00
  0.00000000E+00  0.00000000E+00  0.00000000E+00
  0.00000000E+00  0.00000000E+00  0.00000000E+00
  0.00000000E+00  0.00000000E+00  0.00000000E+00
  0.00000000E+00  0.00000000E+00  0.00000000E+00
  0.00000000E+00  0.00000000E+00  0.00000000E+00
  0.00000000E+00  0.00000000E+00  0.00000000E+00
  0.00000000E+00  0.00000000E+00  0.00000000E+00
  0.00000000E+00  0.00000000E+00  0.00000000E+00
  0.00000000E+00  0.00000000E+00  0.00000000E+00
  0.00000000E+00  0.00000000E+00  0.00000000E+00
  0.00000000E+00  0.00000000E+00  0.00000000E+00
  0.00000000E+00  0.00000000E+00  0.00000000E+00
  0.00000000E+00  0.00000000E+00  0.00000000E+00
  0.00000000E+00  0.00000000E+00  0.00000000E+00
  0.00000000E+00  0.00000000E+00  0.00000000E+00
  0.00000000E+00  0.00000000E+00  0.00000000E+00
  0.00000000E+00  0.00000000E+00  0.00000000E+00
  0.00000000E+00  0.00000000E+00  0.00000000E+00
  0.00000000E+00  0.00000000E+00  0.00000000E+00
  0.00000000E+00  0.00000000E+00  0.00000000E+00
  0.00000000E+00  0.00000000E+00  0.00000000E+00
  0.00000000E+00  0.00000000E+00  0.00000000E+00
  0.00000000E+00  0.00000000E+00  0.00000000E+00
  0.00000000E+00  0.00000000E+00  0.00000000E+00
  0.00000000E+00  0.00000000E+00  0.00000000E+00
  0.00000000E+00  0.00000000E+00  0.00000000E+00
  0.00000000E+00  0.00000000E+00  0.00000000E+00
  0.00000000E+00  0.00000000E+00  0.00000000E+00
  0.00000000E+00  0.00000000E+00  0.00000000E+00
  0.00000000E+00  0.00000000E+00  0.00000000E+00
  0.00000000E+00  0.00000000E+00  0.00000000E+00
  0.00000000E+00  0.00000000E+00  0.00000000E+00
  0.00000000E+00  0.00000000E+00  0.00000000E+00
  0.00000000E+00  0.00000000E+00  0.00000000E+00
  0.00000000E+00  0.00000000E+00  0.00000000E+00
  0.00000000E+00  0.00000000E+00  0.00000000E+00
  0.00000000E+00  0.00000000E+00  0.00000000E+00
  0.00000000E+00  0.00000000E+00  0.00000000E+00
  0.00000000E+00  0.00000000E+00  0.00000000E+00
  0.00000000E+00  0.00000000E+00  0.00000000E+00
  0.00000000E+00  0.00000000E+00  0.00000000E+00
  0.00000000E+00  0.00000000E+00  0.00000000E+00
  0.00000000E+00  0.00000000E+00  0.00000000E+00
  0.00000000E+00  0.00000000E+00  0.00000000E+00
  0.00000000E+00  0.00000000E+00  0.00000000E+00
  0.00000000E+00  0.00000000E+00  0.00000000E+00
  0.00000000E+00  0.00000000E+00  0.00000000E+00
  0.00000000E+00  0.00000000E+00  0.00000000E+00
  0.00000000E+00  0.00000000E+00  0.00000000E+00
  0.00000000E+00  0.00000000E+00  0.00000000E+00
  0.00000000E+00  0.00000000E+00  0.00000000E+00
  0.00000000E+00  0.00000000E+00  0.00000000E+00
  0.00000000E+00  0.00000000E+00  0.00000000E+00
  0.00000000E+00  0.00000000E+00  0.00000000E+00
  0.00000000E+00  0.00000000E+00  0.00000000E+00
  0.00000000E+00  0.00000000E+00  0.00000000E+00
  0.00000000E+00  0.00000000E+00  0.00000000E+00
  0.00000000E+00  0.00000000E+00  0.00000000E+00
  0.00000000E+00  0.00000000E+00  0.00000000E+00
  0.00000000E+00  0.00000000E+00  0.00000000E+00
  0.00000000E+00  0.00000000E+00  0.00000000E+00
  0.00000000E+00  0.00000000E+00  0.00000000E+00
  0.00000000E+00  0.00000000E+00  0.00000000E+00
  0.00000000E+00  0.00000000E+00  0.00000000E+00
  0.00000000E+00  0.00000000E+00  0.00000000E+00
  0.00000000E+00  0.00000000E+00  0.00000000E+00
  0.00000000E+00  0.00000000E+00  0.00000000E+00
  0.00000000E+00  0.00000000E+00  0.00000000E+00
  0.00000000E+00  0.00000000E+00  0.00000000E+00
  0.00000000E+00  0.00000000E+00  0.00000000E+00
  0.00000000E+00  0.00000000E+00  0.00000000E+00
  0.00000000E+00  0.00000000E+00  0.00000000E+00
  0.00000000E+00  0.00000000E+00  0.00000000E+00
  0.00000000E+00  0.00000000E+00  0.00000000E+00
  0.00000000E+00  0.00000000E+00  0.00000000E+00
  0.00000000E+00  0.00000000E+00  0.00000000E+00
  0.00000000E+00  0.00000000E+00  0.00000000E+00
  0.00000000E+00  0.00000000E+00  0.00000000E+00
  0.00000000E+00  0.00000000E+00  0.00000000E+00
  0.00000000E+00  0.00000000E+00  0.00000000E+00
  0.00000000E+00  0.00000000E+00  0.00000000E+00
  0.00000000E+00  0.00000000E+00  0.00000000E+00
  0.00000000E+00  0.00000000E+00  0.00000000E+00
  0.00000000E+00  0.00000000E+00  0.00000000E+00
  0.00000000E+00  0.00000000E+00  0.00000000E+00
  0.00000000E+00  0.00000000E+00  0.00000000E+00
  0.00000000E+00  0.00000000E+00  0.00000000E+00
  0.00000000E+00  0.00000000E+00  0.00000000E+00
  0.00000000E+00  0.00000000E+00  0.00000000E+00
  0.00000000E+00  0.00000000E+00  0.00000000E+00
  0.00000000E+00  0.00000000E+00  0.00000000E+00
  0.00000000E+00  0.00000000E+00  0.00000000E+00
  0.00000000E+00  0.00000000E+00  0.00000000E+00
  0.00000000E+00  0.00000000E+00  0.00000000E+00
  0.00000000E+00  0.00000000E+00  0.00000000E+00
  0.00000000E+00  0.00000000E+00  0.00000000E+00
  0.00000000E+00  0.00000000E+00  0.00000000E+00
  0.00000000E+00  0.00000000E+00  0.00000000E+00
  0.00000000E+00  0.00000000E+00  0.00000000E+00
  0.00000000E+00  0.00000000E+00  0.00000000E+00
  0.00000000E+00  0.00000000E+00  0.00000000E+00
  0.00000000E+00  0.00000000E+00  0.00000000E+00
  0.00000000E+00  0.00000000E+00  0.00000000E+00
  0.00000000E+00  0.00000000E+00  0.00000000E+00
  0.00000000E+00  0.00000000E+00  0.00000000E+00
  0.00000000E+00  0.00000000E+00  0.00000000E+00
  0.00000000E+00  0.00000000E+00  0.00000000E+00
  0.00000000E+00  0.00000000E+00  0.00000000E+00
  0.00000000E+00  0.00000000E+00  0.00000000E+00
  0.00000000E+00  0.00000000E+00  0.00000000E+00
  0.00000000E+00  0.00000000E+00  0.00000000E+00
  0.00000000E+00  0.00000000E+00  0.00000000E+00
  0.00000000E+00  0.00000000E+00  0.00000000E+00
  0.00000000E+00  0.00000000E+00  0.00000000E+00
  0.00000000E+00  0.00000000E+00  0.00000000E+00
  0.00000000E+00  0.00000000E+00  0.00000000E+00
  0.00000000E+00  0.00000000E+00  0.00000000E+00
  0.00000000E+00  0.00000000E+00  0.00000000E+00
  0.00000000E+00  0.00000000E+00  0.00000000E+00
  0.00000000E+00  0.00000000E+00  0.00000000E+00
  0.00000000E+00  0.00000000E+00  0.00000000E+00
  0.00000000E+00  0.00000000E+00  0.00000000E+00
  0.00000000E+00  0.00000000E+00  0.00000000E+00
  0.00000000E+00  0.00000000E+00  0.00000000E+00
  0.00000000E+00  0.00000000E+00  0.00000000E+00
  0.00000000E+00  0.00000000E+00  0.00000000E+00
  0.00000000E+00  0.00000000E+00  0.00000000E+00
  0.00000000E+00  0.00000000E+00  0.00000000E+00
  0.00000000E+00  0.00000000E+00  0.00000000E+00
  0.00000000E+00  0.00000000E+00  0.00000000E+00
  0.00000000E+00  0.00000000E+00  0.00000000E+00
  0.00000000E+00  0.00000000E+00  0.00000000E+00
  0.00000000E+00  0.00000000E+00  0.00000000E+00
  0.00000000E+00  0.00000000E+00  0.00000000E+00
  0.00000000E+00  0.00000000E+00  0.00000000E+00
  0.00000000E+00  0.00000000E+00  0.00000000E+00
  0.00000000E+00  0.00000000E+00  0.00000000E+00
  0.00000000E+00  0.00000000E+00  0.00000000E+00
  0.00000000E+00  0.00000000E+00  0.00000000E+00
  0.00000000E+00  0.00000000E+00  0.00000000E+00
  0.00000000E+00  0.00000000E+00  0.00000000E+00
  0.00000000E+00  0.00000000E+00  0.00000000E+00
