C H O Si                                
   1.00000000000000     
     9.2874599999999994    0.0000000000000000    0.0000000000000000
     0.0000000000000000    8.7562999999999995    0.0000000000000000
     0.0000000000000000    0.0000000000000000   90.0000000000000000
   C    H    O    Si
    36    33    16    36
Selective dynamics
Direct
  0.0007344990911990  0.1351526557497986  0.4232371258468383   T   T   T
  0.0007047038062163  0.6353025482339847  0.4232466891117886   T   T   T
  0.3340172620677575  0.1352109702954161  0.4232916798447579   T   T   T
  0.3339918807029980  0.6351247814198410  0.4233013279868457   T   T   T
  0.6673281182710512  0.1351263985199344  0.4232825857220613   T   T   T
  0.6673605622807888  0.6351112441714243  0.4232826025982956   T   T   T
  0.1675978630463489  0.3813587895305970  0.4396087189674149   T   T   T
  0.1676485235078458  0.8813488444597543  0.4396252632188938   T   T   T
  0.5009297755260941  0.3813372974369275  0.4396804784725282   T   T   T
  0.5008840978375617  0.8812809718858056  0.4396431516522405   T   T   T
  0.8342076654696479  0.3813804267976546  0.4395809076337868   T   T   T
  0.8341349019200051  0.8814160838272764  0.4396143876504997   T   T   T
  0.0009559509420380  0.1310662415032192  0.4570996369439279   T   T   T
  0.0009169595458138  0.6312931453726529  0.4571063798448780   T   T   T
  0.3343931690327390  0.1311282154466700  0.4571589113828093   T   T   T
  0.3343236934670890  0.6310334575722212  0.4571722239492368   T   T   T
  0.6674599573250379  0.1312008344095692  0.4571467394547984   T   T   T
  0.6675503319764878  0.6311614001460545  0.4571458306973397   T   T   T
  0.1677150483778397  0.3811734541948429  0.4740836099471647   T   T   T
  0.1679507062899958  0.8812612767838707  0.4741223275354469   T   T   T
  0.5009941200468712  0.3816381843827303  0.4742371476221653   T   T   T
  0.5010179146429443  0.8809790218977899  0.4741540468045544   T   T   T
  0.8342888796755320  0.3811228197788588  0.4740498448939582   T   T   T
  0.8341175271997505  0.8813609723745410  0.4741167583770860   T   T   T
  0.0012556676114016  0.1308606542531612  0.4915254092859823   T   T   T
  0.0011824549271265  0.6315592612998372  0.4915842744270905   T   T   T
  0.3349605904608652  0.1320385053927467  0.4916841687569889   T   T   T
  0.3342063174843998  0.6316787087095446  0.4917443413892376   T   T   T
  0.6670950061509028  0.1319464730388488  0.4916669044159632   T   T   T
  0.6680519437980416  0.6317851233514187  0.4916633749725886   T   T   T
  0.1675888592714359  0.3835763614268334  0.5078205377540046   T   T   T
  0.1672349644589353  0.8859280588928867  0.5079987982426291   T   T   T
  0.5012118694864567  0.3892575886618861  0.5084849255499606   T   T   T
  0.5008015757821028  0.8853029839925596  0.5080558752681102   T   T   T
  0.8352050603395343  0.3829247050017239  0.5077115105891176   T   T   T
  0.8342404442030487  0.8859485167419464  0.5079532450050939   T   T   T
  0.0032913050953673  0.0619658527054816  0.4132941793188516   T   T   T
  0.0031744907275344  0.5621357401131605  0.4133018702104544   T   T   T
  0.3366235113127193  0.0619602188286303  0.4133537329495003   T   T   T
  0.3364220747557224  0.5617712660707131  0.4133710552774212   T   T   T
  0.6694728583072468  0.0618813571709772  0.4133421157532224   T   T   T
  0.6697714436854671  0.5619198215297144  0.4133412146973337   T   T   T
  0.1695074610405571  0.3108816529824821  0.5177935575150725   T   T   T
  0.1693561987159172  0.8124973040581188  0.5179209076266357   T   T   T
  0.5046075357081694  0.3147533872566645  0.5183352399481884   T   T   T
  0.5018650582833819  0.8124145632597658  0.5180224366676651   T   T   T
  0.8376826604847237  0.3101338524606372  0.5176765742815107   T   T   T
  0.8360678062983082  0.8133786698612423  0.5179231152794331   T   T   T
  0.0875472736355312  0.1176095580060568  0.5289739620372700   T   T   T
  0.0884848246109393  0.6116096149174264  0.5287487321113836   T   T   T
  0.4212718644224210  0.1181244524289879  0.5290031442807849   T   T   T
  0.3832642704313575  0.6360917367299838  0.5310767423739288   T   T   T
  0.7566891090522859  0.1160133411989296  0.5289446359569205   T   T   T
  0.7907492380741499  0.5996017579683892  0.5278422886393417   T   T   T
  0.2564583698865203  0.3654841096739996  0.4023018569023768   T   T   T
  0.2565835417029805  0.8654213750571845  0.4023199326286248   T   T   T
  0.5891876370506250  0.3656737017975812  0.4023428428656203   T   T   T
  0.5890052129517922  0.8654642732221240  0.4023045194571256   T   T   T
  0.9213492818914560  0.3659708044418184  0.4022051411495132   T   T   T
  0.9213413702141785  0.8660979373176378  0.4022342297561744   T   T   T
  0.5459558352321943  0.6166271250767886  0.5595334818064750   T   T   T
  0.4889826753103412  0.4769845391412303  0.5718269707872065   T   T   T
  0.5681647564019813  0.6394433875351696  0.5783426591694777   T   T   T
  0.3109401199062941  0.3860863155426226  0.5823874629997068   T   T   T
  0.4236930263461548  0.2607751500708054  0.5781662732561810   T   T   T
  0.6455261176632389  0.7341105586412801  0.5979196602311521   T   T   T
  0.4810283350077005  0.7641033521637524  0.5956717358558702   T   T   T
  0.5336221953788003  0.8051264027187457  0.5466650982860451   T   T   T
  0.5943746247867294  0.6593567808650965  0.5375213071042022   T   T   T
  0.1604656194085992  0.3409968975169819  0.4060699684365957   T   T   T
  0.1605696668897851  0.8410840609645774  0.4060916391105572   T   T   T
  0.4933079258496371  0.3412337258539347  0.4061460302204883   T   T   T
  0.4931649820615793  0.8408260764637789  0.4061059099621654   T   T   T
  0.8258530211180606  0.3406498817292658  0.4060461906852352   T   T   T
  0.8258321526116692  0.8409370359501682  0.4060807063607891   T   T   T
  0.9922496091552663  0.0920907382598566  0.5250948963482565   T   T   T
  0.9916835233835131  0.5881694714737246  0.5249893285718394   T   T   T
  0.3259719146372699  0.0916840646481135  0.5251883501215617   T   T   T
  0.3050905582768227  0.5906846022382831  0.5252248218985182   T   T   T
  0.6606333055196328  0.0921244002702648  0.5251507173493583   T   T   T
  0.6877294904967299  0.5918276872587989  0.5251855787051541   T   T   T
  0.5667959810288771  0.5602143971347981  0.5696868392755930   T   T   T
  0.3793056559343210  0.3553731081048583  0.5747128738682992   T   T   T
  0.5728325179667613  0.7573894517062209  0.5904283922320797   T   T   T
  0.5216312876625769  0.6951822438904453  0.5453965798632037   T   T   T
  0.1672226161788142  0.2523788225322153  0.4229451184229770   T   T   T
  0.1672599225314182  0.7523861968562245  0.4229598188187256   T   T   T
  0.5004897134580775  0.2523268352190179  0.4230067231618538   T   T   T
  0.5004619212896600  0.7522190997326182  0.4229823535749699   T   T   T
  0.8337772814066091  0.2522540534726914  0.4229300418031146   T   T   T
  0.8337308139205657  0.7523576668430028  0.4229561691540524   T   T   T
  0.0009076315160438  0.0053305987658272  0.4400664875332073   T   T   T
  0.0009015616041517  0.5054220046842575  0.4400664581728471   T   T   T
  0.3342894612106022  0.0053617667479820  0.4401091895727133   T   T   T
  0.3342566989364892  0.5053198835347289  0.4401223747520345   T   T   T
  0.6674291411552755  0.0053666635095474  0.4401019481971394   T   T   T
  0.6675290775121823  0.5053357423163165  0.4401000193071066   T   T   T
  0.1676763755294737  0.2557215673343928  0.4569713912229687   T   T   T
  0.1677863178490986  0.7557754911359542  0.4569968736422088   T   T   T
  0.5008975665453206  0.2558830494641121  0.4570655837213106   T   T   T
  0.5008875022878233  0.7556754900928230  0.4570140174462860   T   T   T
  0.8342520007120710  0.2556725899469371  0.4569431746968173   T   T   T
  0.8341627782512800  0.7558458130982623  0.4569886720015027   T   T   T
  0.0010983660744749  0.0054746963581784  0.4742054092700317   T   T   T
  0.0010289641389130  0.5058067184680051  0.4742004190763420   T   T   T
  0.3346903124243137  0.0059861231691126  0.4742861467618925   T   T   T
  0.3341724184901419  0.5059760971590570  0.4743243003029023   T   T   T
  0.6672837163519419  0.0059757349108126  0.4742719415198801   T   T   T
  0.6678036052999045  0.5058604420193481  0.4742534321343019   T   T   T
  0.1677089695988633  0.2548463756484188  0.4910606370559536   T   T   T
  0.1676931815154454  0.7559327431155859  0.4911779144191895   T   T   T
  0.5010175969083389  0.2573143291106011  0.4913725991089034   T   T   T
  0.5008843877968675  0.7554577817899677  0.4912083906456501   T   T   T
  0.8346737155448588  0.2542213135117175  0.4909784371501013   T   T   T
  0.8346573825396602  0.7559477040717194  0.4911514818594819   T   T   T
  0.0005378244259477  0.0029893382741589  0.5082428440185730   T   T   T
  0.0011411229135191  0.5004975921821977  0.5080362628280658   T   T   T
  0.3337135920005717  0.0029263130654820  0.5083274410151265   T   T   T
  0.3317454199033629  0.5040787919812914  0.5085374734578968   T   T   T
  0.6674485942867604  0.0029175616697555  0.5083093395561541   T   T   T
  0.6705451308253709  0.5020500105726390  0.5081645625781915   T   T   T
 
  0.00000000E+00  0.00000000E+00  0.00000000E+00
  0.00000000E+00  0.00000000E+00  0.00000000E+00
  0.00000000E+00  0.00000000E+00  0.00000000E+00
  0.00000000E+00  0.00000000E+00  0.00000000E+00
  0.00000000E+00  0.00000000E+00  0.00000000E+00
  0.00000000E+00  0.00000000E+00  0.00000000E+00
  0.00000000E+00  0.00000000E+00  0.00000000E+00
  0.00000000E+00  0.00000000E+00  0.00000000E+00
  0.00000000E+00  0.00000000E+00  0.00000000E+00
  0.00000000E+00  0.00000000E+00  0.00000000E+00
  0.00000000E+00  0.00000000E+00  0.00000000E+00
  0.00000000E+00  0.00000000E+00  0.00000000E+00
  0.00000000E+00  0.00000000E+00  0.00000000E+00
  0.00000000E+00  0.00000000E+00  0.00000000E+00
  0.00000000E+00  0.00000000E+00  0.00000000E+00
  0.00000000E+00  0.00000000E+00  0.00000000E+00
  0.00000000E+00  0.00000000E+00  0.00000000E+00
  0.00000000E+00  0.00000000E+00  0.00000000E+00
  0.00000000E+00  0.00000000E+00  0.00000000E+00
  0.00000000E+00  0.00000000E+00  0.00000000E+00
  0.00000000E+00  0.00000000E+00  0.00000000E+00
  0.00000000E+00  0.00000000E+00  0.00000000E+00
  0.00000000E+00  0.00000000E+00  0.00000000E+00
  0.00000000E+00  0.00000000E+00  0.00000000E+00
  0.00000000E+00  0.00000000E+00  0.00000000E+00
  0.00000000E+00  0.00000000E+00  0.00000000E+00
  0.00000000E+00  0.00000000E+00  0.00000000E+00
  0.00000000E+00  0.00000000E+00  0.00000000E+00
  0.00000000E+00  0.00000000E+00  0.00000000E+00
  0.00000000E+00  0.00000000E+00  0.00000000E+00
  0.00000000E+00  0.00000000E+00  0.00000000E+00
  0.00000000E+00  0.00000000E+00  0.00000000E+00
  0.00000000E+00  0.00000000E+00  0.00000000E+00
  0.00000000E+00  0.00000000E+00  0.00000000E+00
  0.00000000E+00  0.00000000E+00  0.00000000E+00
  0.00000000E+00  0.00000000E+00  0.00000000E+00
  0.00000000E+00  0.00000000E+00  0.00000000E+00
  0.00000000E+00  0.00000000E+00  0.00000000E+00
  0.00000000E+00  0.00000000E+00  0.00000000E+00
  0.00000000E+00  0.00000000E+00  0.00000000E+00
  0.00000000E+00  0.00000000E+00  0.00000000E+00
  0.00000000E+00  0.00000000E+00  0.00000000E+00
  0.00000000E+00  0.00000000E+00  0.00000000E+00
  0.00000000E+00  0.00000000E+00  0.00000000E+00
  0.00000000E+00  0.00000000E+00  0.00000000E+00
  0.00000000E+00  0.00000000E+00  0.00000000E+00
  0.00000000E+00  0.00000000E+00  0.00000000E+00
  0.00000000E+00  0.00000000E+00  0.00000000E+00
  0.00000000E+00  0.00000000E+00  0.00000000E+00
  0.00000000E+00  0.00000000E+00  0.00000000E+00
  0.00000000E+00  0.00000000E+00  0.00000000E+00
  0.00000000E+00  0.00000000E+00  0.00000000E+00
  0.00000000E+00  0.00000000E+00  0.00000000E+00
  0.00000000E+00  0.00000000E+00  0.00000000E+00
  0.00000000E+00  0.00000000E+00  0.00000000E+00
  0.00000000E+00  0.00000000E+00  0.00000000E+00
  0.00000000E+00  0.00000000E+00  0.00000000E+00
  0.00000000E+00  0.00000000E+00  0.00000000E+00
  0.00000000E+00  0.00000000E+00  0.00000000E+00
  0.00000000E+00  0.00000000E+00  0.00000000E+00
  0.00000000E+00  0.00000000E+00  0.00000000E+00
  0.00000000E+00  0.00000000E+00  0.00000000E+00
  0.00000000E+00  0.00000000E+00  0.00000000E+00
  0.00000000E+00  0.00000000E+00  0.00000000E+00
  0.00000000E+00  0.00000000E+00  0.00000000E+00
  0.00000000E+00  0.00000000E+00  0.00000000E+00
  0.00000000E+00  0.00000000E+00  0.00000000E+00
  0.00000000E+00  0.00000000E+00  0.00000000E+00
  0.00000000E+00  0.00000000E+00  0.00000000E+00
  0.00000000E+00  0.00000000E+00  0.00000000E+00
  0.00000000E+00  0.00000000E+00  0.00000000E+00
  0.00000000E+00  0.00000000E+00  0.00000000E+00
  0.00000000E+00  0.00000000E+00  0.00000000E+00
  0.00000000E+00  0.00000000E+00  0.00000000E+00
  0.00000000E+00  0.00000000E+00  0.00000000E+00
  0.00000000E+00  0.00000000E+00  0.00000000E+00
  0.00000000E+00  0.00000000E+00  0.00000000E+00
  0.00000000E+00  0.00000000E+00  0.00000000E+00
  0.00000000E+00  0.00000000E+00  0.00000000E+00
  0.00000000E+00  0.00000000E+00  0.00000000E+00
  0.00000000E+00  0.00000000E+00  0.00000000E+00
  0.00000000E+00  0.00000000E+00  0.00000000E+00
  0.00000000E+00  0.00000000E+00  0.00000000E+00
  0.00000000E+00  0.00000000E+00  0.00000000E+00
  0.00000000E+00  0.00000000E+00  0.00000000E+00
  0.00000000E+00  0.00000000E+00  0.00000000E+00
  0.00000000E+00  0.00000000E+00  0.00000000E+00
  0.00000000E+00  0.00000000E+00  0.00000000E+00
  0.00000000E+00  0.00000000E+00  0.00000000E+00
  0.00000000E+00  0.00000000E+00  0.00000000E+00
  0.00000000E+00  0.00000000E+00  0.00000000E+00
  0.00000000E+00  0.00000000E+00  0.00000000E+00
  0.00000000E+00  0.00000000E+00  0.00000000E+00
  0.00000000E+00  0.00000000E+00  0.00000000E+00
  0.00000000E+00  0.00000000E+00  0.00000000E+00
  0.00000000E+00  0.00000000E+00  0.00000000E+00
  0.00000000E+00  0.00000000E+00  0.00000000E+00
  0.00000000E+00  0.00000000E+00  0.00000000E+00
  0.00000000E+00  0.00000000E+00  0.00000000E+00
  0.00000000E+00  0.00000000E+00  0.00000000E+00
  0.00000000E+00  0.00000000E+00  0.00000000E+00
  0.00000000E+00  0.00000000E+00  0.00000000E+00
  0.00000000E+00  0.00000000E+00  0.00000000E+00
  0.00000000E+00  0.00000000E+00  0.00000000E+00
  0.00000000E+00  0.00000000E+00  0.00000000E+00
  0.00000000E+00  0.00000000E+00  0.00000000E+00
  0.00000000E+00  0.00000000E+00  0.00000000E+00
  0.00000000E+00  0.00000000E+00  0.00000000E+00
  0.00000000E+00  0.00000000E+00  0.00000000E+00
  0.00000000E+00  0.00000000E+00  0.00000000E+00
  0.00000000E+00  0.00000000E+00  0.00000000E+00
  0.00000000E+00  0.00000000E+00  0.00000000E+00
  0.00000000E+00  0.00000000E+00  0.00000000E+00
  0.00000000E+00  0.00000000E+00  0.00000000E+00
  0.00000000E+00  0.00000000E+00  0.00000000E+00
  0.00000000E+00  0.00000000E+00  0.00000000E+00
  0.00000000E+00  0.00000000E+00  0.00000000E+00
  0.00000000E+00  0.00000000E+00  0.00000000E+00
  0.00000000E+00  0.00000000E+00  0.00000000E+00
  0.00000000E+00  0.00000000E+00  0.00000000E+00
  0.00000000E+00  0.00000000E+00  0.00000000E+00
