C H O Si                                
   1.00000000000000     
     9.2874599999999994    0.0000000000000000    0.0000000000000000
     0.0000000000000000    8.7563099999999991    0.0000000000000000
     0.0000000000000000    0.0000000000000000   55.0000000000000000
   C    H    O    Si
    36    33    16    36
Selective dynamics
Direct
  0.9930056264825402  0.1265639743576437  0.0637704514523118   T   T   T
  0.3264388381205507  0.1265423706504459  0.0638784950603425   T   T   T
  0.6594822519867587  0.1265632292613165  0.0638718641538763   T   T   T
  0.9929837063313621  0.6266639115092175  0.0637685370335275   T   T   T
  0.3263737947949839  0.6264502195791236  0.0638919145549571   T   T   T
  0.6595717685230235  0.6264826482623144  0.0638774694529261   T   T   T
  0.1596908312022601  0.3714595143694361  0.1470030221910009   T   T   T
  0.4930624444373910  0.3720981437029320  0.1473597557894653   T   T   T
  0.8263632233041909  0.3713692990188917  0.1469711686390229   T   T   T
  0.1599807131557598  0.8717719090954736  0.1470859223803639   T   T   T
  0.4930343660657674  0.8713565226978378  0.1471433372750366   T   T   T
  0.8261774157531119  0.8717540402499069  0.1470726808943918   T   T   T
  0.3268871013939978  0.1226244520686994  0.1758054760875369   T   T   T
  0.6588967492934198  0.1223666303117461  0.1758451716564955   T   T   T
  0.9931459457248283  0.1215122001816690  0.1754371503925484   T   T   T
  0.3260274192494987  0.6219966121292468  0.1758564968425851   T   T   T
  0.6600364744547184  0.6221445198452260  0.1757961626881189   T   T   T
  0.9931078543930202  0.6219567945164699  0.1755273779736251   T   T   T
  0.1592604595818143  0.3748582131391547  0.2021930842027553   T   T   T
  0.4928644034240803  0.3803920970550143  0.2034026676675121   T   T   T
  0.8270078338184991  0.3739664852530057  0.2020339136128570   T   T   T
  0.1588820007410467  0.8771217433792549  0.2024310586636812   T   T   T
  0.4924776164077111  0.8757286994447121  0.2024794353697603   T   T   T
  0.8264331399836244  0.8769111395329104  0.2023376295214945   T   T   T
  0.1595840105661463  0.3719702691404814  0.0906180756991249   T   T   T
  0.4929184551856974  0.3721359884842204  0.0908045374427004   T   T   T
  0.8262207807811813  0.3719548310377867  0.0905994372791183   T   T   T
  0.1597282429919594  0.8720400685350093  0.0906489614163458   T   T   T
  0.4929086160681284  0.8719299589114317  0.0907039622632304   T   T   T
  0.8261168511170691  0.8720444426675972  0.0906379699768268   T   T   T
  0.3264006110077921  0.1218060727427272  0.1192944638267044   T   T   T
  0.6593807107722730  0.1217406742714060  0.1193050815761936   T   T   T
  0.9928719587080116  0.1214033725450614  0.1191437485730318   T   T   T
  0.3261941175621388  0.6216286797621910  0.1193232359295841   T   T   T
  0.6595809597811889  0.6216944188830228  0.1192976052449937   T   T   T
  0.9928745914509060  0.6217948036119805  0.1191642561965647   T   T   T
  0.0742809101299367  0.3514169768206112  0.0285058034370092   T   T   T
  0.4065270437199572  0.3519474433387010  0.0287577092933544   T   T   T
  0.7394709519776191  0.3512534501514917  0.0286132089961635   T   T   T
  0.0744621324999578  0.8516785790359807  0.0285350834297766   T   T   T
  0.4063945498537440  0.8511459044871087  0.0286769093673921   T   T   T
  0.7393572827229499  0.8514795260460248  0.0286523623908198   T   T   T
  0.3239510051827201  0.0545326083344004  0.0474471154222699   T   T   T
  0.6562429049922130  0.0544876778045785  0.0474500049881550   T   T   T
  0.9901483008433415  0.0546086903036834  0.0473387745287709   T   T   T
  0.3235506271544664  0.5543863541858242  0.0474707213359216   T   T   T
  0.6566047451097824  0.5543556231095672  0.0474625757563566   T   T   T
  0.9901172350423665  0.5547360175130596  0.0473289484641353   T   T   T
  0.8298220713343269  0.8058630337326486  0.2188316684823341   T   T   T
  0.8307379575254425  0.3027879511814495  0.2185452264667572   T   T   T
  0.1612323902137183  0.3035388427601844  0.2186935112739277   T   T   T
  0.4963191772656855  0.3066494288856509  0.2196314192979100   T   T   T
  0.1611498616450364  0.8050114658486577  0.2188303593937637   T   T   T
  0.4927241104264716  0.8028094723745333  0.2188142704602324   T   T   T
  0.0775944229256485  0.1049112578971506  0.2373995963228029   T   T   T
  0.4141445374160414  0.1078223755232703  0.2369189536084866   T   T   T
  0.7471963955724416  0.1038335171544801  0.2372019008770191   T   T   T
  0.0774547900033252  0.6000817478872177  0.2370564104041044   T   T   T
  0.3749584723404308  0.6128942606933482  0.2415194322411656   T   T   T
  0.7836360613633583  0.5895752585681910  0.2351393653205429   T   T   T
  0.5546476396299663  0.6143526603325784  0.2888260898657213   T   T   T
  0.5007163916502162  0.4783244347277329  0.3093547310493255   T   T   T
  0.5782454521967959  0.6395640589945574  0.3198724315092760   T   T   T
  0.3140447273648376  0.3899178116161939  0.3263093211374274   T   T   T
  0.4162175852073104  0.2560056089546229  0.3183615027812273   T   T   T
  0.6496406956225770  0.7354607728793602  0.3537021349545136   T   T   T
  0.4835530256219433  0.7553418610133332  0.3497174755288323   T   T   T
  0.5203213540704991  0.7897000860143298  0.2646605238055341   T   T   T
  0.5909586209292770  0.6427042876407090  0.2512466821373303   T   T   T
  0.1680647564763392  0.3368221163736177  0.0362329743629993   T   T   T
  0.5006028934022720  0.3373065591349788  0.0363955640098523   T   T   T
  0.8336698551492746  0.3367486494806117  0.0362129448848101   T   T   T
  0.1682198416449625  0.8368527981140467  0.0362595004237080   T   T   T
  0.5005360180647643  0.8369104775395070  0.0363133651846967   T   T   T
  0.8335417256114899  0.8369443375010762  0.0362563815434737   T   T   T
  0.3189325966187709  0.0836094662954670  0.2303757431364750   T   T   T
  0.6515829126215101  0.0815991942382708  0.2305754417623422   T   T   T
  0.9834955054946988  0.0866247372654379  0.2299850502492727   T   T   T
  0.2975270759063227  0.5875067544332310  0.2301437029315884   T   T   T
  0.6803573888471942  0.5842066843130437  0.2306131988256939   T   T   T
  0.9821544538612098  0.5825404807339279  0.2298577712138989   T   T   T
  0.5773757392566874  0.5613711226582375  0.3057572984322898   T   T   T
  0.3827816508725226  0.3582462651220317  0.3136240453885279   T   T   T
  0.5770449879376205  0.7564765078071708  0.3411088580078768   T   T   T
  0.5208420841529808  0.6782375738612919  0.2648988037159012   T   T   T
  0.4930324484938191  0.2440323582312123  0.0631881780987016   T   T   T
  0.8262975609898047  0.2437511686959015  0.0630248184305707   T   T   T
  0.1599075327600910  0.7438147091381615  0.0630766152299568   T   T   T
  0.4930451157136498  0.7437844345727828  0.0631197941503180   T   T   T
  0.8262515537271524  0.7438471456455251  0.0630621557741231   T   T   T
  0.1598736944655246  0.2437678181005542  0.0630477111708054   T   T   T
  0.9931071429340511  0.9962017175597330  0.1471375724862605   T   T   T
  0.3267039862740746  0.9967484900579395  0.1473076871023957   T   T   T
  0.6592915196351706  0.9965758523394104  0.1473193679160899   T   T   T
  0.9930637787226879  0.4963369168242691  0.1471120884973380   T   T   T
  0.3260669165626619  0.4965667763933018  0.1473663891211233   T   T   T
  0.6599449352328826  0.4963854264760832  0.1472760376550125   T   T   T
  0.1595159687513934  0.2455981887798021  0.1749015324845980   T   T   T
  0.4928444237499340  0.2479354080462877  0.1754853261659578   T   T   T
  0.8265606104429601  0.2448624099974151  0.1747854451158381   T   T   T
  0.1594945649324963  0.7466303470345059  0.1750748058632418   T   T   T
  0.4926704874530014  0.7457410555618186  0.1750693500741869   T   T   T
  0.8267349611817941  0.7465310288903649  0.1750224595060431   T   T   T
  0.3254866245204635  0.9936750624561137  0.2031464249286193   T   T   T
  0.6592964527741246  0.9930451771401151  0.2031559388191266   T   T   T
  0.9924813375981828  0.9945376454419831  0.2029713030858622   T   T   T
  0.3233985595790229  0.4953312315256528  0.2035247638011372   T   T   T
  0.9929241735934330  0.4918611024636264  0.2026381399254497   T   T   T
  0.6624177289759673  0.4928805455888114  0.2029513452231000   T   T   T
  0.9929309122418117  0.9961131993246426  0.0910461797483760   T   T   T
  0.3263989810182623  0.9963131125971159  0.0911689651374216   T   T   T
  0.6594182234675056  0.9962981140312855  0.0911670639230819   T   T   T
  0.9929121280759817  0.4962316804107537  0.0910486963506216   T   T   T
  0.3261986933510593  0.4962840759511328  0.0912005731142654   T   T   T
  0.6596085898839010  0.4962471750814978  0.0911723081916284   T   T   T
  0.1594915420648623  0.2464526632131707  0.1188858845504091   T   T   T
  0.4928785583159879  0.2468838865630908  0.1191148788987727   T   T   T
  0.8262261235573313  0.2463758236024118  0.1188530095523715   T   T   T
  0.1596524609889313  0.7466864753628203  0.1189439005874094   T   T   T
  0.4928066637003395  0.7464991385737030  0.1189754451181140   T   T   T
  0.8261305996982256  0.7467173029392690  0.1189237767032361   T   T   T
 
  0.00000000E+00  0.00000000E+00  0.00000000E+00
  0.00000000E+00  0.00000000E+00  0.00000000E+00
  0.00000000E+00  0.00000000E+00  0.00000000E+00
  0.00000000E+00  0.00000000E+00  0.00000000E+00
  0.00000000E+00  0.00000000E+00  0.00000000E+00
  0.00000000E+00  0.00000000E+00  0.00000000E+00
  0.00000000E+00  0.00000000E+00  0.00000000E+00
  0.00000000E+00  0.00000000E+00  0.00000000E+00
  0.00000000E+00  0.00000000E+00  0.00000000E+00
  0.00000000E+00  0.00000000E+00  0.00000000E+00
  0.00000000E+00  0.00000000E+00  0.00000000E+00
  0.00000000E+00  0.00000000E+00  0.00000000E+00
  0.00000000E+00  0.00000000E+00  0.00000000E+00
  0.00000000E+00  0.00000000E+00  0.00000000E+00
  0.00000000E+00  0.00000000E+00  0.00000000E+00
  0.00000000E+00  0.00000000E+00  0.00000000E+00
  0.00000000E+00  0.00000000E+00  0.00000000E+00
  0.00000000E+00  0.00000000E+00  0.00000000E+00
  0.00000000E+00  0.00000000E+00  0.00000000E+00
  0.00000000E+00  0.00000000E+00  0.00000000E+00
  0.00000000E+00  0.00000000E+00  0.00000000E+00
  0.00000000E+00  0.00000000E+00  0.00000000E+00
  0.00000000E+00  0.00000000E+00  0.00000000E+00
  0.00000000E+00  0.00000000E+00  0.00000000E+00
  0.00000000E+00  0.00000000E+00  0.00000000E+00
  0.00000000E+00  0.00000000E+00  0.00000000E+00
  0.00000000E+00  0.00000000E+00  0.00000000E+00
  0.00000000E+00  0.00000000E+00  0.00000000E+00
  0.00000000E+00  0.00000000E+00  0.00000000E+00
  0.00000000E+00  0.00000000E+00  0.00000000E+00
  0.00000000E+00  0.00000000E+00  0.00000000E+00
  0.00000000E+00  0.00000000E+00  0.00000000E+00
  0.00000000E+00  0.00000000E+00  0.00000000E+00
  0.00000000E+00  0.00000000E+00  0.00000000E+00
  0.00000000E+00  0.00000000E+00  0.00000000E+00
  0.00000000E+00  0.00000000E+00  0.00000000E+00
  0.00000000E+00  0.00000000E+00  0.00000000E+00
  0.00000000E+00  0.00000000E+00  0.00000000E+00
  0.00000000E+00  0.00000000E+00  0.00000000E+00
  0.00000000E+00  0.00000000E+00  0.00000000E+00
  0.00000000E+00  0.00000000E+00  0.00000000E+00
  0.00000000E+00  0.00000000E+00  0.00000000E+00
  0.00000000E+00  0.00000000E+00  0.00000000E+00
  0.00000000E+00  0.00000000E+00  0.00000000E+00
  0.00000000E+00  0.00000000E+00  0.00000000E+00
  0.00000000E+00  0.00000000E+00  0.00000000E+00
  0.00000000E+00  0.00000000E+00  0.00000000E+00
  0.00000000E+00  0.00000000E+00  0.00000000E+00
  0.00000000E+00  0.00000000E+00  0.00000000E+00
  0.00000000E+00  0.00000000E+00  0.00000000E+00
  0.00000000E+00  0.00000000E+00  0.00000000E+00
  0.00000000E+00  0.00000000E+00  0.00000000E+00
  0.00000000E+00  0.00000000E+00  0.00000000E+00
  0.00000000E+00  0.00000000E+00  0.00000000E+00
  0.00000000E+00  0.00000000E+00  0.00000000E+00
  0.00000000E+00  0.00000000E+00  0.00000000E+00
  0.00000000E+00  0.00000000E+00  0.00000000E+00
  0.00000000E+00  0.00000000E+00  0.00000000E+00
  0.00000000E+00  0.00000000E+00  0.00000000E+00
  0.00000000E+00  0.00000000E+00  0.00000000E+00
  0.00000000E+00  0.00000000E+00  0.00000000E+00
  0.00000000E+00  0.00000000E+00  0.00000000E+00
  0.00000000E+00  0.00000000E+00  0.00000000E+00
  0.00000000E+00  0.00000000E+00  0.00000000E+00
  0.00000000E+00  0.00000000E+00  0.00000000E+00
  0.00000000E+00  0.00000000E+00  0.00000000E+00
  0.00000000E+00  0.00000000E+00  0.00000000E+00
  0.00000000E+00  0.00000000E+00  0.00000000E+00
  0.00000000E+00  0.00000000E+00  0.00000000E+00
  0.00000000E+00  0.00000000E+00  0.00000000E+00
  0.00000000E+00  0.00000000E+00  0.00000000E+00
  0.00000000E+00  0.00000000E+00  0.00000000E+00
  0.00000000E+00  0.00000000E+00  0.00000000E+00
  0.00000000E+00  0.00000000E+00  0.00000000E+00
  0.00000000E+00  0.00000000E+00  0.00000000E+00
  0.00000000E+00  0.00000000E+00  0.00000000E+00
  0.00000000E+00  0.00000000E+00  0.00000000E+00
  0.00000000E+00  0.00000000E+00  0.00000000E+00
  0.00000000E+00  0.00000000E+00  0.00000000E+00
  0.00000000E+00  0.00000000E+00  0.00000000E+00
  0.00000000E+00  0.00000000E+00  0.00000000E+00
  0.00000000E+00  0.00000000E+00  0.00000000E+00
  0.00000000E+00  0.00000000E+00  0.00000000E+00
  0.00000000E+00  0.00000000E+00  0.00000000E+00
  0.00000000E+00  0.00000000E+00  0.00000000E+00
  0.00000000E+00  0.00000000E+00  0.00000000E+00
  0.00000000E+00  0.00000000E+00  0.00000000E+00
  0.00000000E+00  0.00000000E+00  0.00000000E+00
  0.00000000E+00  0.00000000E+00  0.00000000E+00
  0.00000000E+00  0.00000000E+00  0.00000000E+00
  0.00000000E+00  0.00000000E+00  0.00000000E+00
  0.00000000E+00  0.00000000E+00  0.00000000E+00
  0.00000000E+00  0.00000000E+00  0.00000000E+00
  0.00000000E+00  0.00000000E+00  0.00000000E+00
  0.00000000E+00  0.00000000E+00  0.00000000E+00
  0.00000000E+00  0.00000000E+00  0.00000000E+00
  0.00000000E+00  0.00000000E+00  0.00000000E+00
  0.00000000E+00  0.00000000E+00  0.00000000E+00
  0.00000000E+00  0.00000000E+00  0.00000000E+00
  0.00000000E+00  0.00000000E+00  0.00000000E+00
  0.00000000E+00  0.00000000E+00  0.00000000E+00
  0.00000000E+00  0.00000000E+00  0.00000000E+00
  0.00000000E+00  0.00000000E+00  0.00000000E+00
  0.00000000E+00  0.00000000E+00  0.00000000E+00
  0.00000000E+00  0.00000000E+00  0.00000000E+00
  0.00000000E+00  0.00000000E+00  0.00000000E+00
  0.00000000E+00  0.00000000E+00  0.00000000E+00
  0.00000000E+00  0.00000000E+00  0.00000000E+00
  0.00000000E+00  0.00000000E+00  0.00000000E+00
  0.00000000E+00  0.00000000E+00  0.00000000E+00
  0.00000000E+00  0.00000000E+00  0.00000000E+00
  0.00000000E+00  0.00000000E+00  0.00000000E+00
  0.00000000E+00  0.00000000E+00  0.00000000E+00
  0.00000000E+00  0.00000000E+00  0.00000000E+00
  0.00000000E+00  0.00000000E+00  0.00000000E+00
  0.00000000E+00  0.00000000E+00  0.00000000E+00
  0.00000000E+00  0.00000000E+00  0.00000000E+00
  0.00000000E+00  0.00000000E+00  0.00000000E+00
  0.00000000E+00  0.00000000E+00  0.00000000E+00
  0.00000000E+00  0.00000000E+00  0.00000000E+00
  0.00000000E+00  0.00000000E+00  0.00000000E+00
