C H O Si
1.0
  9.287460000000   0.000000000000   0.000000000000
  0.000000000000   8.756310000000   0.000000000000
  0.000000000000   0.000000000000  55.000000000000
C H O Si
 36  33  16  36
Selective dynamics
Direct
  0.993533622572   0.126523388176   0.064273765598  T T T
  0.327064260737   0.126777946122   0.064514159730  T T T
  0.659775757390   0.126681141644   0.064505690192  T T T
  0.993510416505   0.626951273720   0.064304156955  T T T
  0.326867424546   0.626459573516   0.064572949620  T T T
  0.659973754149   0.626491497124   0.064484487164  T T T
  0.159990338695   0.372823848379   0.146158960210  T T T
  0.493259701097   0.373271878769   0.146542163031  T T T
  0.826596646746   0.372700095275   0.146075664698  T T T
  0.160262775394   0.872927198984   0.146240350855  T T T
  0.493290934178   0.872533687231   0.146335704165  T T T
  0.826385693606   0.872913519426   0.146200328708  T T T
  0.326741415101   0.123452282053   0.175326524749  T T T
  0.658920101388   0.123201914907   0.175312048630  T T T
  0.992881194739   0.122355483565   0.174980847989  T T T
  0.326062166954   0.623022733334   0.175467366830  T T T
  0.659864851799   0.623255101398   0.175313147084  T T T
  0.992918108435   0.623025129130   0.175070952924  T T T
  0.159116644427   0.375294981200   0.201501641791  T T T
  0.492902727080   0.380463417575   0.202647053482  T T T
  0.826658948233   0.374695385399   0.201319845558  T T T
  0.158712026898   0.877536302701   0.201783075160  T T T
  0.492222996723   0.876654277780   0.201899403457  T T T
  0.825824261709   0.877507273870   0.201695735459  T T T
  0.159990338695   0.372823848379   0.090886232938  T T T
  0.493259701097   0.373271878769   0.091269435758  T T T
  0.826596646746   0.372700095275   0.090802937425  T T T
  0.160262775394   0.872927198984   0.090967623582  T T T
  0.493290934178   0.872533687231   0.091062976892  T T T
  0.826385693606   0.872913519426   0.090927601436  T T T
  0.326741415101   0.123452282053   0.120053797476  T T T
  0.658920101388   0.123201914907   0.120039321358  T T T
  0.992881194739   0.122355483565   0.119708120716  T T T
  0.326062166954   0.623022733334   0.120194639557  T T T
  0.659864851799   0.623255101398   0.120040419811  T T T
  0.992918108435   0.623025129130   0.119798225651  T T T
  0.072218865264   0.353813805123   0.029557109717  T T T
  0.404418332160   0.354563250815   0.029935679382  T T T
  0.736882711864   0.353930648348   0.029674512963  T T T
  0.072486322760   0.854105595922   0.029628237435  T T T
  0.404313408755   0.853783158561   0.029769686786  T T T
  0.736833517690   0.854108846717   0.029759952647  T T T
  0.326023013595   0.052788066294   0.048311018034  T T T
  0.656693127139   0.052693535553   0.048307705853  T T T
  0.991726521785   0.052785405350   0.048039897312  T T T
  0.324978890683   0.551871845579   0.048442742557  T T T
  0.657761166650   0.552336285909   0.048302685565  T T T
  0.991606105797   0.553272254088   0.048063891047  T T T
  0.827983492332   0.804000312089   0.217921996616  T T T
  0.829341330356   0.300764286547   0.217515573719  T T T
  0.160186211641   0.301700290937   0.217742371331  T T T
  0.495724460906   0.305531863876   0.218739142931  T T T
  0.160319780511   0.803275500605   0.217949564053  T T T
  0.492566716101   0.802459720652   0.218096362790  T T T
  0.079210597346   0.106623629138   0.236422698975  T T T
  0.414972529521   0.106016902934   0.236368580713  T T T
  0.747655626089   0.105244051981   0.236521748379  T T T
  0.079567303337   0.602796543005   0.236008858992  T T T
  0.379064295058   0.615898404323   0.240543183831  T T T
  0.781925037336   0.591400579702   0.234472281048  T T T
  0.554240009964   0.612934504116   0.289616750880  T T T
  0.499045854525   0.477995916317   0.309793403308  T T T
  0.576971996489   0.641151843373   0.320638480810  T T T
  0.315774571365   0.392021815459   0.325689059157  T T T
  0.419697066621   0.261561026749   0.317490137120  T T T
  0.650272084160   0.733631783462   0.353380234148  T T T
  0.484952915570   0.755538491615   0.349695322394  T T T
  0.518056019863   0.786273401499   0.265961419512  T T T
  0.588092220122   0.642980456270   0.251961525647  T T T
  0.167794886423   0.331540036446   0.036123848165  T T T
  0.500245252952   0.333063336029   0.036478073785  T T T
  0.832896016344   0.330979201025   0.036011010420  T T T
  0.168046057048   0.831628305182   0.036184038339  T T T
  0.500122512113   0.831448039057   0.036249657503  T T T
  0.832819189182   0.831698990426   0.036154029277  T T T
  0.318975609732   0.082589841970   0.230072458862  T T T
  0.651868817915   0.082457171967   0.230075294366  T T T
  0.984006164150   0.083269419928   0.229807371666  T T T
  0.299006184213   0.581649675896   0.230255877248  T T T
  0.678782527722   0.583160127595   0.230170678946  T T T
  0.983229816557   0.579729169619   0.229629900747  T T T
  0.577569684057   0.561551071493   0.306431438752  T T T
  0.383807349139   0.362493037605   0.313000717032  T T T
  0.576831826337   0.753836830105   0.341081183992  T T T
  0.516394081006   0.674879170303   0.265170024164  T T T
  0.493548150060   0.244184606596   0.063991160553  T T T
  0.826757694925   0.243404309783   0.063620146295  T T T
  0.160573998057   0.743699342164   0.063765850342  T T T
  0.493492927138   0.743490338376   0.063829406942  T T T
  0.826630403839   0.743672768563   0.063722136221  T T T
  0.160458287919   0.243615025669   0.063701921516  T T T
  0.993313005824   0.996232281583   0.146946427370  T T T
  0.326993911198   0.996783753710   0.147178592546  T T T
  0.659527960579   0.996679992693   0.147166509306  T T T
  0.993261317180   0.496602462131   0.146940269929  T T T
  0.326398491495   0.496748993978   0.147288126571  T T T
  0.660113477962   0.496619989870   0.147160276564  T T T
  0.159421440100   0.246025836262   0.174184383451  T T T
  0.492929381969   0.248370439235   0.174795726720  T T T
  0.826297868944   0.245568775150   0.174055613597  T T T
  0.159505090014   0.747073140843   0.174397530695  T T T
  0.492717359443   0.746621285732   0.174477973175  T T T
  0.826409287077   0.747178131058   0.174330866584  T T T
  0.325318678875   0.994257684505   0.202501999674  T T T
  0.658880657387   0.994033440023   0.202504630860  T T T
  0.992024894068   0.994519562830   0.202280764010  T T T
  0.323635868516   0.495149690066   0.202892736157  T T T
  0.992621467000   0.491985562186   0.201940963186  T T T
  0.662001368686   0.493674238966   0.202312022830  T T T
  0.993313005824   0.996232281583   0.091673700097  T T T
  0.326993911198   0.996783753710   0.091905865273  T T T
  0.659527960579   0.996679992693   0.091893782034  T T T
  0.993261317180   0.496602462131   0.091667542656  T T T
  0.326398491495   0.496748993978   0.092015399298  T T T
  0.660113477962   0.496619989870   0.091887549291  T T T
  0.159421440100   0.246025836262   0.118911656178  T T T
  0.492929381969   0.248370439235   0.119522999448  T T T
  0.826297868944   0.245568775150   0.118782886324  T T T
  0.159505090014   0.747073140843   0.119124803423  T T T
  0.492717359443   0.746621285732   0.119205245902  T T T
  0.826409287077   0.747178131058   0.119058139311  T T T
