C H O Si                                
   1.00000000000000     
     9.2874599999999994    0.0000000000000000    0.0000000000000000
     0.0000000000000000    8.7562999999999995    0.0000000000000000
     0.0000000000000000    0.0000000000000000   90.0000000000000000
   C    H    O    Si
    36    33    16    36
Selective dynamics
Direct
  0.0011576968720679  0.1352947015980832  0.4232231318341513   T   T   T
  0.0011531496642072  0.6353903383032133  0.4232297987101199   T   T   T
  0.3344777450686913  0.1353535285720167  0.4232823622875718   T   T   T
  0.3344435738938597  0.6352440903771196  0.4232925117232517   T   T   T
  0.6676730664349598  0.1352671981311567  0.4232835117473165   T   T   T
  0.6677228991748415  0.6352474165701322  0.4232793723438876   T   T   T
  0.1681319626145761  0.3812442263904148  0.4395922804489425   T   T   T
  0.1682106402867286  0.8812712265577587  0.4396026970349736   T   T   T
  0.5014497794811636  0.3813054561393712  0.4396715138856344   T   T   T
  0.5014373696377781  0.8812224468870578  0.4396349492690212   T   T   T
  0.8347743441158411  0.3812740660947965  0.4395626774141284   T   T   T
  0.8347033812876981  0.8812763094861230  0.4395925660461916   T   T   T
  0.0016135129664275  0.1309775629085553  0.4570805663698518   T   T   T
  0.0015975741360627  0.6311649218198414  0.4570907817379196   T   T   T
  0.3350580106021888  0.1310053301273968  0.4571402260695878   T   T   T
  0.3349895107787250  0.6309134020866850  0.4571555380470591   T   T   T
  0.6681469844210066  0.1310897477311348  0.4571416280181173   T   T   T
  0.6682585436515867  0.6310944272030888  0.4571352545740726   T   T   T
  0.1684302211610859  0.3809772555370538  0.4740753656918391   T   T   T
  0.1686654649351996  0.8810058714542784  0.4741053626356264   T   T   T
  0.5017032169433737  0.3814214221434152  0.4742349836203050   T   T   T
  0.5017113016525915  0.8807443307614690  0.4741437714019961   T   T   T
  0.8350211498880808  0.3808500930536908  0.4740448468733847   T   T   T
  0.8348961084459383  0.8811257342036666  0.4741105412824141   T   T   T
  0.0020602995415409  0.1305264214136931  0.4915057626161573   T   T   T
  0.0018688106475668  0.6312083743484933  0.4915745402811037   T   T   T
  0.3356552762944399  0.1317290750684929  0.4916696950363588   T   T   T
  0.3348639807678679  0.6312427328821703  0.4917285503394396   T   T   T
  0.6677326305615683  0.1315462531645086  0.4916676630157540   T   T   T
  0.6687138335527620  0.6313623173335048  0.4916594937699770   T   T   T
  0.1682220592166256  0.3834597889275541  0.5078051067235980   T   T   T
  0.1677854986295678  0.8857265326183829  0.5079670168577366   T   T   T
  0.5018231574935951  0.3890388630499763  0.5084650965430036   T   T   T
  0.5013132033194448  0.8849937209763381  0.5080226435743302   T   T   T
  0.8358375615266355  0.3826164320435068  0.5076864665893718   T   T   T
  0.8348613422664678  0.8857452539612186  0.5079253904189351   T   T   T
  0.0041150544390323  0.0625743841017077  0.4132417107178048   T   T   T
  0.0039708964669385  0.5626824570568552  0.4132487865185381   T   T   T
  0.3375686379822900  0.0626184797842357  0.4133012224422670   T   T   T
  0.3373555785890408  0.5623414701897207  0.4133244499278316   T   T   T
  0.6700178434953566  0.0624995213945972  0.4133036908080154   T   T   T
  0.6703654282699831  0.5624502999377770  0.4133042521346724   T   T   T
  0.1701405618557985  0.3111594703076772  0.5178157567820395   T   T   T
  0.1701369744936126  0.8127148172127610  0.5179256722937425   T   T   T
  0.5051371497377050  0.3150337262397160  0.5183581251938248   T   T   T
  0.5022965414207032  0.8123100392058566  0.5180092104390676   T   T   T
  0.8385968520649177  0.3103510860924026  0.5176968550228908   T   T   T
  0.8372043893718307  0.8136758853183576  0.5179365682220256   T   T   T
  0.0857058357080683  0.1165383065016007  0.5293013798170231   T   T   T
  0.0865520626064190  0.6110738752464691  0.5290588175674195   T   T   T
  0.4193217429835212  0.1172883556575944  0.5293296604582262   T   T   T
  0.3826528079162065  0.6338950354651205  0.5314056714715000   T   T   T
  0.7542558520868273  0.1155481308688774  0.5292884763440978   T   T   T
  0.7899384390208454  0.5993247773571909  0.5280099276762973   T   T   T
  0.2541369345851536  0.3653108844030837  0.4019328884371198   T   T   T
  0.2543565963285184  0.8652290479400382  0.4019488339588605   T   T   T
  0.5865890936443904  0.3655396604692936  0.4019655963678779   T   T   T
  0.5863980667598017  0.8653740038905793  0.4019305325258464   T   T   T
  0.9186934031394466  0.3660062399308988  0.4018256420956981   T   T   T
  0.9187056191377881  0.8661674028152246  0.4018553690080977   T   T   T
  0.5435022364728870  0.6154455596933848  0.5599350737670633   T   T   T
  0.4873871336421696  0.4760914588125206  0.5721132478227278   T   T   T
  0.5670638910059330  0.6398094993805805  0.5786604495223847   T   T   T
  0.3081900861846791  0.3833212943809984  0.5821746650075400   T   T   T
  0.4230583711673948  0.2593410248798664  0.5781701422480120   T   T   T
  0.6469251849745028  0.7345079503575527  0.5980627866874271   T   T   T
  0.4826986698051126  0.7671343973284331  0.5958771581857677   T   T   T
  0.5264114856806508  0.8041202138961939  0.5466949474129806   T   T   T
  0.5918986713625828  0.6602315657157402  0.5377743644876070   T   T   T
  0.1596274045986532  0.3421944242199699  0.4061381714553844   T   T   T
  0.1597932714542054  0.8422436443460523  0.4061504300941816   T   T   T
  0.4922845917187067  0.3426062006991563  0.4062288720012613   T   T   T
  0.4921282960895972  0.8422164095261829  0.4061898002954634   T   T   T
  0.8248278566677021  0.3418804480094820  0.4061212170449310   T   T   T
  0.8248242617021124  0.8421772880279116  0.4061536123830147   T   T   T
  0.9918119043674227  0.0929007889005210  0.5249859895180723   T   T   T
  0.9911293490446019  0.5887288106461324  0.5249106700150450   T   T   T
  0.3254465710275143  0.0922292405888533  0.5250901992160832   T   T   T
  0.3056009068444162  0.5921265517099221  0.5251035636114161   T   T   T
  0.6597878897318644  0.0924483926402898  0.5250698524948845   T   T   T
  0.6875003951065864  0.5923633197805046  0.5251018537103690   T   T   T
  0.5649482358101087  0.5601553454920497  0.5699938186367161   T   T   T
  0.3789525393637747  0.3539603821610387  0.5746829985322665   T   T   T
  0.5740344771866583  0.7577080986448800  0.5905868467128473   T   T   T
  0.5171127196325510  0.6938291623312931  0.5453924093542498   T   T   T
  0.1676866015261650  0.2526535034260269  0.4228270584869837   T   T   T
  0.1677387852754210  0.7526519738485128  0.4228390574502638   T   T   T
  0.5009181839486591  0.2526977026799477  0.4229001670275078   T   T   T
  0.5008811143420743  0.7525598656172900  0.4228748699243034   T   T   T
  0.8341906839291900  0.2525205339704462  0.4228150314684838   T   T   T
  0.8341648049738004  0.7525751210912901  0.4228365661813196   T   T   T
  0.0014545598624041  0.0053250089301142  0.4399831405811293   T   T   T
  0.0014507040753667  0.5053964298274758  0.4399852445049542   T   T   T
  0.3348353826326045  0.0053575312348014  0.4400286415063462   T   T   T
  0.3347544835460168  0.5053001315562999  0.4400463345627597   T   T   T
  0.6679962239709215  0.0053517900804940  0.4400317054548062   T   T   T
  0.6680677757732497  0.5053345613757454  0.4400277316552219   T   T   T
  0.1683232809086244  0.2558106304156832  0.4569377727656095   T   T   T
  0.1684586374492842  0.7558579782466935  0.4569571207265665   T   T   T
  0.5015616154135618  0.2559754560321693  0.4570380098116233   T   T   T
  0.5015467196097454  0.7557652589131914  0.4569814663570901   T   T   T
  0.8349184857963315  0.2557879154402927  0.4569077025166929   T   T   T
  0.8348792611042073  0.7559532201367108  0.4569542181901941   T   T   T
  0.0018881518161043  0.0054485827238620  0.4741983951867073   T   T   T
  0.0017511761714917  0.5057584987958181  0.4742010790918699   T   T   T
  0.3353956766862294  0.0059417405020483  0.4742819782458298   T   T   T
  0.3349010840946129  0.5059630020118492  0.4743224779243360   T   T   T
  0.6679930016645720  0.0059059828342278  0.4742802040283126   T   T   T
  0.6685358624919114  0.5058011773724584  0.4742582922572717   T   T   T
  0.1684373723449466  0.2547083972616763  0.4911076448618702   T   T   T
  0.1683637790297757  0.7556808835092974  0.4912170506978432   T   T   T
  0.5016753023347124  0.2570962330088100  0.4914292916491653   T   T   T
  0.5015169970930273  0.7551439061645754  0.4912460333539028   T   T   T
  0.8353878124615612  0.2538737943906642  0.4910263208078260   T   T   T
  0.8353287532533539  0.7556616065898308  0.4911982167268996   T   T   T
  0.0011818530867520  0.0029582212170779  0.5083143532959440   T   T   T
  0.0017534982910799  0.5004021330404406  0.5081180602847359   T   T   T
  0.3342796055540156  0.0028099465458647  0.5084007873819236   T   T   T
  0.3324307253247304  0.5041383840425385  0.5086340675968068   T   T   T
  0.6679980271280562  0.0026822372855760  0.5083932723419009   T   T   T
  0.6712312376880820  0.5019227439947304  0.5082594237802893   T   T   T
 
  0.00000000E+00  0.00000000E+00  0.00000000E+00
  0.00000000E+00  0.00000000E+00  0.00000000E+00
  0.00000000E+00  0.00000000E+00  0.00000000E+00
  0.00000000E+00  0.00000000E+00  0.00000000E+00
  0.00000000E+00  0.00000000E+00  0.00000000E+00
  0.00000000E+00  0.00000000E+00  0.00000000E+00
  0.00000000E+00  0.00000000E+00  0.00000000E+00
  0.00000000E+00  0.00000000E+00  0.00000000E+00
  0.00000000E+00  0.00000000E+00  0.00000000E+00
  0.00000000E+00  0.00000000E+00  0.00000000E+00
  0.00000000E+00  0.00000000E+00  0.00000000E+00
  0.00000000E+00  0.00000000E+00  0.00000000E+00
  0.00000000E+00  0.00000000E+00  0.00000000E+00
  0.00000000E+00  0.00000000E+00  0.00000000E+00
  0.00000000E+00  0.00000000E+00  0.00000000E+00
  0.00000000E+00  0.00000000E+00  0.00000000E+00
  0.00000000E+00  0.00000000E+00  0.00000000E+00
  0.00000000E+00  0.00000000E+00  0.00000000E+00
  0.00000000E+00  0.00000000E+00  0.00000000E+00
  0.00000000E+00  0.00000000E+00  0.00000000E+00
  0.00000000E+00  0.00000000E+00  0.00000000E+00
  0.00000000E+00  0.00000000E+00  0.00000000E+00
  0.00000000E+00  0.00000000E+00  0.00000000E+00
  0.00000000E+00  0.00000000E+00  0.00000000E+00
  0.00000000E+00  0.00000000E+00  0.00000000E+00
  0.00000000E+00  0.00000000E+00  0.00000000E+00
  0.00000000E+00  0.00000000E+00  0.00000000E+00
  0.00000000E+00  0.00000000E+00  0.00000000E+00
  0.00000000E+00  0.00000000E+00  0.00000000E+00
  0.00000000E+00  0.00000000E+00  0.00000000E+00
  0.00000000E+00  0.00000000E+00  0.00000000E+00
  0.00000000E+00  0.00000000E+00  0.00000000E+00
  0.00000000E+00  0.00000000E+00  0.00000000E+00
  0.00000000E+00  0.00000000E+00  0.00000000E+00
  0.00000000E+00  0.00000000E+00  0.00000000E+00
  0.00000000E+00  0.00000000E+00  0.00000000E+00
  0.00000000E+00  0.00000000E+00  0.00000000E+00
  0.00000000E+00  0.00000000E+00  0.00000000E+00
  0.00000000E+00  0.00000000E+00  0.00000000E+00
  0.00000000E+00  0.00000000E+00  0.00000000E+00
  0.00000000E+00  0.00000000E+00  0.00000000E+00
  0.00000000E+00  0.00000000E+00  0.00000000E+00
  0.00000000E+00  0.00000000E+00  0.00000000E+00
  0.00000000E+00  0.00000000E+00  0.00000000E+00
  0.00000000E+00  0.00000000E+00  0.00000000E+00
  0.00000000E+00  0.00000000E+00  0.00000000E+00
  0.00000000E+00  0.00000000E+00  0.00000000E+00
  0.00000000E+00  0.00000000E+00  0.00000000E+00
  0.00000000E+00  0.00000000E+00  0.00000000E+00
  0.00000000E+00  0.00000000E+00  0.00000000E+00
  0.00000000E+00  0.00000000E+00  0.00000000E+00
  0.00000000E+00  0.00000000E+00  0.00000000E+00
  0.00000000E+00  0.00000000E+00  0.00000000E+00
  0.00000000E+00  0.00000000E+00  0.00000000E+00
  0.00000000E+00  0.00000000E+00  0.00000000E+00
  0.00000000E+00  0.00000000E+00  0.00000000E+00
  0.00000000E+00  0.00000000E+00  0.00000000E+00
  0.00000000E+00  0.00000000E+00  0.00000000E+00
  0.00000000E+00  0.00000000E+00  0.00000000E+00
  0.00000000E+00  0.00000000E+00  0.00000000E+00
  0.00000000E+00  0.00000000E+00  0.00000000E+00
  0.00000000E+00  0.00000000E+00  0.00000000E+00
  0.00000000E+00  0.00000000E+00  0.00000000E+00
  0.00000000E+00  0.00000000E+00  0.00000000E+00
  0.00000000E+00  0.00000000E+00  0.00000000E+00
  0.00000000E+00  0.00000000E+00  0.00000000E+00
  0.00000000E+00  0.00000000E+00  0.00000000E+00
  0.00000000E+00  0.00000000E+00  0.00000000E+00
  0.00000000E+00  0.00000000E+00  0.00000000E+00
  0.00000000E+00  0.00000000E+00  0.00000000E+00
  0.00000000E+00  0.00000000E+00  0.00000000E+00
  0.00000000E+00  0.00000000E+00  0.00000000E+00
  0.00000000E+00  0.00000000E+00  0.00000000E+00
  0.00000000E+00  0.00000000E+00  0.00000000E+00
  0.00000000E+00  0.00000000E+00  0.00000000E+00
  0.00000000E+00  0.00000000E+00  0.00000000E+00
  0.00000000E+00  0.00000000E+00  0.00000000E+00
  0.00000000E+00  0.00000000E+00  0.00000000E+00
  0.00000000E+00  0.00000000E+00  0.00000000E+00
  0.00000000E+00  0.00000000E+00  0.00000000E+00
  0.00000000E+00  0.00000000E+00  0.00000000E+00
  0.00000000E+00  0.00000000E+00  0.00000000E+00
  0.00000000E+00  0.00000000E+00  0.00000000E+00
  0.00000000E+00  0.00000000E+00  0.00000000E+00
  0.00000000E+00  0.00000000E+00  0.00000000E+00
  0.00000000E+00  0.00000000E+00  0.00000000E+00
  0.00000000E+00  0.00000000E+00  0.00000000E+00
  0.00000000E+00  0.00000000E+00  0.00000000E+00
  0.00000000E+00  0.00000000E+00  0.00000000E+00
  0.00000000E+00  0.00000000E+00  0.00000000E+00
  0.00000000E+00  0.00000000E+00  0.00000000E+00
  0.00000000E+00  0.00000000E+00  0.00000000E+00
  0.00000000E+00  0.00000000E+00  0.00000000E+00
  0.00000000E+00  0.00000000E+00  0.00000000E+00
  0.00000000E+00  0.00000000E+00  0.00000000E+00
  0.00000000E+00  0.00000000E+00  0.00000000E+00
  0.00000000E+00  0.00000000E+00  0.00000000E+00
  0.00000000E+00  0.00000000E+00  0.00000000E+00
  0.00000000E+00  0.00000000E+00  0.00000000E+00
  0.00000000E+00  0.00000000E+00  0.00000000E+00
  0.00000000E+00  0.00000000E+00  0.00000000E+00
  0.00000000E+00  0.00000000E+00  0.00000000E+00
  0.00000000E+00  0.00000000E+00  0.00000000E+00
  0.00000000E+00  0.00000000E+00  0.00000000E+00
  0.00000000E+00  0.00000000E+00  0.00000000E+00
  0.00000000E+00  0.00000000E+00  0.00000000E+00
  0.00000000E+00  0.00000000E+00  0.00000000E+00
  0.00000000E+00  0.00000000E+00  0.00000000E+00
  0.00000000E+00  0.00000000E+00  0.00000000E+00
  0.00000000E+00  0.00000000E+00  0.00000000E+00
  0.00000000E+00  0.00000000E+00  0.00000000E+00
  0.00000000E+00  0.00000000E+00  0.00000000E+00
  0.00000000E+00  0.00000000E+00  0.00000000E+00
  0.00000000E+00  0.00000000E+00  0.00000000E+00
  0.00000000E+00  0.00000000E+00  0.00000000E+00
  0.00000000E+00  0.00000000E+00  0.00000000E+00
  0.00000000E+00  0.00000000E+00  0.00000000E+00
  0.00000000E+00  0.00000000E+00  0.00000000E+00
  0.00000000E+00  0.00000000E+00  0.00000000E+00
  0.00000000E+00  0.00000000E+00  0.00000000E+00
  0.00000000E+00  0.00000000E+00  0.00000000E+00
