C H O Si                                
   1.00000000000000     
     9.2874599999999994    0.0000000000000000    0.0000000000000000
     0.0000000000000000    8.7562999999999995    0.0000000000000000
     0.0000000000000000    0.0000000000000000   90.0000000000000000
   C    H    O    Si
    36    33    16    36
Selective dynamics
Direct
  0.0010568028671294  0.1351684306290064  0.4232477591030096   T   T   T
  0.0010121243353716  0.6352705082234028  0.4232561223009538   T   T   T
  0.3343536741720061  0.1352509118878886  0.4233059461117147   T   T   T
  0.3343248449123165  0.6351509522653727  0.4233162025122990   T   T   T
  0.6676203531139309  0.1351527301357468  0.4232943770037576   T   T   T
  0.6676200439124468  0.6351160344963338  0.4232940088414569   T   T   T
  0.1678088016989561  0.3811548360380579  0.4396179215749336   T   T   T
  0.1678549814000486  0.8811184414592206  0.4396321422742493   T   T   T
  0.5011236235762045  0.3811761734399260  0.4396916528779806   T   T   T
  0.5011121790485904  0.8811121504097907  0.4396538448120187   T   T   T
  0.8344147624309375  0.3811306882994442  0.4395903137059118   T   T   T
  0.8343586670057034  0.8811745147345211  0.4396230719650219   T   T   T
  0.0011000328238658  0.1308140548317792  0.4570969024427916   T   T   T
  0.0010807171178574  0.6310347862353208  0.4571084541173011   T   T   T
  0.3345312135674540  0.1308873929713028  0.4571553278530130   T   T   T
  0.3344780449985681  0.6307750136875704  0.4571753544924226   T   T   T
  0.6676045451543275  0.1309561681952887  0.4571565074669852   T   T   T
  0.6677043911415904  0.6309137573091653  0.4571475288371843   T   T   T
  0.1678752038523575  0.3808617259910070  0.4740784757931346   T   T   T
  0.1681521186378609  0.8809403133309832  0.4741147238862120   T   T   T
  0.5011455674339736  0.3812983898282686  0.4742397007358078   T   T   T
  0.5011816732659748  0.8806725766709061  0.4741522724289473   T   T   T
  0.8344574765823023  0.3807948334187350  0.4740502503939217   T   T   T
  0.8343103344497116  0.8810565151623809  0.4741157600834082   T   T   T
  0.0015417266220427  0.1305477819066684  0.4914999653439069   T   T   T
  0.0013866631328116  0.6312712107917681  0.4915692362298247   T   T   T
  0.3351972827714741  0.1317399295580481  0.4916689382245298   T   T   T
  0.3344107010396890  0.6313469108971700  0.4917338229463474   T   T   T
  0.6673104325629901  0.1316098876953214  0.4916617526934908   T   T   T
  0.6682455152319001  0.6314108811317793  0.4916537674421410   T   T   T
  0.1678873654270325  0.3835833028023982  0.5078077927249234   T   T   T
  0.1675220050442628  0.8858522504798432  0.5079748851810693   T   T   T
  0.5014326388666320  0.3892006142034388  0.5084755041018088   T   T   T
  0.5011055579388517  0.8850761687949070  0.5080347260928761   T   T   T
  0.8354916242554161  0.3827854666086161  0.5076908620707117   T   T   T
  0.8346176336716458  0.8858243925594951  0.5079284450223521   T   T   T
  0.0036539338447785  0.0623660866626660  0.4132743238736241   T   T   T
  0.0035136816547947  0.5625003841742738  0.4132828896983069   T   T   T
  0.3369560813183066  0.0623613614045179  0.4133390521946841   T   T   T
  0.3367987995669027  0.5621539650195461  0.4133567558969015   T   T   T
  0.6697765177782304  0.0622394700279457  0.4133295907771027   T   T   T
  0.6700212043857811  0.5622284541241114  0.4133287793723151   T   T   T
  0.1695451082796128  0.3112103916586757  0.5178063406843767   T   T   T
  0.1694448695233195  0.8127737782237584  0.5179226636279967   T   T   T
  0.5045392651710793  0.3151574180362802  0.5183608716102757   T   T   T
  0.5018922035555188  0.8124671857819901  0.5180224434802057   T   T   T
  0.8380104390156505  0.3105153843664711  0.5176934675792029   T   T   T
  0.8365443837601572  0.8137130934757686  0.5179334354481225   T   T   T
  0.0865989525115460  0.1173648922846417  0.5291176507028786   T   T   T
  0.0876842679844732  0.6112620363463280  0.5288873940037283   T   T   T
  0.4203117103292818  0.1179995255867222  0.5291493460974462   T   T   T
  0.3827711264083280  0.6354868872278066  0.5312347224278811   T   T   T
  0.7556401442463089  0.1159746288744927  0.5290900157896588   T   T   T
  0.7905282541682904  0.5992639884759063  0.5279040103317731   T   T   T
  0.2552691962728900  0.3654414003241994  0.4021307759792808   T   T   T
  0.2554190154507281  0.8653747726014321  0.4021484091866486   T   T   T
  0.5879518780396065  0.3656235467559333  0.4021680686869132   T   T   T
  0.5877829440133657  0.8654396855850212  0.4021321489743571   T   T   T
  0.9201220776355721  0.3660022119488414  0.4020374628595308   T   T   T
  0.9200717846035094  0.8661336701157827  0.4020653518919886   T   T   T
  0.5454975538253437  0.6162613299787191  0.5596515815231271   T   T   T
  0.4887066977743431  0.4768038162036637  0.5718746168302807   T   T   T
  0.5679831216944156  0.6395738160491196  0.5784297770735222   T   T   T
  0.3103272281822176  0.3854521353969472  0.5823402564609534   T   T   T
  0.4234999765448289  0.2604232894630162  0.5781638036960999   T   T   T
  0.6458715420824670  0.7343395276029628  0.5979549709947285   T   T   T
  0.4813754233152398  0.7648654096305658  0.5957140736256900   T   T   T
  0.5322660602297133  0.8051971741529144  0.5466702828224876   T   T   T
  0.5936353370902369  0.6598969839757075  0.5376031060039858   T   T   T
  0.1601073749604972  0.3419546923448502  0.4061619599232547   T   T   T
  0.1602225802931029  0.8419933786172220  0.4061775689895413   T   T   T
  0.4929096260400483  0.3421874656100423  0.4062341133314431   T   T   T
  0.4927792408622051  0.8417872418418993  0.4061953922117726   T   T   T
  0.8254723165022337  0.3416184902800256  0.4061379052690319   T   T   T
  0.8254233420152793  0.8418649763409537  0.4061714584302810   T   T   T
  0.9920729183812290  0.0929979944794406  0.5249863559833808   T   T   T
  0.9915168236139208  0.5889068418957538  0.5249069569675695   T   T   T
  0.3258012886085774  0.0923392900311515  0.5250944610355431   T   T   T
  0.3052821946221081  0.5918673287899493  0.5251351801845252   T   T   T
  0.6603864764829017  0.0925283318370276  0.5250728330272691   T   T   T
  0.6878013220790041  0.5922547830180968  0.5251061162248325   T   T   T
  0.5665151418341419  0.5602426078340619  0.5697530063448463   T   T   T
  0.3793276237486239  0.3551328087217209  0.5747108506333539   T   T   T
  0.5730245118335870  0.7570425063644242  0.5904600627564233   T   T   T
  0.5201253353557310  0.6952762534272169  0.5453498127323311   T   T   T
  0.1675510233852530  0.2524716459782361  0.4229029816874796   T   T   T
  0.1675898096040537  0.7524627406579150  0.4229149184187353   T   T   T
  0.5008165570042030  0.2524556163508439  0.4229649371115539   T   T   T
  0.5007815092540848  0.7523448990684376  0.4229410629775750   T   T   T
  0.8341090550928780  0.2523241616674202  0.4228876640306675   T   T   T
  0.8340549291953205  0.7523970100720354  0.4229128030467626   T   T   T
  0.0011135640014741  0.0051185868389115  0.4400273608491252   T   T   T
  0.0010850485775291  0.5052290283803782  0.4400283873575799   T   T   T
  0.3344817933588714  0.0051712311051364  0.4400710711502488   T   T   T
  0.3344388819179433  0.5051333190594824  0.4400874249306618   T   T   T
  0.6676529575600065  0.0052005424505428  0.4400691183466429   T   T   T
  0.6677205541328416  0.5051399156381409  0.4400642057934310   T   T   T
  0.1678101078478273  0.2555830881813808  0.4569601510954053   T   T   T
  0.1679469801526432  0.7556261365446428  0.4569870003497022   T   T   T
  0.5010482552147469  0.2557314769827513  0.4570605556583150   T   T   T
  0.5010367491551212  0.7555530684347398  0.4570061830391683   T   T   T
  0.8343909542842615  0.2555372253994153  0.4569368007372609   T   T   T
  0.8343175756395015  0.7557096562914373  0.4569826833127884   T   T   T
  0.0013232782177089  0.0052380887798389  0.4742012813661710   T   T   T
  0.0011900090066315  0.5055667175705381  0.4742033838751172   T   T   T
  0.3348634808638485  0.0057877568007848  0.4742841600568997   T   T   T
  0.3343486048525435  0.5057442868029450  0.4743294992203632   T   T   T
  0.6674369323856346  0.0057425084938119  0.4742813557488411   T   T   T
  0.6679560935686539  0.5055988644953734  0.4742587174467172   T   T   T
  0.1679403349275886  0.2546437700208212  0.4910930657573659   T   T   T
  0.1678868236086468  0.7556764966722539  0.4912049917924630   T   T   T
  0.5012243988938446  0.2570508539923543  0.4914141172788208   T   T   T
  0.5010867025963973  0.7551378841776129  0.4912347616128093   T   T   T
  0.8348954649059217  0.2539305756072979  0.4910126445419419   T   T   T
  0.8348598860332599  0.7556359037480406  0.4911813243531289   T   T   T
  0.0008958323302271  0.0030145065468698  0.5082673157213071   T   T   T
  0.0014101124273337  0.5005015687856792  0.5080711563768059   T   T   T
  0.3340396123281765  0.0028373068024859  0.5083583106198095   T   T   T
  0.3320363433208901  0.5041576594949334  0.5085869756933445   T   T   T
  0.6677874323085945  0.0027586976027396  0.5083497134365823   T   T   T
  0.6708629758232808  0.5019015980493904  0.5081998112354376   T   T   T
 
  0.00000000E+00  0.00000000E+00  0.00000000E+00
  0.00000000E+00  0.00000000E+00  0.00000000E+00
  0.00000000E+00  0.00000000E+00  0.00000000E+00
  0.00000000E+00  0.00000000E+00  0.00000000E+00
  0.00000000E+00  0.00000000E+00  0.00000000E+00
  0.00000000E+00  0.00000000E+00  0.00000000E+00
  0.00000000E+00  0.00000000E+00  0.00000000E+00
  0.00000000E+00  0.00000000E+00  0.00000000E+00
  0.00000000E+00  0.00000000E+00  0.00000000E+00
  0.00000000E+00  0.00000000E+00  0.00000000E+00
  0.00000000E+00  0.00000000E+00  0.00000000E+00
  0.00000000E+00  0.00000000E+00  0.00000000E+00
  0.00000000E+00  0.00000000E+00  0.00000000E+00
  0.00000000E+00  0.00000000E+00  0.00000000E+00
  0.00000000E+00  0.00000000E+00  0.00000000E+00
  0.00000000E+00  0.00000000E+00  0.00000000E+00
  0.00000000E+00  0.00000000E+00  0.00000000E+00
  0.00000000E+00  0.00000000E+00  0.00000000E+00
  0.00000000E+00  0.00000000E+00  0.00000000E+00
  0.00000000E+00  0.00000000E+00  0.00000000E+00
  0.00000000E+00  0.00000000E+00  0.00000000E+00
  0.00000000E+00  0.00000000E+00  0.00000000E+00
  0.00000000E+00  0.00000000E+00  0.00000000E+00
  0.00000000E+00  0.00000000E+00  0.00000000E+00
  0.00000000E+00  0.00000000E+00  0.00000000E+00
  0.00000000E+00  0.00000000E+00  0.00000000E+00
  0.00000000E+00  0.00000000E+00  0.00000000E+00
  0.00000000E+00  0.00000000E+00  0.00000000E+00
  0.00000000E+00  0.00000000E+00  0.00000000E+00
  0.00000000E+00  0.00000000E+00  0.00000000E+00
  0.00000000E+00  0.00000000E+00  0.00000000E+00
  0.00000000E+00  0.00000000E+00  0.00000000E+00
  0.00000000E+00  0.00000000E+00  0.00000000E+00
  0.00000000E+00  0.00000000E+00  0.00000000E+00
  0.00000000E+00  0.00000000E+00  0.00000000E+00
  0.00000000E+00  0.00000000E+00  0.00000000E+00
  0.00000000E+00  0.00000000E+00  0.00000000E+00
  0.00000000E+00  0.00000000E+00  0.00000000E+00
  0.00000000E+00  0.00000000E+00  0.00000000E+00
  0.00000000E+00  0.00000000E+00  0.00000000E+00
  0.00000000E+00  0.00000000E+00  0.00000000E+00
  0.00000000E+00  0.00000000E+00  0.00000000E+00
  0.00000000E+00  0.00000000E+00  0.00000000E+00
  0.00000000E+00  0.00000000E+00  0.00000000E+00
  0.00000000E+00  0.00000000E+00  0.00000000E+00
  0.00000000E+00  0.00000000E+00  0.00000000E+00
  0.00000000E+00  0.00000000E+00  0.00000000E+00
  0.00000000E+00  0.00000000E+00  0.00000000E+00
  0.00000000E+00  0.00000000E+00  0.00000000E+00
  0.00000000E+00  0.00000000E+00  0.00000000E+00
  0.00000000E+00  0.00000000E+00  0.00000000E+00
  0.00000000E+00  0.00000000E+00  0.00000000E+00
  0.00000000E+00  0.00000000E+00  0.00000000E+00
  0.00000000E+00  0.00000000E+00  0.00000000E+00
  0.00000000E+00  0.00000000E+00  0.00000000E+00
  0.00000000E+00  0.00000000E+00  0.00000000E+00
  0.00000000E+00  0.00000000E+00  0.00000000E+00
  0.00000000E+00  0.00000000E+00  0.00000000E+00
  0.00000000E+00  0.00000000E+00  0.00000000E+00
  0.00000000E+00  0.00000000E+00  0.00000000E+00
  0.00000000E+00  0.00000000E+00  0.00000000E+00
  0.00000000E+00  0.00000000E+00  0.00000000E+00
  0.00000000E+00  0.00000000E+00  0.00000000E+00
  0.00000000E+00  0.00000000E+00  0.00000000E+00
  0.00000000E+00  0.00000000E+00  0.00000000E+00
  0.00000000E+00  0.00000000E+00  0.00000000E+00
  0.00000000E+00  0.00000000E+00  0.00000000E+00
  0.00000000E+00  0.00000000E+00  0.00000000E+00
  0.00000000E+00  0.00000000E+00  0.00000000E+00
  0.00000000E+00  0.00000000E+00  0.00000000E+00
  0.00000000E+00  0.00000000E+00  0.00000000E+00
  0.00000000E+00  0.00000000E+00  0.00000000E+00
  0.00000000E+00  0.00000000E+00  0.00000000E+00
  0.00000000E+00  0.00000000E+00  0.00000000E+00
  0.00000000E+00  0.00000000E+00  0.00000000E+00
  0.00000000E+00  0.00000000E+00  0.00000000E+00
  0.00000000E+00  0.00000000E+00  0.00000000E+00
  0.00000000E+00  0.00000000E+00  0.00000000E+00
  0.00000000E+00  0.00000000E+00  0.00000000E+00
  0.00000000E+00  0.00000000E+00  0.00000000E+00
  0.00000000E+00  0.00000000E+00  0.00000000E+00
  0.00000000E+00  0.00000000E+00  0.00000000E+00
  0.00000000E+00  0.00000000E+00  0.00000000E+00
  0.00000000E+00  0.00000000E+00  0.00000000E+00
  0.00000000E+00  0.00000000E+00  0.00000000E+00
  0.00000000E+00  0.00000000E+00  0.00000000E+00
  0.00000000E+00  0.00000000E+00  0.00000000E+00
  0.00000000E+00  0.00000000E+00  0.00000000E+00
  0.00000000E+00  0.00000000E+00  0.00000000E+00
  0.00000000E+00  0.00000000E+00  0.00000000E+00
  0.00000000E+00  0.00000000E+00  0.00000000E+00
  0.00000000E+00  0.00000000E+00  0.00000000E+00
  0.00000000E+00  0.00000000E+00  0.00000000E+00
  0.00000000E+00  0.00000000E+00  0.00000000E+00
  0.00000000E+00  0.00000000E+00  0.00000000E+00
  0.00000000E+00  0.00000000E+00  0.00000000E+00
  0.00000000E+00  0.00000000E+00  0.00000000E+00
  0.00000000E+00  0.00000000E+00  0.00000000E+00
  0.00000000E+00  0.00000000E+00  0.00000000E+00
  0.00000000E+00  0.00000000E+00  0.00000000E+00
  0.00000000E+00  0.00000000E+00  0.00000000E+00
  0.00000000E+00  0.00000000E+00  0.00000000E+00
  0.00000000E+00  0.00000000E+00  0.00000000E+00
  0.00000000E+00  0.00000000E+00  0.00000000E+00
  0.00000000E+00  0.00000000E+00  0.00000000E+00
  0.00000000E+00  0.00000000E+00  0.00000000E+00
  0.00000000E+00  0.00000000E+00  0.00000000E+00
  0.00000000E+00  0.00000000E+00  0.00000000E+00
  0.00000000E+00  0.00000000E+00  0.00000000E+00
  0.00000000E+00  0.00000000E+00  0.00000000E+00
  0.00000000E+00  0.00000000E+00  0.00000000E+00
  0.00000000E+00  0.00000000E+00  0.00000000E+00
  0.00000000E+00  0.00000000E+00  0.00000000E+00
  0.00000000E+00  0.00000000E+00  0.00000000E+00
  0.00000000E+00  0.00000000E+00  0.00000000E+00
  0.00000000E+00  0.00000000E+00  0.00000000E+00
  0.00000000E+00  0.00000000E+00  0.00000000E+00
  0.00000000E+00  0.00000000E+00  0.00000000E+00
  0.00000000E+00  0.00000000E+00  0.00000000E+00
  0.00000000E+00  0.00000000E+00  0.00000000E+00
  0.00000000E+00  0.00000000E+00  0.00000000E+00
