C H O Si                                
   1.00000000000000     
     9.2874599999999994    0.0000000000000000    0.0000000000000000
     0.0000000000000000   17.5126199999999983    0.0000000000000000
     0.0000000000000000    0.0000000000000000   58.0000000000000000
   C    H    O    Si
    72    57    28    72
Selective dynamics
Direct
  0.9960631390540841  0.0651354453653119  0.0595998398843557   T   T   T
  0.3295384052085358  0.0652159034693848  0.0596693249802605   T   T   T
  0.6627613583924449  0.0652031532962781  0.0596776709319566   T   T   T
  0.9961328932024435  0.3151879991719164  0.0596046494868746   T   T   T
  0.3294712078891595  0.3150793600493990  0.0596321770924666   T   T   T
  0.6629050712897789  0.3150843722461212  0.0596556364962460   T   T   T
  0.1628998927894083  0.1878246891935009  0.1384716610708064   T   T   T
  0.4961431175022288  0.1881416375798805  0.1387000693862969   T   T   T
  0.8296760025457981  0.1878928514087564  0.1384692370739036   T   T   T
  0.1628758791221624  0.4380519139821324  0.1384916227148069   T   T   T
  0.4962038301188417  0.4378497306055332  0.1382907727887023   T   T   T
  0.8297082119182477  0.4380048519619673  0.1385307408746972   T   T   T
  0.3303341512696327  0.0632086218193727  0.1657576785882441   T   T   T
  0.6626688023223195  0.0633308077249606  0.1657755826444594   T   T   T
  0.9964114549884965  0.0626676460774333  0.1655756980678737   T   T   T
  0.3290961846614258  0.3132120592671510  0.1656194139352168   T   T   T
  0.6635771512433695  0.3130866740229577  0.1657253319914861   T   T   T
  0.9963983174549107  0.3130854848769218  0.1655950268985634   T   T   T
  0.1636672783629993  0.1894593983562829  0.1907264675606016   T   T   T
  0.4962131510857637  0.1921700585279444  0.1916599786406638   T   T   T
  0.8304992885017666  0.1894807428011573  0.1907689915772884   T   T   T
  0.1625324454158061  0.4403175378046950  0.1910062828333199   T   T   T
  0.4966297394502640  0.4447969779224047  0.1888555477502002   T   T   T
  0.8308947499345538  0.4402484045880564  0.1910749989039222   T   T   T
  0.1626722350452204  0.1880032431605883  0.0849737305325695   T   T   T
  0.4959012630490470  0.1880602287132184  0.0850895672792231   T   T   T
  0.8294127960063968  0.1880320477933486  0.0849736547752313   T   T   T
  0.1626737296560456  0.4380936293383989  0.0849782717475326   T   T   T
  0.4958942892568891  0.4380467595882334  0.0848966857611709   T   T   T
  0.8293022221191858  0.4380956483597667  0.0849972307787349   T   T   T
  0.3294908254461288  0.0629716985782954  0.1122004858712397   T   T   T
  0.6627780686130583  0.0629551535471670  0.1122021591072672   T   T   T
  0.9959514137192399  0.0628644726697018  0.1121304397571630   T   T   T
  0.3292533592908363  0.3128314371303741  0.1121311338699767   T   T   T
  0.6629157177334922  0.3128576239201056  0.1121680216230996   T   T   T
  0.9959805826768497  0.3129212011457247  0.1121172852752782   T   T   T
  0.9961382804086576  0.5652402212871738  0.0596277890779535   T   T   T
  0.3295091430051462  0.5652557713818416  0.0596336525876336   T   T   T
  0.6628581657942340  0.5652173788405347  0.0596534120008434   T   T   T
  0.9961630812590728  0.8152869146998788  0.0596396695931156   T   T   T
  0.3295694178680512  0.8151892831608003  0.0596567912644579   T   T   T
  0.6628349151167496  0.8151879812229547  0.0596655264166418   T   T   T
  0.1630238659684851  0.6880616237989872  0.1385020285796436   T   T   T
  0.4962960242360067  0.6878840595202366  0.1385816475223045   T   T   T
  0.8297383698517644  0.6880635593730609  0.1384960333913116   T   T   T
  0.1632801453839693  0.9379593634307370  0.1385336937424867   T   T   T
  0.4962918007870453  0.9379048694787357  0.1385472563053672   T   T   T
  0.8294572444791779  0.9380027700350131  0.1385441338968134   T   T   T
  0.3294155624343840  0.5633280204286528  0.1656664541413380   T   T   T
  0.6635693305682385  0.5631711184768309  0.1656843998702616   T   T   T
  0.9964076753821185  0.5633002507669551  0.1656443041609205   T   T   T
  0.3299807641384512  0.8130674496330764  0.1657114636151572   T   T   T
  0.6633328871854369  0.8130216677583110  0.1657107231272495   T   T   T
  0.9965212173619722  0.8131408011340704  0.1656863395831699   T   T   T
  0.1635039671217433  0.6901807109906335  0.1910304068985173   T   T   T
  0.4969405617559012  0.6902314817262379  0.1911302941596206   T   T   T
  0.8303754801103135  0.6902264516753959  0.1910333087084454   T   T   T
  0.1635503505681442  0.9401115444316237  0.1910310858019144   T   T   T
  0.4969160876218819  0.9401010258690232  0.1910515820690235   T   T   T
  0.8301401549195718  0.9402194313690353  0.1910480201976673   T   T   T
  0.1627328658926368  0.6881311136777648  0.0850077456573671   T   T   T
  0.4959634754332547  0.6880707487274190  0.0850266590215657   T   T   T
  0.8294014546694617  0.6881422968596580  0.0849981530743746   T   T   T
  0.1627568673261398  0.9381077615831395  0.0850106800525285   T   T   T
  0.4958952122779110  0.9380942881643269  0.0850248698590557   T   T   T
  0.8292500554602920  0.9381244095474243  0.0850115448876923   T   T   T
  0.3294196338228860  0.5629414598924734  0.1121577765282597   T   T   T
  0.6628725424443510  0.5628893041790550  0.1121666173237022   T   T   T
  0.9959733989985042  0.5629819400918473  0.1121380204258760   T   T   T
  0.3295500420396128  0.8129232405221651  0.1121789451147412   T   T   T
  0.6628501433428077  0.8128840360581495  0.1121774120390814   T   T   T
  0.9960192110650333  0.8130449604317898  0.1121630575387553   T   T   T
  0.0791345655517458  0.1781139969179632  0.0257962660142957   T   T   T
  0.4121223887839012  0.1782132675983514  0.0259322576545715   T   T   T
  0.7450158216880205  0.1780734075369855  0.0258617969748380   T   T   T
  0.0794880481218660  0.4281920154351895  0.0257902486959207   T   T   T
  0.4122892768225638  0.4279582366166832  0.0257672262640908   T   T   T
  0.7448759757822493  0.4279777587433514  0.0258791881455900   T   T   T
  0.3277063219281297  0.0289929139176725  0.0441365654687831   T   T   T
  0.6603878180343319  0.0290021830685379  0.0441393194623794   T   T   T
  0.9940042685003966  0.0289815539818630  0.0440550040665451   T   T   T
  0.3271979571917287  0.2788574322933756  0.0441046139997665   T   T   T
  0.6609962492043563  0.2788342940380322  0.0441262143353761   T   T   T
  0.9940583879962924  0.2790283925360357  0.0440623006039546   T   T   T
  0.8337280065376736  0.4043168604717872  0.2066196460696730   T   T   T
  0.8330892717487729  0.1534280095551156  0.2063255209165896   T   T   T
  0.1656811371609235  0.1537873354027439  0.2063640832535267   T   T   T
  0.4986038227970119  0.1556249593034778  0.2071088089739244   T   T   T
  0.1650812457838371  0.4041177348044464  0.2064997922781506   T   T   T
  0.5398752218748403  0.4635653515590615  0.2608257910219656   T   T   T
  0.0820570434346381  0.0537986325167251  0.2246149690091156   T   T   T
  0.4149824002983875  0.0543451213216947  0.2246349214511331   T   T   T
  0.7473085220150769  0.0538382688680030  0.2248491915439779   T   T   T
  0.0863161531487042  0.3038023181447276  0.2233933415665318   T   T   T
  0.3671077464972405  0.2853334281252305  0.2301487901969688   T   T   T
  0.7758434580787618  0.2996285462305617  0.2229545566984143   T   T   T
  0.4910820758087424  0.2704093191198697  0.2659431131545573   T   T   T
  0.4691869093566686  0.2283307460111910  0.3004890711391924   T   T   T
  0.5169711463049342  0.3130665106272429  0.3081257371012934   T   T   T
  0.2898989779706602  0.1360920131646040  0.2955040184838332   T   T   T
  0.4389212163814621  0.1094977445702503  0.2867243598010197   T   T   T
  0.6391507559008974  0.3857387661188859  0.3348971716763658   T   T   T
  0.5050562228062708  0.4329416276070391  0.3277952711441333   T   T   T
  0.5026367056351613  0.4372546078211569  0.2691437410931040   T   T   T
  0.5633412204743278  0.2680513502821644  0.2408973657618888   T   T   T
  0.0789541326878853  0.6782291382248703  0.0258290316224941   T   T   T
  0.4121216746723856  0.6782561694931249  0.0258835689946697   T   T   T
  0.7451590313908333  0.6781585823154623  0.0258697653938186   T   T   T
  0.0795495051678059  0.9281901799589953  0.0258009343555969   T   T   T
  0.4121012077487776  0.9280705259843999  0.0258672584632875   T   T   T
  0.7449007015142965  0.9280267933935188  0.0258934197332727   T   T   T
  0.3274332767652570  0.5291054967341691  0.0440855023726996   T   T   T
  0.6607463515565143  0.5290897233457342  0.0440956370908104   T   T   T
  0.9940679955067769  0.5291018107168863  0.0440760940789925   T   T   T
  0.3275312345902718  0.7789669191807531  0.0441260041207521   T   T   T
  0.6606635376021182  0.7789795883453106  0.0441264850320970   T   T   T
  0.9940795250010559  0.7790407589655850  0.0441105119533261   T   T   T
  0.8321912726476050  0.9040616491126365  0.2065774168314184   T   T   T
  0.8327875327844306  0.6539064806078738  0.2065287553298197   T   T   T
  0.1656617869087723  0.6540353805520372  0.2065581739411324   T   T   T
  0.4990565204641239  0.6540541207208950  0.2066581496691402   T   T   T
  0.1655873235141294  0.9039567693820740  0.2065554338107166   T   T   T
  0.4993273868997564  0.9039184122574343  0.2065772836866310   T   T   T
  0.0816726663173053  0.5528863178189335  0.2249464860016372   T   T   T
  0.4159566595986087  0.5511355330410034  0.2249862444287581   T   T   T
  0.7474822320468790  0.5520403159227024  0.2252682285642346   T   T   T
  0.0815674695259447  0.8029501670977816  0.2248835584550131   T   T   T
  0.4128299865563065  0.8035283154925623  0.2250341667780521   T   T   T
  0.7505501136565026  0.8023845714392854  0.2247475399692510   T   T   T
  0.1719181953486911  0.1693280191945589  0.0332631923257630   T   T   T
  0.5050446555014814  0.1697275849945917  0.0333962317638019   T   T   T
  0.8380553946911591  0.1694262006975696  0.0332687634676166   T   T   T
  0.1722342751771241  0.4192961346636346  0.0332574065646213   T   T   T
  0.5052658157824315  0.4189121267408041  0.0331541450169784   T   T   T
  0.8379574106602997  0.4194687661315600  0.0332918823743087   T   T   T
  0.3216966267308958  0.0440160507137979  0.2174950057699090   T   T   T
  0.6544546988489958  0.0438775660252327  0.2175288283958071   T   T   T
  0.9887486494982521  0.0439996414312223  0.2174186986439658   T   T   T
  0.3098520249866982  0.3019027632283928  0.2162460283733455   T   T   T
  0.6757657467763519  0.2949846772860528  0.2176145291417146   T   T   T
  0.9898860589859286  0.2929550302704650  0.2172573662963858   T   T   T
  0.5203392202183884  0.2750437587170615  0.2954664656262064   T   T   T
  0.3908132624944092  0.1321673104100499  0.3000153415515577   T   T   T
  0.5374480515789737  0.3810420863938225  0.3309785193133569   T   T   T
  0.4770813585882544  0.2526130759639085  0.2498007130494738   T   T   T
  0.1717999348036638  0.6695709094290686  0.0332945598691059   T   T   T
  0.5050944275885426  0.6695775902674198  0.0333128995505387   T   T   T
  0.8381907968679773  0.6694864430705815  0.0332771073428556   T   T   T
  0.1722922705265129  0.9194079859044169  0.0332850031767091   T   T   T
  0.5050684013120181  0.9194549137579811  0.0333048853233576   T   T   T
  0.8379784588633772  0.9194948398941195  0.0333007305104677   T   T   T
  0.3223352140642333  0.5438584720301710  0.2176175458617474   T   T   T
  0.6549644688960666  0.5440654398916411  0.2176134294149011   T   T   T
  0.9888221578035590  0.5446588554916749  0.2174263949007924   T   T   T
  0.3204928768841820  0.7940260003747701  0.2175072276436074   T   T   T
  0.6567227154611924  0.7941426052202515  0.2175230865284840   T   T   T
  0.9885541116558785  0.7940201746873515  0.2174850099472130   T   T   T
  0.4962660177079338  0.1239229493458039  0.0589212266104281   T   T   T
  0.8295295264179965  0.1238470580608814  0.0588268292157455   T   T   T
  0.1629657182866243  0.3738370469083296  0.0588331253074948   T   T   T
  0.4962785969138292  0.3737097143820012  0.0587764372645737   T   T   T
  0.8295332008850498  0.3738642018098359  0.0588460744367707   T   T   T
  0.1628596960904673  0.1238175040896241  0.0588280574397824   T   T   T
  0.9963693643958390  0.0002529253134803  0.1387675458188787   T   T   T
  0.3300142891010731  0.0005182686944974  0.1388572223567965   T   T   T
  0.6627259845407248  0.0005647567561842  0.1388688148826209   T   T   T
  0.9963425999247305  0.2503934424779871  0.1387506046112759   T   T   T
  0.3292909120381668  0.2504708693672673  0.1388289715751960   T   T   T
  0.6631233253724236  0.2504091730538327  0.1388399259060265   T   T   T
  0.1630606547382253  0.1248361032456648  0.1650601201364678   T   T   T
  0.4961719239319076  0.1261628858020929  0.1655421158263807   T   T   T
  0.8298976393857557  0.1248194310371800  0.1650392455241685   T   T   T
  0.1628494569662867  0.3754597821208575  0.1651205672739119   T   T   T
  0.4961232837212258  0.3745832381106892  0.1650967045458637   T   T   T
  0.8298703257856472  0.3753779302598240  0.1651689173058812   T   T   T
  0.3286568916283701  0.4986747255357354  0.1920345438115495   T   T   T
  0.6645228521117886  0.4986567568460251  0.1920948816754284   T   T   T
  0.9967943580649903  0.4992871714698527  0.1918236760894043   T   T   T
  0.3276047335636704  0.2507754499126137  0.1921011550033883   T   T   T
  0.9970675212049613  0.2479808204664986  0.1915332768731932   T   T   T
  0.6651941910214050  0.2492761175065440  0.1919212405077033   T   T   T
  0.9959897329372361  0.0002265923138096  0.0854978449839869   T   T   T
  0.3293659582381754  0.0002793757520331  0.0855522701084774   T   T   T
  0.6626270994338765  0.0002847123644826  0.0855546315469365   T   T   T
  0.9960496355725634  0.2502144457032968  0.0854801094202729   T   T   T
  0.3292728947245874  0.2501514917028993  0.0855145430361825   T   T   T
  0.6628129094787231  0.2501568580523641  0.0855303158865731   T   T   T
  0.1626014455045417  0.1254059513675572  0.1118607667805257   T   T   T
  0.4959683053866173  0.1255057194982695  0.1120023112011539   T   T   T
  0.8293330302366364  0.1254119903224293  0.1118595980067199   T   T   T
  0.1626651551881007  0.3754429075152621  0.1118623178856966   T   T   T
  0.4959334732535748  0.3752331144421927  0.1117475762998882   T   T   T
  0.8293500393091889  0.3754406937593659  0.1118870117805993   T   T   T
  0.4962846876359480  0.6239244015336091  0.0588691323675411   T   T   T
  0.8295562030715462  0.6239348204510926  0.0588480568434211   T   T   T
  0.1630216984322722  0.8738945357602298  0.0588598696020657   T   T   T
  0.4962926879056146  0.8738954466145198  0.0588702202292939   T   T   T
  0.8295009065588399  0.8739299690980322  0.0588600759701849   T   T   T
  0.1628969326418288  0.6239526285847379  0.0588486990831389   T   T   T
  0.9963017842586119  0.5005384441902718  0.1387895713119220   T   T   T
  0.3296368897593603  0.5004240401342822  0.1388223362070674   T   T   T
  0.6629446663956360  0.5003831649256244  0.1388320781551063   T   T   T
  0.9963531111644810  0.7505685413191617  0.1388088521308007   T   T   T
  0.3297648253214130  0.7504303273830556  0.1388326696730651   T   T   T
  0.6630264668269895  0.7504433315056434  0.1388394317380176   T   T   T
  0.1627290173400507  0.6254360000115800  0.1651435358167782   T   T   T
  0.4964552330653939  0.6251572515293760  0.1652541422881393   T   T   T
  0.8299996238232837  0.6254343477062061  0.1651532831866598   T   T   T
  0.1632228961907587  0.8752319873846518  0.1651606053299181   T   T   T
  0.4965223625567373  0.8751882525501193  0.1651879892788523   T   T   T
  0.8297194360924962  0.8752433363786053  0.1651814307237690   T   T   T
  0.3301275625118475  0.9988148285448311  0.1918660691962666   T   T   T
  0.6633728174962834  0.9988854228253894  0.1918769672772409   T   T   T
  0.9968103536916126  0.9987908729376267  0.1917971032761882   T   T   T
  0.3300702624159086  0.7488528464036950  0.1918771356055113   T   T   T
  0.9968972498332481  0.7489165003984238  0.1918475736862580   T   T   T
  0.6636420985862639  0.7488912884683917  0.1919007949610492   T   T   T
  0.9959818561419219  0.5002557198978819  0.0854979359524995   T   T   T
  0.3293038014043103  0.5002485433409403  0.0854944680745212   T   T   T
  0.6626674216090384  0.5002247654341498  0.0855053714314772   T   T   T
  0.9960740022436988  0.7503297711268381  0.0855181648045578   T   T   T
  0.3294244104118624  0.7502424363178983  0.0855328302651287   T   T   T
  0.6627351374063134  0.7502522126092162  0.0855350921693952   T   T   T
  0.1626792575291671  0.6254668527239002  0.1118820803330892   T   T   T
  0.4960223960112194  0.6254088918093292  0.1119177714430679   T   T   T
  0.8293196480865969  0.6254673815332594  0.1118773322031356   T   T   T
  0.1628601439178300  0.8754779236771237  0.1118968455988615   T   T   T
  0.4960651954102372  0.8754385089456878  0.1119044479487472   T   T   T
  0.8292062569728069  0.8754929380127384  0.1119044817326541   T   T   T
 
  0.00000000E+00  0.00000000E+00  0.00000000E+00
  0.00000000E+00  0.00000000E+00  0.00000000E+00
  0.00000000E+00  0.00000000E+00  0.00000000E+00
  0.00000000E+00  0.00000000E+00  0.00000000E+00
  0.00000000E+00  0.00000000E+00  0.00000000E+00
  0.00000000E+00  0.00000000E+00  0.00000000E+00
  0.00000000E+00  0.00000000E+00  0.00000000E+00
  0.00000000E+00  0.00000000E+00  0.00000000E+00
  0.00000000E+00  0.00000000E+00  0.00000000E+00
  0.00000000E+00  0.00000000E+00  0.00000000E+00
  0.00000000E+00  0.00000000E+00  0.00000000E+00
  0.00000000E+00  0.00000000E+00  0.00000000E+00
  0.00000000E+00  0.00000000E+00  0.00000000E+00
  0.00000000E+00  0.00000000E+00  0.00000000E+00
  0.00000000E+00  0.00000000E+00  0.00000000E+00
  0.00000000E+00  0.00000000E+00  0.00000000E+00
  0.00000000E+00  0.00000000E+00  0.00000000E+00
  0.00000000E+00  0.00000000E+00  0.00000000E+00
  0.00000000E+00  0.00000000E+00  0.00000000E+00
  0.00000000E+00  0.00000000E+00  0.00000000E+00
  0.00000000E+00  0.00000000E+00  0.00000000E+00
  0.00000000E+00  0.00000000E+00  0.00000000E+00
  0.00000000E+00  0.00000000E+00  0.00000000E+00
  0.00000000E+00  0.00000000E+00  0.00000000E+00
  0.00000000E+00  0.00000000E+00  0.00000000E+00
  0.00000000E+00  0.00000000E+00  0.00000000E+00
  0.00000000E+00  0.00000000E+00  0.00000000E+00
  0.00000000E+00  0.00000000E+00  0.00000000E+00
  0.00000000E+00  0.00000000E+00  0.00000000E+00
  0.00000000E+00  0.00000000E+00  0.00000000E+00
  0.00000000E+00  0.00000000E+00  0.00000000E+00
  0.00000000E+00  0.00000000E+00  0.00000000E+00
  0.00000000E+00  0.00000000E+00  0.00000000E+00
  0.00000000E+00  0.00000000E+00  0.00000000E+00
  0.00000000E+00  0.00000000E+00  0.00000000E+00
  0.00000000E+00  0.00000000E+00  0.00000000E+00
  0.00000000E+00  0.00000000E+00  0.00000000E+00
  0.00000000E+00  0.00000000E+00  0.00000000E+00
  0.00000000E+00  0.00000000E+00  0.00000000E+00
  0.00000000E+00  0.00000000E+00  0.00000000E+00
  0.00000000E+00  0.00000000E+00  0.00000000E+00
  0.00000000E+00  0.00000000E+00  0.00000000E+00
  0.00000000E+00  0.00000000E+00  0.00000000E+00
  0.00000000E+00  0.00000000E+00  0.00000000E+00
  0.00000000E+00  0.00000000E+00  0.00000000E+00
  0.00000000E+00  0.00000000E+00  0.00000000E+00
  0.00000000E+00  0.00000000E+00  0.00000000E+00
  0.00000000E+00  0.00000000E+00  0.00000000E+00
  0.00000000E+00  0.00000000E+00  0.00000000E+00
  0.00000000E+00  0.00000000E+00  0.00000000E+00
  0.00000000E+00  0.00000000E+00  0.00000000E+00
  0.00000000E+00  0.00000000E+00  0.00000000E+00
  0.00000000E+00  0.00000000E+00  0.00000000E+00
  0.00000000E+00  0.00000000E+00  0.00000000E+00
  0.00000000E+00  0.00000000E+00  0.00000000E+00
  0.00000000E+00  0.00000000E+00  0.00000000E+00
  0.00000000E+00  0.00000000E+00  0.00000000E+00
  0.00000000E+00  0.00000000E+00  0.00000000E+00
  0.00000000E+00  0.00000000E+00  0.00000000E+00
  0.00000000E+00  0.00000000E+00  0.00000000E+00
  0.00000000E+00  0.00000000E+00  0.00000000E+00
  0.00000000E+00  0.00000000E+00  0.00000000E+00
  0.00000000E+00  0.00000000E+00  0.00000000E+00
  0.00000000E+00  0.00000000E+00  0.00000000E+00
  0.00000000E+00  0.00000000E+00  0.00000000E+00
  0.00000000E+00  0.00000000E+00  0.00000000E+00
  0.00000000E+00  0.00000000E+00  0.00000000E+00
  0.00000000E+00  0.00000000E+00  0.00000000E+00
  0.00000000E+00  0.00000000E+00  0.00000000E+00
  0.00000000E+00  0.00000000E+00  0.00000000E+00
  0.00000000E+00  0.00000000E+00  0.00000000E+00
  0.00000000E+00  0.00000000E+00  0.00000000E+00
  0.00000000E+00  0.00000000E+00  0.00000000E+00
  0.00000000E+00  0.00000000E+00  0.00000000E+00
  0.00000000E+00  0.00000000E+00  0.00000000E+00
  0.00000000E+00  0.00000000E+00  0.00000000E+00
  0.00000000E+00  0.00000000E+00  0.00000000E+00
  0.00000000E+00  0.00000000E+00  0.00000000E+00
  0.00000000E+00  0.00000000E+00  0.00000000E+00
  0.00000000E+00  0.00000000E+00  0.00000000E+00
  0.00000000E+00  0.00000000E+00  0.00000000E+00
  0.00000000E+00  0.00000000E+00  0.00000000E+00
  0.00000000E+00  0.00000000E+00  0.00000000E+00
  0.00000000E+00  0.00000000E+00  0.00000000E+00
  0.00000000E+00  0.00000000E+00  0.00000000E+00
  0.00000000E+00  0.00000000E+00  0.00000000E+00
  0.00000000E+00  0.00000000E+00  0.00000000E+00
  0.00000000E+00  0.00000000E+00  0.00000000E+00
  0.00000000E+00  0.00000000E+00  0.00000000E+00
  0.00000000E+00  0.00000000E+00  0.00000000E+00
  0.00000000E+00  0.00000000E+00  0.00000000E+00
  0.00000000E+00  0.00000000E+00  0.00000000E+00
  0.00000000E+00  0.00000000E+00  0.00000000E+00
  0.00000000E+00  0.00000000E+00  0.00000000E+00
  0.00000000E+00  0.00000000E+00  0.00000000E+00
  0.00000000E+00  0.00000000E+00  0.00000000E+00
  0.00000000E+00  0.00000000E+00  0.00000000E+00
  0.00000000E+00  0.00000000E+00  0.00000000E+00
  0.00000000E+00  0.00000000E+00  0.00000000E+00
  0.00000000E+00  0.00000000E+00  0.00000000E+00
  0.00000000E+00  0.00000000E+00  0.00000000E+00
  0.00000000E+00  0.00000000E+00  0.00000000E+00
  0.00000000E+00  0.00000000E+00  0.00000000E+00
  0.00000000E+00  0.00000000E+00  0.00000000E+00
  0.00000000E+00  0.00000000E+00  0.00000000E+00
  0.00000000E+00  0.00000000E+00  0.00000000E+00
  0.00000000E+00  0.00000000E+00  0.00000000E+00
  0.00000000E+00  0.00000000E+00  0.00000000E+00
  0.00000000E+00  0.00000000E+00  0.00000000E+00
  0.00000000E+00  0.00000000E+00  0.00000000E+00
  0.00000000E+00  0.00000000E+00  0.00000000E+00
  0.00000000E+00  0.00000000E+00  0.00000000E+00
  0.00000000E+00  0.00000000E+00  0.00000000E+00
  0.00000000E+00  0.00000000E+00  0.00000000E+00
  0.00000000E+00  0.00000000E+00  0.00000000E+00
  0.00000000E+00  0.00000000E+00  0.00000000E+00
  0.00000000E+00  0.00000000E+00  0.00000000E+00
  0.00000000E+00  0.00000000E+00  0.00000000E+00
  0.00000000E+00  0.00000000E+00  0.00000000E+00
  0.00000000E+00  0.00000000E+00  0.00000000E+00
  0.00000000E+00  0.00000000E+00  0.00000000E+00
  0.00000000E+00  0.00000000E+00  0.00000000E+00
  0.00000000E+00  0.00000000E+00  0.00000000E+00
  0.00000000E+00  0.00000000E+00  0.00000000E+00
  0.00000000E+00  0.00000000E+00  0.00000000E+00
  0.00000000E+00  0.00000000E+00  0.00000000E+00
  0.00000000E+00  0.00000000E+00  0.00000000E+00
  0.00000000E+00  0.00000000E+00  0.00000000E+00
  0.00000000E+00  0.00000000E+00  0.00000000E+00
  0.00000000E+00  0.00000000E+00  0.00000000E+00
  0.00000000E+00  0.00000000E+00  0.00000000E+00
  0.00000000E+00  0.00000000E+00  0.00000000E+00
  0.00000000E+00  0.00000000E+00  0.00000000E+00
  0.00000000E+00  0.00000000E+00  0.00000000E+00
  0.00000000E+00  0.00000000E+00  0.00000000E+00
  0.00000000E+00  0.00000000E+00  0.00000000E+00
  0.00000000E+00  0.00000000E+00  0.00000000E+00
  0.00000000E+00  0.00000000E+00  0.00000000E+00
  0.00000000E+00  0.00000000E+00  0.00000000E+00
  0.00000000E+00  0.00000000E+00  0.00000000E+00
  0.00000000E+00  0.00000000E+00  0.00000000E+00
  0.00000000E+00  0.00000000E+00  0.00000000E+00
  0.00000000E+00  0.00000000E+00  0.00000000E+00
  0.00000000E+00  0.00000000E+00  0.00000000E+00
  0.00000000E+00  0.00000000E+00  0.00000000E+00
  0.00000000E+00  0.00000000E+00  0.00000000E+00
  0.00000000E+00  0.00000000E+00  0.00000000E+00
  0.00000000E+00  0.00000000E+00  0.00000000E+00
  0.00000000E+00  0.00000000E+00  0.00000000E+00
  0.00000000E+00  0.00000000E+00  0.00000000E+00
  0.00000000E+00  0.00000000E+00  0.00000000E+00
  0.00000000E+00  0.00000000E+00  0.00000000E+00
  0.00000000E+00  0.00000000E+00  0.00000000E+00
  0.00000000E+00  0.00000000E+00  0.00000000E+00
  0.00000000E+00  0.00000000E+00  0.00000000E+00
  0.00000000E+00  0.00000000E+00  0.00000000E+00
  0.00000000E+00  0.00000000E+00  0.00000000E+00
  0.00000000E+00  0.00000000E+00  0.00000000E+00
  0.00000000E+00  0.00000000E+00  0.00000000E+00
  0.00000000E+00  0.00000000E+00  0.00000000E+00
  0.00000000E+00  0.00000000E+00  0.00000000E+00
  0.00000000E+00  0.00000000E+00  0.00000000E+00
  0.00000000E+00  0.00000000E+00  0.00000000E+00
  0.00000000E+00  0.00000000E+00  0.00000000E+00
  0.00000000E+00  0.00000000E+00  0.00000000E+00
  0.00000000E+00  0.00000000E+00  0.00000000E+00
  0.00000000E+00  0.00000000E+00  0.00000000E+00
  0.00000000E+00  0.00000000E+00  0.00000000E+00
  0.00000000E+00  0.00000000E+00  0.00000000E+00
  0.00000000E+00  0.00000000E+00  0.00000000E+00
  0.00000000E+00  0.00000000E+00  0.00000000E+00
  0.00000000E+00  0.00000000E+00  0.00000000E+00
  0.00000000E+00  0.00000000E+00  0.00000000E+00
  0.00000000E+00  0.00000000E+00  0.00000000E+00
  0.00000000E+00  0.00000000E+00  0.00000000E+00
  0.00000000E+00  0.00000000E+00  0.00000000E+00
  0.00000000E+00  0.00000000E+00  0.00000000E+00
  0.00000000E+00  0.00000000E+00  0.00000000E+00
  0.00000000E+00  0.00000000E+00  0.00000000E+00
  0.00000000E+00  0.00000000E+00  0.00000000E+00
  0.00000000E+00  0.00000000E+00  0.00000000E+00
  0.00000000E+00  0.00000000E+00  0.00000000E+00
  0.00000000E+00  0.00000000E+00  0.00000000E+00
  0.00000000E+00  0.00000000E+00  0.00000000E+00
  0.00000000E+00  0.00000000E+00  0.00000000E+00
  0.00000000E+00  0.00000000E+00  0.00000000E+00
  0.00000000E+00  0.00000000E+00  0.00000000E+00
  0.00000000E+00  0.00000000E+00  0.00000000E+00
  0.00000000E+00  0.00000000E+00  0.00000000E+00
  0.00000000E+00  0.00000000E+00  0.00000000E+00
  0.00000000E+00  0.00000000E+00  0.00000000E+00
  0.00000000E+00  0.00000000E+00  0.00000000E+00
  0.00000000E+00  0.00000000E+00  0.00000000E+00
  0.00000000E+00  0.00000000E+00  0.00000000E+00
  0.00000000E+00  0.00000000E+00  0.00000000E+00
  0.00000000E+00  0.00000000E+00  0.00000000E+00
  0.00000000E+00  0.00000000E+00  0.00000000E+00
  0.00000000E+00  0.00000000E+00  0.00000000E+00
  0.00000000E+00  0.00000000E+00  0.00000000E+00
  0.00000000E+00  0.00000000E+00  0.00000000E+00
  0.00000000E+00  0.00000000E+00  0.00000000E+00
  0.00000000E+00  0.00000000E+00  0.00000000E+00
  0.00000000E+00  0.00000000E+00  0.00000000E+00
  0.00000000E+00  0.00000000E+00  0.00000000E+00
  0.00000000E+00  0.00000000E+00  0.00000000E+00
  0.00000000E+00  0.00000000E+00  0.00000000E+00
  0.00000000E+00  0.00000000E+00  0.00000000E+00
  0.00000000E+00  0.00000000E+00  0.00000000E+00
  0.00000000E+00  0.00000000E+00  0.00000000E+00
  0.00000000E+00  0.00000000E+00  0.00000000E+00
  0.00000000E+00  0.00000000E+00  0.00000000E+00
  0.00000000E+00  0.00000000E+00  0.00000000E+00
  0.00000000E+00  0.00000000E+00  0.00000000E+00
  0.00000000E+00  0.00000000E+00  0.00000000E+00
  0.00000000E+00  0.00000000E+00  0.00000000E+00
  0.00000000E+00  0.00000000E+00  0.00000000E+00
  0.00000000E+00  0.00000000E+00  0.00000000E+00
  0.00000000E+00  0.00000000E+00  0.00000000E+00
  0.00000000E+00  0.00000000E+00  0.00000000E+00
  0.00000000E+00  0.00000000E+00  0.00000000E+00
  0.00000000E+00  0.00000000E+00  0.00000000E+00
  0.00000000E+00  0.00000000E+00  0.00000000E+00
  0.00000000E+00  0.00000000E+00  0.00000000E+00
  0.00000000E+00  0.00000000E+00  0.00000000E+00
  0.00000000E+00  0.00000000E+00  0.00000000E+00
  0.00000000E+00  0.00000000E+00  0.00000000E+00
  0.00000000E+00  0.00000000E+00  0.00000000E+00
  0.00000000E+00  0.00000000E+00  0.00000000E+00
  0.00000000E+00  0.00000000E+00  0.00000000E+00
