C H O Si                                
   1.00000000000000     
     9.2874599999999994    0.0000000000000000    0.0000000000000000
     0.0000000000000000   17.5126199999999983    0.0000000000000000
     0.0000000000000000    0.0000000000000000   58.0000000000000000
   C    H    O    Si
    72    57    28    72
Selective dynamics
Direct
  0.9960679301974337  0.0651838237033831  0.0595799189256682   T   T   T
  0.3294901400334214  0.0652843437933705  0.0596481263378999   T   T   T
  0.6626979891261674  0.0652775405611946  0.0596517945311099   T   T   T
  0.9961258400548648  0.3152560846017131  0.0595865958598858   T   T   T
  0.3294374422121585  0.3151415581051915  0.0596190291415916   T   T   T
  0.6628110898866482  0.3151438614849891  0.0596310993062223   T   T   T
  0.1630001535015028  0.1878175754587611  0.1384952019988887   T   T   T
  0.4963255349043912  0.1881274662784602  0.1387008673717023   T   T   T
  0.8297895683889391  0.1878482407734924  0.1384993399325839   T   T   T
  0.1630195519401452  0.4379985096953942  0.1385148279738035   T   T   T
  0.4963777064417549  0.4378205682543044  0.1383067234677109   T   T   T
  0.8297930812017739  0.4379485201875463  0.1385461699049352   T   T   T
  0.3301143074070329  0.0631944035210714  0.1657576481314769   T   T   T
  0.6623676440166384  0.0633346377610301  0.1657772412796554   T   T   T
  0.9962273942544013  0.0626984194550985  0.1655787610139907   T   T   T
  0.3288556752352751  0.3132021564529698  0.1656239051213581   T   T   T
  0.6633563229679020  0.3131239528556178  0.1657273310399813   T   T   T
  0.9962278091380710  0.3131194235274770  0.1656079887703417   T   T   T
  0.1636308317715176  0.1895513535792477  0.1907253646316696   T   T   T
  0.4962257817178434  0.1921607893318577  0.1916336464999114   T   T   T
  0.8304070893068989  0.1895346039175767  0.1907614362620276   T   T   T
  0.1625565728974059  0.4404324884226001  0.1910103565293779   T   T   T
  0.4967306671391150  0.4448692500912138  0.1888569812964730   T   T   T
  0.8310352550727197  0.4403783278873349  0.1910660273989473   T   T   T
  0.1625924510060399  0.1880088943973439  0.0849789414961278   T   T   T
  0.4960379503149376  0.1880455114127320  0.0850935587028418   T   T   T
  0.8293392862010610  0.1880093741711413  0.0849834079652115   T   T   T
  0.1625599995642006  0.4380846632576438  0.0849837145011201   T   T   T
  0.4958315705562539  0.4380473903986881  0.0849038589229158   T   T   T
  0.8292475877789933  0.4380541980322739  0.0850081873082891   T   T   T
  0.3292447730659454  0.0629612633661013  0.1122161427021054   T   T   T
  0.6624210300621324  0.0629599375386281  0.1122195418976261   T   T   T
  0.9958571061566845  0.0628787246580782  0.1121458992076041   T   T   T
  0.3291116176878071  0.3127908613058415  0.1121379741094666   T   T   T
  0.6626075717096142  0.3128137788810533  0.1121648882427699   T   T   T
  0.9959424295886019  0.3128820757134405  0.1121281222809195   T   T   T
  0.9961327643008867  0.5653210229449892  0.0596025306770243   T   T   T
  0.3294539504458580  0.5653377709106342  0.0596121705550387   T   T   T
  0.6627808168620738  0.5653131733039447  0.0596198762963601   T   T   T
  0.9961517720534007  0.8153419989925080  0.0596170329114415   T   T   T
  0.3295248302512028  0.8152403971903835  0.0596379705613274   T   T   T
  0.6627574328893633  0.8152488322208584  0.0596364679470946   T   T   T
  0.1631285502728026  0.6880153828790445  0.1385258966075319   T   T   T
  0.4965208326660058  0.6878372742298822  0.1385898243629037   T   T   T
  0.8298108780709549  0.6880017545433297  0.1385190476731432   T   T   T
  0.1634048426164294  0.9379559986466799  0.1385499330183735   T   T   T
  0.4965605666126244  0.9378708775196720  0.1385664137031124   T   T   T
  0.8295389249860804  0.9379451450334707  0.1385615749843001   T   T   T
  0.3291653097751364  0.5633189235474887  0.1656746885183323   T   T   T
  0.6633291885491918  0.5632315369677678  0.1656904067856253   T   T   T
  0.9961779526754634  0.5633041022906717  0.1656472021424348   T   T   T
  0.3297639396221977  0.8130699600491611  0.1657156593398637   T   T   T
  0.6630174584080747  0.8130696568714130  0.1657236649521645   T   T   T
  0.9963265849624268  0.8131646455032916  0.1656899924391920   T   T   T
  0.1636421041447903  0.6903216465390377  0.1910295111092596   T   T   T
  0.4970219089856782  0.6903611190811536  0.1911313991014461   T   T   T
  0.8304432813282999  0.6903018952127645  0.1910210254417140   T   T   T
  0.1636813812532580  0.9402460507871793  0.1910253124260815   T   T   T
  0.4969863550526106  0.9402169939766147  0.1910457889391086   T   T   T
  0.8301973197830435  0.9403063913812815  0.1910389873510344   T   T   T
  0.1626662700007237  0.6881389579953431  0.0850086589665622   T   T   T
  0.4960151912913119  0.6880724077783246  0.0850315811679398   T   T   T
  0.8293645579893182  0.6881366888674879  0.0850036949225105   T   T   T
  0.1626400856900121  0.9381010573001594  0.0850195302119933   T   T   T
  0.4959188091536681  0.9380794924206896  0.0850314465569425   T   T   T
  0.8291801353398880  0.9381114534044559  0.0850231389013356   T   T   T
  0.3292034809267363  0.5629003870931046  0.1121690908089354   T   T   T
  0.6625461550499896  0.5628714834721973  0.1121730566219068   T   T   T
  0.9958792921469536  0.5629549929428749  0.1121513602853045   T   T   T
  0.3293693434903865  0.8128649260444797  0.1121749058426727   T   T   T
  0.6625585626830376  0.8128668089852115  0.1121815892156183   T   T   T
  0.9959027178704432  0.8130169931702896  0.1121715892280670   T   T   T
  0.0790858669875322  0.1780440023551309  0.0258156304359684   T   T   T
  0.4120958778743416  0.1781351933477642  0.0259568810633334   T   T   T
  0.7449791264387641  0.1780006748947324  0.0258830081958021   T   T   T
  0.0794428844277658  0.4281116655490993  0.0258139429294237   T   T   T
  0.4122439702259133  0.4278804668535312  0.0257908276678422   T   T   T
  0.7448517461549301  0.4279004342970214  0.0259020546793000   T   T   T
  0.3277803511071971  0.0290004664688455  0.0441397738743267   T   T   T
  0.6604468138530575  0.0290132265831373  0.0441408886533744   T   T   T
  0.9940769164288965  0.0289868840602556  0.0440503228401398   T   T   T
  0.3272803340741766  0.2788607416249101  0.0441137537736588   T   T   T
  0.6610779591887863  0.2788319790277368  0.0441306759959254   T   T   T
  0.9941362385674528  0.2790274252851754  0.0440643954285209   T   T   T
  0.8337379454377495  0.4043415463072800  0.2066015382877497   T   T   T
  0.8331474436288754  0.1534404014383075  0.2063084163505633   T   T   T
  0.1656987184319081  0.1538026653411334  0.2063503137309644   T   T   T
  0.4986615497801588  0.1556914056409979  0.2071035404308050   T   T   T
  0.1651114593702836  0.4041237804363703  0.2064880788574138   T   T   T
  0.5398440703467489  0.4635501981750892  0.2608138735979683   T   T   T
  0.0821540161738216  0.0537829819153001  0.2246072998704662   T   T   T
  0.4150370162386254  0.0543633395595606  0.2246193896769696   T   T   T
  0.7473979451574594  0.0538184274909329  0.2248420584470736   T   T   T
  0.0864270928528283  0.3037750025556359  0.2233795265441216   T   T   T
  0.3670652475799097  0.2853277673331111  0.2301374420789084   T   T   T
  0.7760003538064931  0.2996199653800113  0.2229360162539176   T   T   T
  0.4910831654667319  0.2703748109610890  0.2659216971715293   T   T   T
  0.4691532454024097  0.2283130249621519  0.3004826092778969   T   T   T
  0.5169417287412578  0.3131183719940877  0.3081279825530939   T   T   T
  0.2899076535566155  0.1361092961290823  0.2954809538579795   T   T   T
  0.4390027411190073  0.1096092193255785  0.2866923387820040   T   T   T
  0.6391733410556012  0.3857649212715766  0.3348958659256441   T   T   T
  0.5051855836364645  0.4329849945055441  0.3278210765922534   T   T   T
  0.5026080891503301  0.4372301320781716  0.2691210016516722   T   T   T
  0.5633110354667429  0.2680320663086124  0.2408974134939094   T   T   T
  0.0789255610534637  0.6781557179065424  0.0258496473261633   T   T   T
  0.4120854200399553  0.6781800408696984  0.0259088538489569   T   T   T
  0.7451201615930522  0.6780847085858953  0.0258918290262723   T   T   T
  0.0795288623324726  0.9281064514901740  0.0258266131455765   T   T   T
  0.4120544342670103  0.9279946693230166  0.0258877285017434   T   T   T
  0.7448613582970866  0.9279474312615276  0.0259154270850351   T   T   T
  0.3275089079895716  0.5291183983609685  0.0440889067544666   T   T   T
  0.6608080934300018  0.5290940448135938  0.0440980269137606   T   T   T
  0.9941348016599770  0.5291106423656848  0.0440781638252172   T   T   T
  0.3276193500538495  0.7789523611759829  0.0441296338370538   T   T   T
  0.6607329916667585  0.7789659416554890  0.0441283739303282   T   T   T
  0.9941535985019723  0.7790306154288406  0.0441147145449958   T   T   T
  0.8321914088455876  0.9040845338753369  0.2065614934075048   T   T   T
  0.8328229262089885  0.6539253242653562  0.2065148561972293   T   T   T
  0.1656902331567955  0.6540537233974665  0.2065456560896362   T   T   T
  0.4990975278783538  0.6540605143037977  0.2066443028877741   T   T   T
  0.1655599244917594  0.9039727824164797  0.2065404484079917   T   T   T
  0.4993548456444699  0.9039455056577944  0.2065559883397607   T   T   T
  0.0817407920375440  0.5528749110271780  0.2249479556523067   T   T   T
  0.4160189007826096  0.5510572736188983  0.2249915957703365   T   T   T
  0.7476222961375601  0.5520272051473895  0.2252567968573912   T   T   T
  0.0816548748035558  0.8029379016497538  0.2248938775959846   T   T   T
  0.4128373342862994  0.8034943313688687  0.2250216548769596   T   T   T
  0.7506908722141321  0.8023201840967544  0.2247308955869042   T   T   T
  0.1720044662000014  0.1693175587267151  0.0332642936594404   T   T   T
  0.5051424114625697  0.1697474859899529  0.0333948094294534   T   T   T
  0.8381512784033961  0.1694297653380417  0.0332647487785758   T   T   T
  0.1723527306384826  0.4192761462889952  0.0332506022376240   T   T   T
  0.5053866033966982  0.4188639660679389  0.0331382477596005   T   T   T
  0.8380506997230099  0.4194592494815660  0.0332855651758011   T   T   T
  0.3218067356261448  0.0439320427103005  0.2174820701794080   T   T   T
  0.6545719476663966  0.0437567058272343  0.2175264392207853   T   T   T
  0.9888296227821372  0.0438801281318393  0.2174214207311340   T   T   T
  0.3096814040534694  0.3019232566328138  0.2162496232170393   T   T   T
  0.6757298662803725  0.2949064097339212  0.2176667654692715   T   T   T
  0.9899137507665045  0.2929248357652983  0.2172576044462367   T   T   T
  0.5202761599245029  0.2750609155193535  0.2954763746560209   T   T   T
  0.3907675947474772  0.1320165088573023  0.2999903852558419   T   T   T
  0.5375311985206968  0.3810875715324790  0.3309829786783825   T   T   T
  0.4769799330884107  0.2525854026464798  0.2497865854512316   T   T   T
  0.1718653933154936  0.6695621338693178  0.0333029568236827   T   T   T
  0.5051772873138601  0.6695671858683017  0.0333125191855863   T   T   T
  0.8382779968094347  0.6694478515598421  0.0332812136140838   T   T   T
  0.1723842974887070  0.9193910466935017  0.0332838515930402   T   T   T
  0.5051651987751148  0.9194475075596504  0.0332989652101145   T   T   T
  0.8380840637175994  0.9194854246530069  0.0332985784250394   T   T   T
  0.3223154554281442  0.5438916913707379  0.2176310388125002   T   T   T
  0.6551394975126535  0.5440089784578629  0.2176094670223829   T   T   T
  0.9890069152280346  0.5445146687870116  0.2174164036105272   T   T   T
  0.3205277919566103  0.7939083907672017  0.2175059043053381   T   T   T
  0.6567524874022663  0.7940977837739182  0.2175510149719664   T   T   T
  0.9887027287787185  0.7938965814474495  0.2174791865397976   T   T   T
  0.4962134226804306  0.1239658722549044  0.0589124897407328   T   T   T
  0.8295202603928776  0.1238700303773131  0.0588209491554382   T   T   T
  0.1629670697090911  0.3738745449277551  0.0588225430733002   T   T   T
  0.4962281044566424  0.3737730554503259  0.0587673278058166   T   T   T
  0.8294948326520839  0.3738748931833716  0.0588386113975063   T   T   T
  0.1628401532006897  0.1238497191007085  0.0588276909097607   T   T   T
  0.9964338836507267  0.0002560514554727  0.1387749918220431   T   T   T
  0.3301994518337988  0.0005141022375793  0.1388688058210120   T   T   T
  0.6628180609562383  0.0005398857793939  0.1388793260327047   T   T   T
  0.9964531073479050  0.2503635657229823  0.1387540274648144   T   T   T
  0.3294006379594152  0.2504338880251062  0.1388244538583494   T   T   T
  0.6632344156117548  0.2503635779278132  0.1388291932129010   T   T   T
  0.1630164268352810  0.1248265542827371  0.1650638035521002   T   T   T
  0.4960367337838099  0.1261173433678756  0.1655141313019809   T   T   T
  0.8296913486670124  0.1248022486723767  0.1650339357283985   T   T   T
  0.1627621975961433  0.3754997096493558  0.1651312222156892   T   T   T
  0.4960467318017173  0.3745734824841355  0.1650980403630027   T   T   T
  0.8298430694841348  0.3754268266607478  0.1651740002868103   T   T   T
  0.3287405188911159  0.4987211772887722  0.1920373100364218   T   T   T
  0.6646358489917837  0.4987011724410942  0.1920936301065480   T   T   T
  0.9968616853895947  0.4993737083208521  0.1918114816160164   T   T   T
  0.3276963516308340  0.2507491418785426  0.1920909938527636   T   T   T
  0.9970475572431386  0.2479687473698086  0.1915176888410473   T   T   T
  0.6652601028006978  0.2493478497723265  0.1919252843904290   T   T   T
  0.9959595774436085  0.0002618850584080  0.0855058201608605   T   T   T
  0.3293683473022030  0.0003117094098182  0.0855546735746828   T   T   T
  0.6625630051108217  0.0003103544336385  0.0855540772042839   T   T   T
  0.9960407972873309  0.2502265955738961  0.0854862782060123   T   T   T
  0.3293272757709477  0.2501602088376149  0.0855146437410527   T   T   T
  0.6627720011657693  0.2501754860702833  0.0855290418254162   T   T   T
  0.1625803841924521  0.1254011356027065  0.1118666829715937   T   T   T
  0.4959157958004386  0.1255065391675376  0.1120073076445193   T   T   T
  0.8292718415028761  0.1253994900529949  0.1118622645111409   T   T   T
  0.1626361344774903  0.3754300028535486  0.1118650212959093   T   T   T
  0.4958447454099815  0.3751694255949845  0.1117387992624213   T   T   T
  0.8292879395929365  0.3753897961058699  0.1118845086301871   T   T   T
  0.4962684956451548  0.6239782189247544  0.0588546090076414   T   T   T
  0.8295773890676598  0.6239722429319764  0.0588385538837097   T   T   T
  0.1630331437681599  0.8739465299822841  0.0588437494369422   T   T   T
  0.4962352666579869  0.8739347029308704  0.0588604341214609   T   T   T
  0.8294851611682528  0.8739352610356019  0.0588528018760255   T   T   T
  0.1629128021259132  0.6239852856167205  0.0588418902789645   T   T   T
  0.9964276752852271  0.5004949674914833  0.1387962591368886   T   T   T
  0.3297890252043433  0.5003702471873214  0.1388296627449084   T   T   T
  0.6630191310599011  0.5003435062542969  0.1388355411442289   T   T   T
  0.9964982583203996  0.7505133427780009  0.1388070878123266   T   T   T
  0.3299539938365249  0.7504050246873676  0.1388353019510876   T   T   T
  0.6631075890885850  0.7504041691619080  0.1388392890739336   T   T   T
  0.1626558529829275  0.6254987848923711  0.1651601212177326   T   T   T
  0.4963271911409036  0.6251856988696755  0.1652623876841992   T   T   T
  0.8299653674891259  0.6254779696682923  0.1651476306991362   T   T   T
  0.1631711662264261  0.8752730902441465  0.1651671407346629   T   T   T
  0.4964694765001694  0.8752285557057723  0.1651872842231376   T   T   T
  0.8296267195274014  0.8752914714019696  0.1651827957308459   T   T   T
  0.3302121745043172  0.9988283422155260  0.1918643033582448   T   T   T
  0.6634180119279101  0.9988926493036679  0.1918753727822175   T   T   T
  0.9968643027427637  0.9987934401120128  0.1917894434359400   T   T   T
  0.3301492475783437  0.7489186613273128  0.1918810446864941   T   T   T
  0.9969441207496480  0.7489199006128607  0.1918324805812287   T   T   T
  0.6637073780809939  0.7489366216300359  0.1919104365865154   T   T   T
  0.9959645988660543  0.5002895147755138  0.0855045942038228   T   T   T
  0.3292702628379788  0.5002883891660028  0.0855065665692005   T   T   T
  0.6626092093149294  0.5002458917188871  0.0855082646706297   T   T   T
  0.9960764506792884  0.7503437197592855  0.0855239778849480   T   T   T
  0.3294610850324917  0.7502668945943378  0.0855308281438603   T   T   T
  0.6627137472659083  0.7502672014116409  0.0855301700962770   T   T   T
  0.1626591025970525  0.6254586146456920  0.1118727237143525   T   T   T
  0.4959957518756079  0.6253879532202105  0.1119085067132276   T   T   T
  0.8292730763368449  0.6254439471905124  0.1118730496343674   T   T   T
  0.1628470693101913  0.8754419639150055  0.1118969645716870   T   T   T
  0.4960558251815647  0.8754083913743501  0.1119074989434872   T   T   T
  0.8291306501451019  0.8754793263815036  0.1119003986358933   T   T   T
 
  0.00000000E+00  0.00000000E+00  0.00000000E+00
  0.00000000E+00  0.00000000E+00  0.00000000E+00
  0.00000000E+00  0.00000000E+00  0.00000000E+00
  0.00000000E+00  0.00000000E+00  0.00000000E+00
  0.00000000E+00  0.00000000E+00  0.00000000E+00
  0.00000000E+00  0.00000000E+00  0.00000000E+00
  0.00000000E+00  0.00000000E+00  0.00000000E+00
  0.00000000E+00  0.00000000E+00  0.00000000E+00
  0.00000000E+00  0.00000000E+00  0.00000000E+00
  0.00000000E+00  0.00000000E+00  0.00000000E+00
  0.00000000E+00  0.00000000E+00  0.00000000E+00
  0.00000000E+00  0.00000000E+00  0.00000000E+00
  0.00000000E+00  0.00000000E+00  0.00000000E+00
  0.00000000E+00  0.00000000E+00  0.00000000E+00
  0.00000000E+00  0.00000000E+00  0.00000000E+00
  0.00000000E+00  0.00000000E+00  0.00000000E+00
  0.00000000E+00  0.00000000E+00  0.00000000E+00
  0.00000000E+00  0.00000000E+00  0.00000000E+00
  0.00000000E+00  0.00000000E+00  0.00000000E+00
  0.00000000E+00  0.00000000E+00  0.00000000E+00
  0.00000000E+00  0.00000000E+00  0.00000000E+00
  0.00000000E+00  0.00000000E+00  0.00000000E+00
  0.00000000E+00  0.00000000E+00  0.00000000E+00
  0.00000000E+00  0.00000000E+00  0.00000000E+00
  0.00000000E+00  0.00000000E+00  0.00000000E+00
  0.00000000E+00  0.00000000E+00  0.00000000E+00
  0.00000000E+00  0.00000000E+00  0.00000000E+00
  0.00000000E+00  0.00000000E+00  0.00000000E+00
  0.00000000E+00  0.00000000E+00  0.00000000E+00
  0.00000000E+00  0.00000000E+00  0.00000000E+00
  0.00000000E+00  0.00000000E+00  0.00000000E+00
  0.00000000E+00  0.00000000E+00  0.00000000E+00
  0.00000000E+00  0.00000000E+00  0.00000000E+00
  0.00000000E+00  0.00000000E+00  0.00000000E+00
  0.00000000E+00  0.00000000E+00  0.00000000E+00
  0.00000000E+00  0.00000000E+00  0.00000000E+00
  0.00000000E+00  0.00000000E+00  0.00000000E+00
  0.00000000E+00  0.00000000E+00  0.00000000E+00
  0.00000000E+00  0.00000000E+00  0.00000000E+00
  0.00000000E+00  0.00000000E+00  0.00000000E+00
  0.00000000E+00  0.00000000E+00  0.00000000E+00
  0.00000000E+00  0.00000000E+00  0.00000000E+00
  0.00000000E+00  0.00000000E+00  0.00000000E+00
  0.00000000E+00  0.00000000E+00  0.00000000E+00
  0.00000000E+00  0.00000000E+00  0.00000000E+00
  0.00000000E+00  0.00000000E+00  0.00000000E+00
  0.00000000E+00  0.00000000E+00  0.00000000E+00
  0.00000000E+00  0.00000000E+00  0.00000000E+00
  0.00000000E+00  0.00000000E+00  0.00000000E+00
  0.00000000E+00  0.00000000E+00  0.00000000E+00
  0.00000000E+00  0.00000000E+00  0.00000000E+00
  0.00000000E+00  0.00000000E+00  0.00000000E+00
  0.00000000E+00  0.00000000E+00  0.00000000E+00
  0.00000000E+00  0.00000000E+00  0.00000000E+00
  0.00000000E+00  0.00000000E+00  0.00000000E+00
  0.00000000E+00  0.00000000E+00  0.00000000E+00
  0.00000000E+00  0.00000000E+00  0.00000000E+00
  0.00000000E+00  0.00000000E+00  0.00000000E+00
  0.00000000E+00  0.00000000E+00  0.00000000E+00
  0.00000000E+00  0.00000000E+00  0.00000000E+00
  0.00000000E+00  0.00000000E+00  0.00000000E+00
  0.00000000E+00  0.00000000E+00  0.00000000E+00
  0.00000000E+00  0.00000000E+00  0.00000000E+00
  0.00000000E+00  0.00000000E+00  0.00000000E+00
  0.00000000E+00  0.00000000E+00  0.00000000E+00
  0.00000000E+00  0.00000000E+00  0.00000000E+00
  0.00000000E+00  0.00000000E+00  0.00000000E+00
  0.00000000E+00  0.00000000E+00  0.00000000E+00
  0.00000000E+00  0.00000000E+00  0.00000000E+00
  0.00000000E+00  0.00000000E+00  0.00000000E+00
  0.00000000E+00  0.00000000E+00  0.00000000E+00
  0.00000000E+00  0.00000000E+00  0.00000000E+00
  0.00000000E+00  0.00000000E+00  0.00000000E+00
  0.00000000E+00  0.00000000E+00  0.00000000E+00
  0.00000000E+00  0.00000000E+00  0.00000000E+00
  0.00000000E+00  0.00000000E+00  0.00000000E+00
  0.00000000E+00  0.00000000E+00  0.00000000E+00
  0.00000000E+00  0.00000000E+00  0.00000000E+00
  0.00000000E+00  0.00000000E+00  0.00000000E+00
  0.00000000E+00  0.00000000E+00  0.00000000E+00
  0.00000000E+00  0.00000000E+00  0.00000000E+00
  0.00000000E+00  0.00000000E+00  0.00000000E+00
  0.00000000E+00  0.00000000E+00  0.00000000E+00
  0.00000000E+00  0.00000000E+00  0.00000000E+00
  0.00000000E+00  0.00000000E+00  0.00000000E+00
  0.00000000E+00  0.00000000E+00  0.00000000E+00
  0.00000000E+00  0.00000000E+00  0.00000000E+00
  0.00000000E+00  0.00000000E+00  0.00000000E+00
  0.00000000E+00  0.00000000E+00  0.00000000E+00
  0.00000000E+00  0.00000000E+00  0.00000000E+00
  0.00000000E+00  0.00000000E+00  0.00000000E+00
  0.00000000E+00  0.00000000E+00  0.00000000E+00
  0.00000000E+00  0.00000000E+00  0.00000000E+00
  0.00000000E+00  0.00000000E+00  0.00000000E+00
  0.00000000E+00  0.00000000E+00  0.00000000E+00
  0.00000000E+00  0.00000000E+00  0.00000000E+00
  0.00000000E+00  0.00000000E+00  0.00000000E+00
  0.00000000E+00  0.00000000E+00  0.00000000E+00
  0.00000000E+00  0.00000000E+00  0.00000000E+00
  0.00000000E+00  0.00000000E+00  0.00000000E+00
  0.00000000E+00  0.00000000E+00  0.00000000E+00
  0.00000000E+00  0.00000000E+00  0.00000000E+00
  0.00000000E+00  0.00000000E+00  0.00000000E+00
  0.00000000E+00  0.00000000E+00  0.00000000E+00
  0.00000000E+00  0.00000000E+00  0.00000000E+00
  0.00000000E+00  0.00000000E+00  0.00000000E+00
  0.00000000E+00  0.00000000E+00  0.00000000E+00
  0.00000000E+00  0.00000000E+00  0.00000000E+00
  0.00000000E+00  0.00000000E+00  0.00000000E+00
  0.00000000E+00  0.00000000E+00  0.00000000E+00
  0.00000000E+00  0.00000000E+00  0.00000000E+00
  0.00000000E+00  0.00000000E+00  0.00000000E+00
  0.00000000E+00  0.00000000E+00  0.00000000E+00
  0.00000000E+00  0.00000000E+00  0.00000000E+00
  0.00000000E+00  0.00000000E+00  0.00000000E+00
  0.00000000E+00  0.00000000E+00  0.00000000E+00
  0.00000000E+00  0.00000000E+00  0.00000000E+00
  0.00000000E+00  0.00000000E+00  0.00000000E+00
  0.00000000E+00  0.00000000E+00  0.00000000E+00
  0.00000000E+00  0.00000000E+00  0.00000000E+00
  0.00000000E+00  0.00000000E+00  0.00000000E+00
  0.00000000E+00  0.00000000E+00  0.00000000E+00
  0.00000000E+00  0.00000000E+00  0.00000000E+00
  0.00000000E+00  0.00000000E+00  0.00000000E+00
  0.00000000E+00  0.00000000E+00  0.00000000E+00
  0.00000000E+00  0.00000000E+00  0.00000000E+00
  0.00000000E+00  0.00000000E+00  0.00000000E+00
  0.00000000E+00  0.00000000E+00  0.00000000E+00
  0.00000000E+00  0.00000000E+00  0.00000000E+00
  0.00000000E+00  0.00000000E+00  0.00000000E+00
  0.00000000E+00  0.00000000E+00  0.00000000E+00
  0.00000000E+00  0.00000000E+00  0.00000000E+00
  0.00000000E+00  0.00000000E+00  0.00000000E+00
  0.00000000E+00  0.00000000E+00  0.00000000E+00
  0.00000000E+00  0.00000000E+00  0.00000000E+00
  0.00000000E+00  0.00000000E+00  0.00000000E+00
  0.00000000E+00  0.00000000E+00  0.00000000E+00
  0.00000000E+00  0.00000000E+00  0.00000000E+00
  0.00000000E+00  0.00000000E+00  0.00000000E+00
  0.00000000E+00  0.00000000E+00  0.00000000E+00
  0.00000000E+00  0.00000000E+00  0.00000000E+00
  0.00000000E+00  0.00000000E+00  0.00000000E+00
  0.00000000E+00  0.00000000E+00  0.00000000E+00
  0.00000000E+00  0.00000000E+00  0.00000000E+00
  0.00000000E+00  0.00000000E+00  0.00000000E+00
  0.00000000E+00  0.00000000E+00  0.00000000E+00
  0.00000000E+00  0.00000000E+00  0.00000000E+00
  0.00000000E+00  0.00000000E+00  0.00000000E+00
  0.00000000E+00  0.00000000E+00  0.00000000E+00
  0.00000000E+00  0.00000000E+00  0.00000000E+00
  0.00000000E+00  0.00000000E+00  0.00000000E+00
  0.00000000E+00  0.00000000E+00  0.00000000E+00
  0.00000000E+00  0.00000000E+00  0.00000000E+00
  0.00000000E+00  0.00000000E+00  0.00000000E+00
  0.00000000E+00  0.00000000E+00  0.00000000E+00
  0.00000000E+00  0.00000000E+00  0.00000000E+00
  0.00000000E+00  0.00000000E+00  0.00000000E+00
  0.00000000E+00  0.00000000E+00  0.00000000E+00
  0.00000000E+00  0.00000000E+00  0.00000000E+00
  0.00000000E+00  0.00000000E+00  0.00000000E+00
  0.00000000E+00  0.00000000E+00  0.00000000E+00
  0.00000000E+00  0.00000000E+00  0.00000000E+00
  0.00000000E+00  0.00000000E+00  0.00000000E+00
  0.00000000E+00  0.00000000E+00  0.00000000E+00
  0.00000000E+00  0.00000000E+00  0.00000000E+00
  0.00000000E+00  0.00000000E+00  0.00000000E+00
  0.00000000E+00  0.00000000E+00  0.00000000E+00
  0.00000000E+00  0.00000000E+00  0.00000000E+00
  0.00000000E+00  0.00000000E+00  0.00000000E+00
  0.00000000E+00  0.00000000E+00  0.00000000E+00
  0.00000000E+00  0.00000000E+00  0.00000000E+00
  0.00000000E+00  0.00000000E+00  0.00000000E+00
  0.00000000E+00  0.00000000E+00  0.00000000E+00
  0.00000000E+00  0.00000000E+00  0.00000000E+00
  0.00000000E+00  0.00000000E+00  0.00000000E+00
  0.00000000E+00  0.00000000E+00  0.00000000E+00
  0.00000000E+00  0.00000000E+00  0.00000000E+00
  0.00000000E+00  0.00000000E+00  0.00000000E+00
  0.00000000E+00  0.00000000E+00  0.00000000E+00
  0.00000000E+00  0.00000000E+00  0.00000000E+00
  0.00000000E+00  0.00000000E+00  0.00000000E+00
  0.00000000E+00  0.00000000E+00  0.00000000E+00
  0.00000000E+00  0.00000000E+00  0.00000000E+00
  0.00000000E+00  0.00000000E+00  0.00000000E+00
  0.00000000E+00  0.00000000E+00  0.00000000E+00
  0.00000000E+00  0.00000000E+00  0.00000000E+00
  0.00000000E+00  0.00000000E+00  0.00000000E+00
  0.00000000E+00  0.00000000E+00  0.00000000E+00
  0.00000000E+00  0.00000000E+00  0.00000000E+00
  0.00000000E+00  0.00000000E+00  0.00000000E+00
  0.00000000E+00  0.00000000E+00  0.00000000E+00
  0.00000000E+00  0.00000000E+00  0.00000000E+00
  0.00000000E+00  0.00000000E+00  0.00000000E+00
  0.00000000E+00  0.00000000E+00  0.00000000E+00
  0.00000000E+00  0.00000000E+00  0.00000000E+00
  0.00000000E+00  0.00000000E+00  0.00000000E+00
  0.00000000E+00  0.00000000E+00  0.00000000E+00
  0.00000000E+00  0.00000000E+00  0.00000000E+00
  0.00000000E+00  0.00000000E+00  0.00000000E+00
  0.00000000E+00  0.00000000E+00  0.00000000E+00
  0.00000000E+00  0.00000000E+00  0.00000000E+00
  0.00000000E+00  0.00000000E+00  0.00000000E+00
  0.00000000E+00  0.00000000E+00  0.00000000E+00
  0.00000000E+00  0.00000000E+00  0.00000000E+00
  0.00000000E+00  0.00000000E+00  0.00000000E+00
  0.00000000E+00  0.00000000E+00  0.00000000E+00
  0.00000000E+00  0.00000000E+00  0.00000000E+00
  0.00000000E+00  0.00000000E+00  0.00000000E+00
  0.00000000E+00  0.00000000E+00  0.00000000E+00
  0.00000000E+00  0.00000000E+00  0.00000000E+00
  0.00000000E+00  0.00000000E+00  0.00000000E+00
  0.00000000E+00  0.00000000E+00  0.00000000E+00
  0.00000000E+00  0.00000000E+00  0.00000000E+00
  0.00000000E+00  0.00000000E+00  0.00000000E+00
  0.00000000E+00  0.00000000E+00  0.00000000E+00
  0.00000000E+00  0.00000000E+00  0.00000000E+00
  0.00000000E+00  0.00000000E+00  0.00000000E+00
  0.00000000E+00  0.00000000E+00  0.00000000E+00
  0.00000000E+00  0.00000000E+00  0.00000000E+00
  0.00000000E+00  0.00000000E+00  0.00000000E+00
  0.00000000E+00  0.00000000E+00  0.00000000E+00
  0.00000000E+00  0.00000000E+00  0.00000000E+00
  0.00000000E+00  0.00000000E+00  0.00000000E+00
  0.00000000E+00  0.00000000E+00  0.00000000E+00
  0.00000000E+00  0.00000000E+00  0.00000000E+00
  0.00000000E+00  0.00000000E+00  0.00000000E+00
  0.00000000E+00  0.00000000E+00  0.00000000E+00
  0.00000000E+00  0.00000000E+00  0.00000000E+00
  0.00000000E+00  0.00000000E+00  0.00000000E+00
