C H O Si                                
   1.00000000000000     
     9.2874599999999994    0.0000000000000000    0.0000000000000000
     0.0000000000000000    8.7563099999999991    0.0000000000000000
     0.0000000000000000    0.0000000000000000   58.0000000000000000
   C    H    O    Si
    36    32    16    36
Selective dynamics
Direct
  0.9930945792033772  0.1257921508530896  0.0606221694761480   T   T   T
  0.3265166290728002  0.1256703744131583  0.0605728300746112   T   T   T
  0.6597007502736003  0.1256504901692904  0.0607521159164607   T   T   T
  0.9930155364993913  0.6258078403943277  0.0606244150377036   T   T   T
  0.3265090352087348  0.6257726317445140  0.0607346131662147   T   T   T
  0.6597540932829871  0.6256900698197317  0.0607610719289737   T   T   T
  0.1597575086473238  0.3717701216219689  0.1393583563916271   T   T   T
  0.4930489982798933  0.3707806990477018  0.1396973663360526   T   T   T
  0.8262774686977303  0.3714371377046986  0.1395388924594572   T   T   T
  0.1597746583425818  0.8716020553398087  0.1395067169482256   T   T   T
  0.4929395906451430  0.8709360553606540  0.1397328801331218   T   T   T
  0.8256324665949373  0.8712736666948698  0.1395523519255533   T   T   T
  0.3268119685495108  0.1227344638681012  0.1661220202003595   T   T   T
  0.6590786034606856  0.1220527500275200  0.1669652144498454   T   T   T
  0.9931603147268592  0.1207242677610456  0.1664419928063101   T   T   T
  0.3258630106510490  0.6220834525578984  0.1670174659925097   T   T   T
  0.6594812964934800  0.6205438593743939  0.1671918851084820   T   T   T
  0.9932466194358390  0.6222476497178987  0.1664829106728060   T   T   T
  0.1578982124420651  0.3745349281396579  0.1914483020444271   T   T   T
  0.4893111148854174  0.3720537688044177  0.1935767207108728   T   T   T
  0.8260019817159364  0.3734297751671175  0.1917864942999935   T   T   T
  0.1621577304650040  0.8775314958011682  0.1921687429441619   T   T   T
  0.4932012518136222  0.8783802321967725  0.1924399158136920   T   T   T
  0.8281354092787584  0.8749253116174175  0.1918268642189624   T   T   T
  0.1595626844310055  0.3716983697725892  0.0859426302231067   T   T   T
  0.4928420317609337  0.3716263186573642  0.0860588108184694   T   T   T
  0.8260893081921475  0.3716476694090300  0.0860279635500024   T   T   T
  0.1595709518233689  0.8716304171498925  0.0860067647301813   T   T   T
  0.4928887531886155  0.8715980207643647  0.0861134232451948   T   T   T
  0.8260850307024417  0.8717063546332986  0.0860348168246873   T   T   T
  0.3263179771068077  0.1213606588321985  0.1130046219309593   T   T   T
  0.6593817443742406  0.1213129844746674  0.1132932736048833   T   T   T
  0.9928281502571562  0.1213836834375695  0.1131084494411368   T   T   T
  0.3262711651996955  0.6212876373863118  0.1132705989849879   T   T   T
  0.6595151603518807  0.6211870514132256  0.1133085970852970   T   T   T
  0.9927955356615112  0.6215445486210741  0.1130882232100677   T   T   T
  0.0744729733518723  0.3569271401187841  0.0275974534648137   T   T   T
  0.4079978353552046  0.3563966500941725  0.0276614779940599   T   T   T
  0.7398622828836379  0.3564731094614478  0.0277474122907122   T   T   T
  0.0746989179165398  0.8567677588589310  0.0276560683139399   T   T   T
  0.4076486622716615  0.8565914648306128  0.0277649248685636   T   T   T
  0.7401335015007895  0.8566124731803214  0.0277203128844510   T   T   T
  0.3241757103107039  0.0534150446323045  0.0450384553561356   T   T   T
  0.6568770836252554  0.0527188613356491  0.0452900895133168   T   T   T
  0.9902171711599607  0.0531061737689724  0.0451369268428307   T   T   T
  0.3241168613087337  0.5528910913582418  0.0452627108110922   T   T   T
  0.6568898899911149  0.5527889013145887  0.0452945220568552   T   T   T
  0.9902473887157935  0.5532943739423363  0.0451204530731452   T   T   T
  0.8301462491191527  0.8027089923016056  0.2073469617197481   T   T   T
  0.8303556954128419  0.2996201174287679  0.2071473284489661   T   T   T
  0.1571467563599678  0.3019923990075273  0.2069285260988637   T   T   T
  0.1646682813046620  0.8036426299742694  0.2075179359138550   T   T   T
  0.4904970897350517  0.8061497442115521  0.2079796474035942   T   T   T
  0.0834322368542647  0.1114730953773445  0.2238535289640592   T   T   T
  0.3861287490950509  0.1995987750464968  0.2132864710613183   T   T   T
  0.7721663651799099  0.0900973359857235  0.2240502128502479   T   T   T
  0.0861085329435832  0.5995137374532897  0.2236585799690282   T   T   T
  0.3743816788146851  0.6138538531401524  0.2286637166568213   T   T   T
  0.7798665305720991  0.5915002805668261  0.2226437587164453   T   T   T
  0.5456564079524883  0.6086134038684018  0.2738721028589644   T   T   T
  0.4910836467726897  0.4735976817099584  0.2935960895500425   T   T   T
  0.5701552576503471  0.6375232428365363  0.3031464163889718   T   T   T
  0.3109680673680839  0.3809199010343400  0.3095769615190680   T   T   T
  0.4229173685754077  0.2557007304908453  0.3026076853368456   T   T   T
  0.6516903284389636  0.7333406033764154  0.3334073080347117   T   T   T
  0.4865417314913583  0.7617063544001068  0.3307398983669540   T   T   T
  0.5190837769854518  0.7862253491045281  0.2524007178997674   T   T   T
  0.5852751531857492  0.6408695191523763  0.2388078136680498   T   T   T
  0.1688038910806007  0.3326695595645444  0.0340506199990403   T   T   T
  0.5024092704750610  0.3325385691922383  0.0341379321865520   T   T   T
  0.8345685335154088  0.3325726009750876  0.0341323770913285   T   T   T
  0.1690307835563910  0.8324156523817570  0.0341091769577365   T   T   T
  0.5020950244665475  0.8327068991498855  0.0342222205219596   T   T   T
  0.8347495977230532  0.8326445706658796  0.0341348927612507   T   T   T
  0.3227216579581281  0.1082834185999905  0.2164253692074729   T   T   T
  0.6712915357811303  0.0770534087858393  0.2194777520885654   T   T   T
  0.9874672839973239  0.0813828655569413  0.2185061968274594   T   T   T
  0.2955086920387774  0.5838587125732618  0.2183995540908601   T   T   T
  0.6768003708939119  0.5810263841069528  0.2189615997907241   T   T   T
  0.9871996271865044  0.5802669035539288  0.2182256000078583   T   T   T
  0.5682494448120624  0.5568282602006521  0.2899847706832284   T   T   T
  0.3800956282321066  0.3520888415194072  0.2976868826556152   T   T   T
  0.5766389905073533  0.7560669565020084  0.3221407167758220   T   T   T
  0.5138719761025061  0.6751427708504851  0.2513972400790196   T   T   T
  0.4933564215440072  0.2431612601461319  0.0600900894045856   T   T   T
  0.8264511068665893  0.2430235775270062  0.0600579674116510   T   T   T
  0.1600284741712373  0.7429835330159646  0.0600432531076247   T   T   T
  0.4933729826134600  0.7430191091310415  0.0601417088468550   T   T   T
  0.8264527042724915  0.7431081747794418  0.0600607638361138   T   T   T
  0.1600724121040219  0.2430746436869557  0.0599736766187952   T   T   T
  0.9927608106656807  0.9954523562427962  0.1397452818581954   T   T   T
  0.3268654796488887  0.9967471213568302  0.1397254508080941   T   T   T
  0.6588407265412465  0.9967663499415754  0.1401262020311628   T   T   T
  0.9931537253812777  0.4962435593136769  0.1397403473741562   T   T   T
  0.3271967955834235  0.4964391082850117  0.1401288365936021   T   T   T
  0.6586995039588304  0.4960401255756609  0.1401502669469617   T   T   T
  0.1597528925216405  0.2451262569109108  0.1657987014815401   T   T   T
  0.4925497650968279  0.2505603948600552  0.1674931341678288   T   T   T
  0.8260097211333971  0.2444676756311358  0.1660370829049463   T   T   T
  0.1609219199359392  0.7461595965792622  0.1662378697030506   T   T   T
  0.4929797332563816  0.7453665596101434  0.1665679111169775   T   T   T
  0.8257277230984086  0.7445802809296604  0.1661401515051316   T   T   T
  0.3270348291884762  0.9988880678230961  0.1923972607803546   T   T   T
  0.6617904560106255  0.9941156621008037  0.1931942679137050   T   T   T
  0.9942177100187802  0.9921756456378982  0.1924365578762385   T   T   T
  0.3276721875705723  0.4885660830670286  0.1931650459045350   T   T   T
  0.9920148046763579  0.4911651163655693  0.1921271703103069   T   T   T
  0.6541377123221063  0.4838224485138526  0.1931145313391908   T   T   T
  0.9928808309918826  0.9958369672393844  0.0866407304443473   T   T   T
  0.3263355743234770  0.9959081863610821  0.0866036708310066   T   T   T
  0.6594296884231665  0.9959562078845429  0.0867904381677836   T   T   T
  0.9928447359046363  0.4958323542525982  0.0866267610357724   T   T   T
  0.3263592847390405  0.4958711236020991  0.0867616796736937   T   T   T
  0.6593832187101081  0.4958290620320575  0.0867909458913450   T   T   T
  0.1597600458996892  0.2462534262998050  0.1129116346522564   T   T   T
  0.4928419215079624  0.2466507975020011  0.1131896105907461   T   T   T
  0.8259781902760602  0.2462355149875291  0.1130247790821112   T   T   T
  0.1597494973511881  0.7461370179996012  0.1130229604122729   T   T   T
  0.4929180045737381  0.7461128727915605  0.1131562949966591   T   T   T
  0.8258232336059228  0.7462262183921755  0.1130295707555301   T   T   T
 
  0.00000000E+00  0.00000000E+00  0.00000000E+00
  0.00000000E+00  0.00000000E+00  0.00000000E+00
  0.00000000E+00  0.00000000E+00  0.00000000E+00
  0.00000000E+00  0.00000000E+00  0.00000000E+00
  0.00000000E+00  0.00000000E+00  0.00000000E+00
  0.00000000E+00  0.00000000E+00  0.00000000E+00
  0.00000000E+00  0.00000000E+00  0.00000000E+00
  0.00000000E+00  0.00000000E+00  0.00000000E+00
  0.00000000E+00  0.00000000E+00  0.00000000E+00
  0.00000000E+00  0.00000000E+00  0.00000000E+00
  0.00000000E+00  0.00000000E+00  0.00000000E+00
  0.00000000E+00  0.00000000E+00  0.00000000E+00
  0.00000000E+00  0.00000000E+00  0.00000000E+00
  0.00000000E+00  0.00000000E+00  0.00000000E+00
  0.00000000E+00  0.00000000E+00  0.00000000E+00
  0.00000000E+00  0.00000000E+00  0.00000000E+00
  0.00000000E+00  0.00000000E+00  0.00000000E+00
  0.00000000E+00  0.00000000E+00  0.00000000E+00
  0.00000000E+00  0.00000000E+00  0.00000000E+00
  0.00000000E+00  0.00000000E+00  0.00000000E+00
  0.00000000E+00  0.00000000E+00  0.00000000E+00
  0.00000000E+00  0.00000000E+00  0.00000000E+00
  0.00000000E+00  0.00000000E+00  0.00000000E+00
  0.00000000E+00  0.00000000E+00  0.00000000E+00
  0.00000000E+00  0.00000000E+00  0.00000000E+00
  0.00000000E+00  0.00000000E+00  0.00000000E+00
  0.00000000E+00  0.00000000E+00  0.00000000E+00
  0.00000000E+00  0.00000000E+00  0.00000000E+00
  0.00000000E+00  0.00000000E+00  0.00000000E+00
  0.00000000E+00  0.00000000E+00  0.00000000E+00
  0.00000000E+00  0.00000000E+00  0.00000000E+00
  0.00000000E+00  0.00000000E+00  0.00000000E+00
  0.00000000E+00  0.00000000E+00  0.00000000E+00
  0.00000000E+00  0.00000000E+00  0.00000000E+00
  0.00000000E+00  0.00000000E+00  0.00000000E+00
  0.00000000E+00  0.00000000E+00  0.00000000E+00
  0.00000000E+00  0.00000000E+00  0.00000000E+00
  0.00000000E+00  0.00000000E+00  0.00000000E+00
  0.00000000E+00  0.00000000E+00  0.00000000E+00
  0.00000000E+00  0.00000000E+00  0.00000000E+00
  0.00000000E+00  0.00000000E+00  0.00000000E+00
  0.00000000E+00  0.00000000E+00  0.00000000E+00
  0.00000000E+00  0.00000000E+00  0.00000000E+00
  0.00000000E+00  0.00000000E+00  0.00000000E+00
  0.00000000E+00  0.00000000E+00  0.00000000E+00
  0.00000000E+00  0.00000000E+00  0.00000000E+00
  0.00000000E+00  0.00000000E+00  0.00000000E+00
  0.00000000E+00  0.00000000E+00  0.00000000E+00
  0.00000000E+00  0.00000000E+00  0.00000000E+00
  0.00000000E+00  0.00000000E+00  0.00000000E+00
  0.00000000E+00  0.00000000E+00  0.00000000E+00
  0.00000000E+00  0.00000000E+00  0.00000000E+00
  0.00000000E+00  0.00000000E+00  0.00000000E+00
  0.00000000E+00  0.00000000E+00  0.00000000E+00
  0.00000000E+00  0.00000000E+00  0.00000000E+00
  0.00000000E+00  0.00000000E+00  0.00000000E+00
  0.00000000E+00  0.00000000E+00  0.00000000E+00
  0.00000000E+00  0.00000000E+00  0.00000000E+00
  0.00000000E+00  0.00000000E+00  0.00000000E+00
  0.00000000E+00  0.00000000E+00  0.00000000E+00
  0.00000000E+00  0.00000000E+00  0.00000000E+00
  0.00000000E+00  0.00000000E+00  0.00000000E+00
  0.00000000E+00  0.00000000E+00  0.00000000E+00
  0.00000000E+00  0.00000000E+00  0.00000000E+00
  0.00000000E+00  0.00000000E+00  0.00000000E+00
  0.00000000E+00  0.00000000E+00  0.00000000E+00
  0.00000000E+00  0.00000000E+00  0.00000000E+00
  0.00000000E+00  0.00000000E+00  0.00000000E+00
  0.00000000E+00  0.00000000E+00  0.00000000E+00
  0.00000000E+00  0.00000000E+00  0.00000000E+00
  0.00000000E+00  0.00000000E+00  0.00000000E+00
  0.00000000E+00  0.00000000E+00  0.00000000E+00
  0.00000000E+00  0.00000000E+00  0.00000000E+00
  0.00000000E+00  0.00000000E+00  0.00000000E+00
  0.00000000E+00  0.00000000E+00  0.00000000E+00
  0.00000000E+00  0.00000000E+00  0.00000000E+00
  0.00000000E+00  0.00000000E+00  0.00000000E+00
  0.00000000E+00  0.00000000E+00  0.00000000E+00
  0.00000000E+00  0.00000000E+00  0.00000000E+00
  0.00000000E+00  0.00000000E+00  0.00000000E+00
  0.00000000E+00  0.00000000E+00  0.00000000E+00
  0.00000000E+00  0.00000000E+00  0.00000000E+00
  0.00000000E+00  0.00000000E+00  0.00000000E+00
  0.00000000E+00  0.00000000E+00  0.00000000E+00
  0.00000000E+00  0.00000000E+00  0.00000000E+00
  0.00000000E+00  0.00000000E+00  0.00000000E+00
  0.00000000E+00  0.00000000E+00  0.00000000E+00
  0.00000000E+00  0.00000000E+00  0.00000000E+00
  0.00000000E+00  0.00000000E+00  0.00000000E+00
  0.00000000E+00  0.00000000E+00  0.00000000E+00
  0.00000000E+00  0.00000000E+00  0.00000000E+00
  0.00000000E+00  0.00000000E+00  0.00000000E+00
  0.00000000E+00  0.00000000E+00  0.00000000E+00
  0.00000000E+00  0.00000000E+00  0.00000000E+00
  0.00000000E+00  0.00000000E+00  0.00000000E+00
  0.00000000E+00  0.00000000E+00  0.00000000E+00
  0.00000000E+00  0.00000000E+00  0.00000000E+00
  0.00000000E+00  0.00000000E+00  0.00000000E+00
  0.00000000E+00  0.00000000E+00  0.00000000E+00
  0.00000000E+00  0.00000000E+00  0.00000000E+00
  0.00000000E+00  0.00000000E+00  0.00000000E+00
  0.00000000E+00  0.00000000E+00  0.00000000E+00
  0.00000000E+00  0.00000000E+00  0.00000000E+00
  0.00000000E+00  0.00000000E+00  0.00000000E+00
  0.00000000E+00  0.00000000E+00  0.00000000E+00
  0.00000000E+00  0.00000000E+00  0.00000000E+00
  0.00000000E+00  0.00000000E+00  0.00000000E+00
  0.00000000E+00  0.00000000E+00  0.00000000E+00
  0.00000000E+00  0.00000000E+00  0.00000000E+00
  0.00000000E+00  0.00000000E+00  0.00000000E+00
  0.00000000E+00  0.00000000E+00  0.00000000E+00
  0.00000000E+00  0.00000000E+00  0.00000000E+00
  0.00000000E+00  0.00000000E+00  0.00000000E+00
  0.00000000E+00  0.00000000E+00  0.00000000E+00
  0.00000000E+00  0.00000000E+00  0.00000000E+00
  0.00000000E+00  0.00000000E+00  0.00000000E+00
  0.00000000E+00  0.00000000E+00  0.00000000E+00
  0.00000000E+00  0.00000000E+00  0.00000000E+00
  0.00000000E+00  0.00000000E+00  0.00000000E+00
  0.00000000E+00  0.00000000E+00  0.00000000E+00
