C H O Si                                
   1.00000000000000     
     9.2874599999999994    0.0000000000000000    0.0000000000000000
     0.0000000000000000    8.7563099999999991    0.0000000000000000
     0.0000000000000000    0.0000000000000000   58.0000000000000000
   C    H    O    Si
    36    32    16    36
Selective dynamics
Direct
  0.9930690034733552  0.1257977399581103  0.0606269486103833   T   T   T
  0.3264802960692078  0.1256259683829614  0.0605762818884821   T   T   T
  0.6596376196149680  0.1256472938884640  0.0607531359307123   T   T   T
  0.9929845749197718  0.6257963013112615  0.0606300712935018   T   T   T
  0.3264794938748858  0.6257584261742235  0.0607359935165558   T   T   T
  0.6596887095264737  0.6256729415287615  0.0607624099888081   T   T   T
  0.1597297031164634  0.3717551322944062  0.1393547573805120   T   T   T
  0.4930083227559495  0.3707611394388801  0.1396949964858847   T   T   T
  0.8262964765959112  0.3714003023334339  0.1395369923510511   T   T   T
  0.1597436788288501  0.8715899802494861  0.1395067579882727   T   T   T
  0.4929037267666410  0.8708872672880777  0.1397359882738504   T   T   T
  0.8256529063462309  0.8712565706118109  0.1395544810165915   T   T   T
  0.3267881367392144  0.1227219454878793  0.1661109578770661   T   T   T
  0.6590467153395144  0.1220386621040762  0.1669620418699428   T   T   T
  0.9930970798544195  0.1207155579696378  0.1664403561214874   T   T   T
  0.3258628043882602  0.6220730853086109  0.1670179462674121   T   T   T
  0.6594298175732354  0.6206003600602140  0.1671877866347745   T   T   T
  0.9932078240577054  0.6222196558668139  0.1664747107879644   T   T   T
  0.1578895931629299  0.3745442113823210  0.1914533255078450   T   T   T
  0.4892945535324328  0.3720170115354702  0.1935737141848705   T   T   T
  0.8259797736605305  0.3734321431034378  0.1917898436721198   T   T   T
  0.1620682271706694  0.8775549141910428  0.1921677600407692   T   T   T
  0.4931779343917461  0.8784043590651446  0.1924312040036128   T   T   T
  0.8281138336250619  0.8749485384721013  0.1918245587503066   T   T   T
  0.1595526404359002  0.3716715066836312  0.0859476634345488   T   T   T
  0.4928176770329117  0.3716218452559681  0.0860600017063389   T   T   T
  0.8260867571093079  0.3716503337126393  0.0860314106856127   T   T   T
  0.1595501076118468  0.8716030712105449  0.0860099721978626   T   T   T
  0.4928653721667491  0.8715922945625659  0.0861141434088040   T   T   T
  0.8260772312423733  0.8716848870748140  0.0860383933598530   T   T   T
  0.3263174455588659  0.1214255511693504  0.1130068190971835   T   T   T
  0.6593612173874694  0.1212497115126754  0.1132915413041803   T   T   T
  0.9928339266030817  0.1214072066919755  0.1131071906420674   T   T   T
  0.3262500169590388  0.6212538256975916  0.1132706341069169   T   T   T
  0.6594990506287418  0.6211512108918273  0.1133072080304632   T   T   T
  0.9928130526756449  0.6215351160614103  0.1130885956305487   T   T   T
  0.0743969100569811  0.3569325171538398  0.0275952731062500   T   T   T
  0.4079292984737159  0.3563934636803637  0.0276609128866588   T   T   T
  0.7398196789170285  0.3564801191027451  0.0277459281535434   T   T   T
  0.0746279664913317  0.8567693325366357  0.0276558840655073   T   T   T
  0.4075776589534216  0.8565988605622739  0.0277623743078371   T   T   T
  0.7401007929362349  0.8566148573213626  0.0277190933042334   T   T   T
  0.3241786437934991  0.0534187276594123  0.0450391869911280   T   T   T
  0.6568730149331703  0.0527130613577721  0.0452885997972793   T   T   T
  0.9902162085467521  0.0531022832823422  0.0451381670685595   T   T   T
  0.3241159323663779  0.5528898549750720  0.0452622833467854   T   T   T
  0.6568871680112311  0.5527893714009715  0.0452937483137206   T   T   T
  0.9902460770045003  0.5532964963241981  0.0451209285542168   T   T   T
  0.8301486872021643  0.8027156543796549  0.2073510949578220   T   T   T
  0.8303818106047915  0.2996280089010677  0.2071484912583472   T   T   T
  0.1571253444488279  0.3020123254492551  0.2069289694472962   T   T   T
  0.1646689946838101  0.8036398811835381  0.2075190050818375   T   T   T
  0.4904763052647499  0.8061700892965895  0.2079833643172929   T   T   T
  0.0834122017401486  0.1114346280662584  0.2238513403515129   T   T   T
  0.3861095742425157  0.1996253611611895  0.2132827325967882   T   T   T
  0.7721632967973355  0.0900926965787771  0.2240565385881235   T   T   T
  0.0861276298256242  0.5995025894800655  0.2236624572751950   T   T   T
  0.3744303425639308  0.6138571407623978  0.2286697444963432   T   T   T
  0.7798928275194992  0.5915097914667607  0.2226445200359905   T   T   T
  0.5457080734875499  0.6085790897298493  0.2738862185358639   T   T   T
  0.4911804714867784  0.4736689047012750  0.2935949500338229   T   T   T
  0.5701778553108516  0.6374407877260397  0.3031342041879533   T   T   T
  0.3109527744329142  0.3809644524502024  0.3095809178276305   T   T   T
  0.4229385275627479  0.2556994386757293  0.3026066025810369   T   T   T
  0.6516937105984109  0.7333243697416190  0.3334114156049321   T   T   T
  0.4864798508688640  0.7616846447136206  0.3307469717478824   T   T   T
  0.5191172410436982  0.7862411614716720  0.2524017630093430   T   T   T
  0.5852615514793662  0.6408983998383769  0.2388126354772469   T   T   T
  0.1689373743167498  0.3327147966336689  0.0340480047728981   T   T   T
  0.5025082398021176  0.3325782957071120  0.0341335238108347   T   T   T
  0.8346400929084158  0.3326315728691347  0.0341261074589599   T   T   T
  0.1691679117706121  0.8324745382822590  0.0341004620520128   T   T   T
  0.5021959412805503  0.8327443029524295  0.0342218925304241   T   T   T
  0.8348179485649272  0.8327161572264976  0.0341257447541786   T   T   T
  0.3226811057527417  0.1082630226732144  0.2164209555477105   T   T   T
  0.6713005368037385  0.0770668354719529  0.2194691398055301   T   T   T
  0.9875539388739080  0.0814108682827154  0.2185065090241027   T   T   T
  0.2954650707278739  0.5838657538489778  0.2183989252192031   T   T   T
  0.6768024741843220  0.5810072656552058  0.2189596133023271   T   T   T
  0.9872310363437418  0.5802881714034007  0.2182234094776780   T   T   T
  0.5681435397887582  0.5568843427331858  0.2899854659690967   T   T   T
  0.3801149702689574  0.3521120108723917  0.2976800470811692   T   T   T
  0.5766794084057477  0.7561030033196736  0.3221350665915327   T   T   T
  0.5138752691674954  0.6750970892396222  0.2513907077416941   T   T   T
  0.4933638563515156  0.2431556137826190  0.0600961068164339   T   T   T
  0.8264709396367964  0.2429969167326302  0.0600650153369315   T   T   T
  0.1600294386367916  0.7429718473277801  0.0600510891484930   T   T   T
  0.4933810067762791  0.7430099965099469  0.0601478958429384   T   T   T
  0.8264764278985210  0.7430836837921500  0.0600685828960360   T   T   T
  0.1600916090709557  0.2430609034640197  0.0599734114429243   T   T   T
  0.9927911019338356  0.9954461486745187  0.1397511506136125   T   T   T
  0.3268939077912575  0.9967330554402237  0.1397272188082490   T   T   T
  0.6588259647537371  0.9967671582778646  0.1401311685107405   T   T   T
  0.9931891367145093  0.4962609053915214  0.1397421129758560   T   T   T
  0.3272095884951188  0.4964448133802864  0.1401296225258207   T   T   T
  0.6586941989949174  0.4960328021545497  0.1401541987485805   T   T   T
  0.1597627961606258  0.2451218391302928  0.1657992149382210   T   T   T
  0.4925764006419872  0.2505646587807848  0.1674997405238082   T   T   T
  0.8260300974115771  0.2444775444848994  0.1660354117998929   T   T   T
  0.1609309056011829  0.7461874409054802  0.1662321113372880   T   T   T
  0.4930290038498738  0.7453543326048826  0.1665690962140251   T   T   T
  0.8257033622071529  0.7446069747578556  0.1661346239671455   T   T   T
  0.3270495636944528  0.9989114787992688  0.1923985029283573   T   T   T
  0.6618493977558650  0.9941090704140455  0.1931980023182318   T   T   T
  0.9942522777379947  0.9921260886461577  0.1924315603689944   T   T   T
  0.3277404887525371  0.4885749894730299  0.1931657689404474   T   T   T
  0.9920512501809294  0.4911174066924713  0.1921272161710825   T   T   T
  0.6541251258232361  0.4838173858063047  0.1931097495869451   T   T   T
  0.9928907613489159  0.9958210877089071  0.0866425299004155   T   T   T
  0.3263643979680055  0.9958621029782546  0.0866023325102490   T   T   T
  0.6594223011990508  0.9959571629159668  0.0867950688608491   T   T   T
  0.9928466403137280  0.4958173875370016  0.0866284032749797   T   T   T
  0.3263556879880004  0.4958626900793474  0.0867649945109511   T   T   T
  0.6593786631395520  0.4958281960255448  0.0867953810130772   T   T   T
  0.1597425525390363  0.2462738147706100  0.1129114009088170   T   T   T
  0.4928246743492495  0.2466249217860042  0.1131837146851131   T   T   T
  0.8259875656371547  0.2462631336040806  0.1130202796521909   T   T   T
  0.1597291793966104  0.7461522058063524  0.1130184533521070   T   T   T
  0.4929103063828140  0.7461235351017339  0.1131527009265027   T   T   T
  0.8258354781944348  0.7462568320956766  0.1130261408506008   T   T   T
 
  0.00000000E+00  0.00000000E+00  0.00000000E+00
  0.00000000E+00  0.00000000E+00  0.00000000E+00
  0.00000000E+00  0.00000000E+00  0.00000000E+00
  0.00000000E+00  0.00000000E+00  0.00000000E+00
  0.00000000E+00  0.00000000E+00  0.00000000E+00
  0.00000000E+00  0.00000000E+00  0.00000000E+00
  0.00000000E+00  0.00000000E+00  0.00000000E+00
  0.00000000E+00  0.00000000E+00  0.00000000E+00
  0.00000000E+00  0.00000000E+00  0.00000000E+00
  0.00000000E+00  0.00000000E+00  0.00000000E+00
  0.00000000E+00  0.00000000E+00  0.00000000E+00
  0.00000000E+00  0.00000000E+00  0.00000000E+00
  0.00000000E+00  0.00000000E+00  0.00000000E+00
  0.00000000E+00  0.00000000E+00  0.00000000E+00
  0.00000000E+00  0.00000000E+00  0.00000000E+00
  0.00000000E+00  0.00000000E+00  0.00000000E+00
  0.00000000E+00  0.00000000E+00  0.00000000E+00
  0.00000000E+00  0.00000000E+00  0.00000000E+00
  0.00000000E+00  0.00000000E+00  0.00000000E+00
  0.00000000E+00  0.00000000E+00  0.00000000E+00
  0.00000000E+00  0.00000000E+00  0.00000000E+00
  0.00000000E+00  0.00000000E+00  0.00000000E+00
  0.00000000E+00  0.00000000E+00  0.00000000E+00
  0.00000000E+00  0.00000000E+00  0.00000000E+00
  0.00000000E+00  0.00000000E+00  0.00000000E+00
  0.00000000E+00  0.00000000E+00  0.00000000E+00
  0.00000000E+00  0.00000000E+00  0.00000000E+00
  0.00000000E+00  0.00000000E+00  0.00000000E+00
  0.00000000E+00  0.00000000E+00  0.00000000E+00
  0.00000000E+00  0.00000000E+00  0.00000000E+00
  0.00000000E+00  0.00000000E+00  0.00000000E+00
  0.00000000E+00  0.00000000E+00  0.00000000E+00
  0.00000000E+00  0.00000000E+00  0.00000000E+00
  0.00000000E+00  0.00000000E+00  0.00000000E+00
  0.00000000E+00  0.00000000E+00  0.00000000E+00
  0.00000000E+00  0.00000000E+00  0.00000000E+00
  0.00000000E+00  0.00000000E+00  0.00000000E+00
  0.00000000E+00  0.00000000E+00  0.00000000E+00
  0.00000000E+00  0.00000000E+00  0.00000000E+00
  0.00000000E+00  0.00000000E+00  0.00000000E+00
  0.00000000E+00  0.00000000E+00  0.00000000E+00
  0.00000000E+00  0.00000000E+00  0.00000000E+00
  0.00000000E+00  0.00000000E+00  0.00000000E+00
  0.00000000E+00  0.00000000E+00  0.00000000E+00
  0.00000000E+00  0.00000000E+00  0.00000000E+00
  0.00000000E+00  0.00000000E+00  0.00000000E+00
  0.00000000E+00  0.00000000E+00  0.00000000E+00
  0.00000000E+00  0.00000000E+00  0.00000000E+00
  0.00000000E+00  0.00000000E+00  0.00000000E+00
  0.00000000E+00  0.00000000E+00  0.00000000E+00
  0.00000000E+00  0.00000000E+00  0.00000000E+00
  0.00000000E+00  0.00000000E+00  0.00000000E+00
  0.00000000E+00  0.00000000E+00  0.00000000E+00
  0.00000000E+00  0.00000000E+00  0.00000000E+00
  0.00000000E+00  0.00000000E+00  0.00000000E+00
  0.00000000E+00  0.00000000E+00  0.00000000E+00
  0.00000000E+00  0.00000000E+00  0.00000000E+00
  0.00000000E+00  0.00000000E+00  0.00000000E+00
  0.00000000E+00  0.00000000E+00  0.00000000E+00
  0.00000000E+00  0.00000000E+00  0.00000000E+00
  0.00000000E+00  0.00000000E+00  0.00000000E+00
  0.00000000E+00  0.00000000E+00  0.00000000E+00
  0.00000000E+00  0.00000000E+00  0.00000000E+00
  0.00000000E+00  0.00000000E+00  0.00000000E+00
  0.00000000E+00  0.00000000E+00  0.00000000E+00
  0.00000000E+00  0.00000000E+00  0.00000000E+00
  0.00000000E+00  0.00000000E+00  0.00000000E+00
  0.00000000E+00  0.00000000E+00  0.00000000E+00
  0.00000000E+00  0.00000000E+00  0.00000000E+00
  0.00000000E+00  0.00000000E+00  0.00000000E+00
  0.00000000E+00  0.00000000E+00  0.00000000E+00
  0.00000000E+00  0.00000000E+00  0.00000000E+00
  0.00000000E+00  0.00000000E+00  0.00000000E+00
  0.00000000E+00  0.00000000E+00  0.00000000E+00
  0.00000000E+00  0.00000000E+00  0.00000000E+00
  0.00000000E+00  0.00000000E+00  0.00000000E+00
  0.00000000E+00  0.00000000E+00  0.00000000E+00
  0.00000000E+00  0.00000000E+00  0.00000000E+00
  0.00000000E+00  0.00000000E+00  0.00000000E+00
  0.00000000E+00  0.00000000E+00  0.00000000E+00
  0.00000000E+00  0.00000000E+00  0.00000000E+00
  0.00000000E+00  0.00000000E+00  0.00000000E+00
  0.00000000E+00  0.00000000E+00  0.00000000E+00
  0.00000000E+00  0.00000000E+00  0.00000000E+00
  0.00000000E+00  0.00000000E+00  0.00000000E+00
  0.00000000E+00  0.00000000E+00  0.00000000E+00
  0.00000000E+00  0.00000000E+00  0.00000000E+00
  0.00000000E+00  0.00000000E+00  0.00000000E+00
  0.00000000E+00  0.00000000E+00  0.00000000E+00
  0.00000000E+00  0.00000000E+00  0.00000000E+00
  0.00000000E+00  0.00000000E+00  0.00000000E+00
  0.00000000E+00  0.00000000E+00  0.00000000E+00
  0.00000000E+00  0.00000000E+00  0.00000000E+00
  0.00000000E+00  0.00000000E+00  0.00000000E+00
  0.00000000E+00  0.00000000E+00  0.00000000E+00
  0.00000000E+00  0.00000000E+00  0.00000000E+00
  0.00000000E+00  0.00000000E+00  0.00000000E+00
  0.00000000E+00  0.00000000E+00  0.00000000E+00
  0.00000000E+00  0.00000000E+00  0.00000000E+00
  0.00000000E+00  0.00000000E+00  0.00000000E+00
  0.00000000E+00  0.00000000E+00  0.00000000E+00
  0.00000000E+00  0.00000000E+00  0.00000000E+00
  0.00000000E+00  0.00000000E+00  0.00000000E+00
  0.00000000E+00  0.00000000E+00  0.00000000E+00
  0.00000000E+00  0.00000000E+00  0.00000000E+00
  0.00000000E+00  0.00000000E+00  0.00000000E+00
  0.00000000E+00  0.00000000E+00  0.00000000E+00
  0.00000000E+00  0.00000000E+00  0.00000000E+00
  0.00000000E+00  0.00000000E+00  0.00000000E+00
  0.00000000E+00  0.00000000E+00  0.00000000E+00
  0.00000000E+00  0.00000000E+00  0.00000000E+00
  0.00000000E+00  0.00000000E+00  0.00000000E+00
  0.00000000E+00  0.00000000E+00  0.00000000E+00
  0.00000000E+00  0.00000000E+00  0.00000000E+00
  0.00000000E+00  0.00000000E+00  0.00000000E+00
  0.00000000E+00  0.00000000E+00  0.00000000E+00
  0.00000000E+00  0.00000000E+00  0.00000000E+00
  0.00000000E+00  0.00000000E+00  0.00000000E+00
  0.00000000E+00  0.00000000E+00  0.00000000E+00
  0.00000000E+00  0.00000000E+00  0.00000000E+00
