C H O Si                                
   1.00000000000000     
    18.5749199999999988    0.0000000000000000    0.0000000000000000
     0.0000000000000000   17.5126199999999983    0.0000000000000000
     0.0000000000000000    0.0000000000000000   58.0000000000000000
   C    H    O    Si
   144   105    52   144
Selective dynamics
Direct
  0.4995109452016405  0.0652746833781115  0.0600532386325875   T   T   T
  0.1661405487206702  0.0653617788179271  0.0600987427254869   T   T   T
  0.3327609173150267  0.0653526907532784  0.0600877501404392   T   T   T
  0.4995171461792934  0.3153428711813370  0.0600489064522125   T   T   T
  0.1661651009216259  0.3153880218792597  0.0601126942206419   T   T   T
  0.3327932695464569  0.3153952712138189  0.0601004813489535   T   T   T
  0.0828053761341313  0.1880847093771329  0.1389884748484076   T   T   T
  0.2494243247384338  0.1881318036622655  0.1389881794123833   T   T   T
  0.4161029951139513  0.1880821160666212  0.1389450552280324   T   T   T
  0.0827440464626062  0.4381394312353394  0.1390320136152793   T   T   T
  0.2494090781371769  0.4381439607803163  0.1389971757209910   T   T   T
  0.4161280553376973  0.4382026263863307  0.1389741426412724   T   T   T
  0.1662552095080709  0.0631326898244217  0.1661421829632047   T   T   T
  0.3327918320271868  0.0632058115165361  0.1661257596739373   T   T   T
  0.4992975687478909  0.0628789321439030  0.1660122893747850   T   T   T
  0.1661832510605246  0.3132959339993616  0.1661651256072435   T   T   T
  0.3327867312541617  0.3133418739474861  0.1661389768687996   T   T   T
  0.4993286215472010  0.3131830404442666  0.1660342500080929   T   T   T
  0.0830024494248612  0.1901042527072401  0.1914913926818544   T   T   T
  0.2494752462794731  0.1903630919999457  0.1915141891304737   T   T   T
  0.4159572641290379  0.1903281631335961  0.1914856271431611   T   T   T
  0.0826148900432918  0.4403600446212420  0.1915777608994614   T   T   T
  0.2494641870276282  0.4404185982464723  0.1915412426274769   T   T   T
  0.4163293118439695  0.4404723417358670  0.1915317562338170   T   T   T
  0.0827559782214245  0.1882170623811275  0.0854674340451526   T   T   T
  0.2494057522701523  0.1882581700930948  0.0854567990119752   T   T   T
  0.4161251037273752  0.1882012293943462  0.0854349380662163   T   T   T
  0.0827597234397426  0.4382269590053767  0.0854883957035310   T   T   T
  0.2494147848864371  0.4382925100416512  0.0854600884998597   T   T   T
  0.4161237698646442  0.4382453591359549  0.0854408796894275   T   T   T
  0.1661489350666033  0.0630651190884029  0.1126016332316909   T   T   T
  0.3327512151626885  0.0630668428727839  0.1125812743660639   T   T   T
  0.4994766889430258  0.0630086107598545  0.1125693987190628   T   T   T
  0.1661486570304122  0.3131366912444393  0.1126167997332064   T   T   T
  0.3327783982367808  0.3131147488816762  0.1125899232766084   T   T   T
  0.4994677386755624  0.3131355671945163  0.1125546384633846   T   T   T
  0.4995123195798930  0.5653610603819336  0.0600735008390680   T   T   T
  0.1661435624034948  0.5653618755866405  0.0601139228860320   T   T   T
  0.3328033743635918  0.5653893730005404  0.0600947118018361   T   T   T
  0.4995311184092509  0.8153919699741610  0.0600889151001676   T   T   T
  0.1661297431310195  0.8153134313126069  0.0601011029288556   T   T   T
  0.3327680217212353  0.8153429201399429  0.0600886125987851   T   T   T
  0.0827611779358296  0.6880838038221484  0.1390289604880960   T   T   T
  0.2494068045802736  0.6880950723796253  0.1389996631883454   T   T   T
  0.4160792883816328  0.6881563201047500  0.1389715569370860   T   T   T
  0.0828275810111422  0.9379901648599439  0.1389879093518761   T   T   T
  0.2494229545458558  0.9380325298777989  0.1389839800392456   T   T   T
  0.4160340516419381  0.9379732687140028  0.1389519605744115   T   T   T
  0.1661621946429091  0.5632499770683460  0.1661871561928312   T   T   T
  0.3328103769423276  0.5632578652438429  0.1661543850100902   T   T   T
  0.4994568447226980  0.5634052335822766  0.1660999909075126   T   T   T
  0.1661889215896677  0.8131865217382466  0.1661676558939097   T   T   T
  0.3327884135614413  0.8131976403260353  0.1661445278449389   T   T   T
  0.4994879265333921  0.8132457800023624  0.1661441729360421   T   T   T
  0.0827916617495887  0.6903268674571842  0.1915603045165795   T   T   T
  0.2494618287405943  0.6903406396168603  0.1915441480919214   T   T   T
  0.4161094787389805  0.6903259432150103  0.1914981980292532   T   T   T
  0.0827894226764782  0.9402922121721684  0.1915381442587539   T   T   T
  0.2494589928677525  0.9403048613992149  0.1915217557528806   T   T   T
  0.4160891686369713  0.9403330946390042  0.1914961278497389   T   T   T
  0.0827394868334420  0.6881981186938969  0.0854922172843522   T   T   T
  0.2494132245971708  0.6882316548484058  0.0854571785870682   T   T   T
  0.4161432759636725  0.6882428716109338  0.0854537132968526   T   T   T
  0.0827645894760381  0.9381992516746870  0.0854646655261164   T   T   T
  0.2493746211253008  0.9382192898400059  0.0854460676980866   T   T   T
  0.4160842275642921  0.9382132993151241  0.0854352246686765   T   T   T
  0.1661178179144535  0.5631187663323468  0.1126254041317304   T   T   T
  0.3327841768496856  0.5631267264070964  0.1125948154973420   T   T   T
  0.4994892205399544  0.5631255627730701  0.1125908087905007   T   T   T
  0.1661443294773876  0.8130525233071236  0.1126065940590343   T   T   T
  0.3327249431788216  0.8130749139206123  0.1125839701111383   T   T   T
  0.4994647469855975  0.8132219207326308  0.1125941444691234   T   T   T
  0.9994914479279373  0.0653121221651531  0.0600981095845823   T   T   T
  0.6662248623264423  0.0654205376560745  0.0601480605213857   T   T   T
  0.8327372886334169  0.0654216682085742  0.0601783039117009   T   T   T
  0.9994730334858494  0.3153512058681048  0.0601128878766322   T   T   T
  0.6661767532571174  0.3153209968606524  0.0600990354150834   T   T   T
  0.8328101538987107  0.3152901221563626  0.0601328359208000   T   T   T
  0.5827986308546336  0.1880608099763368  0.1388721566646750   T   T   T
  0.7493748565843995  0.1884664172657063  0.1392275797727235   T   T   T
  0.9160594666773105  0.1881948425635452  0.1389335702687966   T   T   T
  0.5828011848494451  0.4381750037275132  0.1389863850137987   T   T   T
  0.7493555211859221  0.4372774611540143  0.1389043803594665   T   T   T
  0.9160141091133341  0.4381149824401137  0.1390609798060330   T   T   T
  0.6664374777747266  0.0634129524963964  0.1662334604984381   T   T   T
  0.8324976779714049  0.0636511057502676  0.1662871699070997   T   T   T
  0.9996098620814892  0.0629977514395288  0.1660718976245159   T   T   T
  0.6658133014568911  0.3133702694403909  0.1662949052809627   T   T   T
  0.8328283240866565  0.3134221956032046  0.1662932712747457   T   T   T
  0.9995322872977370  0.3132499622372953  0.1661296244972753   T   T   T
  0.5823473530062802  0.1890426469886006  0.1910112212896691   T   T   T
  0.7491062444788200  0.1924951090706404  0.1923274469501261   T   T   T
  0.9163860155203967  0.1895426716248389  0.1911871417241469   T   T   T
  0.5828303634917948  0.4403166717991998  0.1914441203579249   T   T   T
  0.7492075681775652  0.4391924511369245  0.1917797349071468   T   T   T
  0.9159005159799040  0.4403363925597256  0.1916027508015954   T   T   T
  0.5827665136525262  0.1881900964334040  0.0854054337133350   T   T   T
  0.7494182520602657  0.1883489968598313  0.0855854641476617   T   T   T
  0.9161230858626931  0.1882333681166909  0.0854580993139841   T   T   T
  0.5828039318147437  0.4382408272794712  0.0854436008839181   T   T   T
  0.7494181201213864  0.4382070391118703  0.0853380591192940   T   T   T
  0.9160684794604957  0.4382604169532500  0.0854973392768165   T   T   T
  0.6662112381766375  0.0631888691304559  0.1126587051380347   T   T   T
  0.8327017427241437  0.0632455785653121  0.1126890529917482   T   T   T
  0.9994621184077792  0.0630779187243777  0.1126097672568597   T   T   T
  0.6661024105303113  0.3130876948650946  0.1126292316210551   T   T   T
  0.8327649727279760  0.3131087740954894  0.1126374115094457   T   T   T
  0.9994673960171098  0.3131611076642157  0.1126199663575697   T   T   T
  0.9994827215954656  0.5653026543951400  0.0601360573498216   T   T   T
  0.6661717531090633  0.5654004363278535  0.0600726205365775   T   T   T
  0.8327770369173974  0.5653812066000913  0.0601246583258749   T   T   T
  0.9994630163159669  0.8153531905873828  0.0601282180588839   T   T   T
  0.6662110580517111  0.8154246253839155  0.0601202723673384   T   T   T
  0.8327922596034583  0.8153937600100978  0.0601373321519721   T   T   T
  0.5826419148197939  0.6882900218153140  0.1389676498377587   T   T   T
  0.7494181497139254  0.6880406393214920  0.1390313301987390   T   T   T
  0.9162003232549211  0.6882026729228726  0.1390085221037984   T   T   T
  0.5828937534551796  0.9381435671203897  0.1390308390729307   T   T   T
  0.7494421476933678  0.9380796896911627  0.1390258673376356   T   T   T
  0.9159824445667387  0.9382312534418215  0.1390504780751545   T   T   T
  0.6656987386743221  0.5633995399466412  0.1662137180289036   T   T   T
  0.8330777796186933  0.5632242715478609  0.1663186149835808   T   T   T
  0.9994357780891938  0.5633243883859773  0.1661989051551794   T   T   T
  0.6661873033274387  0.8131656911867188  0.1661780322108121   T   T   T
  0.8327900684189711  0.8131844083021684  0.1661953599667432   T   T   T
  0.9994765645806096  0.8132816655947843  0.1661666699728634   T   T   T
  0.5827164236607112  0.6903535991834485  0.1915315862337494   T   T   T
  0.7494355325909651  0.6902704032241611  0.1915690054483327   T   T   T
  0.9161704992721129  0.6904493195379724  0.1915434548957233   T   T   T
  0.5827632558521934  0.9402951464215984  0.1915442677118080   T   T   T
  0.7494320179437155  0.9403373435411474  0.1915458971081304   T   T   T
  0.9160931381214069  0.9404456398617296  0.1915470358033088   T   T   T
  0.5828131995636620  0.6882279440327421  0.0854584480837420   T   T   T
  0.7494571091012295  0.6882503132935641  0.0854842556411660   T   T   T
  0.9161057009384327  0.6882158805193304  0.0855031693083013   T   T   T
  0.5828383301185283  0.9382659605487812  0.0854830210002503   T   T   T
  0.7494562447314255  0.9383212231232944  0.0855014226635190   T   T   T
  0.9160678725462358  0.9382831252901159  0.0855050552470116   T   T   T
  0.6661646407782024  0.5630285800454818  0.1126090521367369   T   T   T
  0.8327386526136304  0.5629543183626087  0.1126567095409117   T   T   T
  0.9994395386437033  0.5630713037563084  0.1126538001226293   T   T   T
  0.6661889925842792  0.8131479721107104  0.1126238831177842   T   T   T
  0.8327756618344746  0.8131031347468227  0.1126387521225605   T   T   T
  0.9994599325142161  0.8131741960010261  0.1126338381044552   T   T   T
  0.0408353906955870  0.1794303211101009  0.0265058488510086   T   T   T
  0.2073289022397358  0.1793951897442359  0.0265013185730056   T   T   T
  0.3740003524881894  0.1793371963215956  0.0265004427172372   T   T   T
  0.0408229346310553  0.4294136591167628  0.0265270967669599   T   T   T
  0.2073099502560172  0.4293258678975587  0.0265171283738072   T   T   T
  0.3738553618153563  0.4292746208058669  0.0265172007728720   T   T   T
  0.1649633750293946  0.0290789710873312  0.0445873219613914   T   T   T
  0.3315076014680048  0.0290893860659548  0.0445711985062557   T   T   T
  0.4982557658967300  0.0290066351957980  0.0445389242955944   T   T   T
  0.1649434066421123  0.2791168858925760  0.0445997554055246   T   T   T
  0.3315330717849016  0.2791189700462090  0.0445881891225300   T   T   T
  0.4983089817444697  0.2791205651460920  0.0445198263991318   T   T   T
  0.4177941592869197  0.4040353000414705  0.2070154730224828   T   T   T
  0.4172887539489016  0.1540549356005037  0.2069910149842954   T   T   T
  0.0840777638493327  0.1539382087467460  0.2070208218482723   T   T   T
  0.2507207518728379  0.1541128075047318  0.2070305535630690   T   T   T
  0.0838486816075315  0.4039609650951344  0.2070684386386870   T   T   T
  0.2507341984601978  0.4040433715515659  0.2070311547997339   T   T   T
  0.0419382523081528  0.0544761839723004  0.2250149698498631   T   T   T
  0.2082405349192793  0.0545690451283320  0.2250855211894481   T   T   T
  0.3748350726185694  0.0547943141913101  0.2250378275105445   T   T   T
  0.0402276057725537  0.3037524019444954  0.2253667033633183   T   T   T
  0.2081902504556426  0.3045858585264891  0.2250620970740385   T   T   T
  0.3745367859155781  0.3050492844000536  0.2251420880210854   T   T   T
  0.0408092809226821  0.6794146105675629  0.0265499638943282   T   T   T
  0.2072589828081776  0.6793279166473041  0.0265194319358564   T   T   T
  0.3739847145365209  0.6793662061022867  0.0265042824245918   T   T   T
  0.0408911594172469  0.9293359407757004  0.0264860829595555   T   T   T
  0.2072746521437540  0.9292447270933725  0.0264937834203245   T   T   T
  0.3739456529153435  0.9292227233709202  0.0264880682362181   T   T   T
  0.1649174480352273  0.5290275527649057  0.0446103166579903   T   T   T
  0.3316133953209249  0.5291142302921598  0.0445805629676947   T   T   T
  0.4983508227071268  0.5291251473797451  0.0445490104380111   T   T   T
  0.1648871493671110  0.7789940716538201  0.0445956182215032   T   T   T
  0.3315118308172036  0.7790585639497029  0.0445761002282352   T   T   T
  0.4983936302108590  0.7791109576211248  0.0445753343603334   T   T   T
  0.4173426302884723  0.9040627037381921  0.2070019845576795   T   T   T
  0.4174248276489559  0.6539713321221089  0.2069912972236979   T   T   T
  0.0838693813641330  0.6540493921777865  0.2070717413305023   T   T   T
  0.2506837378097592  0.6540293887003140  0.2070485857819277   T   T   T
  0.0839436098736940  0.9040391715373179  0.2070540087033166   T   T   T
  0.2506968225017585  0.9040206827385852  0.2070317224755003   T   T   T
  0.0427519830485347  0.5540320212168448  0.2249036551374168   T   T   T
  0.2083696924901349  0.5542073366185415  0.2251262213790516   T   T   T
  0.3752062540530107  0.5543149924058477  0.2250786987179490   T   T   T
  0.0419395979804091  0.8044350646083320  0.2250630534658689   T   T   T
  0.2082059781163336  0.8044435719867183  0.2251490604089480   T   T   T
  0.3753005437516963  0.8042117877168813  0.2250467625973416   T   T   T
  0.5408777934596543  0.1793017451907895  0.0264781887427568   T   T   T
  0.7073225709383800  0.1794731237563108  0.0266366282202906   T   T   T
  0.8739613898379197  0.1793721623713003  0.0265603574211548   T   T   T
  0.5407182772133510  0.4293101143041815  0.0265221263223633   T   T   T
  0.7074699973122894  0.4291970261428003  0.0264363843984606   T   T   T
  0.8738087506664037  0.4292479355722154  0.0266147644155127   T   T   T
  0.6651888721768723  0.0290523872651840  0.0446535285825693   T   T   T
  0.8313841892294003  0.0290439593096188  0.0446890611357168   T   T   T
  0.9982655415272913  0.0290148018103725  0.0445853869068823   T   T   T
  0.6648991655891061  0.2789374786050188  0.0446088275695331   T   T   T
  0.8316913560481272  0.2789351236641638  0.0446384856960642   T   T   T
  0.9982361540798222  0.2790735148807907  0.0445995167981439   T   T   T
  0.9169626641043217  0.4037005749824640  0.2070285065372909   T   T   T
  0.9176057924549078  0.1535305137893561  0.2067566207268431   T   T   T
  0.5833115715314299  0.1533609512062178  0.2066547207808682   T   T   T
  0.7504444239884579  0.1557293899055921  0.2077329543230818   T   T   T
  0.5838256382384621  0.4036511047730494  0.2068627980741128   T   T   T
  0.7699745993933553  0.4645489937432835  0.2620449729299862   T   T   T
  0.5414168563353091  0.0556707043004132  0.2248425292387891   T   T   T
  0.7082956114710203  0.0553752084261241  0.2249369956088377   T   T   T
  0.8744846905632410  0.0554862527025229  0.2250959939898574   T   T   T
  0.5489543425960226  0.3012700620048664  0.2229347579835888   T   T   T
  0.6843176338117837  0.2829666823361224  0.2310966039583086   T   T   T
  0.8913446980458086  0.2962839240743472  0.2236062719068020   T   T   T
  0.7496910744684053  0.2701327447129976  0.2665634565069340   T   T   T
  0.7357047363231947  0.2272871058648544  0.3007842438295303   T   T   T
  0.7595696377949794  0.3118580478358584  0.3085900827013774   T   T   T
  0.6441520710514725  0.1360043610551163  0.2962361910410787   T   T   T
  0.7182090262881741  0.1074253021169835  0.2876151366768129   T   T   T
  0.8179213465455515  0.3862527830552340  0.3348067747302385   T   T   T
  0.7511114791815411  0.4322090461838575  0.3267867550195856   T   T   T
  0.7525195716619497  0.4389297500732294  0.2707950459475362   T   T   T
  0.7841872518459088  0.2677454011741355  0.2411459018738639   T   T   T
  0.5407111144915595  0.6794459020075388  0.0265189283796374   T   T   T
  0.7074432961428699  0.6794926726963906  0.0265348411830851   T   T   T
  0.8742233237681534  0.6794586134736222  0.0265519501725236   T   T   T
  0.5409542911544265  0.9294157232594803  0.0264887204610524   T   T   T
  0.7073869145289730  0.9293720621959299  0.0265386208169888   T   T   T
  0.8740247282266415  0.9293379559715175  0.0265618680393134   T   T   T
  0.6651010250707164  0.5291572984452726  0.0445471412334656   T   T   T
  0.8316006373181345  0.5291146976941645  0.0446091811363129   T   T   T
  0.9982372941016102  0.5289983761940291  0.0446239402516321   T   T   T
  0.6650458855165153  0.7791345934514109  0.0446066795830891   T   T   T
  0.8315153395829951  0.7791012733325863  0.0446290875839911   T   T   T
  0.9981653611349480  0.7790343643040372  0.0446264603147009   T   T   T
  0.9172765797342955  0.9042282396525831  0.2070671790958780   T   T   T
  0.9170726447913051  0.6539638346475712  0.2070035121615877   T   T   T
  0.5843105540735024  0.6536823110189889  0.2069545882300143   T   T   T
  0.7503777925889782  0.6534624748431251  0.2069701790569610   T   T   T
  0.5839228970702218  0.9040752098394693  0.2070663729911997   T   T   T
  0.7506631644428028  0.9040374006357776  0.2070498777205710   T   T   T
  0.5437122699100625  0.5539110550635515  0.2245593553060480   T   T   T
  0.7081304216085738  0.5499338625325130  0.2252712250499536   T   T   T
  0.8783056597123760  0.5546872927033230  0.2240086852332109   T   T   T
  0.5415245989639211  0.8043618517477650  0.2250624845255478   T   T   T
  0.7082134847926760  0.8043913127146920  0.2250793957059031   T   T   T
  0.8755602974571493  0.8042104460433454  0.2249887838224358   T   T   T
  0.0874095689651127  0.1693598184821730  0.0337109660247394   T   T   T
  0.2539296373431753  0.1693909254561062  0.0336985844287889   T   T   T
  0.4206039056235679  0.1692328289879410  0.0336795791591285   T   T   T
  0.0874189275952595  0.4193681783601388  0.0337209336234280   T   T   T
  0.2539434918762408  0.4193873858537522  0.0337019730828547   T   T   T
  0.4205205869026424  0.4193180059338304  0.0336774339248629   T   T   T
  0.1616198800213540  0.0441612039492205  0.2179514644089470   T   T   T
  0.3281977180620407  0.0441015803348139  0.2179513248145269   T   T   T
  0.4947468340571032  0.0440519866105938  0.2179121515976206   T   T   T
  0.1615482547297704  0.2940488694378439  0.2179608570934873   T   T   T
  0.3281498015378149  0.2941464389462465  0.2179475465487515   T   T   T
  0.4986953539125757  0.2933566947833969  0.2178153542099013   T   T   T
  0.0874144622511170  0.6693690976782820  0.0337375889070493   T   T   T
  0.2538949256755099  0.6693698862612746  0.0337001280546363   T   T   T
  0.4205822934671736  0.6693763014339958  0.0337017381967828   T   T   T
  0.0874457375369352  0.9193214687776977  0.0337097471249636   T   T   T
  0.2538970177716255  0.9193152904851372  0.0336868059040864   T   T   T
  0.4205525271674940  0.9192739051271805  0.0336846115351425   T   T   T
  0.1616685101233114  0.5441700840595015  0.2179994592816694   T   T   T
  0.3284734147091170  0.5442309396581164  0.2179758415533499   T   T   T
  0.4961012099276672  0.5445312439345779  0.2179066315685051   T   T   T
  0.1616119553692252  0.7942620843983159  0.2179728780859620   T   T   T
  0.3285199228994146  0.7942391265544076  0.2179534692260214   T   T   T
  0.4948202800605538  0.7942802228251521  0.2179386577193330   T   T   T
  0.5874854275942831  0.1691195561318201  0.0336437442341415   T   T   T
  0.7539849945402454  0.1693695826050001  0.0337820223699538   T   T   T
  0.9206166258156535  0.1690794933588694  0.0336839612513860   T   T   T
  0.5873836295765658  0.4192422623679983  0.0336649462594488   T   T   T
  0.7541427441048417  0.4187904189278083  0.0335314377070412   T   T   T
  0.9205407935874665  0.4192466745249392  0.0337304695822451   T   T   T
  0.6615443010339482  0.0437814822331845  0.2180603534690631   T   T   T
  0.8279582199573403  0.0437511344292459  0.2180974148856710   T   T   T
  0.9952109720515040  0.0442565900142514  0.2179266277784975   T   T   T
  0.6512003051206557  0.2955234059180151  0.2179315768361426   T   T   T
  0.8407886748887619  0.2919371774077036  0.2187338917717210   T   T   T
  0.9942787953209424  0.2926802119012107  0.2179139871035580   T   T   T
  0.7630782561460252  0.2732797467023162  0.2961197836892747   T   T   T
  0.6947304175227497  0.1325476716221272  0.3006070065476507   T   T   T
  0.7670672027611730  0.3810092277443943  0.3309750382199145   T   T   T
  0.7419654520392529  0.2518403823197182  0.2505264211249856   T   T   T
  0.5873462990032349  0.6694477086728500  0.0336893772916782   T   T   T
  0.7540561801189770  0.6694439831716456  0.0337142749020123   T   T   T
  0.9208008591238392  0.6693076435035713  0.0337408240734748   T   T   T
  0.5875034924230859  0.9194272947113877  0.0337151075909999   T   T   T
  0.7540149967264190  0.9194174461346537  0.0337249231468171   T   T   T
  0.9206432993862256  0.9193270227025276  0.0337442354041954   T   T   T
  0.6615100705868371  0.5461831833123181  0.2175542705438133   T   T   T
  0.8300622974287770  0.5455978212949160  0.2179147097434714   T   T   T
  0.9956029590466036  0.5444597439118758  0.2180192588554991   T   T   T
  0.6615091022249922  0.7942977600810240  0.2179651508995206   T   T   T
  0.8286236316177550  0.7942697510705828  0.2180053438507321   T   T   T
  0.9951959248407463  0.7943633476503644  0.2179693877348749   T   T   T
  0.2495158639202401  0.1240359833673788  0.0593406822470575   T   T   T
  0.4162269316363043  0.1239549413384326  0.0593328690827919   T   T   T
  0.0828365332843618  0.3740282921820043  0.0593731394490563   T   T   T
  0.2495426837915627  0.3740594928632076  0.0593516372067114   T   T   T
  0.4162618060818811  0.3740072115536434  0.0593355768470663   T   T   T
  0.0828353276062727  0.1240234897558966  0.0593563245019110   T   T   T
  0.4993979746946061  0.0004165811155016  0.1392183855991835   T   T   T
  0.1661162169346252  0.0005270213925159  0.1392546235815067   T   T   T
  0.3327565178681421  0.0005387840297835  0.1392423553654785   T   T   T
  0.4995713923387035  0.2506726225255995  0.1392353897072441   T   T   T
  0.1660804629717379  0.2506568938496858  0.1392775497639206   T   T   T
  0.3328190271128654  0.2506446641832794  0.1392596730699228   T   T   T
  0.0828512101368527  0.1252328249694342  0.1655726186310323   T   T   T
  0.2495034595231569  0.1253800638474977  0.1656053172862772   T   T   T
  0.4161862012027965  0.1253793890068801  0.1655691273237133   T   T   T
  0.0826437492120922  0.3754114691334485  0.1656628646950208   T   T   T
  0.2494789424636130  0.3754244956659007  0.1656265771691983   T   T   T
  0.4163692551917001  0.3754190958074803  0.1656132195472656   T   T   T
  0.1658958438119104  0.4988988801041475  0.1923114530917563   T   T   T
  0.3329039525586607  0.4989509735588225  0.1922902569402188   T   T   T
  0.5001825136208464  0.4988839738075918  0.1922163620921341   T   T   T
  0.1660720417326880  0.2489975712124441  0.1922679491167248   T   T   T
  0.4996154559069287  0.2485246462214485  0.1920761006858241   T   T   T
  0.3327645016693573  0.2490527714045646  0.1922478811450921   T   T   T
  0.4995062648787036  0.0003427640010055  0.0859788638219403   T   T   T
  0.1660814694033135  0.0003738663070459  0.0859950165587509   T   T   T
  0.3327588568080860  0.0003456961152325  0.0859843562640450   T   T   T
  0.4995361373142346  0.2504203847725351  0.0859823984402894   T   T   T
  0.1660850297239122  0.2504168583548698  0.0860157287187512   T   T   T
  0.3328149427506231  0.2503916944908057  0.0859999776366084   T   T   T
  0.0827709997050656  0.1255808606440563  0.1123629968416341   T   T   T
  0.2494558412017825  0.1255910504535650  0.1123467290826489   T   T   T
  0.4161821270801132  0.1255471330050311  0.1123354275224782   T   T   T
  0.0827203271643139  0.3756300777584278  0.1124045965726040   T   T   T
  0.2494715790748275  0.3755988955295548  0.1123597945491117   T   T   T
  0.4162365601891002  0.3756117118218794  0.1123597326126163   T   T   T
  0.2495231382001425  0.6240009268934622  0.0593436260056463   T   T   T
  0.4162567020968073  0.6239926732478590  0.0593437609623228   T   T   T
  0.0828425002263146  0.8739723328151802  0.0593538108831189   T   T   T
  0.2495048469474457  0.8739730854859030  0.0593304199841011   T   T   T
  0.4162096627078333  0.8739584852164647  0.0593305451247072   T   T   T
  0.0828153644591321  0.6239656760360445  0.0593797104750980   T   T   T
  0.4997432683058227  0.5005882799353744  0.1392881744034728   T   T   T
  0.1660108021318855  0.5005896276209686  0.1392960069654980   T   T   T
  0.3328327236154519  0.5005786350781953  0.1392658155317556   T   T   T
  0.4995433665599016  0.7505539966586057  0.1392441292436224   T   T   T
  0.1660347718987490  0.7505170111270851  0.1392719311222508   T   T   T
  0.3327752731507356  0.7505149905885864  0.1392482812066173   T   T   T
  0.0825844338016013  0.6252356729060401  0.1656607377675988   T   T   T
  0.2494723427082567  0.6252976955599496  0.1656274368809614   T   T   T
  0.4163323536711727  0.6252761291645461  0.1655960722276082   T   T   T
  0.0827663405017465  0.8752958487430684  0.1656307586676013   T   T   T
  0.2494734875844639  0.8753101766085986  0.1656127610143765   T   T   T
  0.4161712998253237  0.8753043215391587  0.1655965923763354   T   T   T
  0.1660412090875906  0.9989284383504612  0.1922839748242000   T   T   T
  0.3327217653004472  0.9990034699334236  0.1922635048142831   T   T   T
  0.4993835209785359  0.9989773477669901  0.1922077818815506   T   T   T
  0.1660246600895345  0.7489162132179531  0.1923123987054768   T   T   T
  0.4995097986118473  0.7488225307851910  0.1922746046077246   T   T   T
  0.3327693380685312  0.7489328970595367  0.1922823623599466   T   T   T
  0.4995844231254256  0.5003758840740969  0.0860064265818505   T   T   T
  0.1660698707679834  0.5003920498088125  0.0860227787250692   T   T   T
  0.3328251680526155  0.5003802515656998  0.0860001112601866   T   T   T
  0.4995800741940316  0.7503543962826831  0.0860080285894559   T   T   T
  0.1660818335985780  0.7503240778635781  0.0860096336642136   T   T   T
  0.3327983199200932  0.7503241086151856  0.0859928399219132   T   T   T
  0.0826571515553154  0.6254965793898283  0.1124006638452279   T   T   T
  0.2494466908970334  0.6255373931773502  0.1123560532911153   T   T   T
  0.4162575374771313  0.6255339245689877  0.1123542447852214   T   T   T
  0.0827772174650959  0.8755112762620246  0.1123558907208946   T   T   T
  0.2494336054870229  0.8755265857957505  0.1123360583127072   T   T   T
  0.4161196947651156  0.8755281213677586  0.1123257071599130   T   T   T
  0.7495400752392145  0.1241904677173749  0.0594707246806979   T   T   T
  0.9161731952481963  0.1240024007381475  0.0593766188944543   T   T   T
  0.5829654142778138  0.3740382785870985  0.0593576498372819   T   T   T
  0.7495710967393905  0.3740535582910440  0.0593197267484584   T   T   T
  0.9161252760345883  0.3740293493208588  0.0594158820627140   T   T   T
  0.5829221575489990  0.1240048115914806  0.0593332026029975   T   T   T
  0.9994530188287380  0.0004509078235244  0.1392497004431619   T   T   T
  0.6663170916179425  0.0007856255700186  0.1393364554804578   T   T   T
  0.8324986952373499  0.0008620391074349  0.1393664241195223   T   T   T
  0.9993259226453095  0.2506866818453224  0.1392757942240930   T   T   T
  0.6660756149363274  0.2512996000137949  0.1395209424254264   T   T   T
  0.8325882017870266  0.2513113859750612  0.1394937450741717   T   T   T
  0.5827307554241088  0.1250586653216567  0.1654172090249889   T   T   T
  0.7492958100343184  0.1268064531157830  0.1661093821610576   T   T   T
  0.9161586576053128  0.1252067706115950  0.1654692149535779   T   T   T
  0.5830641082198754  0.3755582437764177  0.1657009078386469   T   T   T
  0.7492095674189262  0.3773409257643708  0.1669543819013308   T   T   T
  0.9156366893628431  0.3756110900104694  0.1657948975454941   T   T   T
  0.6688938082583933  0.4959870949766966  0.1924161247665577   T   T   T
  0.8294475762633916  0.4959558978600547  0.1926437240707760   T   T   T
  0.9986511591252241  0.4988207191710917  0.1923179190727541   T   T   T
  0.6643408391367899  0.2507206694118187  0.1927320137315162   T   T   T
  0.9994050399019799  0.2483176301604171  0.1920206179399349   T   T   T
  0.8336369235253999  0.2500230346459023  0.1924713000429936   T   T   T
  0.9994189446221555  0.0003739521817451  0.0860155113023064   T   T   T
  0.6661974043816499  0.0005081487865981  0.0860650712545421   T   T   T
  0.8327255218017333  0.0005184236029259  0.0860928163722055   T   T   T
  0.9993941427785668  0.2504322128089152  0.0860387681982577   T   T   T
  0.6661139432655435  0.2505854840214518  0.0860875736888315   T   T   T
  0.8327514532263883  0.2505499350259581  0.0861043499723151   T   T   T
  0.5828654714887197  0.1257035271033862  0.1123356735506192   T   T   T
  0.7494337590490161  0.1259557917485407  0.1125723809444520   T   T   T
  0.9160683703304092  0.1257351802265530  0.1123788156810054   T   T   T