C H O Si                                
   1.00000000000000     
    18.5749199999999988    0.0000000000000000    0.0000000000000000
     0.0000000000000000   17.5126199999999983    0.0000000000000000
     0.0000000000000000    0.0000000000000000   58.0000000000000000
   C    H    O    Si
   144   105    52   144
Selective dynamics
Direct
  0.4994951711951910  0.0654267539375403  0.0600978479461486   T   T   T
  0.1661818659412715  0.0654411139466540  0.0601208485945116   T   T   T
  0.3328162208280950  0.0654214972203763  0.0601115283496900   T   T   T
  0.4995385546847726  0.3154825408071477  0.0600757079611033   T   T   T
  0.1661711397894482  0.3154444520411790  0.0601381520927942   T   T   T
  0.3328343108711959  0.3154363189536527  0.0601302346594074   T   T   T
  0.0828318182931816  0.1881291208311549  0.1390096340649978   T   T   T
  0.2494927893047142  0.1881584081222827  0.1390185130599315   T   T   T
  0.4160976230983865  0.1880538901269622  0.1389778014786821   T   T   T
  0.0827854034607822  0.4381769894308982  0.1390284228854933   T   T   T
  0.2494904282561219  0.4381849324678921  0.1390263821988777   T   T   T
  0.4161584267690191  0.4382499805243742  0.1389851345970128   T   T   T
  0.1661794324156004  0.0631299817789553  0.1661464218055027   T   T   T
  0.3327191139741006  0.0631018433340474  0.1661417093903239   T   T   T
  0.4992515998521251  0.0628121119950199  0.1660141497409677   T   T   T
  0.1661098307050251  0.3132421269365510  0.1661731652787263   T   T   T
  0.3327428034527615  0.3132755140736000  0.1661520309187712   T   T   T
  0.4992200115693291  0.3131814002266559  0.1659986689091871   T   T   T
  0.0829763827289806  0.1900934958866207  0.1915279851304626   T   T   T
  0.2494564124515339  0.1902616178615543  0.1915478923952615   T   T   T
  0.4159314568247314  0.1901835266603275  0.1915095126956217   T   T   T
  0.0826566053447920  0.4402520453173800  0.1915627691932419   T   T   T
  0.2494801363117436  0.4402830293277109  0.1915498869467175   T   T   T
  0.4163427566580825  0.4403477146453869  0.1915195579514977   T   T   T
  0.0827260265665141  0.1883165684176526  0.0854757375633449   T   T   T
  0.2493976784143009  0.1883345969564963  0.0854848717291990   T   T   T
  0.4160850673012539  0.1883227221295087  0.0854533350392495   T   T   T
  0.0827425189925338  0.4383280517405870  0.0855089312913199   T   T   T
  0.2494460260224002  0.4383455370165740  0.0854958423705654   T   T   T
  0.4161308138119444  0.4383790569633304  0.0854552174091294   T   T   T
  0.1660149582132872  0.0631316461032035  0.1126260173698048   T   T   T
  0.3326230408901553  0.0631006191684430  0.1126099284717096   T   T   T
  0.4993073480287888  0.0631278859044939  0.1125807517922830   T   T   T
  0.1659711784593774  0.3131606478709871  0.1126512093613806   T   T   T
  0.3326821608298012  0.3131728072760065  0.1126340403838015   T   T   T
  0.4993158286044648  0.3131561714944208  0.1125579616414390   T   T   T
  0.4996054326906168  0.5655568809845822  0.0600823988093958   T   T   T
  0.1661779459975026  0.5654241155032231  0.0601452853501729   T   T   T
  0.3329062634746321  0.5655072700439010  0.0601209553860380   T   T   T
  0.4995316815521126  0.8155195204699415  0.0601106287350005   T   T   T
  0.1661245039666030  0.8153716453594075  0.0601414536317283   T   T   T
  0.3328020314022573  0.8154036977430503  0.0601168152839356   T   T   T
  0.0828377724174413  0.6881303755886142  0.1390464243421808   T   T   T
  0.2494970400648057  0.6881093432221367  0.1390420213543689   T   T   T
  0.4161345456605265  0.6882149762659038  0.1390052981501384   T   T   T
  0.0828727569943585  0.9380943968143155  0.1390101815266838   T   T   T
  0.2494797379693533  0.9380635767894351  0.1390084638693945   T   T   T
  0.4160706901888461  0.9380034643078464  0.1389712382033794   T   T   T
  0.1660466170089629  0.5631990770390658  0.1661986513657184   T   T   T
  0.3327670508374843  0.5632150948050511  0.1661639207425703   T   T   T
  0.4993361684722912  0.5634137767496471  0.1660929349089712   T   T   T
  0.1661309212861657  0.8131574555918315  0.1661753260316401   T   T   T
  0.3327671119300371  0.8131743082498578  0.1661576303534129   T   T   T
  0.4994687369524112  0.8132192783365315  0.1661544666544313   T   T   T
  0.0827959898367428  0.6902341710960191  0.1915596488867379   T   T   T
  0.2494604667935335  0.6902174348712727  0.1915674306666248   T   T   T
  0.4161431828319366  0.6902466868367649  0.1915374006831374   T   T   T
  0.0828258446414952  0.9402635590248736  0.1915339266329318   T   T   T
  0.2494796761768277  0.9402062377204801  0.1915556037346052   T   T   T
  0.4161232900791491  0.9402413696914211  0.1915420208353627   T   T   T
  0.0827186298364188  0.6883147079700307  0.0855119613508044   T   T   T
  0.2493773851334003  0.6882846575436748  0.0854882270733315   T   T   T
  0.4160898076990854  0.6883997105081877  0.0854690432764324   T   T   T
  0.0827712436439467  0.9383155601516571  0.0854869236491477   T   T   T
  0.2493960196825808  0.9382741406166519  0.0854768869618505   T   T   T
  0.4160468748337827  0.9383042985397472  0.0854524005560472   T   T   T
  0.1659674770437956  0.5631690373356292  0.1126597415661089   T   T   T
  0.3326634736235578  0.5632266049844041  0.1126289577293972   T   T   T
  0.4993066248305706  0.5632273587249721  0.1125936407593793   T   T   T
  0.1660109702210483  0.8131010654973523  0.1126433339987495   T   T   T
  0.3325937448057706  0.8130964267066271  0.1126180125598027   T   T   T
  0.4993092222591895  0.8132697442917209  0.1126170432343819   T   T   T
  0.9995037302843813  0.0654329518865594  0.0601174959983195   T   T   T
  0.6661694647317660  0.0653880173140020  0.0601645167444256   T   T   T
  0.8328288421765329  0.0653672526031518  0.0601813521857073   T   T   T
  0.9995096864197812  0.3154442045687924  0.0601255440042509   T   T   T
  0.6662033317901762  0.3153644809828202  0.0601059585288426   T   T   T
  0.8328558563054629  0.3152767199979156  0.0601422709100249   T   T   T
  0.5828212334462124  0.1881281979797758  0.1388846004989259   T   T   T
  0.7493670476961390  0.1885578491249132  0.1392636626381636   T   T   T
  0.9160708945771124  0.1882153855845961  0.1389655447020365   T   T   T
  0.5827703631498271  0.4382058386721342  0.1389572167641867   T   T   T
  0.7493785847704347  0.4373031851604836  0.1389614482051678   T   T   T
  0.9160736437599806  0.4381380742282370  0.1390737278202565   T   T   T
  0.6663857388784433  0.0634214279870685  0.1662664398661123   T   T   T
  0.8324404085442433  0.0637708629019673  0.1663375778007782   T   T   T
  0.9995402723033706  0.0630820635583694  0.1660923300273508   T   T   T
  0.6657003425271745  0.3135329995163190  0.1663504964751852   T   T   T
  0.8328185707277513  0.3134855150500503  0.1663218403275678   T   T   T
  0.9995181448018948  0.3132346638180167  0.1661551455801471   T   T   T
  0.5823400901198289  0.1892956032889860  0.1909528257139348   T   T   T
  0.7489032591887856  0.1926025773753635  0.1923004582298612   T   T   T
  0.9162956168176525  0.1898360218072710  0.1912212812192960   T   T   T
  0.5828404321396191  0.4404802281744628  0.1914033828101983   T   T   T
  0.7492699701831780  0.4389326047683880  0.1918568128066448   T   T   T
  0.9159221144690278  0.4403013702414368  0.1916290931769535   T   T   T
  0.5827691070173349  0.1883115117286633  0.0854113705271103   T   T   T
  0.7494332816555318  0.1883247587986808  0.0855977119909861   T   T   T
  0.9160755292410219  0.1883039850056882  0.0854702629135184   T   T   T
  0.5828399735816293  0.4383704903466566  0.0854269171071535   T   T   T
  0.7494632904148524  0.4382420447319123  0.0853798662305183   T   T   T
  0.9160394145705832  0.4383313521668249  0.0855158409092364   T   T   T
  0.6660573394892020  0.0633001000568822  0.1126902768592523   T   T   T
  0.8326028545818518  0.0633181209265556  0.1127161527294384   T   T   T
  0.9993207528333821  0.0631820845507087  0.1126148452594465   T   T   T
  0.6659558197022961  0.3131086474197518  0.1126626512400345   T   T   T
  0.8326041315090823  0.3131022721490306  0.1126788342457308   T   T   T
  0.9992791398430574  0.3131549120611615  0.1126371919905574   T   T   T
  0.9995022947406194  0.5654350885049063  0.0601436410176661   T   T   T
  0.6662831976333426  0.5655837361573410  0.0600657302971488   T   T   T
  0.8329131277839587  0.5655096573417936  0.0601131068290261   T   T   T
  0.9994937503006587  0.8154128987667493  0.0601514961848974   T   T   T
  0.6662002423168325  0.8154927294516701  0.0601473435710279   T   T   T
  0.8328373600245966  0.8154257279065902  0.0601661408895234   T   T   T
  0.5827142399209848  0.6882844191496728  0.1389786165149171   T   T   T
  0.7494965007557640  0.6880344572688961  0.1390618714024426   T   T   T
  0.9162690483631777  0.6882375385599735  0.1390346739397894   T   T   T
  0.5829539709313122  0.9382432814919615  0.1390364575029129   T   T   T
  0.7495407017986727  0.9381765817429403  0.1390516497076853   T   T   T
  0.9160761559363433  0.9382868717738052  0.1390731863757922   T   T   T
  0.6656056559937819  0.5632849886319989  0.1662335132082420   T   T   T
  0.8330003722835381  0.5631807787877802  0.1663823566594707   T   T   T
  0.9993584014411202  0.5632378568247396  0.1661994035248844   T   T   T
  0.6661454521046818  0.8131664814410011  0.1661818876454483   T   T   T
  0.8327656986793036  0.8131460860503444  0.1661983452466751   T   T   T
  0.9994489855659150  0.8132145638824411  0.1661892028864761   T   T   T
  0.5827251377819767  0.6903034511737538  0.1915165631463930   T   T   T
  0.7494282807754140  0.6901135761428522  0.1915925085258816   T   T   T
  0.9161616855240491  0.6902826682988282  0.1915442431577758   T   T   T
  0.5828043166826496  0.9402671430836284  0.1915524531520764   T   T   T
  0.7494640247977150  0.9402525265105587  0.1915712430965515   T   T   T
  0.9161051063114184  0.9403770175173222  0.1915421833252321   T   T   T
  0.5827712724628351  0.6883780351921353  0.0854562180542311   T   T   T
  0.7494319777105316  0.6883367497944514  0.0854894033431512   T   T   T
  0.9160788364837716  0.6883241285664909  0.0855144631989927   T   T   T
  0.5827852812732279  0.9383720926222328  0.0855111251709325   T   T   T
  0.7494413218272937  0.9383614926344384  0.0855283572052985   T   T   T
  0.9160844750438637  0.9383625144351176  0.0855244335899671   T   T   T
  0.6660034401514904  0.5630802682041710  0.1126127744865800   T   T   T
  0.8326213974158438  0.5630273256582069  0.1126978572944368   T   T   T
  0.9992852915502690  0.5631621960796361  0.1126661074925555   T   T   T
  0.6660328703972916  0.8131721068566953  0.1126585298301463   T   T   T
  0.8326847049304967  0.8131524905700180  0.1126729383583538   T   T   T
  0.9993612332314274  0.8132544298290285  0.1126615261216726   T   T   T
  0.0407914716779199  0.1792596155407721  0.0264938284230105   T   T   T
  0.2073776504830512  0.1792238672741979  0.0265074578175871   T   T   T
  0.3739798709380573  0.1791883231463841  0.0265006236214266   T   T   T
  0.0408182199233353  0.4292353283455357  0.0265030699420675   T   T   T
  0.2073857233260332  0.4291429002888781  0.0265022404926000   T   T   T
  0.3738707585185602  0.4291091323756920  0.0265054472066375   T   T   T
  0.1650232316861463  0.0291430816641930  0.0446158140065308   T   T   T
  0.3316116321181473  0.0291348044248471  0.0446059077030449   T   T   T
  0.4982826010108481  0.0291281052496622  0.0445965373164607   T   T   T
  0.1650033723819208  0.2791225141037488  0.0446369961708307   T   T   T
  0.3316308788202939  0.2791078413801524  0.0446307462554958   T   T   T
  0.4983280108953724  0.2791778447321264  0.0445675865466268   T   T   T
  0.4178206130734216  0.4039827400931210  0.2070181634444316   T   T   T
  0.4173412459952348  0.1538828174329052  0.2070134161465099   T   T   T
  0.0841463430488388  0.1537773804518421  0.2070259126137128   T   T   T
  0.2507453569771134  0.1539604044058759  0.2070531156376479   T   T   T
  0.0838979621168761  0.4038350497350511  0.2070493298351277   T   T   T
  0.2507531524621837  0.4039259065710875  0.2070437006402182   T   T   T
  0.0419222305702760  0.0543302527569524  0.2249756084877131   T   T   T
  0.2082687880838593  0.0544436793343437  0.2250559266021444   T   T   T
  0.3748595214655187  0.0546309093843668  0.2250260141986464   T   T   T
  0.0405102310054030  0.3038087502027009  0.2253693237947231   T   T   T
  0.2081956979352800  0.3045041121137375  0.2250658374555660   T   T   T
  0.3746946947376816  0.3049089954165039  0.2250908078967216   T   T   T
  0.0408085731566931  0.6792689197161824  0.0265379636006467   T   T   T
  0.2073281078033754  0.6791881298487072  0.0265119034037645   T   T   T
  0.3739801109781166  0.6792195927898667  0.0265039764724090   T   T   T
  0.0409256911195894  0.9291523295264116  0.0264686113146305   T   T   T
  0.2073633365349153  0.9290877020918737  0.0264717962648009   T   T   T
  0.3739142197687070  0.9290669364537099  0.0264732600723164   T   T   T
  0.1649665100991852  0.5291361186955994  0.0446345699923225   T   T   T
  0.3317169748270546  0.5291959466084989  0.0446201454608111   T   T   T
  0.4983940391466695  0.5292455133292308  0.0445826810865828   T   T   T
  0.1649297812625783  0.7790252078929032  0.0446454933910367   T   T   T
  0.3316320885787503  0.7790416145771665  0.0446270202016500   T   T   T
  0.4984805854230561  0.7791657450787793  0.0446142346500782   T   T   T
  0.4173960135140032  0.9038996141927795  0.2070377460362957   T   T   T
  0.4174790410081051  0.6538106662301739  0.2070182982662835   T   T   T
  0.0839599545723883  0.6539090539254703  0.2070619417488982   T   T   T
  0.2507292360724577  0.6538784711323735  0.2070674154634862   T   T   T
  0.0840235858285765  0.9039918879901410  0.2070485398396551   T   T   T
  0.2507390454857649  0.9039071230059517  0.2070619960028934   T   T   T
  0.0428345053944233  0.5538765881217094  0.2248909070980600   T   T   T
  0.2083758284187316  0.5539544147523966  0.2250935727476853   T   T   T
  0.3752270737464560  0.5541033879900412  0.2250422780953592   T   T   T
  0.0419515379202653  0.8042534555651416  0.2250219500633098   T   T   T
  0.2082129495401014  0.8042649536966512  0.2251134165392188   T   T   T
  0.3753876069498477  0.8040046935535532  0.2250123779728089   T   T   T
  0.5407887609987840  0.1791426905163680  0.0264687480263507   T   T   T
  0.7074051938544942  0.1792389749955487  0.0266637331891058   T   T   T
  0.8739465830088430  0.1792168823663421  0.0265392649749074   T   T   T
  0.5406431675428773  0.4291864252960362  0.0264859828316307   T   T   T
  0.7075601421241434  0.4289898377167830  0.0263963878324177   T   T   T
  0.8738330090583267  0.4290676809972943  0.0265895668592827   T   T   T
  0.6652506025066187  0.0290193168401751  0.0446680814073194   T   T   T
  0.8315455727540340  0.0290146808159128  0.0446851076611605   T   T   T
  0.9983557417345883  0.0291070333294425  0.0446138915025141   T   T   T
  0.6649171271129128  0.2788953168153320  0.0446327187083738   T   T   T
  0.8319061530200985  0.2788572395522566  0.0446590465001620   T   T   T
  0.9983195965046210  0.2791566644880396  0.0446174820407352   T   T   T
  0.9169106959318267  0.4036318148648066  0.2070467318214630   T   T   T
  0.9176409966140091  0.1535120454922575  0.2067224422852083   T   T   T
  0.5832534124457811  0.1535138445566251  0.2065714542561821   T   T   T
  0.7503987599777066  0.1558847890226999  0.2077118069852883   T   T   T
  0.5839913726861145  0.4038307444293532  0.2068211096854044   T   T   T
  0.7700702450135242  0.4643106938578889  0.2618313203601293   T   T   T
  0.5415037118808996  0.0555604099709085  0.2248285834289803   T   T   T
  0.7083790379438657  0.0553199294230195  0.2249370352374284   T   T   T
  0.8746145207834354  0.0553534567943807  0.2250631004343111   T   T   T
  0.5488526878717236  0.3014550911409261  0.2228600107938495   T   T   T
  0.6844629475421136  0.2829371298196883  0.2311982142934008   T   T   T
  0.8906149067087321  0.2961610357469648  0.2235441090454239   T   T   T
  0.7494595052279531  0.2702790600668207  0.2664646628838334   T   T   T
  0.7352259322574241  0.2278183826141835  0.3006716472527368   T   T   T
  0.7591925726436036  0.3121424050873468  0.3084934602359816   T   T   T
  0.6443014276144869  0.1359900982082425  0.2960264107073688   T   T   T
  0.7183997427455960  0.1079779458830696  0.2873161363386484   T   T   T
  0.8182453495408644  0.3861611252784538  0.3347445861912768   T   T   T
  0.7514601759532258  0.4324122108574129  0.3268899337659636   T   T   T
  0.7523119480790433  0.4384351061105931  0.2704491901592490   T   T   T
  0.7842685710917516  0.2677654226828405  0.2410536036645445   T   T   T
  0.5406279853485949  0.6793551096849293  0.0264812376781064   T   T   T
  0.7074025522768007  0.6793496175799125  0.0265181031838240   T   T   T
  0.8741828668054461  0.6793028356802433  0.0265406332817574   T   T   T
  0.5409515949517206  0.9292029285305698  0.0264915054338042   T   T   T
  0.7074576908122818  0.9291618222932225  0.0265489284853344   T   T   T
  0.8740202297495336  0.9291672642915212  0.0265542686304477   T   T   T
  0.6651173972148982  0.5292838098470387  0.0445572112622608   T   T   T
  0.8317209716833112  0.5291976204358677  0.0446068338207242   T   T   T
  0.9983068584987463  0.5291285172098582  0.0446355388657029   T   T   T
  0.6650915985548419  0.7791775619214927  0.0446396278627475   T   T   T
  0.8316407227036808  0.7791372110575774  0.0446592737321211   T   T   T
  0.9981924594539987  0.7790845992809560  0.0446521646346754   T   T   T
  0.9172976415791484  0.9041670941998091  0.2070692688382688   T   T   T
  0.9170926868631456  0.6537537359664445  0.2069976188567885   T   T   T
  0.5843801676245480  0.6535351078639476  0.2069208300351333   T   T   T
  0.7504458299335174  0.6532438887293741  0.2069880775703809   T   T   T
  0.5840307163767375  0.9039658336855090  0.2070563524192362   T   T   T
  0.7507613881876245  0.9039315570312543  0.2070737432730171   T   T   T
  0.5435450114310548  0.5538701623062248  0.2245176412763009   T   T   T
  0.7086140255210437  0.5498624802844013  0.2252277067093473   T   T   T
  0.8780775969783995  0.5545118768492954  0.2240261204657339   T   T   T
  0.5415826748054062  0.8042105913986262  0.2250477252105305   T   T   T
  0.7082425258074957  0.8042061858010370  0.2250480289053297   T   T   T
  0.8756384197328232  0.8039965775360353  0.2249598219340332   T   T   T
  0.0874236607522991  0.1690350477287609  0.0336517634664763   T   T   T
  0.2540344529681485  0.1690227784744644  0.0336479138865243   T   T   T
  0.4206503929305757  0.1690143602921018  0.0336287355189216   T   T   T
  0.0874589024244952  0.4191826252891857  0.0336803963806334   T   T   T
  0.2540113982667609  0.4190604813626313  0.0336785179995645   T   T   T
  0.4205545863063174  0.4191029589900518  0.0336388646377042   T   T   T
  0.1616384852606962  0.0444394354432046  0.2178747966704589   T   T   T
  0.3282098520323747  0.0445325833401002  0.2178633237009608   T   T   T
  0.4948401683614052  0.0445317446893569  0.2178220638522101   T   T   T
  0.1615710969344193  0.2945057155124705  0.2178827832337629   T   T   T
  0.3282405636547807  0.2945160829169974  0.2178690737987125   T   T   T
  0.4986603815022488  0.2934969312022925  0.2177075869406132   T   T   T
  0.0874755851972370  0.6690116134790135  0.0336786506007048   T   T   T
  0.2539881016349232  0.6690028900206667  0.0336575906933050   T   T   T
  0.4206837965418503  0.6691529211827383  0.0336346665741739   T   T   T
  0.0875017247493606  0.9191180381715048  0.0336874459659236   T   T   T
  0.2539607810292693  0.9190416318623552  0.0336663531139647   T   T   T
  0.4206004722109718  0.9190904504310493  0.0336355561178555   T   T   T
  0.1616782715133810  0.5444452594146379  0.2178962106118210   T   T   T
  0.3285213162094930  0.5444900777896671  0.2178597562417157   T   T   T
  0.4959512265615407  0.5445106877516568  0.2178748733842581   T   T   T
  0.1615877327213728  0.7945286629003816  0.2178915578949890   T   T   T
  0.3285835034830136  0.7945241447443184  0.2178686554017256   T   T   T
  0.4948507991079689  0.7945708040996802  0.2178818479572908   T   T   T
  0.5874351170527693  0.1690375515679415  0.0336287693892222   T   T   T
  0.7540930692346255  0.1689158340721842  0.0337632207215956   T   T   T
  0.9206339774866600  0.1690125594637430  0.0336614812297758   T   T   T
  0.5873516230670245  0.4192174488129801  0.0336212196404667   T   T   T
  0.7541796783133240  0.4189366935167271  0.0335762786553658   T   T   T
  0.9205790361235092  0.4190033469024366  0.0336935865034310   T   T   T
  0.6615943750711453  0.0439214352995403  0.2180435154548404   T   T   T
  0.8280032584224588  0.0438408683778604  0.2180777755270059   T   T   T
  0.9952067963178293  0.0444331287473293  0.2178524907042872   T   T   T
  0.6513526833958357  0.2956603736419443  0.2180150389584118   T   T   T
  0.8400288767045887  0.2919184707599224  0.2187146548443517   T   T   T
  0.9944522424713506  0.2929539470592902  0.2179479633692119   T   T   T
  0.7632069105363057  0.2734384340142517  0.2960746971714479   T   T   T
  0.6946833353409572  0.1316188320819358  0.3004934527027485   T   T   T
  0.7673634470476985  0.3811459653787460  0.3309590357226915   T   T   T
  0.7419130166028748  0.2520375788491888  0.2504174264368224   T   T   T
  0.5873421861804278  0.6693101798850222  0.0335926782143531   T   T   T
  0.7541558213919720  0.6692921126239382  0.0336229098828312   T   T   T
  0.9208945247020939  0.6691656880832962  0.0336605513499897   T   T   T
  0.5875740429157962  0.9191434710714554  0.0336723989245695   T   T   T
  0.7541438022043295  0.9190121005910814  0.0336846026210140   T   T   T
  0.9206699639809206  0.9189196907278349  0.0336856999776498   T   T   T
  0.6618520962128434  0.5456633915850454  0.2176275657638106   T   T   T
  0.8297602301350417  0.5451329500919848  0.2180204208086204   T   T   T
  0.9956926382054495  0.5445210838887657  0.2179715852437177   T   T   T
  0.6615053303578218  0.7945943836956435  0.2178833095018152   T   T   T
  0.8287370332472167  0.7945620205168838  0.2178893822488920   T   T   T
  0.9951537475553317  0.7945675928491923  0.2179006976048078   T   T   T
  0.2495558308363142  0.1240312412843218  0.0593518616759914   T   T   T
  0.4162262591455248  0.1240181435668710  0.0593401400907038   T   T   T
  0.0828506252408798  0.3740554431610313  0.0593837594490108   T   T   T
  0.2495538543898483  0.3740174527934898  0.0593780878033288   T   T   T
  0.4162576477338127  0.3740417601479606  0.0593502479546250   T   T   T
  0.0828706807562649  0.1240278961759433  0.0593526953084248   T   T   T
  0.4994368325890314  0.0004843386139565  0.1392153700287182   T   T   T
  0.1661603982195553  0.0005686398265510  0.1392676560836389   T   T   T
  0.3328118132290543  0.0005502430525194  0.1392588831993711   T   T   T
  0.4995684207785083  0.2506701544752106  0.1392308766379481   T   T   T
  0.1661275265202281  0.2506377964901179  0.1393001107754411   T   T   T
  0.3328927379497917  0.2506425821194134  0.1392864811409173   T   T   T
  0.0827872803242169  0.1252495686690121  0.1655924717533595   T   T   T
  0.2494543587304638  0.1253503199864617  0.1656323665972909   T   T   T
  0.4161172422369229  0.1252553448358936  0.1655886655942026   T   T   T
  0.0826087214654026  0.3753710071435520  0.1656499680619462   T   T   T
  0.2494264705174075  0.3753629239123605  0.1656422402935977   T   T   T
  0.4163109251995925  0.3753582557826414  0.1656048806675569   T   T   T
  0.1659386323853932  0.4987754716689070  0.1922802527197438   T   T   T
  0.3329479134783318  0.4988027078722264  0.1922504448170606   T   T   T
  0.5001106824958377  0.4988799676356867  0.1921887038636533   T   T   T
  0.1660871193944756  0.2489525781683026  0.1922640155531367   T   T   T
  0.4995559744344703  0.2485004265651713  0.1920218020952282   T   T   T
  0.3327910896946530  0.2489526467847273  0.1922406255138062   T   T   T
  0.4994772490302375  0.0004835075381763  0.0860074372889152   T   T   T
  0.1661261808836884  0.0004630556791273  0.0860189188807211   T   T   T
  0.3327819882179409  0.0004438222740480  0.0860085343953695   T   T   T
  0.4995312899250444  0.2505384332374794  0.0859907473883626   T   T   T
  0.1660683148385406  0.2504875178403742  0.0860429145354903   T   T   T
  0.3328145123053289  0.2504889006031193  0.0860380014191486   T   T   T
  0.0826493608532229  0.1256873614981799  0.1123624604087777   T   T   T
  0.2493504494746850  0.1256832905437797  0.1123665598656006   T   T   T
  0.4160303445601126  0.1256605619524023  0.1123404264506415   T   T   T
  0.0825506240944611  0.3756720645953824  0.1124051771219240   T   T   T
  0.2493484535631380  0.3756722426591588  0.1123894576536196   T   T   T
  0.4161432728633865  0.3757113036230840  0.1123618413937804   T   T   T
  0.2495541313238727  0.6239744959227457  0.0593587142452494   T   T   T
  0.4163256585154416  0.6240814106543053  0.0593379842146268   T   T   T
  0.0828608676896053  0.8739811977149302  0.0593677158568626   T   T   T
  0.2494931054860524  0.8739488559467651  0.0593521040017400   T   T   T
  0.4162025296925631  0.8739923168365547  0.0593283118403996   T   T   T
  0.0828566739322778  0.6239878141237214  0.0593868918517053   T   T   T
  0.4997482503387256  0.5006558141367047  0.1392776269628772   T   T   T
  0.1660588587160492  0.5005897479854213  0.1393127022191876   T   T   T
  0.3329127321298926  0.5006304859350799  0.1392797788126351   T   T   T
  0.4996197827421304  0.7505758179295000  0.1392633168946791   T   T   T
  0.1661174061086786  0.7505112312143485  0.1392970736112963   T   T   T
  0.3328602853710219  0.7505419915024636  0.1392772057351551   T   T   T
  0.0824943481670859  0.6251855612262578  0.1656661356554410   T   T   T
  0.2493948112481572  0.6252247352291735  0.1656606543109679   T   T   T
  0.4162519603397637  0.6252689127038076  0.1656150728901053   T   T   T
  0.0827200628719881  0.8752787628079005  0.1656382088450636   T   T   T
  0.2494288527507686  0.8752774325320541  0.1656370801375000   T   T   T
  0.4161551827831019  0.8752895005842320  0.1656205278583734   T   T   T
  0.1661016736422020  0.9988933545444638  0.1922618958003225   T   T   T
  0.3327668021076308  0.9988846648200062  0.1922618699940563   T   T   T
  0.4994372216656476  0.9989571260499990  0.1922025993826448   T   T   T
  0.1660244322319185  0.7488394425161471  0.1922885629787560   T   T   T
  0.4995289204656348  0.7488139380854201  0.1922630264838379   T   T   T
  0.3328115505429739  0.7488439030521475  0.1922685753544127   T   T   T
  0.4996236444003516  0.5005400742960737  0.0860073222946150   T   T   T
  0.1661030797606681  0.5004521553725423  0.0860554659384330   T   T   T
  0.3328687270616286  0.5005029237571652  0.0860299923688896   T   T   T
  0.4995412593822404  0.7504961928325783  0.0860235014757757   T   T   T
  0.1660698799547123  0.7504018306122847  0.0860443134243877   T   T   T
  0.3327643305324072  0.7504234006035552  0.0860209473553678   T   T   T
  0.0825409146735494  0.6255861688829458  0.1124127023451048   T   T   T
  0.2493250855980640  0.6256251931565254  0.1123871943029960   T   T   T
  0.4161151499019795  0.6256642295817739  0.1123626645892793   T   T   T
  0.0826816722913740  0.8756200238948665  0.1123716024982475   T   T   T
  0.2493249672565855  0.8755975175854055  0.1123578840190411   T   T   T
  0.4159828630752751  0.8755957602811651  0.1123275092559627   T   T   T
  0.7495677862516297  0.1240169958408488  0.0594949555968192   T   T   T
  0.9161681409605529  0.1240113939330569  0.0593739042550768   T   T   T
  0.5830087442170974  0.3740882203596692  0.0593354192588949   T   T   T
  0.7496104672284796  0.3740291529568622  0.0593388168006568   T   T   T
  0.9161253158798698  0.3740169094933892  0.0594203571983512   T   T   T
  0.5829321475643197  0.1240119313483009  0.0593389087895937   T   T   T
  0.9994948362437900  0.0006014848025573  0.1392587105531936   T   T   T
  0.6663862088540825  0.0008781827073565  0.1393587275738995   T   T   T
  0.8326155124327285  0.0009663246584197  0.1393994265669740   T   T   T
  0.9993543138006078  0.2506846453790066  0.1393034631621328   T   T   T
  0.6660424564448395  0.2513974030936163  0.1395692065954749   T   T   T
  0.8326285200735440  0.2513457521082111  0.1395297326668566   T   T   T
  0.5826961419102352  0.1250491897048013  0.1653941972456313   T   T   T
  0.7491955621393860  0.1268779271562746  0.1661347347928994   T   T   T
  0.9161065319929013  0.1253499598439203  0.1655025532429661   T   T   T
  0.5829467024969230  0.3756139712200439  0.1656785791300996   T   T   T
  0.7492075791144065  0.3773326859686770  0.1669931044976813   T   T   T
  0.9156613934376269  0.3756494252108892  0.1658176698853133   T   T   T
  0.6690002489239301  0.4957950991440414  0.1924266842885992   T   T   T
  0.8294403138540152  0.4957547725419778  0.1926793754558856   T   T   T
  0.9987383837045850  0.4987482717287374  0.1923051764285663   T   T   T
  0.6642636261938646  0.2509914308303381  0.1927861954607994   T   T   T
  0.9994323840306029  0.2484223630628547  0.1920682826728292   T   T   T
  0.8333778556006960  0.2500591030089369  0.1924462970323745   T   T   T
  0.9994453333119029  0.0004925569413237  0.0860291270775083   T   T   T
  0.6661806343029327  0.0005610356670171  0.0860988512743386   T   T   T
  0.8327555823437028  0.0005622033487734  0.0861184006315985   T   T   T
  0.9993639407258408  0.2505199220765402  0.0860434121517264   T   T   T
  0.6661445797638987  0.2506192477567108  0.0861040543332419   T   T   T
  0.8327418786198433  0.2505814917507779  0.0861248045246868   T   T   T
  0.5827245627186869  0.1258384334607703  0.1123305224630845   T   T   T
  0.7493147931993328  0.1260763139902735  0.1126101906676014   T   T   T
  0.9159432480802515  0.1258548997509797  0.1123851726402594   T   T   T