C H O Si                                
   1.00000000000000     
     9.2874599999999994    0.0000000000000000    0.0000000000000000
     0.0000000000000000   17.5126199999999983    0.0000000000000000
     0.0000000000000000    0.0000000000000000   58.0000000000000000
   C    H    O    Si
    72    57    28    72
Selective dynamics
Direct
  0.9934005383510720  0.0631419299094545  0.0604552995452158   T   T   T
  0.3267681408301739  0.0631421013035675  0.0605494217289212   T   T   T
  0.6600112319336024  0.0631310929112786  0.0605195178662460   T   T   T
  0.9931878846681841  0.3131852747638191  0.0604507506874332   T   T   T
  0.3265358453342892  0.3130961735141848  0.0605524153937734   T   T   T
  0.6598974358395898  0.3131299458554778  0.0605068633645040   T   T   T
  0.1599805272531220  0.1859852544457226  0.1393903052663072   T   T   T
  0.4932215862777880  0.1862760788640280  0.1396322881623170   T   T   T
  0.8266530387551440  0.1859372899012033  0.1393142595500481   T   T   T
  0.1598279855211946  0.4361361665429707  0.1394356084833533   T   T   T
  0.4932006936504291  0.4360238281517824  0.1394797820635045   T   T   T
  0.8265603379146699  0.4361227585205091  0.1394165844838871   T   T   T
  0.3273110657625700  0.0613641561497909  0.1667219240654038   T   T   T
  0.6596402242591939  0.0613224788495605  0.1666796048347173   T   T   T
  0.9937156079873363  0.0606762701285160  0.1664549154872253   T   T   T
  0.3265354139542703  0.3112374606616932  0.1667845155910936   T   T   T
  0.6604390307660994  0.3112765364895255  0.1666501994521684   T   T   T
  0.9934962979324885  0.3111694196861380  0.1665020779689721   T   T   T
  0.1603930221172292  0.1872844645905198  0.1917301947722349   T   T   T
  0.4937789513996464  0.1898768958477678  0.1927224682200114   T   T   T
  0.8276990468944625  0.1868163079937961  0.1915141247805272   T   T   T
  0.1598510832600583  0.4384167196004600  0.1919818557839285   T   T   T
  0.4934077099338187  0.4380262828477389  0.1920171556138608   T   T   T
  0.8269142438955759  0.4384596207222861  0.1919236081826133   T   T   T
  0.1597440153847160  0.1861944263734967  0.0858316142532671   T   T   T
  0.4930550388508000  0.1862171944725275  0.0859655775008123   T   T   T
  0.8263331210105593  0.1861682166356056  0.0857801035482090   T   T   T
  0.1598012881985561  0.4361708188188497  0.0858612506777132   T   T   T
  0.4930823527386400  0.4361414522968188  0.0858860325324691   T   T   T
  0.8264046254766019  0.4361666983088162  0.0858399958426427   T   T   T
  0.3264109223159347  0.0611042087024660  0.1130838111053013   T   T   T
  0.6596144032032958  0.0610996236549293  0.1130646792692661   T   T   T
  0.9930620937526091  0.0609929583610815  0.1129879648488603   T   T   T
  0.3263832657909937  0.3110630731444056  0.1131272185300080   T   T   T
  0.6598178942194158  0.3110699518307690  0.1130718237097300   T   T   T
  0.9931072382995021  0.3110542231137735  0.1129853785242007   T   T   T
  0.9934384952961088  0.5631395469083322  0.0604960754608876   T   T   T
  0.3267415973371549  0.5631272450617019  0.0605124369684951   T   T   T
  0.6601362695446853  0.5631271298824474  0.0605060128943642   T   T   T
  0.9932549037975691  0.8131721345270062  0.0604942335202058   T   T   T
  0.3265625475990802  0.8131062461957744  0.0605027954252241   T   T   T
  0.6599501586631337  0.8131324638984290  0.0604961972915045   T   T   T
  0.1598230747522033  0.6861384822110601  0.1394300201265252   T   T   T
  0.4930965677571365  0.6861155274521820  0.1394433742855045   T   T   T
  0.8264164806606595  0.6861272450595044  0.1394289972253605   T   T   T
  0.1602614398843763  0.9360732427222217  0.1394365587392466   T   T   T
  0.4931663971065318  0.9360384639283043  0.1394387241512779   T   T   T
  0.8263265869881513  0.9361088704981146  0.1394299397620806   T   T   T
  0.3265808339343235  0.5612358231888467  0.1666100256887592   T   T   T
  0.6597552821466006  0.5612243621375472  0.1666036440768063   T   T   T
  0.9932161183368242  0.5614037684018032  0.1665793547998370   T   T   T
  0.3266438433167949  0.8111778092953293  0.1666272773424800   T   T   T
  0.6599730473612431  0.8111920385641059  0.1666250438647461   T   T   T
  0.9933138831354633  0.8112472189879667  0.1666087976969317   T   T   T
  0.1601920422684130  0.6881493553283350  0.1919857219978192   T   T   T
  0.4934809194791009  0.6881795870082288  0.1920100318300642   T   T   T
  0.8266909013128085  0.6881810870426687  0.1919804129471978   T   T   T
  0.1604327632918951  0.9381234501343149  0.1919937881571477   T   T   T
  0.4936568647321338  0.9380722563640516  0.1920160478755834   T   T   T
  0.8268787691383479  0.9380883925658092  0.1919667318612838   T   T   T
  0.1597400417830692  0.6862014110551522  0.0858617361522594   T   T   T
  0.4930896750758442  0.6861527780056008  0.0858712184121727   T   T   T
  0.8263881323361254  0.6862068068049255  0.0858631478233457   T   T   T
  0.1598350790455750  0.9361837634877567  0.0858534423200626   T   T   T
  0.4930542386188439  0.9361633152680491  0.0858681207508819   T   T   T
  0.8263258108950674  0.9361955952511434  0.0858440327845670   T   T   T
  0.3263842789176050  0.5610654636829256  0.1130514216278461   T   T   T
  0.6597110530463597  0.5610595401777405  0.1130468963276763   T   T   T
  0.9930414788283698  0.5610842135893302  0.1130339662293340   T   T   T
  0.3264650564407383  0.8110425897109672  0.1130367045029226   T   T   T
  0.6597281271276929  0.8110703144265706  0.1130395404709011   T   T   T
  0.9930851949754095  0.8111551372455122  0.1130492145635216   T   T   T
  0.0740703153406879  0.1775631058786464  0.0274727917028397   T   T   T
  0.4064150909611660  0.1775868766593741  0.0276443098687955   T   T   T
  0.7394250003406304  0.1775212293132535  0.0274909750660004   T   T   T
  0.0737484948354303  0.4276159478686033  0.0274904061684647   T   T   T
  0.4058692445986147  0.4274801460311174  0.0275714147088308   T   T   T
  0.7388471119934561  0.4275175191671158  0.0275277477102737   T   T   T
  0.3243854964160559  0.0266104524340708  0.0450968442818387   T   T   T
  0.6568823579198786  0.0265974927401134  0.0450698650621399   T   T   T
  0.9908562712026034  0.0266366085315790  0.0449997064046775   T   T   T
  0.3238372307980028  0.2765064744999020  0.0451123915601812   T   T   T
  0.6570694311848233  0.2765871300968544  0.0450581237423566   T   T   T
  0.9905287550044044  0.2767150808479116  0.0449826383271136   T   T   T
  0.8286229792127882  0.4022933708223352  0.2074379401355152   T   T   T
  0.8303446368467869  0.1505562799565917  0.2070171611615664   T   T   T
  0.1618800665923934  0.1510410960259068  0.2072489511369572   T   T   T
  0.4968985977441353  0.1527987570536729  0.2080641760058700   T   T   T
  0.1619136881195505  0.4017964290113820  0.2074164497939263   T   T   T
  0.4940474160696910  0.4016328815469634  0.2075115158372834   T   T   T
  0.0809749207233881  0.0524785206093709  0.2249596045021361   T   T   T
  0.4151030958154671  0.0520161350843322  0.2250977277877018   T   T   T
  0.7485898854348669  0.0522297148625022  0.2250094104341353   T   T   T
  0.0789451498706974  0.3010250521780836  0.2245861417178653   T   T   T
  0.3782763735649378  0.3102953851473565  0.2284830233462536   T   T   T
  0.7820728041100885  0.2952016812287828  0.2228970323480035   T   T   T
  0.5473745932623633  0.3056433268218122  0.2739216436401831   T   T   T
  0.4932594066248548  0.2380077345018528  0.2933408073582245   T   T   T
  0.5721935957900910  0.3198871831515988  0.3030455487094082   T   T   T
  0.3149627327983435  0.1945979302876666  0.3097579325385174   T   T   T
  0.4220640696099883  0.1302870075763151  0.3022397210345505   T   T   T
  0.6503532187216721  0.3661106196948818  0.3335487173304739   T   T   T
  0.4844198674802987  0.3772609033650793  0.3308490827448209   T   T   T
  0.5186117637271844  0.3954140571389645  0.2521812113113535   T   T   T
  0.5859749703054041  0.3232451579287660  0.2387042781162534   T   T   T
  0.0736563679273972  0.6776197373891272  0.0275330970811258   T   T   T
  0.4065596283581172  0.6775520815871594  0.0275630275265205   T   T   T
  0.7396911828711837  0.6775378461325318  0.0275617481955794   T   T   T
  0.0732104485340626  0.9275883784112675  0.0275197398719110   T   T   T
  0.4059591456859562  0.9274991408616571  0.0275551535430791   T   T   T
  0.7392928352087674  0.9275704069108793  0.0275332541628361   T   T   T
  0.3240492823348973  0.5266058258996752  0.0450576572767151   T   T   T
  0.6574447639109444  0.5266120810177084  0.0450498894203106   T   T   T
  0.9907008708389441  0.5266282142892379  0.0450416612678029   T   T   T
  0.3238918616746040  0.7765726891707759  0.0450509785453107   T   T   T
  0.6570925415874328  0.7765863507168069  0.0450476237808681   T   T   T
  0.9904973081709189  0.7766017611406474  0.0450535033162351   T   T   T
  0.8293370707277566  0.9015835114487930  0.2074302298837857   T   T   T
  0.8291203112686928  0.6516306255036219  0.2074348238850519   T   T   T
  0.1624172818532916  0.6516172011512193  0.2074462255793442   T   T   T
  0.4959202734974673  0.6517035854408908  0.2074778495301932   T   T   T
  0.1625576687740942  0.9015813741267236  0.2074515712018211   T   T   T
  0.4960846509416013  0.9014997761977630  0.2074630339572655   T   T   T
  0.0803154400263579  0.5535089336913266  0.2249644241842696   T   T   T
  0.4144562751725847  0.5539189297681339  0.2247936669322111   T   T   T
  0.7477165429681675  0.5533429055428087  0.2248877502359686   T   T   T
  0.0812677282489921  0.8025197247029228  0.2249809397270750   T   T   T
  0.4138961112065893  0.8028290610065226  0.2250550117216921   T   T   T
  0.7489385515898505  0.8022938396837809  0.2249244256134185   T   T   T
  0.1689449512501034  0.1661319222366643  0.0338723370055820   T   T   T
  0.5015697078610682  0.1663984914796662  0.0339942766552471   T   T   T
  0.8345953943159047  0.1658902187309310  0.0337639781767591   T   T   T
  0.1686126403792153  0.4162839730943301  0.0339095178206160   T   T   T
  0.5010756006183931  0.4161981022751143  0.0338978836797696   T   T   T
  0.8341028120499432  0.4162219970662967  0.0338375297732498   T   T   T
  0.3199404285520007  0.0412519788957681  0.2186693919494397   T   T   T
  0.6533113355063281  0.0412845981644569  0.2186370480615584   T   T   T
  0.9860406564400773  0.0413395958275625  0.2185034025177036   T   T   T
  0.2997224978579406  0.2913522468741313  0.2186860879336456   T   T   T
  0.6792461414772482  0.2913414011618222  0.2186309752399553   T   T   T
  0.9833373530879396  0.2891459200286009  0.2183528028919704   T   T   T
  0.5710090563268906  0.2797242673253834  0.2897666504309897   T   T   T
  0.3810849161784702  0.1791823014242991  0.2975307137427214   T   T   T
  0.5750756906376017  0.3775925567238590  0.3223228138608959   T   T   T
  0.5132753846717965  0.3398968962931178  0.2509460274927264   T   T   T
  0.1686304498448417  0.6663185007973268  0.0339151202876128   T   T   T
  0.5016750686193208  0.6663289982258013  0.0339171839265646   T   T   T
  0.8348337768669650  0.6663970154128283  0.0339176261947877   T   T   T
  0.1682277706600039  0.9163951215141209  0.0339115814470406   T   T   T
  0.5011590929417643  0.9162420201585388  0.0338838392016648   T   T   T
  0.8344574898495583  0.9162285734320974  0.0338583422858906   T   T   T
  0.3195120065850964  0.5412889131452213  0.2186057848442413   T   T   T
  0.6527131739996869  0.5413796666110978  0.2185755569190482   T   T   T
  0.9855212789878468  0.5414829616389165  0.2185965212900715   T   T   T
  0.3190955502015342  0.7911731107924522  0.2186375648204638   T   T   T
  0.6534330278304050  0.7913165717121541  0.2186438196070603   T   T   T
  0.9861780326625202  0.7912446690389807  0.2186039445954500   T   T   T
  0.4935915084358962  0.1217742002631752  0.0600135546874480   T   T   T
  0.8268503906255196  0.1217046076905294  0.0598501696292515   T   T   T
  0.1601993648707287  0.3717356672744904  0.0599353639917390   T   T   T
  0.4934090357290012  0.3717101566841095  0.0599401922433601   T   T   T
  0.8266802336985494  0.3717784827489735  0.0598948751118944   T   T   T
  0.1603366695740842  0.1217173734936387  0.0599204416803427   T   T   T
  0.9932124985776826  0.4985286619379946  0.1396378954193974   T   T   T
  0.3265451446767277  0.4984419745252167  0.1396552342569086   T   T   T
  0.6598244479246966  0.4984314855391946  0.1396493247742484   T   T   T
  0.9933152240023767  0.2483211194205274  0.1395325522586902   T   T   T
  0.3264355985857787  0.2484809320306412  0.1397654547366862   T   T   T
  0.6600984599628398  0.2483665426171112  0.1396452437907312   T   T   T
  0.1601764738740584  0.1228065227195605  0.1657995526257899   T   T   T
  0.4934257185029568  0.1239934845305202  0.1662830484390875   T   T   T
  0.8270634109253341  0.1224638449797599  0.1656451372192648   T   T   T
  0.1599459087336086  0.3733986566058349  0.1659466832497736   T   T   T
  0.4932373382802847  0.3731403552166597  0.1659722558128959   T   T   T
  0.8270349886822981  0.3734059689134623  0.1659096670450925   T   T   T
  0.3264215189558456  0.4969143301938391  0.1925490499318648   T   T   T
  0.6600340943341274  0.4969128080949808  0.1925429224071137   T   T   T
  0.9932651116294785  0.4971193452157088  0.1925255220176428   T   T   T
  0.3246972480149554  0.2475248427684945  0.1929462743857079   T   T   T
  0.9936901850378437  0.2456044826375356  0.1921113974069172   T   T   T
  0.6629139614001811  0.2464289130889109  0.1923517902764637   T   T   T
  0.9931351009179813  0.4982126763710308  0.0865296993769042   T   T   T
  0.3264886362409606  0.4982038641459116  0.0865492307059453   T   T   T
  0.6597705469629265  0.4982090732694365  0.0865433243323084   T   T   T
  0.9930432638166609  0.2482041048839470  0.0864757223323766   T   T   T
  0.3263957348816119  0.2482160030947113  0.0866024213924966   T   T   T
  0.6597560060907367  0.2482140972213341  0.0865520343420182   T   T   T
  0.1597397718502532  0.1234327099954503  0.1127856519896147   T   T   T
  0.4930180537053470  0.1235116766857494  0.1129394604985491   T   T   T
  0.8264072344415928  0.1233748939470034  0.1127239744793309   T   T   T
  0.1597648093480477  0.3734713417765420  0.1128319842756878   T   T   T
  0.4930844573309558  0.3734199990306508  0.1128523255678559   T   T   T
  0.8264960392818312  0.3734624925757281  0.1128061587720309   T   T   T
  0.4936403341423857  0.6217192469114698  0.0599387728149648   T   T   T
  0.8269308161256645  0.6217675758421785  0.0599378317275142   T   T   T
  0.1602005092936698  0.8717594775769161  0.0599279517941916   T   T   T
  0.4934512203747686  0.8717319905599320  0.0599254504955271   T   T   T
  0.8267294208308683  0.8717625994723336  0.0599083727572948   T   T   T
  0.1603035861505265  0.6217386269353008  0.0599419198076737   T   T   T
  0.9933573327703678  0.9981792170084237  0.1395569943220001   T   T   T
  0.3269304550930764  0.9985529223300671  0.1396944853340023   T   T   T
  0.6595385320634444  0.9984972704661583  0.1396736315029197   T   T   T
  0.9931475862737446  0.7484791981184866  0.1396453933306826   T   T   T
  0.3264856174865456  0.7484722972022716  0.1396517045404697   T   T   T
  0.6597802869082747  0.7484666413164425  0.1396532551077733   T   T   T
  0.1598805565496007  0.6233279898465776  0.1659234731357998   T   T   T
  0.4932144015667413  0.6233302543415931  0.1659414352926190   T   T   T
  0.8264699981001609  0.6233340449965632  0.1659229448521666   T   T   T
  0.1600673362710445  0.8732416199431144  0.1659348622095244   T   T   T
  0.4933224328590287  0.8732371434300757  0.1659526990265930   T   T   T
  0.8265975885191074  0.8732313590873076  0.1659217761792563   T   T   T
  0.3269123695468311  0.9967436711570637  0.1926248213652992   T   T   T
  0.6601773074840013  0.9967198641724914  0.1925923397136013   T   T   T
  0.9935035736265673  0.9966486335560569  0.1924978595978152   T   T   T
  0.3266464854882420  0.7467791330351286  0.1925753735933545   T   T   T
  0.9933161353871899  0.7467810899623721  0.1925536383252429   T   T   T
  0.6600017436511297  0.7468191476448394  0.1925719364762247   T   T   T
  0.9931361310174367  0.9981909236743465  0.0864869003339461   T   T   T
  0.3265102028259519  0.9982152432002637  0.0865707127771113   T   T   T
  0.6597058221048742  0.9982256112353115  0.0865499484925234   T   T   T
  0.9930901804553448  0.7482622862130697  0.0865426464445114   T   T   T
  0.3264483401807882  0.7481908919300934  0.0865410804371753   T   T   T
  0.6597342033305411  0.7482190407007804  0.0865410915468424   T   T   T
  0.1597268024593266  0.6234818194526374  0.1128279550670010   T   T   T
  0.4930506401217298  0.6234549040670752  0.1128353080078387   T   T   T
  0.8263680102989406  0.6234739404526257  0.1128251352133075   T   T   T
  0.1599305026724462  0.8734590649779993  0.1128205778073819   T   T   T
  0.4930924920279337  0.8734315857078233  0.1128233752715743   T   T   T
  0.8263159490679246  0.8734860247751131  0.1128141297297744   T   T   T
 
  0.00000000E+00  0.00000000E+00  0.00000000E+00
  0.00000000E+00  0.00000000E+00  0.00000000E+00
  0.00000000E+00  0.00000000E+00  0.00000000E+00
  0.00000000E+00  0.00000000E+00  0.00000000E+00
  0.00000000E+00  0.00000000E+00  0.00000000E+00
  0.00000000E+00  0.00000000E+00  0.00000000E+00
  0.00000000E+00  0.00000000E+00  0.00000000E+00
  0.00000000E+00  0.00000000E+00  0.00000000E+00
  0.00000000E+00  0.00000000E+00  0.00000000E+00
  0.00000000E+00  0.00000000E+00  0.00000000E+00
  0.00000000E+00  0.00000000E+00  0.00000000E+00
  0.00000000E+00  0.00000000E+00  0.00000000E+00
  0.00000000E+00  0.00000000E+00  0.00000000E+00
  0.00000000E+00  0.00000000E+00  0.00000000E+00
  0.00000000E+00  0.00000000E+00  0.00000000E+00
  0.00000000E+00  0.00000000E+00  0.00000000E+00
  0.00000000E+00  0.00000000E+00  0.00000000E+00
  0.00000000E+00  0.00000000E+00  0.00000000E+00
  0.00000000E+00  0.00000000E+00  0.00000000E+00
  0.00000000E+00  0.00000000E+00  0.00000000E+00
  0.00000000E+00  0.00000000E+00  0.00000000E+00
  0.00000000E+00  0.00000000E+00  0.00000000E+00
  0.00000000E+00  0.00000000E+00  0.00000000E+00
  0.00000000E+00  0.00000000E+00  0.00000000E+00
  0.00000000E+00  0.00000000E+00  0.00000000E+00
  0.00000000E+00  0.00000000E+00  0.00000000E+00
  0.00000000E+00  0.00000000E+00  0.00000000E+00
  0.00000000E+00  0.00000000E+00  0.00000000E+00
  0.00000000E+00  0.00000000E+00  0.00000000E+00
  0.00000000E+00  0.00000000E+00  0.00000000E+00
  0.00000000E+00  0.00000000E+00  0.00000000E+00
  0.00000000E+00  0.00000000E+00  0.00000000E+00
  0.00000000E+00  0.00000000E+00  0.00000000E+00
  0.00000000E+00  0.00000000E+00  0.00000000E+00
  0.00000000E+00  0.00000000E+00  0.00000000E+00
  0.00000000E+00  0.00000000E+00  0.00000000E+00
  0.00000000E+00  0.00000000E+00  0.00000000E+00
  0.00000000E+00  0.00000000E+00  0.00000000E+00
  0.00000000E+00  0.00000000E+00  0.00000000E+00
  0.00000000E+00  0.00000000E+00  0.00000000E+00
  0.00000000E+00  0.00000000E+00  0.00000000E+00
  0.00000000E+00  0.00000000E+00  0.00000000E+00
  0.00000000E+00  0.00000000E+00  0.00000000E+00
  0.00000000E+00  0.00000000E+00  0.00000000E+00
  0.00000000E+00  0.00000000E+00  0.00000000E+00
  0.00000000E+00  0.00000000E+00  0.00000000E+00
  0.00000000E+00  0.00000000E+00  0.00000000E+00
  0.00000000E+00  0.00000000E+00  0.00000000E+00
  0.00000000E+00  0.00000000E+00  0.00000000E+00
  0.00000000E+00  0.00000000E+00  0.00000000E+00
  0.00000000E+00  0.00000000E+00  0.00000000E+00
  0.00000000E+00  0.00000000E+00  0.00000000E+00
  0.00000000E+00  0.00000000E+00  0.00000000E+00
  0.00000000E+00  0.00000000E+00  0.00000000E+00
  0.00000000E+00  0.00000000E+00  0.00000000E+00
  0.00000000E+00  0.00000000E+00  0.00000000E+00
  0.00000000E+00  0.00000000E+00  0.00000000E+00
  0.00000000E+00  0.00000000E+00  0.00000000E+00
  0.00000000E+00  0.00000000E+00  0.00000000E+00
  0.00000000E+00  0.00000000E+00  0.00000000E+00
  0.00000000E+00  0.00000000E+00  0.00000000E+00
  0.00000000E+00  0.00000000E+00  0.00000000E+00
  0.00000000E+00  0.00000000E+00  0.00000000E+00
  0.00000000E+00  0.00000000E+00  0.00000000E+00
  0.00000000E+00  0.00000000E+00  0.00000000E+00
  0.00000000E+00  0.00000000E+00  0.00000000E+00
  0.00000000E+00  0.00000000E+00  0.00000000E+00
  0.00000000E+00  0.00000000E+00  0.00000000E+00
  0.00000000E+00  0.00000000E+00  0.00000000E+00
  0.00000000E+00  0.00000000E+00  0.00000000E+00
  0.00000000E+00  0.00000000E+00  0.00000000E+00
  0.00000000E+00  0.00000000E+00  0.00000000E+00
  0.00000000E+00  0.00000000E+00  0.00000000E+00
  0.00000000E+00  0.00000000E+00  0.00000000E+00
  0.00000000E+00  0.00000000E+00  0.00000000E+00
  0.00000000E+00  0.00000000E+00  0.00000000E+00
  0.00000000E+00  0.00000000E+00  0.00000000E+00
  0.00000000E+00  0.00000000E+00  0.00000000E+00
  0.00000000E+00  0.00000000E+00  0.00000000E+00
  0.00000000E+00  0.00000000E+00  0.00000000E+00
  0.00000000E+00  0.00000000E+00  0.00000000E+00
  0.00000000E+00  0.00000000E+00  0.00000000E+00
  0.00000000E+00  0.00000000E+00  0.00000000E+00
  0.00000000E+00  0.00000000E+00  0.00000000E+00
  0.00000000E+00  0.00000000E+00  0.00000000E+00
  0.00000000E+00  0.00000000E+00  0.00000000E+00
  0.00000000E+00  0.00000000E+00  0.00000000E+00
  0.00000000E+00  0.00000000E+00  0.00000000E+00
  0.00000000E+00  0.00000000E+00  0.00000000E+00
  0.00000000E+00  0.00000000E+00  0.00000000E+00
  0.00000000E+00  0.00000000E+00  0.00000000E+00
  0.00000000E+00  0.00000000E+00  0.00000000E+00
  0.00000000E+00  0.00000000E+00  0.00000000E+00
  0.00000000E+00  0.00000000E+00  0.00000000E+00
  0.00000000E+00  0.00000000E+00  0.00000000E+00
  0.00000000E+00  0.00000000E+00  0.00000000E+00
  0.00000000E+00  0.00000000E+00  0.00000000E+00
  0.00000000E+00  0.00000000E+00  0.00000000E+00
  0.00000000E+00  0.00000000E+00  0.00000000E+00
  0.00000000E+00  0.00000000E+00  0.00000000E+00
  0.00000000E+00  0.00000000E+00  0.00000000E+00
  0.00000000E+00  0.00000000E+00  0.00000000E+00
  0.00000000E+00  0.00000000E+00  0.00000000E+00
  0.00000000E+00  0.00000000E+00  0.00000000E+00
  0.00000000E+00  0.00000000E+00  0.00000000E+00
  0.00000000E+00  0.00000000E+00  0.00000000E+00
  0.00000000E+00  0.00000000E+00  0.00000000E+00
  0.00000000E+00  0.00000000E+00  0.00000000E+00
  0.00000000E+00  0.00000000E+00  0.00000000E+00
  0.00000000E+00  0.00000000E+00  0.00000000E+00
  0.00000000E+00  0.00000000E+00  0.00000000E+00
  0.00000000E+00  0.00000000E+00  0.00000000E+00
  0.00000000E+00  0.00000000E+00  0.00000000E+00
  0.00000000E+00  0.00000000E+00  0.00000000E+00
  0.00000000E+00  0.00000000E+00  0.00000000E+00
  0.00000000E+00  0.00000000E+00  0.00000000E+00
  0.00000000E+00  0.00000000E+00  0.00000000E+00
  0.00000000E+00  0.00000000E+00  0.00000000E+00
  0.00000000E+00  0.00000000E+00  0.00000000E+00
  0.00000000E+00  0.00000000E+00  0.00000000E+00
  0.00000000E+00  0.00000000E+00  0.00000000E+00
  0.00000000E+00  0.00000000E+00  0.00000000E+00
  0.00000000E+00  0.00000000E+00  0.00000000E+00
  0.00000000E+00  0.00000000E+00  0.00000000E+00
  0.00000000E+00  0.00000000E+00  0.00000000E+00
  0.00000000E+00  0.00000000E+00  0.00000000E+00
  0.00000000E+00  0.00000000E+00  0.00000000E+00
  0.00000000E+00  0.00000000E+00  0.00000000E+00
  0.00000000E+00  0.00000000E+00  0.00000000E+00
  0.00000000E+00  0.00000000E+00  0.00000000E+00
  0.00000000E+00  0.00000000E+00  0.00000000E+00
  0.00000000E+00  0.00000000E+00  0.00000000E+00
  0.00000000E+00  0.00000000E+00  0.00000000E+00
  0.00000000E+00  0.00000000E+00  0.00000000E+00
  0.00000000E+00  0.00000000E+00  0.00000000E+00
  0.00000000E+00  0.00000000E+00  0.00000000E+00
  0.00000000E+00  0.00000000E+00  0.00000000E+00
  0.00000000E+00  0.00000000E+00  0.00000000E+00
  0.00000000E+00  0.00000000E+00  0.00000000E+00
  0.00000000E+00  0.00000000E+00  0.00000000E+00
  0.00000000E+00  0.00000000E+00  0.00000000E+00
  0.00000000E+00  0.00000000E+00  0.00000000E+00
  0.00000000E+00  0.00000000E+00  0.00000000E+00
  0.00000000E+00  0.00000000E+00  0.00000000E+00
  0.00000000E+00  0.00000000E+00  0.00000000E+00
  0.00000000E+00  0.00000000E+00  0.00000000E+00
  0.00000000E+00  0.00000000E+00  0.00000000E+00
  0.00000000E+00  0.00000000E+00  0.00000000E+00
  0.00000000E+00  0.00000000E+00  0.00000000E+00
  0.00000000E+00  0.00000000E+00  0.00000000E+00
  0.00000000E+00  0.00000000E+00  0.00000000E+00
  0.00000000E+00  0.00000000E+00  0.00000000E+00
  0.00000000E+00  0.00000000E+00  0.00000000E+00
  0.00000000E+00  0.00000000E+00  0.00000000E+00
  0.00000000E+00  0.00000000E+00  0.00000000E+00
  0.00000000E+00  0.00000000E+00  0.00000000E+00
  0.00000000E+00  0.00000000E+00  0.00000000E+00
  0.00000000E+00  0.00000000E+00  0.00000000E+00
  0.00000000E+00  0.00000000E+00  0.00000000E+00
  0.00000000E+00  0.00000000E+00  0.00000000E+00
  0.00000000E+00  0.00000000E+00  0.00000000E+00
  0.00000000E+00  0.00000000E+00  0.00000000E+00
  0.00000000E+00  0.00000000E+00  0.00000000E+00
  0.00000000E+00  0.00000000E+00  0.00000000E+00
  0.00000000E+00  0.00000000E+00  0.00000000E+00
  0.00000000E+00  0.00000000E+00  0.00000000E+00
  0.00000000E+00  0.00000000E+00  0.00000000E+00
  0.00000000E+00  0.00000000E+00  0.00000000E+00
  0.00000000E+00  0.00000000E+00  0.00000000E+00
  0.00000000E+00  0.00000000E+00  0.00000000E+00
  0.00000000E+00  0.00000000E+00  0.00000000E+00
  0.00000000E+00  0.00000000E+00  0.00000000E+00
  0.00000000E+00  0.00000000E+00  0.00000000E+00
  0.00000000E+00  0.00000000E+00  0.00000000E+00
  0.00000000E+00  0.00000000E+00  0.00000000E+00
  0.00000000E+00  0.00000000E+00  0.00000000E+00
  0.00000000E+00  0.00000000E+00  0.00000000E+00
  0.00000000E+00  0.00000000E+00  0.00000000E+00
  0.00000000E+00  0.00000000E+00  0.00000000E+00
  0.00000000E+00  0.00000000E+00  0.00000000E+00
  0.00000000E+00  0.00000000E+00  0.00000000E+00
  0.00000000E+00  0.00000000E+00  0.00000000E+00
  0.00000000E+00  0.00000000E+00  0.00000000E+00
  0.00000000E+00  0.00000000E+00  0.00000000E+00
  0.00000000E+00  0.00000000E+00  0.00000000E+00
  0.00000000E+00  0.00000000E+00  0.00000000E+00
  0.00000000E+00  0.00000000E+00  0.00000000E+00
  0.00000000E+00  0.00000000E+00  0.00000000E+00
  0.00000000E+00  0.00000000E+00  0.00000000E+00
  0.00000000E+00  0.00000000E+00  0.00000000E+00
  0.00000000E+00  0.00000000E+00  0.00000000E+00
  0.00000000E+00  0.00000000E+00  0.00000000E+00
  0.00000000E+00  0.00000000E+00  0.00000000E+00
  0.00000000E+00  0.00000000E+00  0.00000000E+00
  0.00000000E+00  0.00000000E+00  0.00000000E+00
  0.00000000E+00  0.00000000E+00  0.00000000E+00
  0.00000000E+00  0.00000000E+00  0.00000000E+00
  0.00000000E+00  0.00000000E+00  0.00000000E+00
  0.00000000E+00  0.00000000E+00  0.00000000E+00
  0.00000000E+00  0.00000000E+00  0.00000000E+00
  0.00000000E+00  0.00000000E+00  0.00000000E+00
  0.00000000E+00  0.00000000E+00  0.00000000E+00
  0.00000000E+00  0.00000000E+00  0.00000000E+00
  0.00000000E+00  0.00000000E+00  0.00000000E+00
  0.00000000E+00  0.00000000E+00  0.00000000E+00
  0.00000000E+00  0.00000000E+00  0.00000000E+00
  0.00000000E+00  0.00000000E+00  0.00000000E+00
  0.00000000E+00  0.00000000E+00  0.00000000E+00
  0.00000000E+00  0.00000000E+00  0.00000000E+00
  0.00000000E+00  0.00000000E+00  0.00000000E+00
  0.00000000E+00  0.00000000E+00  0.00000000E+00
  0.00000000E+00  0.00000000E+00  0.00000000E+00
  0.00000000E+00  0.00000000E+00  0.00000000E+00
  0.00000000E+00  0.00000000E+00  0.00000000E+00
  0.00000000E+00  0.00000000E+00  0.00000000E+00
  0.00000000E+00  0.00000000E+00  0.00000000E+00
  0.00000000E+00  0.00000000E+00  0.00000000E+00
  0.00000000E+00  0.00000000E+00  0.00000000E+00
  0.00000000E+00  0.00000000E+00  0.00000000E+00
  0.00000000E+00  0.00000000E+00  0.00000000E+00
  0.00000000E+00  0.00000000E+00  0.00000000E+00
  0.00000000E+00  0.00000000E+00  0.00000000E+00
  0.00000000E+00  0.00000000E+00  0.00000000E+00
  0.00000000E+00  0.00000000E+00  0.00000000E+00
  0.00000000E+00  0.00000000E+00  0.00000000E+00
  0.00000000E+00  0.00000000E+00  0.00000000E+00
  0.00000000E+00  0.00000000E+00  0.00000000E+00
  0.00000000E+00  0.00000000E+00  0.00000000E+00
  0.00000000E+00  0.00000000E+00  0.00000000E+00
