C H O Si                                
   1.00000000000000     
     9.2874599999999994    0.0000000000000000    0.0000000000000000
     0.0000000000000000   17.5126199999999983    0.0000000000000000
     0.0000000000000000    0.0000000000000000   58.0000000000000000
   C    H    O    Si
    72    57    28    72
Selective dynamics
Direct
  0.9933596653473992  0.0631429959580845  0.0604590001619318   T   T   T
  0.3267447920283083  0.0631382091525941  0.0605471274939795   T   T   T
  0.6599340804577407  0.0631362141403814  0.0605150961270321   T   T   T
  0.9931985249938866  0.3131850577380995  0.0604539579067010   T   T   T
  0.3265911166320203  0.3130828973757906  0.0605515487205431   T   T   T
  0.6598585460356203  0.3131157075568080  0.0605097000249605   T   T   T
  0.1599690539808283  0.1859948264966293  0.1393945767614485   T   T   T
  0.4932390234717942  0.1862032588277806  0.1396216085027327   T   T   T
  0.8266839559234367  0.1859349991820973  0.1393172067488034   T   T   T
  0.1598678080434005  0.4361634355668763  0.1394343064469983   T   T   T
  0.4932472044768387  0.4360136778113398  0.1394759204007884   T   T   T
  0.8266071722291788  0.4361447376717270  0.1394160434463188   T   T   T
  0.3273525963758100  0.0613810921079372  0.1667428057941471   T   T   T
  0.6595521611047652  0.0613452154583364  0.1667009917013786   T   T   T
  0.9936467927977698  0.0606871370769123  0.1664726342724229   T   T   T
  0.3264979989889181  0.3112914563307025  0.1667997785097979   T   T   T
  0.6603352987356491  0.3112586192316503  0.1666732082452322   T   T   T
  0.9934020485885621  0.3111394321817761  0.1665003134873526   T   T   T
  0.1603363161397893  0.1872720141453140  0.1917439213497777   T   T   T
  0.4937124559946706  0.1898789877916156  0.1927362722635786   T   T   T
  0.8276501158900265  0.1868624562860468  0.1915230273194902   T   T   T
  0.1596985259983762  0.4383730951269608  0.1919832937912322   T   T   T
  0.4933276732370274  0.4380080595885152  0.1920245736305058   T   T   T
  0.8269150554783012  0.4384048476718620  0.1919215138587737   T   T   T
  0.1597144417115453  0.1861836914133323  0.0858297525087113   T   T   T
  0.4930374265806851  0.1862049663619993  0.0859545210928939   T   T   T
  0.8263357221851445  0.1861601665528591  0.0857726665891906   T   T   T
  0.1597897240497645  0.4361598150884444  0.0858506253431821   T   T   T
  0.4930979148858748  0.4361249186640687  0.0858686855836300   T   T   T
  0.8264044460549391  0.4361829565740517  0.0858295263760273   T   T   T
  0.3263653771741187  0.0611101612486437  0.1130742653163757   T   T   T
  0.6595673726315324  0.0610810201728088  0.1130620741232101   T   T   T
  0.9930479497419542  0.0610038841180193  0.1129822495745507   T   T   T
  0.3263602187413213  0.3110535733413656  0.1131211049710193   T   T   T
  0.6597821087397583  0.3110580010124110  0.1130669464708952   T   T   T
  0.9931042969518613  0.3110484290798524  0.1129829916468468   T   T   T
  0.9933898612738137  0.5631557423726966  0.0604973711604762   T   T   T
  0.3267262611885351  0.5631181452409837  0.0605110837990139   T   T   T
  0.6600558299478266  0.5631229147778971  0.0605053060599420   T   T   T
  0.9932486288508224  0.8131879869162296  0.0604941232617683   T   T   T
  0.3266270140930618  0.8130876406490658  0.0605036114703362   T   T   T
  0.6598894071672903  0.8131195020041246  0.0604957090627567   T   T   T
  0.1598290510996898  0.6861706750647399  0.1394329079885444   T   T   T
  0.4931108540172556  0.6861556834857881  0.1394355083971822   T   T   T
  0.8264265012651230  0.6861616272303048  0.1394272407123851   T   T   T
  0.1602681521288949  0.9361156775866499  0.1394267358909270   T   T   T
  0.4932231101358231  0.9360784244163757  0.1394318453608473   T   T   T
  0.8263281781268820  0.9361639814933755  0.1394227993713809   T   T   T
  0.3265360626759963  0.5612702810323524  0.1666209652230211   T   T   T
  0.6596633148389888  0.5612456679144280  0.1666079086505144   T   T   T
  0.9930990097284214  0.5614085618239417  0.1665939011040174   T   T   T
  0.3266098652237497  0.8111954701949806  0.1666448273668447   T   T   T
  0.6598769387966691  0.8111996573636160  0.1666379340785139   T   T   T
  0.9932503352799023  0.8112320563300476  0.1666245607595233   T   T   T
  0.1600358255554558  0.6880908823146288  0.1919901255560532   T   T   T
  0.4934155593132804  0.6881516868191931  0.1920166976550218   T   T   T
  0.8266435632114797  0.6881122952803919  0.1919819843096461   T   T   T
  0.1603036826827265  0.9380639498806258  0.1919943970597434   T   T   T
  0.4935602007470639  0.9380514961525097  0.1920167035146201   T   T   T
  0.8268581961094271  0.9380413788877640  0.1919698569537211   T   T   T
  0.1597131129771607  0.6861779008508867  0.0858502829929542   T   T   T
  0.4930805179202135  0.6861308967580946  0.0858551514283976   T   T   T
  0.8263963371079944  0.6861850159682622  0.0858519217585095   T   T   T
  0.1598245188351414  0.9361781786291483  0.0858465981362160   T   T   T
  0.4930839273329859  0.9361625853729556  0.0858538173759400   T   T   T
  0.8263402736100279  0.9361986311165231  0.0858295550867714   T   T   T
  0.3263556574450168  0.5610410822205738  0.1130487611453985   T   T   T
  0.6596517433483038  0.5610401102011504  0.1130439773116501   T   T   T
  0.9930191509995965  0.5610910777999389  0.1130250269909866   T   T   T
  0.3264300898659345  0.8110079746465493  0.1130342902924567   T   T   T
  0.6596971700142038  0.8110399921073704  0.1130407357536653   T   T   T
  0.9930820286094919  0.8111520312503405  0.1130504956385416   T   T   T
  0.0740564338743707  0.1774788700728487  0.0274864221009386   T   T   T
  0.4064229855760372  0.1775151805460484  0.0276509155130025   T   T   T
  0.7393735874973418  0.1774673518414405  0.0274937904195617   T   T   T
  0.0737121728133289  0.4275461547686336  0.0274962086367877   T   T   T
  0.4058424612481502  0.4274308333102887  0.0275691209398923   T   T   T
  0.7388034849904935  0.4274754872428287  0.0275241143224287   T   T   T
  0.3243565553983132  0.0266028535060568  0.0450987123215229   T   T   T
  0.6568637979891716  0.0265868847054251  0.0450709086292215   T   T   T
  0.9908236580927253  0.0266406327126010  0.0450051563222059   T   T   T
  0.3237829580465001  0.2765110241883416  0.0451127341951316   T   T   T
  0.6570159866516503  0.2765954412725990  0.0450585483717991   T   T   T
  0.9904712317043843  0.2767348816208807  0.0449905973077863   T   T   T
  0.8286032114327510  0.4023149489778924  0.2074389959005531   T   T   T
  0.8303820233609175  0.1505538670202928  0.2070141018762736   T   T   T
  0.1619070180271454  0.1510336564439639  0.2072494962752733   T   T   T
  0.4969888989475482  0.1528158952242206  0.2080658157014528   T   T   T
  0.1619370489703965  0.4018055279766853  0.2074195746810661   T   T   T
  0.4940584907054469  0.4016509331477561  0.2075152662065775   T   T   T
  0.0810146414170138  0.0524962306947383  0.2249978316961256   T   T   T
  0.4151760206879106  0.0520319258565257  0.2251375047113344   T   T   T
  0.7486587533261183  0.0522543867134744  0.2250482346714383   T   T   T
  0.0789314614924620  0.3010401980141686  0.2246044856635159   T   T   T
  0.3784343344224204  0.3103572118428538  0.2285165943259360   T   T   T
  0.7820329574677994  0.2951908006114613  0.2228865452466740   T   T   T
  0.5473869884784633  0.3056577846347382  0.2739053924221593   T   T   T
  0.4932821799743204  0.2379846946738535  0.2933502578408853   T   T   T
  0.5721983633924855  0.3198747381963168  0.3030644496596612   T   T   T
  0.3150321057403100  0.1946773798432614  0.3097590137419510   T   T   T
  0.4221048758428437  0.1303138953217775  0.3022322120926479   T   T   T
  0.6503483402859978  0.3660638374165904  0.3335538847129113   T   T   T
  0.4843323244515525  0.3771716524701083  0.3308475241845761   T   T   T
  0.5186303668116937  0.3954004555785752  0.2521804849887037   T   T   T
  0.5860175376904323  0.3232281833984409  0.2386971828871277   T   T   T
  0.0736368292651122  0.6775383001767588  0.0275433370808366   T   T   T
  0.4065325878999429  0.6774802347110743  0.0275693622713522   T   T   T
  0.7396689694270989  0.6774683185606883  0.0275660222709278   T   T   T
  0.0731585757572566  0.9275281881101873  0.0275205603231799   T   T   T
  0.4059262615975501  0.9274461417036124  0.0275551169061344   T   T   T
  0.7392500827782481  0.9275174438482275  0.0275343037088191   T   T   T
  0.3240228239868467  0.5266057303164607  0.0450608995180623   T   T   T
  0.6574120261781232  0.5266119173276995  0.0450541643038174   T   T   T
  0.9906687761301887  0.5266288320015728  0.0450477829055349   T   T   T
  0.3238350369188046  0.7765701565155535  0.0450541182880521   T   T   T
  0.6570340721259325  0.7765832011665708  0.0450500722736755   T   T   T
  0.9904384147242816  0.7765974750076126  0.0450575350419794   T   T   T
  0.8293508191106359  0.9015903364663681  0.2074327669757616   T   T   T
  0.8291141759179311  0.6516286522479303  0.2074362507266121   T   T   T
  0.1624163524146909  0.6516241853650344  0.2074466065202162   T   T   T
  0.4959227134720397  0.6517143034175492  0.2074776186233913   T   T   T
  0.1625688001838820  0.9015968363406721  0.2074522695046712   T   T   T
  0.4960979596583736  0.9015198962534684  0.2074606578315282   T   T   T
  0.0803258822142643  0.5535524010461196  0.2250046319422925   T   T   T
  0.4145506065395879  0.5539717788521573  0.2248341112159483   T   T   T
  0.7477415173194475  0.5533817510511045  0.2249288938766534   T   T   T
  0.0813499509831214  0.8025506511015514  0.2250248594128269   T   T   T
  0.4139186536173192  0.8028626006340146  0.2250979854716234   T   T   T
  0.7490380971507042  0.8023010207446364  0.2249534486328798   T   T   T
  0.1692053949684271  0.1662088245625070  0.0338392627137251   T   T   T
  0.5017137141328872  0.1664462789012718  0.0339795188342127   T   T   T
  0.8347675500740596  0.1659403660417730  0.0337141568724755   T   T   T
  0.1688177083626804  0.4163743910236541  0.0338841275782077   T   T   T
  0.5011463795032497  0.4162589248556475  0.0338716291908354   T   T   T
  0.8341564670042008  0.4162918521941142  0.0338025527997794   T   T   T
  0.3201440633826893  0.0412803693714896  0.2186686110991393   T   T   T
  0.6535759275285229  0.0412999809739365  0.2186379282327553   T   T   T
  0.9862708412767766  0.0413384739855002  0.2185094157874312   T   T   T
  0.3001374346687830  0.2913200142063129  0.2186817788435183   T   T   T
  0.6792395373852271  0.2913842489895411  0.2186527392352943   T   T   T
  0.9834049052068164  0.2890244661461855  0.2183515663097995   T   T   T
  0.5712673594163805  0.2796735589946814  0.2897531050118542   T   T   T
  0.3810290415093762  0.1791800341532353  0.2975271420166717   T   T   T
  0.5750882353639657  0.3777956780805095  0.3223535711391643   T   T   T
  0.5131413718976418  0.3398676255706151  0.2509185016280842   T   T   T
  0.1688822695740844  0.6664128225285320  0.0338951838329269   T   T   T
  0.5018468759327522  0.6664179048688991  0.0339000537307581   T   T   T
  0.8349983524373803  0.6664968819552232  0.0339047552544955   T   T   T
  0.1683969645812732  0.9165088775139518  0.0338868034989465   T   T   T
  0.5012366420430314  0.9162974175040267  0.0338623148875108   T   T   T
  0.8345696956409900  0.9163035994950367  0.0338289380022232   T   T   T
  0.3197005047636627  0.5413026259581838  0.2186097456374650   T   T   T
  0.6529777989562756  0.5414296083031390  0.2185835392038635   T   T   T
  0.9858190871278237  0.5414524370093659  0.2185936187920398   T   T   T
  0.3193618776637450  0.7911566024935238  0.2186283506324100   T   T   T
  0.6536338387480142  0.7913283090921691  0.2186455732106063   T   T   T
  0.9864078723813073  0.7912445367288905  0.2186036375695810   T   T   T
  0.4935524947528052  0.1218124423484399  0.0600118638983207   T   T   T
  0.8268201606936656  0.1217621022396174  0.0598370388308026   T   T   T
  0.1601683966986874  0.3717602374762719  0.0599262748823503   T   T   T
  0.4933798243218659  0.3717394332034505  0.0599348188713320   T   T   T
  0.8266509505371294  0.3718342209536324  0.0598736297821875   T   T   T
  0.1603433895093712  0.1217601212048646  0.0599050750213281   T   T   T
  0.9932217540703748  0.4985605525530548  0.1396396692811026   T   T   T
  0.3265742284902785  0.4984668492395610  0.1396559775592623   T   T   T
  0.6598244366057531  0.4984555476931217  0.1396472558632623   T   T   T
  0.9933553262896553  0.2483124370553164  0.1395299662977706   T   T   T
  0.3264332926026249  0.2484908842328572  0.1397646694962901   T   T   T
  0.6601629428980362  0.2483580768550835  0.1396442962511639   T   T   T
  0.1600986444322495  0.1227912707867670  0.1658043486251874   T   T   T
  0.4933523097775591  0.1239983131365374  0.1662757567701955   T   T   T
  0.8270500876047171  0.1224419851301311  0.1656450668730549   T   T   T
  0.1598412503150361  0.3734264333631865  0.1659324837423279   T   T   T
  0.4931982789330632  0.3731333369018348  0.1659671555654035   T   T   T
  0.8269464667226359  0.3734069149225421  0.1659019585358021   T   T   T
  0.3263764655210946  0.4968741445260955  0.1925360331208939   T   T   T
  0.6600187066703980  0.4968528843678403  0.1925232178396779   T   T   T
  0.9932055212995570  0.4971083701870808  0.1925177603600126   T   T   T
  0.3246455057738156  0.2475615766741232  0.1929483478017005   T   T   T
  0.9937140248733815  0.2455753565703962  0.1920814931012846   T   T   T
  0.6628718976038195  0.2463653065979563  0.1923448637718876   T   T   T
  0.9931741818740080  0.4981278746087141  0.0865423542522395   T   T   T
  0.3265114837413520  0.4981266833741774  0.0865549192103767   T   T   T
  0.6597966599852666  0.4981224690262952  0.0865502123324788   T   T   T
  0.9930671488847698  0.2481285308660062  0.0864954549426514   T   T   T
  0.3263936690971719  0.2481701805860498  0.0866111462155265   T   T   T
  0.6597241797115888  0.2481663238689599  0.0865622198427431   T   T   T
  0.1595973508057537  0.1234568376544722  0.1127905187285560   T   T   T
  0.4929214439406139  0.1235050437890526  0.1129357658365772   T   T   T
  0.8262839603669928  0.1233907981688253  0.1127314818145971   T   T   T
  0.1597163751798183  0.3734911572177851  0.1128317947303186   T   T   T
  0.4929918622710445  0.3734382624125342  0.1128554831531665   T   T   T
  0.8264166183359650  0.3734836132039999  0.1128111129984298   T   T   T
  0.4936068462658800  0.6217637818159367  0.0599272449424951   T   T   T
  0.8269212630722275  0.6218001116468256  0.0599248886240981   T   T   T
  0.1601982877522803  0.8717842532569977  0.0599150932149366   T   T   T
  0.4934288761786700  0.8717676960601870  0.0599183156147927   T   T   T
  0.8267133397809380  0.8718076856037379  0.0598919667663510   T   T   T
  0.1603155135836843  0.6217903888668037  0.0599248579711432   T   T   T
  0.9933984036085409  0.9981959613292514  0.1395510304487787   T   T   T
  0.3269486789895988  0.9985809563324169  0.1396922375656789   T   T   T
  0.6595349729986768  0.9985456614113793  0.1396739364915717   T   T   T
  0.9931528136923371  0.7485225205105449  0.1396526824456126   T   T   T
  0.3264903981726347  0.7485113559488377  0.1396597951916106   T   T   T
  0.6597947513120740  0.7484979816908303  0.1396573990965197   T   T   T
  0.1597708286471042  0.6233315247604679  0.1659152225002966   T   T   T
  0.4930694386626536  0.6233477690838468  0.1659339564931621   T   T   T
  0.8263186426356265  0.6233189910926170  0.1659110888224341   T   T   T
  0.1599610861651570  0.8732311585754733  0.1659257325625267   T   T   T
  0.4932166951395533  0.8732376519847207  0.1659349104688647   T   T   T
  0.8264671387425567  0.8732255428492257  0.1659087668048227   T   T   T
  0.3268628287717587  0.9967061027922304  0.1926193600927134   T   T   T
  0.6601441958439277  0.9966741460821796  0.1925853958449997   T   T   T
  0.9934644311282419  0.9965761130932991  0.1924698111475223   T   T   T
  0.3265979029000724  0.7467223980140844  0.1925648501909456   T   T   T
  0.9932735222340863  0.7467152750792146  0.1925405981961798   T   T   T
  0.6599588747258125  0.7468340469077261  0.1925926318996552   T   T   T
  0.9931475290687071  0.9981064799714621  0.0865089165962272   T   T   T
  0.3265255545321833  0.9981651216221037  0.0865794300835968   T   T   T
  0.6597119975667991  0.9981662553773119  0.0865612778218665   T   T   T
  0.9930832767821278  0.7482064939658992  0.0865525709243995   T   T   T
  0.3264806735873733  0.7481025883886884  0.0865458158636697   T   T   T
  0.6597504568914806  0.7481388878102184  0.0865454188229373   T   T   T
  0.1596373461662069  0.6234966017650391  0.1128279775698980   T   T   T
  0.4929484087510122  0.6234780164438130  0.1128360764645457   T   T   T
  0.8262797783872980  0.6234881980121881  0.1128252270251486   T   T   T
  0.1598943233338935  0.8734857980840117  0.1128190611914472   T   T   T
  0.4930018839257010  0.8734460916524314  0.1128243529426615   T   T   T
  0.8262161955313996  0.8735100120089238  0.1128156383433129   T   T   T
 
  0.00000000E+00  0.00000000E+00  0.00000000E+00
  0.00000000E+00  0.00000000E+00  0.00000000E+00
  0.00000000E+00  0.00000000E+00  0.00000000E+00
  0.00000000E+00  0.00000000E+00  0.00000000E+00
  0.00000000E+00  0.00000000E+00  0.00000000E+00
  0.00000000E+00  0.00000000E+00  0.00000000E+00
  0.00000000E+00  0.00000000E+00  0.00000000E+00
  0.00000000E+00  0.00000000E+00  0.00000000E+00
  0.00000000E+00  0.00000000E+00  0.00000000E+00
  0.00000000E+00  0.00000000E+00  0.00000000E+00
  0.00000000E+00  0.00000000E+00  0.00000000E+00
  0.00000000E+00  0.00000000E+00  0.00000000E+00
  0.00000000E+00  0.00000000E+00  0.00000000E+00
  0.00000000E+00  0.00000000E+00  0.00000000E+00
  0.00000000E+00  0.00000000E+00  0.00000000E+00
  0.00000000E+00  0.00000000E+00  0.00000000E+00
  0.00000000E+00  0.00000000E+00  0.00000000E+00
  0.00000000E+00  0.00000000E+00  0.00000000E+00
  0.00000000E+00  0.00000000E+00  0.00000000E+00
  0.00000000E+00  0.00000000E+00  0.00000000E+00
  0.00000000E+00  0.00000000E+00  0.00000000E+00
  0.00000000E+00  0.00000000E+00  0.00000000E+00
  0.00000000E+00  0.00000000E+00  0.00000000E+00
  0.00000000E+00  0.00000000E+00  0.00000000E+00
  0.00000000E+00  0.00000000E+00  0.00000000E+00
  0.00000000E+00  0.00000000E+00  0.00000000E+00
  0.00000000E+00  0.00000000E+00  0.00000000E+00
  0.00000000E+00  0.00000000E+00  0.00000000E+00
  0.00000000E+00  0.00000000E+00  0.00000000E+00
  0.00000000E+00  0.00000000E+00  0.00000000E+00
  0.00000000E+00  0.00000000E+00  0.00000000E+00
  0.00000000E+00  0.00000000E+00  0.00000000E+00
  0.00000000E+00  0.00000000E+00  0.00000000E+00
  0.00000000E+00  0.00000000E+00  0.00000000E+00
  0.00000000E+00  0.00000000E+00  0.00000000E+00
  0.00000000E+00  0.00000000E+00  0.00000000E+00
  0.00000000E+00  0.00000000E+00  0.00000000E+00
  0.00000000E+00  0.00000000E+00  0.00000000E+00
  0.00000000E+00  0.00000000E+00  0.00000000E+00
  0.00000000E+00  0.00000000E+00  0.00000000E+00
  0.00000000E+00  0.00000000E+00  0.00000000E+00
  0.00000000E+00  0.00000000E+00  0.00000000E+00
  0.00000000E+00  0.00000000E+00  0.00000000E+00
  0.00000000E+00  0.00000000E+00  0.00000000E+00
  0.00000000E+00  0.00000000E+00  0.00000000E+00
  0.00000000E+00  0.00000000E+00  0.00000000E+00
  0.00000000E+00  0.00000000E+00  0.00000000E+00
  0.00000000E+00  0.00000000E+00  0.00000000E+00
  0.00000000E+00  0.00000000E+00  0.00000000E+00
  0.00000000E+00  0.00000000E+00  0.00000000E+00
  0.00000000E+00  0.00000000E+00  0.00000000E+00
  0.00000000E+00  0.00000000E+00  0.00000000E+00
  0.00000000E+00  0.00000000E+00  0.00000000E+00
  0.00000000E+00  0.00000000E+00  0.00000000E+00
  0.00000000E+00  0.00000000E+00  0.00000000E+00
  0.00000000E+00  0.00000000E+00  0.00000000E+00
  0.00000000E+00  0.00000000E+00  0.00000000E+00
  0.00000000E+00  0.00000000E+00  0.00000000E+00
  0.00000000E+00  0.00000000E+00  0.00000000E+00
  0.00000000E+00  0.00000000E+00  0.00000000E+00
  0.00000000E+00  0.00000000E+00  0.00000000E+00
  0.00000000E+00  0.00000000E+00  0.00000000E+00
  0.00000000E+00  0.00000000E+00  0.00000000E+00
  0.00000000E+00  0.00000000E+00  0.00000000E+00
  0.00000000E+00  0.00000000E+00  0.00000000E+00
  0.00000000E+00  0.00000000E+00  0.00000000E+00
  0.00000000E+00  0.00000000E+00  0.00000000E+00
  0.00000000E+00  0.00000000E+00  0.00000000E+00
  0.00000000E+00  0.00000000E+00  0.00000000E+00
  0.00000000E+00  0.00000000E+00  0.00000000E+00
  0.00000000E+00  0.00000000E+00  0.00000000E+00
  0.00000000E+00  0.00000000E+00  0.00000000E+00
  0.00000000E+00  0.00000000E+00  0.00000000E+00
  0.00000000E+00  0.00000000E+00  0.00000000E+00
  0.00000000E+00  0.00000000E+00  0.00000000E+00
  0.00000000E+00  0.00000000E+00  0.00000000E+00
  0.00000000E+00  0.00000000E+00  0.00000000E+00
  0.00000000E+00  0.00000000E+00  0.00000000E+00
  0.00000000E+00  0.00000000E+00  0.00000000E+00
  0.00000000E+00  0.00000000E+00  0.00000000E+00
  0.00000000E+00  0.00000000E+00  0.00000000E+00
  0.00000000E+00  0.00000000E+00  0.00000000E+00
  0.00000000E+00  0.00000000E+00  0.00000000E+00
  0.00000000E+00  0.00000000E+00  0.00000000E+00
  0.00000000E+00  0.00000000E+00  0.00000000E+00
  0.00000000E+00  0.00000000E+00  0.00000000E+00
  0.00000000E+00  0.00000000E+00  0.00000000E+00
  0.00000000E+00  0.00000000E+00  0.00000000E+00
  0.00000000E+00  0.00000000E+00  0.00000000E+00
  0.00000000E+00  0.00000000E+00  0.00000000E+00
  0.00000000E+00  0.00000000E+00  0.00000000E+00
  0.00000000E+00  0.00000000E+00  0.00000000E+00
  0.00000000E+00  0.00000000E+00  0.00000000E+00
  0.00000000E+00  0.00000000E+00  0.00000000E+00
  0.00000000E+00  0.00000000E+00  0.00000000E+00
  0.00000000E+00  0.00000000E+00  0.00000000E+00
  0.00000000E+00  0.00000000E+00  0.00000000E+00
  0.00000000E+00  0.00000000E+00  0.00000000E+00
  0.00000000E+00  0.00000000E+00  0.00000000E+00
  0.00000000E+00  0.00000000E+00  0.00000000E+00
  0.00000000E+00  0.00000000E+00  0.00000000E+00
  0.00000000E+00  0.00000000E+00  0.00000000E+00
  0.00000000E+00  0.00000000E+00  0.00000000E+00
  0.00000000E+00  0.00000000E+00  0.00000000E+00
  0.00000000E+00  0.00000000E+00  0.00000000E+00
  0.00000000E+00  0.00000000E+00  0.00000000E+00
  0.00000000E+00  0.00000000E+00  0.00000000E+00
  0.00000000E+00  0.00000000E+00  0.00000000E+00
  0.00000000E+00  0.00000000E+00  0.00000000E+00
  0.00000000E+00  0.00000000E+00  0.00000000E+00
  0.00000000E+00  0.00000000E+00  0.00000000E+00
  0.00000000E+00  0.00000000E+00  0.00000000E+00
  0.00000000E+00  0.00000000E+00  0.00000000E+00
  0.00000000E+00  0.00000000E+00  0.00000000E+00
  0.00000000E+00  0.00000000E+00  0.00000000E+00
  0.00000000E+00  0.00000000E+00  0.00000000E+00
  0.00000000E+00  0.00000000E+00  0.00000000E+00
  0.00000000E+00  0.00000000E+00  0.00000000E+00
  0.00000000E+00  0.00000000E+00  0.00000000E+00
  0.00000000E+00  0.00000000E+00  0.00000000E+00
  0.00000000E+00  0.00000000E+00  0.00000000E+00
  0.00000000E+00  0.00000000E+00  0.00000000E+00
  0.00000000E+00  0.00000000E+00  0.00000000E+00
  0.00000000E+00  0.00000000E+00  0.00000000E+00
  0.00000000E+00  0.00000000E+00  0.00000000E+00
  0.00000000E+00  0.00000000E+00  0.00000000E+00
  0.00000000E+00  0.00000000E+00  0.00000000E+00
  0.00000000E+00  0.00000000E+00  0.00000000E+00
  0.00000000E+00  0.00000000E+00  0.00000000E+00
  0.00000000E+00  0.00000000E+00  0.00000000E+00
  0.00000000E+00  0.00000000E+00  0.00000000E+00
  0.00000000E+00  0.00000000E+00  0.00000000E+00
  0.00000000E+00  0.00000000E+00  0.00000000E+00
  0.00000000E+00  0.00000000E+00  0.00000000E+00
  0.00000000E+00  0.00000000E+00  0.00000000E+00
  0.00000000E+00  0.00000000E+00  0.00000000E+00
  0.00000000E+00  0.00000000E+00  0.00000000E+00
  0.00000000E+00  0.00000000E+00  0.00000000E+00
  0.00000000E+00  0.00000000E+00  0.00000000E+00
  0.00000000E+00  0.00000000E+00  0.00000000E+00
  0.00000000E+00  0.00000000E+00  0.00000000E+00
  0.00000000E+00  0.00000000E+00  0.00000000E+00
  0.00000000E+00  0.00000000E+00  0.00000000E+00
  0.00000000E+00  0.00000000E+00  0.00000000E+00
  0.00000000E+00  0.00000000E+00  0.00000000E+00
  0.00000000E+00  0.00000000E+00  0.00000000E+00
  0.00000000E+00  0.00000000E+00  0.00000000E+00
  0.00000000E+00  0.00000000E+00  0.00000000E+00
  0.00000000E+00  0.00000000E+00  0.00000000E+00
  0.00000000E+00  0.00000000E+00  0.00000000E+00
  0.00000000E+00  0.00000000E+00  0.00000000E+00
  0.00000000E+00  0.00000000E+00  0.00000000E+00
  0.00000000E+00  0.00000000E+00  0.00000000E+00
  0.00000000E+00  0.00000000E+00  0.00000000E+00
  0.00000000E+00  0.00000000E+00  0.00000000E+00
  0.00000000E+00  0.00000000E+00  0.00000000E+00
  0.00000000E+00  0.00000000E+00  0.00000000E+00
  0.00000000E+00  0.00000000E+00  0.00000000E+00
  0.00000000E+00  0.00000000E+00  0.00000000E+00
  0.00000000E+00  0.00000000E+00  0.00000000E+00
  0.00000000E+00  0.00000000E+00  0.00000000E+00
  0.00000000E+00  0.00000000E+00  0.00000000E+00
  0.00000000E+00  0.00000000E+00  0.00000000E+00
  0.00000000E+00  0.00000000E+00  0.00000000E+00
  0.00000000E+00  0.00000000E+00  0.00000000E+00
  0.00000000E+00  0.00000000E+00  0.00000000E+00
  0.00000000E+00  0.00000000E+00  0.00000000E+00
  0.00000000E+00  0.00000000E+00  0.00000000E+00
  0.00000000E+00  0.00000000E+00  0.00000000E+00
  0.00000000E+00  0.00000000E+00  0.00000000E+00
  0.00000000E+00  0.00000000E+00  0.00000000E+00
  0.00000000E+00  0.00000000E+00  0.00000000E+00
  0.00000000E+00  0.00000000E+00  0.00000000E+00
  0.00000000E+00  0.00000000E+00  0.00000000E+00
  0.00000000E+00  0.00000000E+00  0.00000000E+00
  0.00000000E+00  0.00000000E+00  0.00000000E+00
  0.00000000E+00  0.00000000E+00  0.00000000E+00
  0.00000000E+00  0.00000000E+00  0.00000000E+00
  0.00000000E+00  0.00000000E+00  0.00000000E+00
  0.00000000E+00  0.00000000E+00  0.00000000E+00
  0.00000000E+00  0.00000000E+00  0.00000000E+00
  0.00000000E+00  0.00000000E+00  0.00000000E+00
  0.00000000E+00  0.00000000E+00  0.00000000E+00
  0.00000000E+00  0.00000000E+00  0.00000000E+00
  0.00000000E+00  0.00000000E+00  0.00000000E+00
  0.00000000E+00  0.00000000E+00  0.00000000E+00
  0.00000000E+00  0.00000000E+00  0.00000000E+00
  0.00000000E+00  0.00000000E+00  0.00000000E+00
  0.00000000E+00  0.00000000E+00  0.00000000E+00
  0.00000000E+00  0.00000000E+00  0.00000000E+00
  0.00000000E+00  0.00000000E+00  0.00000000E+00
  0.00000000E+00  0.00000000E+00  0.00000000E+00
  0.00000000E+00  0.00000000E+00  0.00000000E+00
  0.00000000E+00  0.00000000E+00  0.00000000E+00
  0.00000000E+00  0.00000000E+00  0.00000000E+00
  0.00000000E+00  0.00000000E+00  0.00000000E+00
  0.00000000E+00  0.00000000E+00  0.00000000E+00
  0.00000000E+00  0.00000000E+00  0.00000000E+00
  0.00000000E+00  0.00000000E+00  0.00000000E+00
  0.00000000E+00  0.00000000E+00  0.00000000E+00
  0.00000000E+00  0.00000000E+00  0.00000000E+00
  0.00000000E+00  0.00000000E+00  0.00000000E+00
  0.00000000E+00  0.00000000E+00  0.00000000E+00
  0.00000000E+00  0.00000000E+00  0.00000000E+00
  0.00000000E+00  0.00000000E+00  0.00000000E+00
  0.00000000E+00  0.00000000E+00  0.00000000E+00
  0.00000000E+00  0.00000000E+00  0.00000000E+00
  0.00000000E+00  0.00000000E+00  0.00000000E+00
  0.00000000E+00  0.00000000E+00  0.00000000E+00
  0.00000000E+00  0.00000000E+00  0.00000000E+00
  0.00000000E+00  0.00000000E+00  0.00000000E+00
  0.00000000E+00  0.00000000E+00  0.00000000E+00
  0.00000000E+00  0.00000000E+00  0.00000000E+00
  0.00000000E+00  0.00000000E+00  0.00000000E+00
  0.00000000E+00  0.00000000E+00  0.00000000E+00
  0.00000000E+00  0.00000000E+00  0.00000000E+00
  0.00000000E+00  0.00000000E+00  0.00000000E+00
  0.00000000E+00  0.00000000E+00  0.00000000E+00
  0.00000000E+00  0.00000000E+00  0.00000000E+00
  0.00000000E+00  0.00000000E+00  0.00000000E+00
  0.00000000E+00  0.00000000E+00  0.00000000E+00
  0.00000000E+00  0.00000000E+00  0.00000000E+00
  0.00000000E+00  0.00000000E+00  0.00000000E+00
  0.00000000E+00  0.00000000E+00  0.00000000E+00
  0.00000000E+00  0.00000000E+00  0.00000000E+00
  0.00000000E+00  0.00000000E+00  0.00000000E+00
  0.00000000E+00  0.00000000E+00  0.00000000E+00
  0.00000000E+00  0.00000000E+00  0.00000000E+00
  0.00000000E+00  0.00000000E+00  0.00000000E+00
