C H O Si                                
   1.00000000000000     
    18.5749199999999988    0.0000000000000000    0.0000000000000000
     0.0000000000000000   17.5126199999999983    0.0000000000000000
     0.0000000000000000    0.0000000000000000   58.0000000000000000
   C    H    O    Si
   144   105    52   144
Selective dynamics
Direct
  0.4966509043270949  0.0630383855955698  0.0605244676264900   T   T   T
  0.1633004044601012  0.0630286025527356  0.0604917881945977   T   T   T
  0.3299747620750161  0.0630482799652265  0.0604974764309539   T   T   T
  0.4965654355009212  0.3130181601930879  0.0605129914054552   T   T   T
  0.1632053010176825  0.3130806555898913  0.0605049509261668   T   T   T
  0.3298932819248268  0.3130759625428077  0.0605030246143175   T   T   T
  0.0799480395391406  0.1859764992815030  0.1394041870662958   T   T   T
  0.2465935960329141  0.1859993413567070  0.1394328727784249   T   T   T
  0.4132691170240910  0.1859769857252266  0.1394289203027557   T   T   T
  0.0799488060421492  0.4359942630690725  0.1394399947600386   T   T   T
  0.2465910318471778  0.4360377410127138  0.1394449690766970   T   T   T
  0.4132766568199838  0.4360463507545808  0.1394480469865577   T   T   T
  0.1634123566948610  0.0610327979151137  0.1665705683178886   T   T   T
  0.3300197302035009  0.0610465081686550  0.1665829436906999   T   T   T
  0.4966173878698727  0.0609755921229071  0.1665656242836184   T   T   T
  0.1633819284623759  0.3110975993750623  0.1665928049693454   T   T   T
  0.3300608601429827  0.3111587941392540  0.1666038321228368   T   T   T
  0.4966309467105194  0.3111607651007442  0.1665823184749196   T   T   T
  0.0802296315233861  0.1879846433872787  0.1919676945629783   T   T   T
  0.2466798770883477  0.1880128310472252  0.1919444295898120   T   T   T
  0.4131661746322708  0.1879790509573848  0.1919279267760047   T   T   T
  0.0800315575783503  0.4380193420735090  0.1920042603692203   T   T   T
  0.2466918810411223  0.4380544774745556  0.1919643911511703   T   T   T
  0.4133368604737153  0.4382207734948138  0.1919747650556039   T   T   T
  0.0798409298430660  0.1860815938941599  0.0858434666232833   T   T   T
  0.2465037881960228  0.1860967605498617  0.0858773654765127   T   T   T
  0.4131608378214524  0.1860940475700519  0.0858717358740979   T   T   T
  0.0798234264817099  0.4361170219862638  0.0858785231618933   T   T   T
  0.2465017921023060  0.4361073656010132  0.0858879993879821   T   T   T
  0.4131556809303618  0.4360817955137459  0.0858841431884037   T   T   T
  0.1632242547104741  0.0609448449152628  0.1130232043882797   T   T   T
  0.3299140700986465  0.0609692136105348  0.1130387471867448   T   T   T
  0.4965502410259131  0.0609393272759873  0.1130478242992904   T   T   T
  0.1632003971303916  0.3109731805251313  0.1130347161474023   T   T   T
  0.3299036705740899  0.3109839425371171  0.1130449405800052   T   T   T
  0.4965256355870462  0.3109562062073387  0.1130385495440995   T   T   T
  0.4966516864581976  0.5629886259043613  0.0605308471708883   T   T   T
  0.1632770329422454  0.5630717773474938  0.0605142034811982   T   T   T
  0.3299807766796581  0.5630455001384324  0.0605144693010937   T   T   T
  0.4965921166794539  0.8130499262812358  0.0605280904610909   T   T   T
  0.1632300705112688  0.8130157592589119  0.0604894569961440   T   T   T
  0.3299113604714096  0.8130429153060610  0.0604907570868086   T   T   T
  0.0799499918535458  0.6860371005831307  0.1394316150003657   T   T   T
  0.2466089035669709  0.6860165377220349  0.1394469485464770   T   T   T
  0.4132999584394947  0.6860591650387412  0.1394418967315409   T   T   T
  0.0799887799750454  0.9358766873441886  0.1393949454723108   T   T   T
  0.2466048853105933  0.9359450712207257  0.1394205380691199   T   T   T
  0.4132778520489747  0.9359375140846938  0.1394316996251423   T   T   T
  0.1633522652655671  0.5611219034688767  0.1666100557291486   T   T   T
  0.3300655309586751  0.5611763329243569  0.1666143149956940   T   T   T
  0.4966735132666608  0.5613143445132740  0.1666084968636567   T   T   T
  0.1634057826845990  0.8111245686974132  0.1665910000536228   T   T   T
  0.3300850900963584  0.8111553203765340  0.1666024398781430   T   T   T
  0.4967619991312656  0.8112049045567197  0.1666211355053128   T   T   T
  0.0800822157867505  0.6881925991554803  0.1919712937348237   T   T   T
  0.2467068333563943  0.6881221219684818  0.1919759686841516   T   T   T
  0.4133475046956305  0.6882291246842945  0.1919753078160491   T   T   T
  0.0801230897154964  0.9380717271862474  0.1919612821236422   T   T   T
  0.2467255675002905  0.9380313168790667  0.1919569472388610   T   T   T
  0.4133481523754206  0.9381264746389313  0.1919733952904252   T   T   T
  0.0798152855128780  0.6860974006642687  0.0858708791274675   T   T   T
  0.2465121393890865  0.6860935431555047  0.0858807473368783   T   T   T
  0.4131847142326411  0.6861075288455373  0.0858797714361098   T   T   T
  0.0798297785855884  0.9360460270048691  0.0858489009507650   T   T   T
  0.2465210716408343  0.9360720467789205  0.0858707909094746   T   T   T
  0.4131725970013443  0.9360660088713995  0.0858765501558844   T   T   T
  0.1631978304057083  0.5609939734683232  0.1130470651290474   T   T   T
  0.3299144314813114  0.5610027566570901  0.1130500606889827   T   T   T
  0.4965546913881305  0.5609616452604349  0.1130542047101573   T   T   T
  0.1632225487721839  0.8109448461249785  0.1130225189819064   T   T   T
  0.3299138339082620  0.8109532886382256  0.1130352930496906   T   T   T
  0.4965980483316988  0.8109904288279420  0.1130619638563350   T   T   T
  0.9965675121210420  0.0629689469150571  0.0604620927398921   T   T   T
  0.6633175842643010  0.0631622050588388  0.0606042558304507   T   T   T
  0.8298952790802120  0.0630796961880983  0.0605524964509976   T   T   T
  0.9964975709802510  0.3130561023398926  0.0604766448971506   T   T   T
  0.6632086467175571  0.3130255325785082  0.0606105287299053   T   T   T
  0.8298796102086932  0.3130586164194116  0.0605495974849303   T   T   T
  0.5799032792732290  0.1859987319085127  0.1394440674922343   T   T   T
  0.7465969965037733  0.1862976697683993  0.1396529920821939   T   T   T
  0.9133018896262360  0.1859255843622739  0.1393299425844618   T   T   T
  0.5799149193189113  0.4360497314175978  0.1394720134053334   T   T   T
  0.7466261126990029  0.4360080336497786  0.1395058012281588   T   T   T
  0.9133369199833711  0.4360415602849083  0.1394439983298902   T   T   T
  0.6635547421529796  0.0614512066112348  0.1667532419415034   T   T   T
  0.8297826910257072  0.0613324512286550  0.1666748431728045   T   T   T
  0.9969228834019848  0.0607896900249262  0.1664821739459610   T   T   T
  0.6632603458825463  0.3112448513571174  0.1668225272090988   T   T   T
  0.8302508742633516  0.3112823260606000  0.1666739057075747   T   T   T
  0.9967906659015073  0.3111150659325801  0.1665650621678076   T   T   T
  0.5796924490548609  0.1875542020415394  0.1917724744921610   T   T   T
  0.7466584372271443  0.1899614849511030  0.1927421993619104   T   T   T
  0.9138637920818374  0.1869073852519170  0.1915240628264604   T   T   T
  0.5798501745880398  0.4385411861786913  0.1919937083414392   T   T   T
  0.7466520446173729  0.4380022308326539  0.1920219923059661   T   T   T
  0.9134559953221568  0.4384803581240513  0.1919371543103661   T   T   T
  0.5798501376705427  0.1861173200774719  0.0859157365784814   T   T   T
  0.7465276785394963  0.1861735183298826  0.0860131101112261   T   T   T
  0.9131608663560657  0.1860772472355978  0.0858306535584609   T   T   T
  0.5798443636460906  0.4360668929658049  0.0859210203732480   T   T   T
  0.7465012011477781  0.4360975650268018  0.0859391254008910   T   T   T
  0.9131460157652926  0.4361028500075055  0.0858912207688646   T   T   T
  0.6632679175145403  0.0610835237750164  0.1131366776375270   T   T   T
  0.8298377230932255  0.0610363595650585  0.1130889993647317   T   T   T
  0.9965634767833111  0.0609118406415277  0.1129872045203190   T   T   T
  0.6632079564101798  0.3110178409692989  0.1131609912032264   T   T   T
  0.8299198176226069  0.3110483158560467  0.1130917733160115   T   T   T
  0.9965592346580915  0.3109584293976576  0.1130035713133305   T   T   T
  0.9965585249036605  0.5630258237754689  0.0605109564447344   T   T   T
  0.6632693664274357  0.5630454954728786  0.0605521735571429   T   T   T
  0.8299471831264116  0.5630505233694953  0.0605371302171747   T   T   T
  0.9964721569935425  0.8130149519701130  0.0605003894376765   T   T   T
  0.6631752663785537  0.8130922856145895  0.0605448622054644   T   T   T
  0.8298398921812232  0.8130778381014208  0.0605229114006868   T   T   T
  0.5799647743793465  0.6860379246255841  0.1394598383665786   T   T   T
  0.7466069328074317  0.6860736834853319  0.1394643625523605   T   T   T
  0.9132817395618096  0.6860218005370413  0.1394528172949315   T   T   T
  0.5800245669502109  0.9361106863459879  0.1394968021282601   T   T   T
  0.7465722313356861  0.9360127693026855  0.1394787130577211   T   T   T
  0.9131919588685842  0.9360729026479817  0.1394586130255971   T   T   T
  0.6634279973390480  0.5612101623680330  0.1666163317017808   T   T   T
  0.8300100503655048  0.5611986333106370  0.1666210253063797   T   T   T
  0.9968224734878952  0.5612365121783657  0.1665910768778195   T   T   T
  0.6634047077818211  0.8111886727187083  0.1666393423805431   T   T   T
  0.8300751099232930  0.8111894823882745  0.1666227928843638   T   T   T
  0.9967552412576093  0.8111884876638055  0.1665947409752104   T   T   T
  0.5800670793146629  0.6882081890087004  0.1919917745892513   T   T   T
  0.7467234196152511  0.6881861088392384  0.1919982828776794   T   T   T
  0.9134047731333850  0.6882048300698264  0.1919653483234460   T   T   T
  0.5800762737330795  0.9382452268986587  0.1920147431026559   T   T   T
  0.7467044681837899  0.9381020322814219  0.1920275146844227   T   T   T
  0.9133921723797460  0.9381857664520586  0.1919662046203888   T   T   T
  0.5798472564056980  0.6860936653866149  0.0859022411025274   T   T   T
  0.7464922420688648  0.6861240612999292  0.0859077245545697   T   T   T
  0.9131193955473803  0.6861147068024060  0.0858919546237709   T   T   T
  0.5798813339980929  0.9361565861684895  0.0859262920608712   T   T   T
  0.7464707499934845  0.9361020498992676  0.0859271113499500   T   T   T
  0.9131041231614037  0.9361014207382465  0.0858918093122375   T   T   T
  0.6632309263440479  0.5609976838420818  0.1130770272860762   T   T   T
  0.8299005426435158  0.5609927231271362  0.1130734556225463   T   T   T
  0.9965471975484276  0.5609779064316301  0.1130345613238078   T   T   T
  0.6632104778798663  0.8109945035771903  0.1130744608616328   T   T   T
  0.8298577456443392  0.8109991647014169  0.1130668211238416   T   T   T
  0.9965186656324726  0.8109639211180221  0.1130340945867146   T   T   T
  0.0369148234934668  0.1779808569284879  0.0274467014744279   T   T   T
  0.2032705432762588  0.1778532081045182  0.0275530775220869   T   T   T
  0.3699846842121214  0.1778660601009704  0.0275333772327480   T   T   T
  0.0366994047850072  0.4279727593250708  0.0274975228504620   T   T   T
  0.2030494207824336  0.4277531840521447  0.0275794683313801   T   T   T
  0.3697566190677480  0.4277457287893091  0.0275719131752802   T   T   T
  0.1621662744098014  0.0265245615671809  0.0450341350757296   T   T   T
  0.3287700295945464  0.0265704596865316  0.0450340125488794   T   T   T
  0.4955241783359445  0.0266025489056623  0.0450519813487200   T   T   T
  0.1620415509836399  0.2765970008475093  0.0450428455243154   T   T   T
  0.3286922672318149  0.2765879583903696  0.0450407794493738   T   T   T
  0.4954302739640094  0.2765959426411129  0.0450383970509388   T   T   T
  0.4146300436357685  0.4017257354954759  0.2074330071926521   T   T   T
  0.4143960192625099  0.1515713097826119  0.2074011206956255   T   T   T
  0.0812297399831801  0.1514821293942786  0.2074187081656640   T   T   T
  0.2478781062561942  0.1516143435632834  0.2074227297863332   T   T   T
  0.0813508804266526  0.4014964081009872  0.2074617481961973   T   T   T
  0.2478670854979456  0.4016215468083755  0.2074349858220433   T   T   T
  0.0406764143187202  0.0523279780191263  0.2248297777737345   T   T   T
  0.2073254304794485  0.0524060473452026  0.2248433606534313   T   T   T
  0.3739124256886867  0.0524436868952569  0.2248216346014566   T   T   T
  0.0352024352176920  0.3034721780446847  0.2257279777075355   T   T   T
  0.2074821531122719  0.3023206774295106  0.2247987283341534   T   T   T
  0.3739760287333659  0.3024022108162587  0.2248116090425100   T   T   T
  0.0367311012916461  0.6779716802438214  0.0275057562084106   T   T   T
  0.2034171479039211  0.6778900087401505  0.0275250164358301   T   T   T
  0.3700665209805423  0.6778749576526789  0.0275350172596851   T   T   T
  0.0365852198652107  0.9278171674471434  0.0275029046005316   T   T   T
  0.2030960193061399  0.9277134250607179  0.0275566467117842   T   T   T
  0.3698722480834007  0.9277779623777235  0.0275441867699728   T   T   T
  0.1620959369834579  0.5265647778828397  0.0450573782305741   T   T   T
  0.3288229224494721  0.5265547218382896  0.0450532288915068   T   T   T
  0.4954943671292696  0.5265340135742892  0.0450617513950177   T   T   T
  0.1620828722403100  0.7764978506174973  0.0450341679327856   T   T   T
  0.3287431523305960  0.7765441924974109  0.0450314215076473   T   T   T
  0.4954941009020452  0.7765959809039927  0.0450589483309494   T   T   T
  0.4145052917334685  0.9016558505007873  0.2074370905734051   T   T   T
  0.4145399163009940  0.6517454488719627  0.2074339191289022   T   T   T
  0.0812839898355720  0.6517372541201081  0.2074345497035934   T   T   T
  0.2479177953672587  0.6516980751763808  0.2074488839123385   T   T   T
  0.0813107486340986  0.9015833214878899  0.2074194370131502   T   T   T
  0.2479273087966900  0.9015944021109086  0.2074266747934426   T   T   T
  0.0405422436503585  0.5529804811212543  0.2248244820353947   T   T   T
  0.2072156769705622  0.5527980607828087  0.2248039678302110   T   T   T
  0.3737768853343894  0.5527408180966761  0.2248058979934626   T   T   T
  0.0405559700771299  0.8025670632684763  0.2248497371344816   T   T   T
  0.2071574096794605  0.8026562257276405  0.2248651465534494   T   T   T
  0.3739564867590627  0.8024793973994001  0.2248430120276775   T   T   T
  0.5370230634791331  0.1780294009650680  0.0274869985264953   T   T   T
  0.7031765063211355  0.1780072122159409  0.0276867796820085   T   T   T
  0.8696939492144028  0.1777923236850928  0.0275436050136727   T   T   T
  0.5369391033180486  0.4279456601709468  0.0274996809731582   T   T   T
  0.7029660048921158  0.4276715616036689  0.0276352445089469   T   T   T
  0.8695173562104851  0.4277230471556762  0.0275967023237430   T   T   T
  0.6622460195752903  0.0266573483257821  0.0451482124593156   T   T   T
  0.8284780849885813  0.0266054933044731  0.0450896639832775   T   T   T
  0.9953638756880017  0.0265596729105475  0.0449842237826895   T   T   T
  0.6620265313571981  0.2764553800018449  0.0451677857676318   T   T   T
  0.8286893470196983  0.2765562952215574  0.0450928181452739   T   T   T
  0.9952971472601537  0.2766748428876472  0.0449896881321238   T   T   T
  0.9142754019609197  0.4022698946873536  0.2074288927830985   T   T   T
  0.9148622952341161  0.1505390450874906  0.2070051267663016   T   T   T
  0.5806717137580466  0.1513475720074842  0.2072902285513116   T   T   T
  0.7481092415800109  0.1527942349965879  0.2080542075898703   T   T   T
  0.5808739428444291  0.4019268387872078  0.2074149658846652   T   T   T
  0.7469772863830009  0.4015748652511120  0.2075019409563865   T   T   T
  0.5403480246237412  0.0526539090100715  0.2248612230163906   T   T   T
  0.7074153845791493  0.0521332340512565  0.2250003463732729   T   T   T
  0.8740066120759888  0.0522615326540672  0.2249334075847177   T   T   T
  0.5430218787765176  0.3008545193719773  0.2239980733264078   T   T   T
  0.6887471786291196  0.3101873481552601  0.2284226907054491   T   T   T
  0.8907745396169446  0.2951588261091604  0.2228761653212352   T   T   T
  0.7730629609823058  0.3059549878119924  0.2737912201205808   T   T   T
  0.7460084389237607  0.2382234776893857  0.2932598458136593   T   T   T
  0.7857431097314894  0.3199394843859832  0.3029723075877345   T   T   T
  0.6569820284073211  0.1941802889390019  0.3097695492839115   T   T   T
  0.7108066442358197  0.1300401443720541  0.3022958470893638   T   T   T
  0.8255556205630543  0.3663312440637019  0.3334621540846109   T   T   T
  0.7424676890168258  0.3778298781276845  0.3308311059533796   T   T   T
  0.7591206758602276  0.3958926731176446  0.2520687535615887   T   T   T
  0.7929681082624613  0.3236193145192000  0.2386537186666167   T   T   T
  0.5368108280012731  0.6779708281278926  0.0275224217200389   T   T   T
  0.7033171289557070  0.6778797050820482  0.0275713015080910   T   T   T
  0.8697273557459755  0.6778225226760444  0.0275864556341111   T   T   T
  0.5366194024855315  0.9279175097459115  0.0275517717147085   T   T   T
  0.7029921021491939  0.9277684194030351  0.0276089856576222   T   T   T
  0.8696401308885541  0.9278163735150808  0.0275847643982649   T   T   T
  0.6620796201820865  0.5265473748647294  0.0450942772818252   T   T   T
  0.8287671257759037  0.5265612778600446  0.0450780132998747   T   T   T
  0.9953207568516240  0.5265917168532459  0.0450395690629730   T   T   T
  0.6619744718552182  0.7766252517073285  0.0450807861094800   T   T   T
  0.8286471398898660  0.7766033504392746  0.0450589485761422   T   T   T
  0.9951970975900762  0.7765593901439517  0.0450313296717567   T   T   T
  0.9145746340993205  0.9017364201200329  0.2074348479942163   T   T   T
  0.9146096434446700  0.6518047387825384  0.2074410325607311   T   T   T
  0.5812647530317181  0.6517483712831174  0.2074544593044907   T   T   T
  0.7480115566819594  0.6517971719123925  0.2074752770788792   T   T   T
  0.5812259076202314  0.9017518363623014  0.2074721726120897   T   T   T
  0.7479138013115403  0.9016304950895992  0.2074932087080381   T   T   T
  0.5401078129430610  0.5530955611944349  0.2248308174306126   T   T   T
  0.7071995798922434  0.5538940717098089  0.2246885090661920   T   T   T
  0.8738088777594276  0.5532032429754492  0.2247793621318894   T   T   T
  0.5405719233398801  0.8025470193452372  0.2248649662427089   T   T   T
  0.7071203230980503  0.8027249765855451  0.2248836704764721   T   T   T
  0.8740813467332639  0.8024515569501219  0.2248524614722516   T   T   T
  0.0841854954350145  0.1660830353612705  0.0338966526186980   T   T   T
  0.2507424811054910  0.1662359040519815  0.0339189288461440   T   T   T
  0.4174184511652355  0.1661866978521555  0.0339120788093879   T   T   T
  0.0840371294998163  0.4161800268388343  0.0339222062262663   T   T   T
  0.2505784007497823  0.4162793790667189  0.0339270807502544   T   T   T
  0.4172582348025193  0.4162077912564129  0.0339249722297072   T   T   T
  0.1596921303347560  0.0412754070186983  0.2185230671210161   T   T   T
  0.3262391245418315  0.0411862819323551  0.2185471376717945   T   T   T
  0.4927569058679573  0.0413365264410491  0.2185409399272379   T   T   T
  0.1597743739392934  0.2912578854415418  0.2185285966783583   T   T   T
  0.3263076087012391  0.2911346186775821  0.2185395021185520   T   T   T
  0.4938580400790651  0.2910887055459322  0.2184630771658809   T   T   T
  0.0840685706999607  0.6660998901702787  0.0339168227309882   T   T   T
  0.2508202066689068  0.6661819297037904  0.0339198805511656   T   T   T
  0.4174728791972157  0.6661561482313113  0.0339269466168762   T   T   T
  0.0839683410832393  0.9160181693586875  0.0338956392472234   T   T   T
  0.2506068152045867  0.9162200641776815  0.0339136004416844   T   T   T
  0.4173295749516566  0.9161718077512089  0.0339170177795080   T   T   T
  0.1595887381003276  0.5412604867251427  0.2185438727151316   T   T   T
  0.3261088151826596  0.5412535920438963  0.2185625702044574   T   T   T
  0.4925027997731922  0.5416166282965225  0.2185466533163347   T   T   T
  0.1595608922019196  0.7913272975776359  0.2185501645605762   T   T   T
  0.3262743289435919  0.7912778957384109  0.2185630612577512   T   T   T
  0.4929289203422855  0.7913734925716778  0.2185538653155285   T   T   T
  0.5842791352385817  0.1661240617565576  0.0339551081631648   T   T   T
  0.7506597583572707  0.1664457359269481  0.0340501639687662   T   T   T
  0.9171852198368481  0.1660876152119387  0.0338794909528820   T   T   T
  0.5842109837922185  0.4161124728307746  0.0339644813667822   T   T   T
  0.7504789739846488  0.4161490640431554  0.0339855716457210   T   T   T
  0.9170609965509647  0.4162409179290640  0.0339302661069123   T   T   T
  0.6597576743039872  0.0412871799070195  0.2186534876656946   T   T   T
  0.8263570302438806  0.0413457652982859  0.2185874815644318   T   T   T
  0.9930568877579260  0.0414839031901416  0.2184531486468615   T   T   T
  0.6493307509086009  0.2915344850278957  0.2186579272096577   T   T   T
  0.8393676764560711  0.2913625459019416  0.2186119188872324   T   T   T
  0.9897373926608755  0.2896350399156830  0.2184128550384894   T   T   T
  0.7847975010124512  0.2799016213357344  0.2896253002929642   T   T   T
  0.6902542186767513  0.1789132368600572  0.2975833191312309   T   T   T
  0.7876377063674336  0.3767546455095942  0.3222368089172393   T   T   T
  0.7566731467274962  0.3403819708994389  0.2508866667336999   T   T   T
  0.5841377056123149  0.6661283823387449  0.0339492006223897   T   T   T
  0.7507326565388198  0.6661612476073845  0.0339571352230669   T   T   T
  0.9172328701618481  0.6662281365858876  0.0339297038729849   T   T   T
  0.5840077838174094  0.9162573416534555  0.0339649264282084   T   T   T
  0.7504974857922598  0.9162564986469848  0.0339657632507460   T   T   T
  0.9171463842739455  0.9162380976474940  0.0339300805708983   T   T   T
  0.6596368909833309  0.5414199746571906  0.2185456108637617   T   T   T
  0.8261926266413193  0.5413757060079288  0.2185571702248747   T   T   T
  0.9929588124610409  0.5414757187079836  0.2185272620265419   T   T   T
  0.6595116849788029  0.7913090759976137  0.2185944484563939   T   T   T
  0.8263909896175203  0.7912974660727297  0.2185713886506291   T   T   T
  0.9929267142745861  0.7913776891265039  0.2185328167876317   T   T   T
  0.2467249337174044  0.1216689977152933  0.0599284124888801   T   T   T
  0.4133859407736967  0.1216552692818725  0.0599332632320584   T   T   T
  0.0799388315080067  0.3716487429902611  0.0599415923105459   T   T   T
  0.2466447734669522  0.3716987049448706  0.0599390420457699   T   T   T
  0.4133180350799582  0.3716546467088374  0.0599424550002349   T   T   T
  0.0800114840197542  0.1215779674886830  0.0599129089517092   T   T   T
  0.4966070058228865  0.4984838367179567  0.1396798685699018   T   T   T
  0.1632955306909454  0.4984271661033303  0.1396596154985902   T   T   T
  0.3299266827572284  0.4984392252407713  0.1396659838606170   T   T   T
  0.4966051486971439  0.2484263076860480  0.1396512673733390   T   T   T
  0.1633148318317366  0.2483978426498999  0.1396422338924897   T   T   T
  0.3299362498872440  0.2484103979080573  0.1396574200060880   T   T   T
  0.0801190167168504  0.1230456888302050  0.1658727575598941   T   T   T
  0.2467103395916205  0.1231146014182248  0.1659074951138969   T   T   T
  0.4133060260161013  0.1230896725335879  0.1659142689365241   T   T   T
  0.0801288344621901  0.3732089012409792  0.1659368630203525   T   T   T
  0.2467155002024208  0.3731645239102352  0.1659231892149937   T   T   T
  0.4133668338981650  0.3732539558434789  0.1659517566731032   T   T   T
  0.1632722582224294  0.4966508271528337  0.1925341606981872   T   T   T
  0.3298842152805860  0.4967080084130278  0.1925351165758598   T   T   T
  0.4964434891115364  0.4969779197580628  0.1925368210786643   T   T   T
  0.1633714362740770  0.2467273402284980  0.1925364356041477   T   T   T
  0.4964122274552661  0.2464990789159996  0.1924819995643202   T   T   T
  0.3298966025223928  0.2466236565185766  0.1925015321921857   T   T   T
  0.4965111788053260  0.4980838956975598  0.0865632381720293   T   T   T
  0.1631720227662593  0.4981498971790860  0.0865486121591681   T   T   T
  0.3298823575345613  0.4981472342425255  0.0865537935897139   T   T   T
  0.4964883475261996  0.2481125192348070  0.0865478569299736   T   T   T
  0.1631744069400136  0.2481348692106466  0.0865300186414065   T   T   T
  0.3298614923724093  0.2481447220529981  0.0865430829558365   T   T   T
  0.0798675506296758  0.1233447056033829  0.1127748757993235   T   T   T
  0.2465518427655352  0.1233715066185747  0.1128273806509886   T   T   T
  0.4132260465590892  0.1233819314023986  0.1128122071271674   T   T   T
  0.0798638126403317  0.3733891117246823  0.1128091253750995   T   T   T
  0.2465475936737417  0.3733985198497835  0.1128386775803744   T   T   T
  0.4132106957753461  0.3734023244779444  0.1128269224885781   T   T   T
  0.2467373997317588  0.6216670076533688  0.0599336432356864   T   T   T
  0.4134081280535632  0.6216327573725681  0.0599461047261536   T   T   T
  0.0799345338717991  0.8715557119192123  0.0599236242225506   T   T   T
  0.2466540017588024  0.8716472936686005  0.0599220685642691   T   T   T
  0.4133210425538786  0.8716371379174959  0.0599381211791473   T   T   T
  0.0799872277281089  0.6216177226332518  0.0599403172743511   T   T   T
  0.4966032479616607  0.9983447111947080  0.1396514661888830   T   T   T
  0.1633135767431763  0.9983172659190510  0.1396198834339229   T   T   T
  0.3299254516088711  0.9983413688685233  0.1396405904671832   T   T   T
  0.4966616973127430  0.7484503459780441  0.1396750607805408   T   T   T
  0.1633051419355629  0.7484044345807910  0.1396455129243618   T   T   T
  0.3299380883217042  0.7484150869551767  0.1396581979772887   T   T   T
  0.0800927643637003  0.6232846391997177  0.1659353721611908   T   T   T
  0.2466967430700144  0.6231792340153847  0.1659391306768316   T   T   T
  0.4133479357006566  0.6233006800806955  0.1659461667331293   T   T   T
  0.0800885909299365  0.8731809112561641  0.1659195554703894   T   T   T
  0.2467264906467075  0.8731370586583079  0.1659143207283712   T   T   T
  0.4133888271135265  0.8731999679499792  0.1659462972196956   T   T   T
  0.1633285346702698  0.9966498908092334  0.1925139597562274   T   T   T
  0.3299273389222450  0.9966582536633088  0.1925193571192685   T   T   T
  0.4965664285590770  0.9967186829214963  0.1925282914486304   T   T   T
  0.1633045968336592  0.7467414993241016  0.1925303934381353   T   T   T
  0.4966099761571773  0.7467738248739650  0.1925436352348191   T   T   T
  0.3299345949548808  0.7467457642453916  0.1925336586235220   T   T   T
  0.4965083729981641  0.9981125485018445  0.0865554475334128   T   T   T
  0.1631822704384777  0.9980939937217698  0.0865209082950796   T   T   T
  0.3298842914724078  0.9981270923485939  0.0865381260725328   T   T   T
  0.4965231909767683  0.7481319115816587  0.0865609006481581   T   T   T
  0.1631648478397785  0.7481143098868104  0.0865273243457722   T   T   T
  0.3298732576491606  0.7481305581679275  0.0865362730056856   T   T   T
  0.0798575189234498  0.6234119150896256  0.1128142902313316   T   T   T
  0.2465511428158642  0.6234022215331650  0.1128397522242467   T   T   T
  0.4132347139047438  0.6234121638006549  0.1128258043944754   T   T   T
  0.0798693421155516  0.8733152384023182  0.1127894239267715   T   T   T
  0.2465535603399278  0.8733405644546965  0.1128155395419660   T   T   T
  0.4132280481575488  0.8733502343645082  0.1128199427918334   T   T   T
  0.7467066168329447  0.1217759036204020  0.0600483471821102   T   T   T
  0.9133107054939921  0.1216183492522564  0.0599017834172458   T   T   T
  0.5799788765997537  0.3716249974801695  0.0599817047038004   T   T   T
  0.7466140139952159  0.3716224234579574  0.0600067644514942   T   T   T
  0.9132501159321612  0.3716876170943188  0.0599439799413246   T   T   T
  0.5800511103729015  0.1216894829400095  0.0599779671170212   T   T   T
  0.9966533017176100  0.4984832393014901  0.1396510638389938   T   T   T
  0.6632380807565953  0.4984269461670396  0.1396837662940040   T   T   T
  0.8300008540958544  0.4984413775066778  0.1396824335606594   T   T   T
  0.9966046858999688  0.2483434386855758  0.1395782248958848   T   T   T
  0.6631050191368196  0.2485054058046771  0.1398098154929088   T   T   T
  0.8300746343999873  0.2484553278326836  0.1396775186688090   T   T   T
  0.5798899056754165  0.1230120899068156  0.1658870619687590   T   T   T
  0.7466259330605609  0.1240355456659986  0.1662926541737549   T   T   T
  0.9135368008509374  0.1224842638993727  0.1656496170006095   T   T   T
  0.5798771734748444  0.3733712266494706  0.1659932383761651   T   T   T
  0.7466124941585017  0.3731156721400501  0.1659942270922158   T   T   T
  0.9135465206906439  0.3734115790419974  0.1659353247244305   T   T   T
  0.6631661247565904  0.4968672713372184  0.1925285292486431   T   T   T
  0.8299646517223515  0.4968241385400473  0.1925342727683181   T   T   T
  0.9967354256739125  0.4968848534772474  0.1925191167340824   T   T   T
  0.6620163504123813  0.2474836494981960  0.1929447604982451   T   T   T
  0.9967633730517781  0.2458937263747359  0.1922264232862771   T   T   T
  0.8313153943209687  0.2463824803926311  0.1923598701912889   T   T   T
  0.9965108555314349  0.4981253047275945  0.0865419768317358   T   T   T
  0.6631988969516558  0.4981379693545261  0.0865853152568061   T   T   T
  0.8298319196702516  0.4981520934523188  0.0865734814803705   T   T   T
  0.9965264251318190  0.2480813263868117  0.0864956343733738   T   T   T
  0.6631992679248327  0.2481603079334491  0.0866520018521325   T   T   T
  0.8298564091713345  0.2481576226592970  0.0865859185209453   T   T   T
  0.5798655381122092  0.1233950217036016  0.1128582659020723   T   T   T
  0.7465510268533017  0.1235155537822929  0.1129710122592308   T   T   T
  0.9132296783943836  0.1233298087163229  0.1127528497876083   T   T   T