C H O Si                                
   1.00000000000000     
    18.5749199999999988    0.0000000000000000    0.0000000000000000
     0.0000000000000000   17.5126199999999983    0.0000000000000000
     0.0000000000000000    0.0000000000000000   58.0000000000000000
   C    H    O    Si
   144   105    52   144
Selective dynamics
Direct
  0.4967526391402108  0.0631491755593351  0.0605089217420873   T   T   T
  0.1633999341863432  0.0630391763664594  0.0604898854536843   T   T   T
  0.3300244862911446  0.0631073654717198  0.0604974463425216   T   T   T
  0.4966627063551898  0.3131589687692541  0.0604971719912778   T   T   T
  0.1633188876467196  0.3131171185138383  0.0604954043104867   T   T   T
  0.3299553266520901  0.3131540890838063  0.0604933984156874   T   T   T
  0.0797856876305586  0.1858877545497139  0.1393931655557887   T   T   T
  0.2464159184218377  0.1859332110308465  0.1394215090325769   T   T   T
  0.4130748709758589  0.1859835649199957  0.1394247494695475   T   T   T
  0.0797401576346757  0.4359887419613644  0.1394262259245810   T   T   T
  0.2463963528625672  0.4360075137508837  0.1394295099364751   T   T   T
  0.4130559728708048  0.4360527665880100  0.1394346776972615   T   T   T
  0.1632762163850021  0.0609568240774007  0.1666127487531191   T   T   T
  0.3298651515455727  0.0610134448870107  0.1666180602572199   T   T   T
  0.4964373984759852  0.0609305278690435  0.1666135382026857   T   T   T
  0.1632016504600491  0.3110367284487872  0.1666271554940943   T   T   T
  0.3298243281687447  0.3110962974914080  0.1666313535771352   T   T   T
  0.4964302349165058  0.3111823494591006  0.1666206972429151   T   T   T
  0.0802352554687309  0.1879460986318454  0.1919815152562791   T   T   T
  0.2466977582374422  0.1880546301875109  0.1920041921583725   T   T   T
  0.4131795823114242  0.1879610579720712  0.1919744463781007   T   T   T
  0.0800078864633127  0.4380116785848701  0.1920247749399018   T   T   T
  0.2466975552183279  0.4380953352492917  0.1920098182222475   T   T   T
  0.4133529566574858  0.4381462510541050  0.1920133703802039   T   T   T
  0.0798260189762137  0.1860951648508389  0.0857978904954212   T   T   T
  0.2464876807030097  0.1861241489731752  0.0858386806106804   T   T   T
  0.4131565663454679  0.1861551347655114  0.0858387459111029   T   T   T
  0.0798420154090866  0.4361493493949609  0.0858341051697294   T   T   T
  0.2465129297608403  0.4361391732723597  0.0858493640767667   T   T   T
  0.4131779402694958  0.4361393295186766  0.0858495448890159   T   T   T
  0.1631194924498371  0.0609179707814595  0.1130152096052279   T   T   T
  0.3297663956105890  0.0609607558095541  0.1130277072181683   T   T   T
  0.4964057174439431  0.0609948566734941  0.1130529046880094   T   T   T
  0.1631099127424115  0.3109647470012926  0.1130307849570267   T   T   T
  0.3297801430484292  0.3109786804617130  0.1130380202068649   T   T   T
  0.4964167706057070  0.3110153547583421  0.1130453758271870   T   T   T
  0.4967600195474561  0.5630985885590450  0.0605095762817532   T   T   T
  0.1633874677837176  0.5631149652990058  0.0605005814341724   T   T   T
  0.3300666088659427  0.5631054922520363  0.0605021470452627   T   T   T
  0.4966979510716551  0.8131542419388333  0.0605084702590614   T   T   T
  0.1633388263229289  0.8130453146887103  0.0604800043916602   T   T   T
  0.3299873684169810  0.8131123936718588  0.0604869234970847   T   T   T
  0.0797367714312819  0.6860390583776991  0.1394281616429647   T   T   T
  0.2463992564006709  0.6859921401885938  0.1394341040433979   T   T   T
  0.4130598315504137  0.6860628128330239  0.1394359487844021   T   T   T
  0.0798184113445542  0.9358234948211924  0.1393799442531664   T   T   T
  0.2464165180072970  0.9359129113456421  0.1394145049556740   T   T   T
  0.4130620552424764  0.9359348957437745  0.1394198085675502   T   T   T
  0.1631570069753048  0.5610898682429519  0.1666404817232976   T   T   T
  0.3298347869564991  0.5611256300771502  0.1666425092204390   T   T   T
  0.4964277333994754  0.5612468696575111  0.1666385907538644   T   T   T
  0.1632013251752647  0.8110794991068769  0.1666364121630351   T   T   T
  0.3298642133788835  0.8110877527495030  0.1666386592284735   T   T   T
  0.4965297268616511  0.8111477399273755  0.1666533239859951   T   T   T
  0.0800739869034638  0.6881412721724619  0.1920187298222088   T   T   T
  0.2467369043225958  0.6881398819185476  0.1920223618170507   T   T   T
  0.4133876285660936  0.6881794415068865  0.1920269086930828   T   T   T
  0.0801048781583082  0.9380615318496525  0.1919985802465296   T   T   T
  0.2467615336625551  0.9380758473262839  0.1920063392312891   T   T   T
  0.4133935851020631  0.9380905179922202  0.1920228059897874   T   T   T
  0.0797981835228013  0.6861516760840661  0.0858332923056600   T   T   T
  0.2465230412849525  0.6860953389478136  0.0858382835546069   T   T   T
  0.4131921516926623  0.6861455008563270  0.0858425043402072   T   T   T
  0.0798303327121978  0.9360571785092952  0.0857983398319715   T   T   T
  0.2465174675037039  0.9360658240926890  0.0858309697864197   T   T   T
  0.4131829170453944  0.9361364912394289  0.0858375783081789   T   T   T
  0.1630700223454659  0.5610009583613461  0.1130377990082582   T   T   T
  0.3297542466607130  0.5610019212853662  0.1130445123146889   T   T   T
  0.4963920128643105  0.5610281475280006  0.1130542220358047   T   T   T
  0.1631480090295847  0.8109177878537186  0.1130153893034615   T   T   T
  0.3297860974182389  0.8109633617629877  0.1130259189619404   T   T   T
  0.4964549436344332  0.8110486098479319  0.1130552641465332   T   T   T
  0.9966459199543043  0.0631282905920041  0.0604502827668898   T   T   T
  0.6634085686500487  0.0631360018633393  0.0605825843449122   T   T   T
  0.8299827499719884  0.0631488227047067  0.0605371105240999   T   T   T
  0.9966101694356716  0.3131911441672326  0.0604508736941981   T   T   T
  0.6633476197941477  0.3130598406087445  0.0605868996590233   T   T   T
  0.8299676202505124  0.3131400242158724  0.0605233463786666   T   T   T
  0.5797350665769738  0.1860397893005497  0.1394389277201991   T   T   T
  0.7463944165579482  0.1861914811164269  0.1396562965542820   T   T   T
  0.9131188591343192  0.1858599311078236  0.1393189226872666   T   T   T
  0.5796946526827697  0.4360975622099425  0.1394576742967488   T   T   T
  0.7463863043937711  0.4359804279243423  0.1394892333277735   T   T   T
  0.9130922798691872  0.4360577700228990  0.1394254893383095   T   T   T
  0.6633488306131009  0.0614391901024437  0.1667889044171194   T   T   T
  0.8295621138195201  0.0612551047151028  0.1667134328091492   T   T   T
  0.9967157901539021  0.0607448589417247  0.1665432626266023   T   T   T
  0.6630682559667668  0.3112694215584822  0.1668169136673142   T   T   T
  0.8300047963922811  0.3112598083483597  0.1666782239003538   T   T   T
  0.9965838403889832  0.3110369207495988  0.1665700294394790   T   T   T
  0.5796815201633120  0.1876385165813821  0.1918140693931774   T   T   T
  0.7466612747755395  0.1899073659089805  0.1927446569191641   T   T   T
  0.9136373303827996  0.1868124343204861  0.1915293443908868   T   T   T
  0.5799261326177633  0.4385229153501329  0.1920217315676944   T   T   T
  0.7466838861222080  0.4380982196205097  0.1920717270538695   T   T   T
  0.9135208816707193  0.4384404036201884  0.1919664046123720   T   T   T
  0.5798375381667472  0.1861670475647443  0.0858617966941892   T   T   T
  0.7464984465522934  0.1861834740412028  0.0859965854847363   T   T   T
  0.9131450347891392  0.1861355752948140  0.0857788090944184   T   T   T
  0.5798641782476397  0.4361308563994399  0.0858690694322606   T   T   T
  0.7465295463242662  0.4360884722351746  0.0858791750788630   T   T   T
  0.9131729943272768  0.4361416637705593  0.0858506616075016   T   T   T
  0.6630803130030413  0.0610811783104050  0.1131118654799886   T   T   T
  0.8296849099060090  0.0610388220454938  0.1130891987224481   T   T   T
  0.9964617054964316  0.0608911933551406  0.1129908990497353   T   T   T
  0.6630824676043295  0.3110282675525407  0.1131459786094770   T   T   T
  0.8297875513601340  0.3110107863440310  0.1130832355022688   T   T   T
  0.9964890371658465  0.3109637583368894  0.1129959428392130   T   T   T
  0.9966557602764736  0.5631400008623614  0.0604928503156141   T   T   T
  0.6633903692220053  0.5630641874391816  0.0605301909973879   T   T   T
  0.8300142126092654  0.5630839822372739  0.0605228758696449   T   T   T
  0.9965735066667902  0.8131416136064352  0.0604763430452408   T   T   T
  0.6633124283171615  0.8131416437848458  0.0605210634202663   T   T   T
  0.8299279440017847  0.8131493733746882  0.0605058630094352   T   T   T
  0.5797252108996404  0.6860812161342085  0.1394472520311153   T   T   T
  0.7463872674360628  0.6860847233088744  0.1394512108350535   T   T   T
  0.9130438982784185  0.6860355806026224  0.1394387183695497   T   T   T
  0.5798091308990262  0.9361330229923495  0.1394765809884646   T   T   T
  0.7463678823059239  0.9360259567138481  0.1394655857620598   T   T   T
  0.9130064670962769  0.9360944349370530  0.1394455427654668   T   T   T
  0.6632013568774678  0.5612081402664363  0.1666505887000734   T   T   T
  0.8297628957147144  0.5611551379554442  0.1666473218399792   T   T   T
  0.9965620188471715  0.5612107097209027  0.1666262996274898   T   T   T
  0.6631876764078005  0.8111671179496014  0.1666701269158860   T   T   T
  0.8298275351261224  0.8111727226172671  0.1666523567050719   T   T   T
  0.9965069805985549  0.8111331679910774  0.1666366663373283   T   T   T
  0.5800654179089326  0.6881656078576471  0.1920357160674078   T   T   T
  0.7467523658482581  0.6881871752873265  0.1920342930796053   T   T   T
  0.9133936505119632  0.6881772171428679  0.1920191778707933   T   T   T
  0.5800854328038051  0.9381564073353890  0.1920499153288708   T   T   T
  0.7467352645436677  0.9381688298842755  0.1920712086832796   T   T   T
  0.9133949153912122  0.9381566854318331  0.1920151557243170   T   T   T
  0.5798546092157828  0.6861434870519978  0.0858556747488870   T   T   T
  0.7464895802215865  0.6861378695329375  0.0858543496080728   T   T   T
  0.9131235736101752  0.6861469820554580  0.0858478370817514   T   T   T
  0.5798600638212856  0.9361718790062810  0.0858770491975701   T   T   T
  0.7465057096952640  0.9361432228802447  0.0858687100805979   T   T   T
  0.9131377676671544  0.9361551978291318  0.0858454493012934   T   T   T
  0.6630932869666123  0.5610058764406251  0.1130741119710494   T   T   T
  0.8297186621954372  0.5610079081633638  0.1130664846376983   T   T   T
  0.9964207159419136  0.5610152696296670  0.1130340638954570   T   T   T
  0.6631051432560733  0.8110370062938853  0.1130647748042641   T   T   T
  0.8297317948623669  0.8110268462136269  0.1130544761271103   T   T   T
  0.9964073874890507  0.8109961049503602  0.1130344088969393   T   T   T
  0.0370072064876127  0.1776763943472078  0.0274271095758335   T   T   T
  0.2032502689956555  0.1776328965245992  0.0274990852262230   T   T   T
  0.3700345673707687  0.1776069577512676  0.0274926938218555   T   T   T
  0.0366554626217883  0.4276989393271391  0.0274577321912104   T   T   T
  0.2028749948136236  0.4275900519955015  0.0274977200020690   T   T   T
  0.3696062433181057  0.4275676271782185  0.0274913868889697   T   T   T
  0.1621608579511170  0.0265509003531628  0.0450351862436894   T   T   T
  0.3287485588965037  0.0265801143049685  0.0450484399327525   T   T   T
  0.4955046798374267  0.0266015440292012  0.0450631284218952   T   T   T
  0.1620750500069215  0.2765815670617348  0.0450449136450915   T   T   T
  0.3286924924124088  0.2765741153694067  0.0450526420159501   T   T   T
  0.4954452817660756  0.2765738901194364  0.0450563761016621   T   T   T
  0.4144371649615441  0.4015166910864950  0.2074356090279516   T   T   T
  0.4143089495979071  0.1514343118238952  0.2074220820343129   T   T   T
  0.0810262235853427  0.1513704861150575  0.2074140743577705   T   T   T
  0.2477450477073984  0.1514554172195625  0.2074371777340119   T   T   T
  0.0810865551073407  0.4013317094793391  0.2074521725994493   T   T   T
  0.2476648950408846  0.4014340196838738  0.2074285135211064   T   T   T
  0.0411345641439556  0.0522878159186189  0.2249290784699120   T   T   T
  0.2078030400775758  0.0523254452561172  0.2249430997866463   T   T   T
  0.3744926646624523  0.0523629561556574  0.2249235084692255   T   T   T
  0.0351857614570120  0.3028517923529836  0.2256728162208396   T   T   T
  0.2078211318006857  0.3023398799309935  0.2249406343668002   T   T   T
  0.3745126977326872  0.3023182882482329  0.2249065101126483   T   T   T
  0.0368132693378552  0.6776798890541970  0.0274834787559038   T   T   T
  0.2034119164889628  0.6776320115376510  0.0274914580372071   T   T   T
  0.3701232749280618  0.6776106380176655  0.0275015123543463   T   T   T
  0.0365066223609774  0.9275749692471197  0.0274636296011369   T   T   T
  0.2029486500728729  0.9275267247279907  0.0274841629452694   T   T   T
  0.3697748947180814  0.9275543349981848  0.0274870788676412   T   T   T
  0.1621015327356131  0.5265630404755430  0.0450584758763074   T   T   T
  0.3287740500906045  0.5265574123836487  0.0450569754323699   T   T   T
  0.4954779497363044  0.5265431594181607  0.0450650972922899   T   T   T
  0.1621008289949670  0.7764852921022884  0.0450351902708966   T   T   T
  0.3287313340936536  0.7765387522267606  0.0450466636364724   T   T   T
  0.4954982622453075  0.7765716612838134  0.0450695085983392   T   T   T
  0.4143265276239541  0.9014268210355466  0.2074377838409326   T   T   T
  0.4143686012728930  0.6515093837456979  0.2074438392595520   T   T   T
  0.0810754202056168  0.6515190227467815  0.2074431143203131   T   T   T
  0.2477448318829937  0.6515547262170376  0.2074581106506595   T   T   T
  0.0810790182674086  0.9014014255097436  0.2074175064086242   T   T   T
  0.2477531583132459  0.9014240850982249  0.2074265424458084   T   T   T
  0.0409841878809846  0.5530409526578631  0.2249289663245150   T   T   T
  0.2077004624290050  0.5528638170894480  0.2248924733168773   T   T   T
  0.3743436669954067  0.5527964237359179  0.2249265846943943   T   T   T
  0.0410644316308221  0.8025367768272638  0.2249604049475487   T   T   T
  0.2075957049347198  0.8027003228198331  0.2250017698532809   T   T   T
  0.3745359016050300  0.8023876366087983  0.2249164915638220   T   T   T
  0.5371841762377847  0.1776822095446283  0.0274799220751825   T   T   T
  0.7032462270498179  0.1776684152400656  0.0276638805819035   T   T   T
  0.8696065383862301  0.1776400271184482  0.0274594704706457   T   T   T
  0.5369905710926712  0.4276102407688065  0.0274958980226783   T   T   T
  0.7028249262839882  0.4274870356087102  0.0275641940975746   T   T   T
  0.8693339727608040  0.4275545510467816  0.0275192924428537   T   T   T
  0.6622069319143929  0.0265820990066689  0.0451374156612083   T   T   T
  0.8284750104917775  0.0266051560074729  0.0450929463061139   T   T   T
  0.9953720708448027  0.0265808634667354  0.0450016249291540   T   T   T
  0.6620280399924264  0.2764168288191752  0.0451637541899686   T   T   T
  0.8286830800776598  0.2765185269305930  0.0450926909207460   T   T   T
  0.9953233884208209  0.2766386463941120  0.0450024127717758   T   T   T
  0.9141170238085595  0.4020755022814527  0.2074255476531592   T   T   T
  0.9148777527024189  0.1505532850426361  0.2070349690139596   T   T   T
  0.5805963615895237  0.1512591242706336  0.2072985981632540   T   T   T
  0.7479985799072055  0.1527777878959510  0.2080629286995314   T   T   T
  0.5806324093378328  0.4018227939704213  0.2074206548443291   T   T   T
  0.7467874134717958  0.4014682484515091  0.2074994095514803   T   T   T
  0.5408805864510045  0.0526325579719316  0.2250066508994531   T   T   T
  0.7077818237357202  0.0519820830026497  0.2250965581491532   T   T   T
  0.8745275568393402  0.0521534038534443  0.2250070570181787   T   T   T
  0.5429685903773128  0.3009346180388988  0.2240511709473064   T   T   T
  0.6894177589757825  0.3102353089167285  0.2285542153727665   T   T   T
  0.8911539031963662  0.2951619661161452  0.2228926218903336   T   T   T
  0.7731941115586975  0.3059977653134556  0.2737249724417698   T   T   T
  0.7463447110691239  0.2381420434057939  0.2931890968962678   T   T   T
  0.7859816544587535  0.3198388407856931  0.3028771170495304   T   T   T
  0.6571832561429557  0.1945014607393550  0.3097807190228473   T   T   T
  0.7106882820796961  0.1301859470320503  0.3022631879479234   T   T   T
  0.8253190700991595  0.3663032218154932  0.3336001560895001   T   T   T
  0.7423613588246892  0.3773060157665873  0.3308869350712025   T   T   T
  0.7592391906217546  0.3957624914928334  0.2520454896007145   T   T   T
  0.7928937083341470  0.3234360050221923  0.2386071277623996   T   T   T
  0.5369515117924779  0.6776630197461836  0.0275075121323442   T   T   T
  0.7032917742391612  0.6776234629399498  0.0275365160139128   T   T   T
  0.8696852472762179  0.6776306241021468  0.0275180588052842   T   T   T
  0.5365972939118505  0.9276485549966895  0.0275075727816393   T   T   T
  0.7028286610354824  0.9275736850955298  0.0275380264065236   T   T   T
  0.8694549881897740  0.9276296563139607  0.0275091985280595   T   T   T
  0.6620734645008656  0.5265237697557157  0.0450855484616268   T   T   T
  0.8287299297804718  0.5265449352028621  0.0450776519365844   T   T   T
  0.9953513041616544  0.5265723240740261  0.0450514406357237   T   T   T
  0.6620159694196703  0.7765691771256816  0.0450770082298892   T   T   T
  0.8286497297362689  0.7765673543388192  0.0450696927061586   T   T   T
  0.9952308165730266  0.7765184339101977  0.0450473490756133   T   T   T
  0.9144121893050203  0.9015101523200780  0.2074393433396426   T   T   T
  0.9144441549424634  0.6515671950317944  0.2074491947942746   T   T   T
  0.5810520838256220  0.6515239774930600  0.2074605938333258   T   T   T
  0.7478342286830704  0.6516589708107128  0.2074782391391243   T   T   T
  0.5810297106934654  0.9015264429880999  0.2074765654587482   T   T   T
  0.7478186656311939  0.9014843631655358  0.2074823243704887   T   T   T
  0.5406279661395782  0.5532293424491065  0.2249837642388773   T   T   T
  0.7076737508676154  0.5540183014893785  0.2247546442620931   T   T   T
  0.8743113444469754  0.5532837411063237  0.2248926873061513   T   T   T
  0.5410693495694957  0.8025087215028527  0.2249735237354740   T   T   T
  0.7075577413594155  0.8027709489179556  0.2250289936161931   T   T   T
  0.8746094563282877  0.8023549856164396  0.2249208482449448   T   T   T
  0.0844721676534795  0.1659317829718593  0.0337891626188865   T   T   T
  0.2507878298753673  0.1661054694392866  0.0338399946827685   T   T   T
  0.4175615023524166  0.1659891276429069  0.0338277101405161   T   T   T
  0.0841575055939943  0.4162743659091123  0.0338365730109747   T   T   T
  0.2504609561352731  0.4162116644272983  0.0338296723691939   T   T   T
  0.4171723839177610  0.4162161167013013  0.0338357152593804   T   T   T
  0.1601376033085792  0.0415662984029742  0.2185873324482967   T   T   T
  0.3267989408868930  0.0415643289276058  0.2186020284524149   T   T   T
  0.4933259556052955  0.0416413455598477  0.2186083621119993   T   T   T
  0.1601315099576755  0.2915547685916248  0.2186043902115999   T   T   T
  0.3268105432679467  0.2915219056239334  0.2185866416387942   T   T   T
  0.4937899698097611  0.2912041610316005  0.2185289347325791   T   T   T
  0.0843104456469360  0.6659796683354322  0.0338257621446661   T   T   T
  0.2509456569780459  0.6659980186277042  0.0338209242915922   T   T   T
  0.4176472416861313  0.6659975632565005  0.0338356846723016   T   T   T
  0.0840542927719145  0.9160426754779684  0.0337969149120054   T   T   T
  0.2505068486756697  0.9162114219645334  0.0338316484970888   T   T   T
  0.4173213578386592  0.9161354109040984  0.0338368102350323   T   T   T
  0.1600497345132428  0.5415978480602386  0.2185952085837400   T   T   T
  0.3266911208697646  0.5416327186124763  0.2186078814972875   T   T   T
  0.4931996260227849  0.5416157883981388  0.2185985565517286   T   T   T
  0.1600349709824220  0.7916149072442488  0.2186106147473536   T   T   T
  0.3267894536367174  0.7915730189097135  0.2186165570489982   T   T   T
  0.4934141513696807  0.7916177723257699  0.2186305729746857   T   T   T
  0.5846298801450982  0.1660188190860300  0.0338542928752867   T   T   T
  0.7508309807667893  0.1666494654160084  0.0340590383079094   T   T   T
  0.9172046847292564  0.1659038152300558  0.0337187886651652   T   T   T
  0.5844611787416594  0.4159665940214373  0.0338585297423033   T   T   T
  0.7504720309151544  0.4162196582828437  0.0338689172227459   T   T   T
  0.9169430214993347  0.4162936275977916  0.0338229222762434   T   T   T
  0.6601468667556255  0.0416814647517124  0.2186665337714241   T   T   T
  0.8267997052871252  0.0416393755459616  0.2186577588934863   T   T   T
  0.9934940709903517  0.0415497542870026  0.2185740551528291   T   T   T
  0.6503440194929212  0.2916724953574832  0.2186300173739830   T   T   T
  0.8396694297228426  0.2915931409777708  0.2186297466992494   T   T   T
  0.9896706765706378  0.2886583520762310  0.2184769488341097   T   T   T
  0.7850538615048587  0.2799268298572336  0.2895588355922414   T   T   T
  0.6905097139618546  0.1792751985366151  0.2976085275829462   T   T   T
  0.7876585359388676  0.3775308091898695  0.3223497660045322   T   T   T
  0.7563354180827103  0.3402284730312060  0.2507868076083894   T   T   T
  0.5844385656095790  0.6659914783743096  0.0338511444100102   T   T   T
  0.7508664462269856  0.6660598125377548  0.0338550482371051   T   T   T
  0.9172589693198787  0.6662083380603938  0.0338506784636348   T   T   T
  0.5841284018227850  0.9162977527536666  0.0338819639141950   T   T   T
  0.7504297998177039  0.9163393891971966  0.0338664378646291   T   T   T
  0.9170476175134926  0.9162672600972341  0.0338239059552814   T   T   T
  0.6600757770034653  0.5416789074208158  0.2186270157809491   T   T   T
  0.8267272652689091  0.5416690358079627  0.2186112935211404   T   T   T
  0.9934115160335333  0.5416478452449035  0.2186071730655107   T   T   T
  0.6600423486862331  0.7916543705744487  0.2186217357261568   T   T   T
  0.8268586577517589  0.7916006760824602  0.2186291600937338   T   T   T
  0.9934143662762517  0.7915920148358718  0.2186127631243322   T   T   T
  0.2467871369417344  0.1217188153961564  0.0598933717473996   T   T   T
  0.4134772495352138  0.1217126376423381  0.0598991224996765   T   T   T
  0.0800828533130999  0.3717638126698645  0.0598806679297680   T   T   T
  0.2466995448774211  0.3717747296124463  0.0598856255085412   T   T   T
  0.4133858515519930  0.3717641297061779  0.0598892240818451   T   T   T
  0.0801531522499372  0.1216245770563435  0.0598655638941115   T   T   T
  0.4963802617953739  0.4984852139312858  0.1396849203609787   T   T   T
  0.1630954394883804  0.4984152340557217  0.1396657554567272   T   T   T
  0.3297094450198573  0.4984226275393153  0.1396717798512518   T   T   T
  0.4964195800096184  0.2484479157273105  0.1396723205159570   T   T   T
  0.1631441345849356  0.2483379471817670  0.1396502855434140   T   T   T
  0.3297246553320139  0.2483787350902288  0.1396654616181732   T   T   T
  0.0799870004281546  0.1229833667034822  0.1658794492978381   T   T   T
  0.2465587842602853  0.1231494594535734  0.1659294338624921   T   T   T
  0.4131380396936223  0.1231167591686674  0.1659316148206675   T   T   T
  0.0799367949877327  0.3731895185485420  0.1659283514316033   T   T   T
  0.2465112013860354  0.3731983826962534  0.1659310993981109   T   T   T
  0.4131302250133917  0.3732535279853728  0.1659481505237978   T   T   T
  0.1633471872567687  0.4967015455723133  0.1926032132764934   T   T   T
  0.3299960118478482  0.4967534935895631  0.1926105458730148   T   T   T
  0.4965630020759190  0.4969234310843791  0.1925899431012776   T   T   T
  0.1634209053927604  0.2467762877144914  0.1926110301162271   T   T   T
  0.4963868897857733  0.2465249426782245  0.1925297979506289   T   T   T
  0.3299760532730037  0.2466948929310797  0.1925840456266542   T   T   T
  0.4965250817041638  0.4981929867726683  0.0865575901769748   T   T   T
  0.1631877626098595  0.4982001559227028  0.0865398801340193   T   T   T
  0.3298959901421144  0.4981850438652972  0.0865423999988040   T   T   T
  0.4964893707040580  0.2482344267939139  0.0865457412503972   T   T   T
  0.1631608108098843  0.2481639671399198  0.0865243739382863   T   T   T
  0.3298455510025611  0.2482087079853295  0.0865332453596161   T   T   T
  0.0797611637248284  0.1233460616550320  0.1127494479851625   T   T   T
  0.2464170109394170  0.1233897920010320  0.1127954501198497   T   T   T
  0.4130594448422515  0.1234324367757332  0.1127939700297136   T   T   T
  0.0797798171898245  0.3734307105294016  0.1127815488920625   T   T   T
  0.2464269910825375  0.3734190886877436  0.1128062492111664   T   T   T
  0.4130744044421801  0.3734532717512740  0.1128036925120580   T   T   T
  0.2468206436989382  0.6216880965662558  0.0598933720349619   T   T   T
  0.4135141387698037  0.6216930633398190  0.0599052653473510   T   T   T
  0.0800792196011835  0.8716371229101862  0.0598606166037516   T   T   T
  0.2467266088446688  0.8717056624916599  0.0598759806634624   T   T   T
  0.4134240687416174  0.8717206667701942  0.0598927838530727   T   T   T
  0.0801318649690586  0.6216921083700666  0.0598979476971126   T   T   T
  0.4963975675580286  0.9983632614842698  0.1396726574169386   T   T   T
  0.1631496821302517  0.9982958362230814  0.1396363218500998   T   T   T
  0.3297310931439090  0.9983403251426365  0.1396537724903593   T   T   T
  0.4964132274064466  0.7484612221079454  0.1396794394700789   T   T   T
  0.1630979646475762  0.7484013589458757  0.1396634888897652   T   T   T
  0.3297054109282291  0.7484142506726633  0.1396638310519056   T   T   T
  0.0798748484887321  0.6232802320842494  0.1659420919991415   T   T   T
  0.2464942351407186  0.6232131840038257  0.1659491683977741   T   T   T
  0.4131243058518706  0.6233137405241330  0.1659506619475278   T   T   T
  0.0798746901731888  0.8731799895424786  0.1659300524505304   T   T   T
  0.2465338275795551  0.8731866981148649  0.1659318546608755   T   T   T
  0.4131740630619951  0.8732220870543020  0.1659513169409654   T   T   T
  0.1634005666881437  0.9966662414761566  0.1925890703083125   T   T   T
  0.3300457999073341  0.9967151862107740  0.1925919504261929   T   T   T
  0.4966776969017367  0.9967365453650577  0.1926146279047141   T   T   T
  0.1633736423942978  0.7467683745215403  0.1926117628365726   T   T   T
  0.4966824680528200  0.7468012382328960  0.1926166773147808   T   T   T
  0.3300213473355318  0.7467845232416660  0.1926074688193437   T   T   T
  0.4965237032383343  0.9982216038646100  0.0865514131797644   T   T   T
  0.1632047892965287  0.9980956291721533  0.0865183870909372   T   T   T
  0.3298809954151253  0.9981562982847973  0.0865263425628809   T   T   T
  0.4965297810622106  0.7482322872516425  0.0865532252713428   T   T   T
  0.1631925616069271  0.7481285696526245  0.0865215452512696   T   T   T
  0.3298757920009694  0.7481694588407121  0.0865285418517170   T   T   T
  0.0797275823432728  0.6234581740425782  0.1127946427950135   T   T   T
  0.2463928279523084  0.6234216583814371  0.1128083519620449   T   T   T
  0.4130532362141529  0.6234688329546743  0.1128044904010639   T   T   T
  0.0797914501055161  0.8733267800654235  0.1127554378733434   T   T   T
  0.2464421580330662  0.8733709298195226  0.1127898720090945   T   T   T
  0.4130749030151754  0.8734226784647495  0.1127918790096436   T   T   T
  0.7467905831723255  0.1218012035001998  0.0600439565611895   T   T   T
  0.9133868529458796  0.1217459228007482  0.0598241713831405   T   T   T
  0.5801594473705179  0.3716791906433844  0.0599401930121849   T   T   T
  0.7467107672980996  0.3717219950298823  0.0599233057272473   T   T   T
  0.9133311941041945  0.3718058801532795  0.0598815434431560   T   T   T
  0.5802126947815515  0.1217309899265203  0.0599326396762324   T   T   T
  0.9964294287356201  0.4984650224774274  0.1396646387082470   T   T   T
  0.6630329213242048  0.4984331429790035  0.1396952715922266   T   T   T
  0.8297343207069358  0.4984234305446202  0.1396832980544833   T   T   T
  0.9964701140431240  0.2482651959749496  0.1395704108651043   T   T   T
  0.6629606899068867  0.2485227787956272  0.1398109461652478   T   T   T
  0.8298833168490710  0.2483622197626130  0.1396756825365984   T   T   T
  0.5797099935586134  0.1230633923401612  0.1659029327521174   T   T   T
  0.7464552291848813  0.1239768473363992  0.1663091807068644   T   T   T
  0.9132771024263089  0.1224001563396883  0.1656562485092052   T   T   T
  0.5797020358597418  0.3734289610261087  0.1659940815365035   T   T   T
  0.7464139732756646  0.3731920954143395  0.1660002702342373   T   T   T
  0.9133519178208420  0.3734253529605331  0.1659191953134815   T   T   T
  0.6632169808969636  0.4969702507447653  0.1926088612802777   T   T   T
  0.8300712802514013  0.4968917108909334  0.1926072097679205   T   T   T
  0.9967936538494110  0.4969400867870932  0.1925893998374260   T   T   T
  0.6621175074482899  0.2475157639029430  0.1929529734756808   T   T   T
  0.9966213562905912  0.2455767819686706  0.1921772904599578   T   T   T
  0.8312657310392324  0.2464376637118357  0.1923931944491350   T   T   T
  0.9965397697286917  0.4982015855757583  0.0865360670835218   T   T   T
  0.6632338847459449  0.4981816682423968  0.0865727926835060   T   T   T
  0.8298298163667268  0.4981967711653735  0.0865655771452195   T   T   T
  0.9965361394082194  0.2481753045214387  0.0864847161265690   T   T   T
  0.6631838974031692  0.2482278947621195  0.0866441884694423   T   T   T
  0.8298250644597014  0.2482315563484554  0.0865719685806090   T   T   T
  0.5797044125346066  0.1234892556530069  0.1128323062803254   T   T   T
  0.7463749129957122  0.1235121748471305  0.1129571197764279   T   T   T
  0.9130831473682776  0.1233564273440104  0.1127283640783936   T   T   T