C H O Si                                
   1.00000000000000     
     9.2874599999999994    0.0000000000000000    0.0000000000000000
     0.0000000000000000   17.5126199999999983    0.0000000000000000
     0.0000000000000000    0.0000000000000000   58.0000000000000000
   C    H    O    Si
    72    57    28    72
Selective dynamics
Direct
  0.9962936138069125  0.0652181597297314  0.0595530437666696   T   T   T
  0.3297248349351634  0.0652707080839789  0.0596462916131202   T   T   T
  0.6629084419852447  0.0652692510997923  0.0596385330253284   T   T   T
  0.9963487986529032  0.3152412767456525  0.0595578374986516   T   T   T
  0.3297125176629478  0.3151303524976612  0.0596061083279693   T   T   T
  0.6630557297647286  0.3151267691084598  0.0596176385714671   T   T   T
  0.1629886400270522  0.1878692244410374  0.1384960014399965   T   T   T
  0.4963493077585923  0.1881783278675613  0.1387385793514753   T   T   T
  0.8297685052275980  0.1879008074675781  0.1384809399987574   T   T   T
  0.1631389847741218  0.4381015684017910  0.1385153120563416   T   T   T
  0.4964646062130313  0.4379496053289529  0.1383385957367338   T   T   T
  0.8298588767233923  0.4380608723636286  0.1385625800235957   T   T   T
  0.3304339214990151  0.0632053118825766  0.1657771868480680   T   T   T
  0.6626842186164126  0.0634159778110757  0.1657406357535933   T   T   T
  0.9965455075269105  0.0625553695049632  0.1655389597136292   T   T   T
  0.3291454336458699  0.3132425899781524  0.1656829262972366   T   T   T
  0.6635011949614054  0.3131044299069927  0.1657411129928832   T   T   T
  0.9964276086270942  0.3131002637395852  0.1655852032323679   T   T   T
  0.1634367596844939  0.1893937479622068  0.1907250859511294   T   T   T
  0.4960732619074193  0.1923039577528698  0.1917645266681802   T   T   T
  0.8303815072478358  0.1893655811803470  0.1907215673618978   T   T   T
  0.1621408558510637  0.4403506990112405  0.1910609324774342   T   T   T
  0.4962243346912558  0.4447898070500216  0.1889050079849852   T   T   T
  0.8305324972261587  0.4402781256132045  0.1911218575219209   T   T   T
  0.1629527562527358  0.1880772604262191  0.0849948543144663   T   T   T
  0.4963556056536333  0.1880644835751539  0.0851294645507323   T   T   T
  0.8296974585081855  0.1880711477351440  0.0849849871591175   T   T   T
  0.1632248964447101  0.4380484460257179  0.0849693736510346   T   T   T
  0.4965746008035481  0.4380461278583141  0.0849191777901410   T   T   T
  0.8297570522577331  0.4380617877122432  0.0850012423797821   T   T   T
  0.3299266738494921  0.0630042684016558  0.1121775057082530   T   T   T
  0.6630956004073028  0.0630240495387540  0.1121650977615332   T   T   T
  0.9965033010026900  0.0629232783497216  0.1120973722256124   T   T   T
  0.3296888452053750  0.3129440746483567  0.1121411966928818   T   T   T
  0.6631146319989014  0.3129385282666917  0.1121606145800556   T   T   T
  0.9963608239475761  0.3130281311533381  0.1121045555767139   T   T   T
  0.9963164569113303  0.5652991076296274  0.0595795179591718   T   T   T
  0.3296784901435146  0.5652985615006543  0.0595992303666222   T   T   T
  0.6629791593213454  0.5652881508620382  0.0596106996650292   T   T   T
  0.9963144183015658  0.8153656240320757  0.0596168245649480   T   T   T
  0.3298169018376029  0.8152226310548372  0.0596324348116966   T   T   T
  0.6629689553448230  0.8152045610862402  0.0596279610233879   T   T   T
  0.1632795351283818  0.6880923902572320  0.1385401031549520   T   T   T
  0.4966364450038299  0.6879159523338600  0.1385915849399879   T   T   T
  0.8299687269458289  0.6880441156400323  0.1385118880689760   T   T   T
  0.1635968750362053  0.9380220241756376  0.1385556971339881   T   T   T
  0.4965784835143765  0.9379367717924083  0.1385487328307420   T   T   T
  0.8296173382992791  0.9380633683577031  0.1385298723806798   T   T   T
  0.3295441419537681  0.5634344240915325  0.1656848036415326   T   T   T
  0.6635512473318173  0.5632447706868646  0.1657279546720147   T   T   T
  0.9967066139027452  0.5632909314652181  0.1656496371751857   T   T   T
  0.3299700299134045  0.8131155513083925  0.1657396177054338   T   T   T
  0.6632419623464472  0.8130652635075677  0.1657073487806358   T   T   T
  0.9966254732579145  0.8132132890236363  0.1656775719902441   T   T   T
  0.1633171229538561  0.6903682433429168  0.1910924993125107   T   T   T
  0.4968382788100314  0.6903395127726526  0.1911745047537252   T   T   T
  0.8302749628033155  0.6902930650738170  0.1910278827561598   T   T   T
  0.1629838482246484  0.9401701706963337  0.1910760678305650   T   T   T
  0.4965614525976250  0.9401759405853554  0.1910499696180281   T   T   T
  0.8295578332264029  0.9402443485410785  0.1910648044027212   T   T   T
  0.1630871701999013  0.6881001762222070  0.0850367746995886   T   T   T
  0.4964261996483117  0.6880345071599123  0.0850525610174060   T   T   T
  0.8297331598863735  0.6880953911248540  0.0850192823603422   T   T   T
  0.1632492744973106  0.9381267728101221  0.0850103473735189   T   T   T
  0.4965246690844296  0.9381140957674603  0.0850397913134699   T   T   T
  0.8297299459515202  0.9381042709702925  0.0850125225119029   T   T   T
  0.3300032709392724  0.5628781380615990  0.1121328689534380   T   T   T
  0.6632979045285268  0.5629057877773960  0.1121490286452413   T   T   T
  0.9966416040139023  0.5629057873952945  0.1121089319454995   T   T   T
  0.3299595053146618  0.8129718383261846  0.1121784404488011   T   T   T
  0.6631319716358846  0.8129683750367604  0.1121533424715722   T   T   T
  0.9965775655767857  0.8131130986010149  0.1121481695547288   T   T   T
  0.0777412627777565  0.1771499130574767  0.0260238273341784   T   T   T
  0.4106708799577063  0.1772386454718884  0.0261483894830761   T   T   T
  0.7436085769823961  0.1770929489664255  0.0260894952066195   T   T   T
  0.0779415302952557  0.4272328482115100  0.0260088034180299   T   T   T
  0.4108328429724608  0.4269583842453670  0.0259837225147095   T   T   T
  0.7434370057143127  0.4269776334312709  0.0260919038290126   T   T   T
  0.3274259191863820  0.0290615670280303  0.0440993761060327   T   T   T
  0.6600787470671818  0.0290915627415700  0.0440860213342944   T   T   T
  0.9936199017760359  0.0291070456983533  0.0439820233137667   T   T   T
  0.3269408229189779  0.2789199212704148  0.0440589588784448   T   T   T
  0.6607245786427214  0.2788886425409416  0.0440749691198050   T   T   T
  0.9937648859354766  0.2790659647613438  0.0439986392215843   T   T   T
  0.8335794777596988  0.4042725084391776  0.2066871771671899   T   T   T
  0.8330505212675234  0.1533899795865779  0.2063203296977250   T   T   T
  0.1655623953918663  0.1536945738108102  0.2063858596770771   T   T   T
  0.4986597884934056  0.1559535963010745  0.2072922920597762   T   T   T
  0.1657030587171420  0.4040821620095727  0.2065743569922844   T   T   T
  0.5392229100731498  0.4634527963655941  0.2606612343769967   T   T   T
  0.0829397332001278  0.0529323685541527  0.2242295425772554   T   T   T
  0.4160181526755409  0.0545158780571455  0.2242346565795614   T   T   T
  0.7480628686467838  0.0528879931326856  0.2245311608251868   T   T   T
  0.0874522515685427  0.3029460782684410  0.2231801160293827   T   T   T
  0.3663472653538875  0.2859138687142462  0.2303454115587371   T   T   T
  0.7781906859489851  0.2992191665844857  0.2226552389885228   T   T   T
  0.4888531234029401  0.2704060735371527  0.2655777258419505   T   T   T
  0.4712016620825494  0.2281665545970739  0.3007677608675934   T   T   T
  0.5152392323850208  0.3125904041006677  0.3078570471598852   T   T   T
  0.2890483083489599  0.1358438623285139  0.2950642344859133   T   T   T
  0.4389594119434932  0.1117972018031637  0.2864078864149135   T   T   T
  0.6398621478195636  0.3861865833626226  0.3348695244805100   T   T   T
  0.5064519637546923  0.4339762780483341  0.3280821743418798   T   T   T
  0.5020313883188194  0.4368028289724037  0.2688964359899657   T   T   T
  0.5630144609023944  0.2674822163959760  0.2408223039556958   T   T   T
  0.0776453260376329  0.6772096961293528  0.0260464713713731   T   T   T
  0.4106471604880468  0.6772813436124636  0.0261164754936658   T   T   T
  0.7436789649235109  0.6771344980705507  0.0260888690557408   T   T   T
  0.0780782553598982  0.9272258795485797  0.0260190629478174   T   T   T
  0.4107911510285263  0.9270695913663118  0.0260792165093022   T   T   T
  0.7433645359136705  0.9270444545378282  0.0260913151856812   T   T   T
  0.3271559830970006  0.5292175652270359  0.0440275622834747   T   T   T
  0.6603056440925101  0.5291858812808243  0.0440437003393583   T   T   T
  0.9937136542692500  0.5291967841275849  0.0440075317483419   T   T   T
  0.3273628498794992  0.7790234841400192  0.0440812536645296   T   T   T
  0.6602654260532574  0.7790535409715176  0.0440678790940083   T   T   T
  0.9937260478286660  0.7791610015146730  0.0440688065060257   T   T   T
  0.8317786565394982  0.9040603623977930  0.2066220424870124   T   T   T
  0.8339005437489391  0.6539143463978405  0.2065392463397231   T   T   T
  0.1667047270551620  0.6541488942440665  0.2066287143945544   T   T   T
  0.5003035726459615  0.6537808563583951  0.2066636363415810   T   T   T
  0.1653097503487544  0.9038899111603200  0.2065980976806685   T   T   T
  0.4998951404468599  0.9038486247901147  0.2065604609301985   T   T   T
  0.0821358010435063  0.5519325120582153  0.2246494266481562   T   T   T
  0.4155815744815712  0.5492921611621995  0.2249726246416515   T   T   T
  0.7490101460606198  0.5514367179240551  0.2248921431988009   T   T   T
  0.0816006999558212  0.8019215781249329  0.2246814132967501   T   T   T
  0.4129128179996826  0.8028255762810019  0.2248857554797752   T   T   T
  0.7519745373374676  0.8010924689865035  0.2244717492257493   T   T   T
  0.1714752074493902  0.1701256763433534  0.0333939121334481   T   T   T
  0.5044817464341023  0.1703692595299984  0.0335108243811817   T   T   T
  0.8375775457265036  0.1701577172875872  0.0333937010496186   T   T   T
  0.1716821481005226  0.4200686525206692  0.0333643547086879   T   T   T
  0.5047304631351182  0.4197041243152952  0.0332860323857886   T   T   T
  0.8374482115884021  0.4201646175089095  0.0333982574502443   T   T   T
  0.3214978493359197  0.0438796864554760  0.2175262017534507   T   T   T
  0.6540549077872981  0.0444785204498146  0.2173908047203810   T   T   T
  0.9881726808924896  0.0446520439010598  0.2173180512862629   T   T   T
  0.3077595645280766  0.3016013221950331  0.2163656085232120   T   T   T
  0.6774300610806776  0.2953483410337583  0.2175140477516706   T   T   T
  0.9900604210254755  0.2933843973364390  0.2171350084515780   T   T   T
  0.5195104631520167  0.2748914433312279  0.2953108859415039   T   T   T
  0.3888096234958454  0.1308920909782074  0.3000026145894097   T   T   T
  0.5370995480134511  0.3822617826589720  0.3317792464440643   T   T   T
  0.4760682583759674  0.2518128810429729  0.2495200592660751   T   T   T
  0.1713993080892564  0.6703499183932990  0.0334269718526272   T   T   T
  0.5045010075629719  0.6704253828674709  0.0334683803109570   T   T   T
  0.8376067751733771  0.6702771320786738  0.0334164553061953   T   T   T
  0.1717428893679838  0.9200339225366534  0.0333944927801824   T   T   T
  0.5046395912441923  0.9201081485695894  0.0334233338709140   T   T   T
  0.8373462042757538  0.9201026348308545  0.0333951949380022   T   T   T
  0.3217260866195844  0.5448615529805707  0.2174599336041609   T   T   T
  0.6549009820833476  0.5444720116886259  0.2176243558348929   T   T   T
  0.9881859850305119  0.5455822113131745  0.2172842616356760   T   T   T
  0.3198238212363123  0.7948200839436836  0.2174487274463246   T   T   T
  0.6569896042309011  0.7947282296674132  0.2174356839347240   T   T   T
  0.9876768429389173  0.7947028112065198  0.2174009170932365   T   T   T
  0.4964169624036998  0.1239554841351662  0.0589533606905590   T   T   T
  0.8297031974070279  0.1238795143059406  0.0588527229830831   T   T   T
  0.1632295545337996  0.3738222117750780  0.0588347062255963   T   T   T
  0.4965255946696630  0.3737352490547181  0.0588014140695705   T   T   T
  0.8297341839475720  0.3738574588873718  0.0588534533259732   T   T   T
  0.1631041435833751  0.1238742433222555  0.0588627613440948   T   T   T
  0.9966491698953490  0.0003063432556800  0.1387289148214492   T   T   T
  0.3303373644641994  0.0006579976611292  0.1388598803622401   T   T   T
  0.6628114666737162  0.0006910157956384  0.1388396095056876   T   T   T
  0.9963638784153872  0.2504397500135411  0.1387414118444923   T   T   T
  0.3293961760071795  0.2505621785561587  0.1388700484787009   T   T   T
  0.6631350082384984  0.2504759413688831  0.1388484395344207   T   T   T
  0.1631745773238933  0.1247939442462069  0.1650742936868710   T   T   T
  0.4963020955443298  0.1263245615425461  0.1656189387225524   T   T   T
  0.8301042003479964  0.1247828324601059  0.1650113010197600   T   T   T
  0.1629278536325671  0.3754507217028120  0.1651426828396154   T   T   T
  0.4961957796437559  0.3745857923888565  0.1651331300092735   T   T   T
  0.8298711901778759  0.3753622728563357  0.1651836110301588   T   T   T
  0.3282766829203538  0.4986159113866080  0.1920336464138259   T   T   T
  0.6639872211800792  0.4985113462049213  0.1921345405945871   T   T   T
  0.9963266381705651  0.4992073629913207  0.1917932269915852   T   T   T
  0.3272685697468987  0.2508865212848477  0.1922560484207949   T   T   T
  0.9969112890963387  0.2479090610611436  0.1915127780735801   T   T   T
  0.6652814345383078  0.2493337599106837  0.1919658442879353   T   T   T
  0.9964820411298660  0.0002429488892659  0.0854673549538418   T   T   T
  0.3299415785350277  0.0002927285192555  0.0855358193695253   T   T   T
  0.6631344512490145  0.0002922916978960  0.0855319265569321   T   T   T
  0.9963091733166181  0.2502914229750743  0.0854832210020930   T   T   T
  0.3296572290674789  0.2502054921835466  0.0855351079017694   T   T   T
  0.6630173789394149  0.2502022099082524  0.0855355974235863   T   T   T
  0.1631346511893526  0.1254859285363423  0.1118724318299726   T   T   T
  0.4964834391268838  0.1255580572932118  0.1120393521844747   T   T   T
  0.8298131501918746  0.1254936905663016  0.1118523305609287   T   T   T
  0.1631078001785653  0.3755081626803403  0.1118671845127039   T   T   T
  0.4963985643483539  0.3753432937483367  0.1117792922264158   T   T   T
  0.8296933653372420  0.3755194878912675  0.1118969529935754   T   T   T
  0.4964355348019751  0.6239198511399024  0.0588986441584751   T   T   T
  0.8297225783926265  0.6239556673104616  0.0588725503209488   T   T   T
  0.1632873371347401  0.8738673705092239  0.0588735347908909   T   T   T
  0.4965282661929180  0.8739058570530034  0.0588999543516451   T   T   T
  0.8296130787803904  0.8739258461622370  0.0588665190891291   T   T   T
  0.1631230902096021  0.6239563041194032  0.0588789548662660   T   T   T
  0.9965883213314299  0.5005583791495241  0.1387876381691768   T   T   T
  0.3298710655572989  0.5005197630826572  0.1388376970592233   T   T   T
  0.6630986521274451  0.5004473467269861  0.1388433666225524   T   T   T
  0.9965462480118603  0.7505920828195727  0.1387805301674092   T   T   T
  0.3299822418159550  0.7504993199506842  0.1388461757010973   T   T   T
  0.6632065927611350  0.7504742094304717  0.1388093807757613   T   T   T
  0.1629825561360576  0.6255321075064586  0.1651839455328670   T   T   T
  0.4965884753880943  0.6252124987217869  0.1652573248950659   T   T   T
  0.8302470226217551  0.6254015406528595  0.1651525468184829   T   T   T
  0.1632563177904487  0.8753189873472849  0.1651710836458378   T   T   T
  0.4965498023138295  0.8752345129668058  0.1651762329804853   T   T   T
  0.8297200238365861  0.8753541046047744  0.1651500725239003   T   T   T
  0.3296110410826714  0.9986925340898196  0.1918716238091207   T   T   T
  0.6628597728919914  0.9989122392796830  0.1918037691436396   T   T   T
  0.9961316278202617  0.9987689040142911  0.1917547882772865   T   T   T
  0.3297834159123312  0.7489762030041902  0.1919102627145648   T   T   T
  0.9965297368143666  0.7490214274381231  0.1918186980396470   T   T   T
  0.6634422626534899  0.7488925093121210  0.1918680270772839   T   T   T
  0.9965403487786944  0.5001736211449241  0.0854646327969419   T   T   T
  0.3299451180116151  0.5001739220736567  0.0854679976150408   T   T   T
  0.6631928422987059  0.5002185343054180  0.0854873868454149   T   T   T
  0.9963963386435850  0.7502873495962064  0.0855131737675450   T   T   T
  0.3298138335479877  0.7502288404841764  0.0855338480298826   T   T   T
  0.6630251754352372  0.7502161078673382  0.0855237655702723   T   T   T
  0.1633325632907088  0.6254062306647086  0.1118951397485120   T   T   T
  0.4966358843137257  0.6253832535717834  0.1119139147590573   T   T   T
  0.8300157256166401  0.6254152776056259  0.1118730818991054   T   T   T
  0.1634172074293332  0.8755722509701940  0.1118983934191675   T   T   T
  0.4965651248778187  0.8754928686920920  0.1119073871286744   T   T   T
  0.8297024051387112  0.8755241615324394  0.1118895705847862   T   T   T
 
  0.00000000E+00  0.00000000E+00  0.00000000E+00
  0.00000000E+00  0.00000000E+00  0.00000000E+00
  0.00000000E+00  0.00000000E+00  0.00000000E+00
  0.00000000E+00  0.00000000E+00  0.00000000E+00
  0.00000000E+00  0.00000000E+00  0.00000000E+00
  0.00000000E+00  0.00000000E+00  0.00000000E+00
  0.00000000E+00  0.00000000E+00  0.00000000E+00
  0.00000000E+00  0.00000000E+00  0.00000000E+00
  0.00000000E+00  0.00000000E+00  0.00000000E+00
  0.00000000E+00  0.00000000E+00  0.00000000E+00
  0.00000000E+00  0.00000000E+00  0.00000000E+00
  0.00000000E+00  0.00000000E+00  0.00000000E+00
  0.00000000E+00  0.00000000E+00  0.00000000E+00
  0.00000000E+00  0.00000000E+00  0.00000000E+00
  0.00000000E+00  0.00000000E+00  0.00000000E+00
  0.00000000E+00  0.00000000E+00  0.00000000E+00
  0.00000000E+00  0.00000000E+00  0.00000000E+00
  0.00000000E+00  0.00000000E+00  0.00000000E+00
  0.00000000E+00  0.00000000E+00  0.00000000E+00
  0.00000000E+00  0.00000000E+00  0.00000000E+00
  0.00000000E+00  0.00000000E+00  0.00000000E+00
  0.00000000E+00  0.00000000E+00  0.00000000E+00
  0.00000000E+00  0.00000000E+00  0.00000000E+00
  0.00000000E+00  0.00000000E+00  0.00000000E+00
  0.00000000E+00  0.00000000E+00  0.00000000E+00
  0.00000000E+00  0.00000000E+00  0.00000000E+00
  0.00000000E+00  0.00000000E+00  0.00000000E+00
  0.00000000E+00  0.00000000E+00  0.00000000E+00
  0.00000000E+00  0.00000000E+00  0.00000000E+00
  0.00000000E+00  0.00000000E+00  0.00000000E+00
  0.00000000E+00  0.00000000E+00  0.00000000E+00
  0.00000000E+00  0.00000000E+00  0.00000000E+00
  0.00000000E+00  0.00000000E+00  0.00000000E+00
  0.00000000E+00  0.00000000E+00  0.00000000E+00
  0.00000000E+00  0.00000000E+00  0.00000000E+00
  0.00000000E+00  0.00000000E+00  0.00000000E+00
  0.00000000E+00  0.00000000E+00  0.00000000E+00
  0.00000000E+00  0.00000000E+00  0.00000000E+00
  0.00000000E+00  0.00000000E+00  0.00000000E+00
  0.00000000E+00  0.00000000E+00  0.00000000E+00
  0.00000000E+00  0.00000000E+00  0.00000000E+00
  0.00000000E+00  0.00000000E+00  0.00000000E+00
  0.00000000E+00  0.00000000E+00  0.00000000E+00
  0.00000000E+00  0.00000000E+00  0.00000000E+00
  0.00000000E+00  0.00000000E+00  0.00000000E+00
  0.00000000E+00  0.00000000E+00  0.00000000E+00
  0.00000000E+00  0.00000000E+00  0.00000000E+00
  0.00000000E+00  0.00000000E+00  0.00000000E+00
  0.00000000E+00  0.00000000E+00  0.00000000E+00
  0.00000000E+00  0.00000000E+00  0.00000000E+00
  0.00000000E+00  0.00000000E+00  0.00000000E+00
  0.00000000E+00  0.00000000E+00  0.00000000E+00
  0.00000000E+00  0.00000000E+00  0.00000000E+00
  0.00000000E+00  0.00000000E+00  0.00000000E+00
  0.00000000E+00  0.00000000E+00  0.00000000E+00
  0.00000000E+00  0.00000000E+00  0.00000000E+00
  0.00000000E+00  0.00000000E+00  0.00000000E+00
  0.00000000E+00  0.00000000E+00  0.00000000E+00
  0.00000000E+00  0.00000000E+00  0.00000000E+00
  0.00000000E+00  0.00000000E+00  0.00000000E+00
  0.00000000E+00  0.00000000E+00  0.00000000E+00
  0.00000000E+00  0.00000000E+00  0.00000000E+00
  0.00000000E+00  0.00000000E+00  0.00000000E+00
  0.00000000E+00  0.00000000E+00  0.00000000E+00
  0.00000000E+00  0.00000000E+00  0.00000000E+00
  0.00000000E+00  0.00000000E+00  0.00000000E+00
  0.00000000E+00  0.00000000E+00  0.00000000E+00
  0.00000000E+00  0.00000000E+00  0.00000000E+00
  0.00000000E+00  0.00000000E+00  0.00000000E+00
  0.00000000E+00  0.00000000E+00  0.00000000E+00
  0.00000000E+00  0.00000000E+00  0.00000000E+00
  0.00000000E+00  0.00000000E+00  0.00000000E+00
  0.00000000E+00  0.00000000E+00  0.00000000E+00
  0.00000000E+00  0.00000000E+00  0.00000000E+00
  0.00000000E+00  0.00000000E+00  0.00000000E+00
  0.00000000E+00  0.00000000E+00  0.00000000E+00
  0.00000000E+00  0.00000000E+00  0.00000000E+00
  0.00000000E+00  0.00000000E+00  0.00000000E+00
  0.00000000E+00  0.00000000E+00  0.00000000E+00
  0.00000000E+00  0.00000000E+00  0.00000000E+00
  0.00000000E+00  0.00000000E+00  0.00000000E+00
  0.00000000E+00  0.00000000E+00  0.00000000E+00
  0.00000000E+00  0.00000000E+00  0.00000000E+00
  0.00000000E+00  0.00000000E+00  0.00000000E+00
  0.00000000E+00  0.00000000E+00  0.00000000E+00
  0.00000000E+00  0.00000000E+00  0.00000000E+00
  0.00000000E+00  0.00000000E+00  0.00000000E+00
  0.00000000E+00  0.00000000E+00  0.00000000E+00
  0.00000000E+00  0.00000000E+00  0.00000000E+00
  0.00000000E+00  0.00000000E+00  0.00000000E+00
  0.00000000E+00  0.00000000E+00  0.00000000E+00
  0.00000000E+00  0.00000000E+00  0.00000000E+00
  0.00000000E+00  0.00000000E+00  0.00000000E+00
  0.00000000E+00  0.00000000E+00  0.00000000E+00
  0.00000000E+00  0.00000000E+00  0.00000000E+00
  0.00000000E+00  0.00000000E+00  0.00000000E+00
  0.00000000E+00  0.00000000E+00  0.00000000E+00
  0.00000000E+00  0.00000000E+00  0.00000000E+00
  0.00000000E+00  0.00000000E+00  0.00000000E+00
  0.00000000E+00  0.00000000E+00  0.00000000E+00
  0.00000000E+00  0.00000000E+00  0.00000000E+00
  0.00000000E+00  0.00000000E+00  0.00000000E+00
  0.00000000E+00  0.00000000E+00  0.00000000E+00
  0.00000000E+00  0.00000000E+00  0.00000000E+00
  0.00000000E+00  0.00000000E+00  0.00000000E+00
  0.00000000E+00  0.00000000E+00  0.00000000E+00
  0.00000000E+00  0.00000000E+00  0.00000000E+00
  0.00000000E+00  0.00000000E+00  0.00000000E+00
  0.00000000E+00  0.00000000E+00  0.00000000E+00
  0.00000000E+00  0.00000000E+00  0.00000000E+00
  0.00000000E+00  0.00000000E+00  0.00000000E+00
  0.00000000E+00  0.00000000E+00  0.00000000E+00
  0.00000000E+00  0.00000000E+00  0.00000000E+00
  0.00000000E+00  0.00000000E+00  0.00000000E+00
  0.00000000E+00  0.00000000E+00  0.00000000E+00
  0.00000000E+00  0.00000000E+00  0.00000000E+00
  0.00000000E+00  0.00000000E+00  0.00000000E+00
  0.00000000E+00  0.00000000E+00  0.00000000E+00
  0.00000000E+00  0.00000000E+00  0.00000000E+00
  0.00000000E+00  0.00000000E+00  0.00000000E+00
  0.00000000E+00  0.00000000E+00  0.00000000E+00
  0.00000000E+00  0.00000000E+00  0.00000000E+00
  0.00000000E+00  0.00000000E+00  0.00000000E+00
  0.00000000E+00  0.00000000E+00  0.00000000E+00
  0.00000000E+00  0.00000000E+00  0.00000000E+00
  0.00000000E+00  0.00000000E+00  0.00000000E+00
  0.00000000E+00  0.00000000E+00  0.00000000E+00
  0.00000000E+00  0.00000000E+00  0.00000000E+00
  0.00000000E+00  0.00000000E+00  0.00000000E+00
  0.00000000E+00  0.00000000E+00  0.00000000E+00
  0.00000000E+00  0.00000000E+00  0.00000000E+00
  0.00000000E+00  0.00000000E+00  0.00000000E+00
  0.00000000E+00  0.00000000E+00  0.00000000E+00
  0.00000000E+00  0.00000000E+00  0.00000000E+00
  0.00000000E+00  0.00000000E+00  0.00000000E+00
  0.00000000E+00  0.00000000E+00  0.00000000E+00
  0.00000000E+00  0.00000000E+00  0.00000000E+00
  0.00000000E+00  0.00000000E+00  0.00000000E+00
  0.00000000E+00  0.00000000E+00  0.00000000E+00
  0.00000000E+00  0.00000000E+00  0.00000000E+00
  0.00000000E+00  0.00000000E+00  0.00000000E+00
  0.00000000E+00  0.00000000E+00  0.00000000E+00
  0.00000000E+00  0.00000000E+00  0.00000000E+00
  0.00000000E+00  0.00000000E+00  0.00000000E+00
  0.00000000E+00  0.00000000E+00  0.00000000E+00
  0.00000000E+00  0.00000000E+00  0.00000000E+00
  0.00000000E+00  0.00000000E+00  0.00000000E+00
  0.00000000E+00  0.00000000E+00  0.00000000E+00
  0.00000000E+00  0.00000000E+00  0.00000000E+00
  0.00000000E+00  0.00000000E+00  0.00000000E+00
  0.00000000E+00  0.00000000E+00  0.00000000E+00
  0.00000000E+00  0.00000000E+00  0.00000000E+00
  0.00000000E+00  0.00000000E+00  0.00000000E+00
  0.00000000E+00  0.00000000E+00  0.00000000E+00
  0.00000000E+00  0.00000000E+00  0.00000000E+00
  0.00000000E+00  0.00000000E+00  0.00000000E+00
  0.00000000E+00  0.00000000E+00  0.00000000E+00
  0.00000000E+00  0.00000000E+00  0.00000000E+00
  0.00000000E+00  0.00000000E+00  0.00000000E+00
  0.00000000E+00  0.00000000E+00  0.00000000E+00
  0.00000000E+00  0.00000000E+00  0.00000000E+00
  0.00000000E+00  0.00000000E+00  0.00000000E+00
  0.00000000E+00  0.00000000E+00  0.00000000E+00
  0.00000000E+00  0.00000000E+00  0.00000000E+00
  0.00000000E+00  0.00000000E+00  0.00000000E+00
  0.00000000E+00  0.00000000E+00  0.00000000E+00
  0.00000000E+00  0.00000000E+00  0.00000000E+00
  0.00000000E+00  0.00000000E+00  0.00000000E+00
  0.00000000E+00  0.00000000E+00  0.00000000E+00
  0.00000000E+00  0.00000000E+00  0.00000000E+00
  0.00000000E+00  0.00000000E+00  0.00000000E+00
  0.00000000E+00  0.00000000E+00  0.00000000E+00
  0.00000000E+00  0.00000000E+00  0.00000000E+00
  0.00000000E+00  0.00000000E+00  0.00000000E+00
  0.00000000E+00  0.00000000E+00  0.00000000E+00
  0.00000000E+00  0.00000000E+00  0.00000000E+00
  0.00000000E+00  0.00000000E+00  0.00000000E+00
  0.00000000E+00  0.00000000E+00  0.00000000E+00
  0.00000000E+00  0.00000000E+00  0.00000000E+00
  0.00000000E+00  0.00000000E+00  0.00000000E+00
  0.00000000E+00  0.00000000E+00  0.00000000E+00
  0.00000000E+00  0.00000000E+00  0.00000000E+00
  0.00000000E+00  0.00000000E+00  0.00000000E+00
  0.00000000E+00  0.00000000E+00  0.00000000E+00
  0.00000000E+00  0.00000000E+00  0.00000000E+00
  0.00000000E+00  0.00000000E+00  0.00000000E+00
  0.00000000E+00  0.00000000E+00  0.00000000E+00
  0.00000000E+00  0.00000000E+00  0.00000000E+00
  0.00000000E+00  0.00000000E+00  0.00000000E+00
  0.00000000E+00  0.00000000E+00  0.00000000E+00
  0.00000000E+00  0.00000000E+00  0.00000000E+00
  0.00000000E+00  0.00000000E+00  0.00000000E+00
  0.00000000E+00  0.00000000E+00  0.00000000E+00
  0.00000000E+00  0.00000000E+00  0.00000000E+00
  0.00000000E+00  0.00000000E+00  0.00000000E+00
  0.00000000E+00  0.00000000E+00  0.00000000E+00
  0.00000000E+00  0.00000000E+00  0.00000000E+00
  0.00000000E+00  0.00000000E+00  0.00000000E+00
  0.00000000E+00  0.00000000E+00  0.00000000E+00
  0.00000000E+00  0.00000000E+00  0.00000000E+00
  0.00000000E+00  0.00000000E+00  0.00000000E+00
  0.00000000E+00  0.00000000E+00  0.00000000E+00
  0.00000000E+00  0.00000000E+00  0.00000000E+00
  0.00000000E+00  0.00000000E+00  0.00000000E+00
  0.00000000E+00  0.00000000E+00  0.00000000E+00
  0.00000000E+00  0.00000000E+00  0.00000000E+00
  0.00000000E+00  0.00000000E+00  0.00000000E+00
  0.00000000E+00  0.00000000E+00  0.00000000E+00
  0.00000000E+00  0.00000000E+00  0.00000000E+00
  0.00000000E+00  0.00000000E+00  0.00000000E+00
  0.00000000E+00  0.00000000E+00  0.00000000E+00
  0.00000000E+00  0.00000000E+00  0.00000000E+00
  0.00000000E+00  0.00000000E+00  0.00000000E+00
  0.00000000E+00  0.00000000E+00  0.00000000E+00
  0.00000000E+00  0.00000000E+00  0.00000000E+00
  0.00000000E+00  0.00000000E+00  0.00000000E+00
  0.00000000E+00  0.00000000E+00  0.00000000E+00
  0.00000000E+00  0.00000000E+00  0.00000000E+00
  0.00000000E+00  0.00000000E+00  0.00000000E+00
  0.00000000E+00  0.00000000E+00  0.00000000E+00
  0.00000000E+00  0.00000000E+00  0.00000000E+00
  0.00000000E+00  0.00000000E+00  0.00000000E+00
  0.00000000E+00  0.00000000E+00  0.00000000E+00
  0.00000000E+00  0.00000000E+00  0.00000000E+00
  0.00000000E+00  0.00000000E+00  0.00000000E+00
  0.00000000E+00  0.00000000E+00  0.00000000E+00
  0.00000000E+00  0.00000000E+00  0.00000000E+00
  0.00000000E+00  0.00000000E+00  0.00000000E+00
  0.00000000E+00  0.00000000E+00  0.00000000E+00
