C H O Si                                
   1.00000000000000     
     9.2874599999999994    0.0000000000000000    0.0000000000000000
     0.0000000000000000   17.5126199999999983    0.0000000000000000
     0.0000000000000000    0.0000000000000000   58.0000000000000000
   C    H    O    Si
    72    57    28    72
Selective dynamics
Direct
  0.9962936138069108  0.0652181597297339  0.0595530437666696   T   T   T
  0.3297248349351613  0.0652707080839768  0.0596462916131233   T   T   T
  0.6629084419852412  0.0652692510997955  0.0596385330253281   T   T   T
  0.9963487986529020  0.3152412767456533  0.0595578374986538   T   T   T
  0.3297125176629460  0.3151303524976625  0.0596061083279659   T   T   T
  0.6630557297647264  0.3151267691084622  0.0596176385714691   T   T   T
  0.1629886400270557  0.1878692244410365  0.1384960014400000   T   T   T
  0.4963493077585890  0.1881783278675603  0.1387385793514726   T   T   T
  0.8297685052275994  0.1879008074675787  0.1384809399987563   T   T   T
  0.1631389847741239  0.4381015684017942  0.1385153120563440   T   T   T
  0.4964646062130312  0.4379496053289541  0.1383385957367348   T   T   T
  0.8298588767233913  0.4380608723636274  0.1385625800235985   T   T   T
  0.3304339214990145  0.0632053118825774  0.1657771868480712   T   T   T
  0.6626842186164114  0.0634159778110787  0.1657406357535968   T   T   T
  0.9965455075269098  0.0625553695049604  0.1655389597136262   T   T   T
  0.3291454336458711  0.3132425899781535  0.1656829262972394   T   T   T
  0.6635011949614088  0.3131044299069942  0.1657411129928831   T   T   T
  0.9964276086270949  0.3131002637395820  0.1655852032323665   T   T   T
  0.1634367596844972  0.1893937479622080  0.1907250859511322   T   T   T
  0.4960732619074228  0.1923039577528693  0.1917645266681803   T   T   T
  0.8303815072478336  0.1893655811803480  0.1907215673618997   T   T   T
  0.1621408558510617  0.4403506990112400  0.1910609324774339   T   T   T
  0.4962243346912528  0.4447898070500205  0.1889050079849822   T   T   T
  0.8305324972261602  0.4402781256132062  0.1911218575219210   T   T   T
  0.1629527562527377  0.1880772604262176  0.0849948543144667   T   T   T
  0.4963556056536306  0.1880644835751525  0.0851294645507343   T   T   T
  0.8296974585081867  0.1880711477351413  0.0849849871591186   T   T   T
  0.1632248964447098  0.4380484460257168  0.0849693736510324   T   T   T
  0.4965746008035468  0.4380461278583173  0.0849191777901387   T   T   T
  0.8297570522577341  0.4380617877122405  0.0850012423797803   T   T   T
  0.3299266738494889  0.0630042684016560  0.1121775057082499   T   T   T
  0.6630956004073023  0.0630240495387515  0.1121650977615337   T   T   T
  0.9965033010026918  0.0629232783497198  0.1120973722256134   T   T   T
  0.3296888452053782  0.3129440746483567  0.1121411966928804   T   T   T
  0.6631146319989027  0.3129385282666933  0.1121606145800549   T   T   T
  0.9963608239475760  0.3130281311533361  0.1121045555767165   T   T   T
  0.9963164569113306  0.5652991076296310  0.0595795179591697   T   T   T
  0.3296784901435155  0.5652985615006544  0.0595992303666221   T   T   T
  0.6629791593213464  0.5652881508620375  0.0596106996650267   T   T   T
  0.9963144183015662  0.8153656240320758  0.0596168245649475   T   T   T
  0.3298169018376002  0.8152226310548367  0.0596324348116947   T   T   T
  0.6629689553448195  0.8152045610862432  0.0596279610233885   T   T   T
  0.1632795351283844  0.6880923902572322  0.1385401031549541   T   T   T
  0.4966364450038299  0.6879159523338579  0.1385915849399903   T   T   T
  0.8299687269458284  0.6880441156400308  0.1385118880689759   T   T   T
  0.1635968750362064  0.9380220241756406  0.1385556971339852   T   T   T
  0.4965784835143776  0.9379367717924048  0.1385487328307421   T   T   T
  0.8296173382992781  0.9380633683577067  0.1385298723806807   T   T   T
  0.3295441419537692  0.5634344240915298  0.1656848036415336   T   T   T
  0.6635512473318155  0.5632447706868612  0.1657279546720118   T   T   T
  0.9967066139027435  0.5632909314652164  0.1656496371751886   T   T   T
  0.3299700299134072  0.8131155513083941  0.1657396177054344   T   T   T
  0.6632419623464475  0.8130652635075661  0.1657073487806343   T   T   T
  0.9966254732579165  0.8132132890236359  0.1656775719902456   T   T   T
  0.1633171229538550  0.6903682433429151  0.1910924993125098   T   T   T
  0.4968382788100300  0.6903395127726545  0.1911745047537248   T   T   T
  0.8302749628033185  0.6902930650738159  0.1910278827561621   T   T   T
  0.1629838482246491  0.9401701706963305  0.1910760678305661   T   T   T
  0.4965614525976220  0.9401759405853565  0.1910499696180279   T   T   T
  0.8295578332264060  0.9402443485410816  0.1910648044027195   T   T   T
  0.1630871701998997  0.6881001762222084  0.0850367746995910   T   T   T
  0.4964261996483134  0.6880345071599140  0.0850525610174084   T   T   T
  0.8297331598863719  0.6880953911248524  0.0850192823603444   T   T   T
  0.1632492744973111  0.9381267728101230  0.0850103473735162   T   T   T
  0.4965246690844295  0.9381140957674624  0.0850397913134724   T   T   T
  0.8297299459515186  0.9381042709702901  0.0850125225119063   T   T   T
  0.3300032709392745  0.5628781380616024  0.1121328689534386   T   T   T
  0.6632979045285288  0.5629057877773939  0.1121490286452421   T   T   T
  0.9966416040139020  0.5629057873952981  0.1121089319455008   T   T   T
  0.3299595053146602  0.8129718383261851  0.1121784404488039   T   T   T
  0.6631319716358850  0.8129683750367572  0.1121533424715757   T   T   T
  0.9965775655767882  0.8131130986010133  0.1121481695547305   T   T   T
  0.0777412627777554  0.1771499130574732  0.0260238273341815   T   T   T
  0.4106708799577063  0.1772386454718908  0.0261483894830776   T   T   T
  0.7436085769823993  0.1770929489664278  0.0260894952066213   T   T   T
  0.0779415302952535  0.4272328482115105  0.0260088034180273   T   T   T
  0.4108328429724610  0.4269583842453660  0.0259837225147082   T   T   T
  0.7434370057143107  0.4269776334312721  0.0260919038290150   T   T   T
  0.3274259191863841  0.0290615670280333  0.0440993761060343   T   T   T
  0.6600787470671842  0.0290915627415701  0.0440860213342966   T   T   T
  0.9936199017760368  0.0291070456983535  0.0439820233137692   T   T   T
  0.3269408229189756  0.2789199212704165  0.0440589588784428   T   T   T
  0.6607245786427229  0.2788886425409392  0.0440749691198015   T   T   T
  0.9937648859354793  0.2790659647613408  0.0439986392215821   T   T   T
  0.8335794777597006  0.4042725084391802  0.2066871771671903   T   T   T
  0.8330505212675260  0.1533899795865791  0.2063203296977262   T   T   T
  0.1655623953918666  0.1536945738108083  0.2063858596770786   T   T   T
  0.4986597884934057  0.1559535963010758  0.2072922920597762   T   T   T
  0.1657030587171391  0.4040821620095700  0.2065743569922876   T   T   T
  0.5392229100731466  0.4634527963655944  0.2606612343769998   T   T   T
  0.0829397332001277  0.0529323685541519  0.2242295425772530   T   T   T
  0.4160181526755417  0.0545158780571454  0.2242346565795612   T   T   T
  0.7480628686467823  0.0528879931326823  0.2245311608251886   T   T   T
  0.0874522515685436  0.3029460782684428  0.2231801160293792   T   T   T
  0.3663472653538847  0.2859138687142461  0.2303454115587391   T   T   T
  0.7781906859489850  0.2992191665844842  0.2226552389885257   T   T   T
  0.4888531234029428  0.2704060735371548  0.2655777258419533   T   T   T
  0.4712016620825528  0.2281665545970711  0.3007677608675962   T   T   T
  0.5152392323850185  0.3125904041006677  0.3078570471598879   T   T   T
  0.2890483083489633  0.1358438623285124  0.2950642344859165   T   T   T
  0.4389594119434922  0.1117972018031638  0.2864078864149119   T   T   T
  0.6398621478195649  0.3861865833626215  0.3348695244805066   T   T   T
  0.5064519637546904  0.4339762780483321  0.3280821743418829   T   T   T
  0.5020313883188183  0.4368028289724020  0.2688964359899632   T   T   T
  0.5630144609023914  0.2674822163959741  0.2408223039556962   T   T   T
  0.0776453260376359  0.6772096961293518  0.0260464713713702   T   T   T
  0.4106471604880446  0.6772813436124646  0.0261164754936633   T   T   T
  0.7436789649235110  0.6771344980705489  0.0260888690557430   T   T   T
  0.0780782553599011  0.9272258795485819  0.0260190629478160   T   T   T
  0.4107911510285275  0.9270695913663121  0.0260792165093011   T   T   T
  0.7433645359136709  0.9270444545378259  0.0260913151856787   T   T   T
  0.3271559830969988  0.5292175652270364  0.0440275622834722   T   T   T
  0.6603056440925098  0.5291858812808251  0.0440437003393565   T   T   T
  0.9937136542692478  0.5291967841275858  0.0440075317483432   T   T   T
  0.3273628498794967  0.7790234841400174  0.0440812536645285   T   T   T
  0.6602654260532558  0.7790535409715168  0.0440678790940096   T   T   T
  0.9937260478286690  0.7791610015146736  0.0440688065060252   T   T   T
  0.8317786565395001  0.9040603623977939  0.2066220424870125   T   T   T
  0.8339005437489356  0.6539143463978435  0.2065392463397197   T   T   T
  0.1667047270551593  0.6541488942440649  0.2066287143945538   T   T   T
  0.5003035726459630  0.6537808563583974  0.2066636363415787   T   T   T
  0.1653097503487535  0.9038899111603222  0.2065980976806673   T   T   T
  0.4998951404468616  0.9038486247901154  0.2065604609301983   T   T   T
  0.0821358010435034  0.5519325120582181  0.2246494266481544   T   T   T
  0.4155815744815715  0.5492921611621989  0.2249726246416513   T   T   T
  0.7490101460606199  0.5514367179240529  0.2248921431987982   T   T   T
  0.0816006999558220  0.8019215781249349  0.2246814132967488   T   T   T
  0.4129128179996845  0.8028255762810016  0.2248857554797763   T   T   T
  0.7519745373374683  0.8010924689865034  0.2244717492257468   T   T   T
  0.1714752074493916  0.1701256763433568  0.0333939121334486   T   T   T
  0.5044817464341029  0.1703692595299982  0.0335108243811803   T   T   T
  0.8375775457265051  0.1701577172875844  0.0333937010496205   T   T   T
  0.1716821481005207  0.4200686525206676  0.0333643547086895   T   T   T
  0.5047304631351148  0.4197041243152932  0.0332860323857885   T   T   T
  0.8374482115884015  0.4201646175089119  0.0333982574502448   T   T   T
  0.3214978493359232  0.0438796864554781  0.2175262017534477   T   T   T
  0.6540549077873002  0.0444785204498133  0.2173908047203789   T   T   T
  0.9881726808924914  0.0446520439010582  0.2173180512862664   T   T   T
  0.3077595645280788  0.3016013221950348  0.2163656085232140   T   T   T
  0.6774300610806762  0.2953483410337612  0.2175140477516695   T   T   T
  0.9900604210254721  0.2933843973364361  0.2171350084515754   T   T   T
  0.5195104631520141  0.2748914433312312  0.2953108859415061   T   T   T
  0.3888096234958471  0.1308920909782063  0.3000026145894129   T   T   T
  0.5370995480134526  0.3822617826589693  0.3317792464440654   T   T   T
  0.4760682583759707  0.2518128810429736  0.2495200592660775   T   T   T
  0.1713993080892532  0.6703499183932961  0.0334269718526303   T   T   T
  0.5045010075629691  0.6704253828674729  0.0334683803109564   T   T   T
  0.8376067751733780  0.6702771320786769  0.0334164553061938   T   T   T
  0.1717428893679860  0.9200339225366557  0.0333944927801854   T   T   T
  0.5046395912441909  0.9201081485695871  0.0334233338709132   T   T   T
  0.8373462042757550  0.9201026348308532  0.0333951949380025   T   T   T
  0.3217260866195873  0.5448615529805733  0.2174599336041579   T   T   T
  0.6549009820833440  0.5444720116886268  0.2176243558348918   T   T   T
  0.9881859850305120  0.5455822113131771  0.2172842616356778   T   T   T
  0.3198238212363102  0.7948200839436838  0.2174487274463226   T   T   T
  0.6569896042309010  0.7947282296674106  0.2174356839347218   T   T   T
  0.9876768429389170  0.7947028112065178  0.2174009170932396   T   T   T
  0.4964169624036993  0.1239554841351642  0.0589533606905602   T   T   T
  0.8297031974070284  0.1238795143059374  0.0588527229830841   T   T   T
  0.1632295545338021  0.3738222117750771  0.0588347062255980   T   T   T
  0.4965255946696626  0.3737352490547199  0.0588014140695686   T   T   T
  0.8297341839475738  0.3738574588873734  0.0588534533259743   T   T   T
  0.1631041435833716  0.1238742433222538  0.0588627613440972   T   T   T
  0.9966491698953496  0.0003063432556787  0.1387289148214461   T   T   T
  0.3303373644641978  0.0006579976611294  0.1388598803622371   T   T   T
  0.6628114666737133  0.0006910157956375  0.1388396095056876   T   T   T
  0.9963638784153890  0.2504397500135404  0.1387414118444941   T   T   T
  0.3293961760071821  0.2505621785561578  0.1388700484786993   T   T   T
  0.6631350082385007  0.2504759413688864  0.1388484395344219   T   T   T
  0.1631745773238929  0.1247939442462071  0.1650742936868716   T   T   T
  0.4963020955443285  0.1263245615425449  0.1656189387225548   T   T   T
  0.8301042003479973  0.1247828324601070  0.1650113010197602   T   T   T
  0.1629278536325654  0.3754507217028140  0.1651426828396189   T   T   T
  0.4961957796437527  0.3745857923888585  0.1651331300092755   T   T   T
  0.8298711901778736  0.3753622728563327  0.1651836110301558   T   T   T
  0.3282766829203543  0.4986159113866115  0.1920336464138245   T   T   T
  0.6639872211800759  0.4985113462049245  0.1921345405945842   T   T   T
  0.9963266381705681  0.4992073629913193  0.1917932269915837   T   T   T
  0.3272685697468997  0.2508865212848500  0.1922560484207933   T   T   T
  0.9969112890963421  0.2479090610611463  0.1915127780735836   T   T   T
  0.6652814345383092  0.2493337599106804  0.1919658442879359   T   T   T
  0.9964820411298632  0.0002429488892669  0.0854673549538410   T   T   T
  0.3299415785350304  0.0002927285192585  0.0855358193695284   T   T   T
  0.6631344512490119  0.0002922916978952  0.0855319265569309   T   T   T
  0.9963091733166201  0.2502914229750743  0.0854832210020915   T   T   T
  0.3296572290674766  0.2502054921835495  0.0855351079017694   T   T   T
  0.6630173789394120  0.2502022099082502  0.0855355974235854   T   T   T
  0.1631346511893494  0.1254859285363422  0.1118724318299724   T   T   T
  0.4964834391268846  0.1255580572932135  0.1120393521844732   T   T   T
  0.8298131501918720  0.1254936905663012  0.1118523305609311   T   T   T
  0.1631078001785646  0.3755081626803409  0.1118671845127009   T   T   T
  0.4963985643483520  0.3753432937483340  0.1117792922264179   T   T   T
  0.8296933653372432  0.3755194878912679  0.1118969529935744   T   T   T
  0.4964355348019717  0.6239198511399009  0.0588986441584719   T   T   T
  0.8297225783926281  0.6239556673104589  0.0588725503209518   T   T   T
  0.1632873371347415  0.8738673705092269  0.0588735347908893   T   T   T
  0.4965282661929168  0.8739058570530009  0.0588999543516485   T   T   T
  0.8296130787803914  0.8739258461622395  0.0588665190891306   T   T   T
  0.1631230902096056  0.6239563041194017  0.0588789548662656   T   T   T
  0.9965883213314285  0.5005583791495247  0.1387876381691787   T   T   T
  0.3298710655572968  0.5005197630826551  0.1388376970592249   T   T   T
  0.6630986521274416  0.5004473467269883  0.1388433666225551   T   T   T
  0.9965462480118585  0.7505920828195703  0.1387805301674125   T   T   T
  0.3299822418159535  0.7504993199506821  0.1388461757011005   T   T   T
  0.6632065927611352  0.7504742094304685  0.1388093807757608   T   T   T
  0.1629825561360557  0.6255321075064558  0.1651839455328646   T   T   T
  0.4965884753880976  0.6252124987217874  0.1652573248950687   T   T   T
  0.8302470226217558  0.6254015406528622  0.1651525468184852   T   T   T
  0.1632563177904483  0.8753189873472829  0.1651710836458392   T   T   T
  0.4965498023138294  0.8752345129668061  0.1651762329804830   T   T   T
  0.8297200238365831  0.8753541046047737  0.1651500725238993   T   T   T
  0.3296110410826715  0.9986925340898203  0.1918716238091181   T   T   T
  0.6628597728919920  0.9989122392796829  0.1918037691436373   T   T   T
  0.9961316278202652  0.9987689040142923  0.1917547882772865   T   T   T
  0.3297834159123331  0.7489762030041879  0.1919102627145679   T   T   T
  0.9965297368143693  0.7490214274381205  0.1918186980396476   T   T   T
  0.6634422626534928  0.7488925093121228  0.1918680270772817   T   T   T
  0.9965403487786966  0.5001736211449238  0.0854646327969395   T   T   T
  0.3299451180116186  0.5001739220736575  0.0854679976150415   T   T   T
  0.6631928422987038  0.5002185343054203  0.0854873868454179   T   T   T
  0.9963963386435862  0.7502873495962030  0.0855131737675473   T   T   T
  0.3298138335479908  0.7502288404841770  0.0855338480298832   T   T   T
  0.6630251754352340  0.7502161078673363  0.0855237655702757   T   T   T
  0.1633325632907107  0.6254062306647091  0.1118951397485086   T   T   T
  0.4966358843137232  0.6253832535717844  0.1119139147590539   T   T   T
  0.8300157256166422  0.6254152776056243  0.1118730818991089   T   T   T
  0.1634172074293334  0.8755722509701942  0.1118983934191707   T   T   T
  0.4965651248778155  0.8754928686920943  0.1119073871286712   T   T   T
  0.8297024051387113  0.8755241615324363  0.1118895705847880   T   T   T
