C H O Si                                
   1.00000000000000     
     9.2874599999999994    0.0000000000000000    0.0000000000000000
     0.0000000000000000    8.7563099999999991    0.0000000000000000
     0.0000000000000000    0.0000000000000000   58.0000000000000000
   C    H    O    Si
    36    33    16    36
Selective dynamics
Direct
  0.9930988562359820  0.1262416827174980  0.0604194946454464   T   T   T
  0.3265503747649049  0.1262268872869632  0.0605576293304277   T   T   T
  0.6596708052527186  0.1263979825568610  0.0605114214894096   T   T   T
  0.9931103687881311  0.6263976200425210  0.0604351350114764   T   T   T
  0.3265225540076961  0.6259893581474649  0.0605929997607173   T   T   T
  0.6598042025041635  0.6262523203228700  0.0605226699726107   T   T   T
  0.1598177599123365  0.3716592741826406  0.1394041914118577   T   T   T
  0.4930270704273116  0.3721583096992333  0.1396332404455381   T   T   T
  0.8263968688779937  0.3715520458617372  0.1392972345399707   T   T   T
  0.1600457997101133  0.8717440471177491  0.1394500529271218   T   T   T
  0.4930303085849719  0.8714947359121452  0.1394895060681995   T   T   T
  0.8262782495590675  0.8717692039147108  0.1394115258030537   T   T   T
  0.3272550948944103  0.1223747563024904  0.1667254836655789   T   T   T
  0.6595447025691346  0.1221989480552007  0.1666580911203129   T   T   T
  0.9937638119246118  0.1213388780193845  0.1663548798392125   T   T   T
  0.3266623279281665  0.6220170354818126  0.1667833859229812   T   T   T
  0.6603661356489468  0.6220783641045828  0.1666424520511079   T   T   T
  0.9935583532741858  0.6219780264635812  0.1664443549216628   T   T   T
  0.1606311286186334  0.3748776811578292  0.1917823954835064   T   T   T
  0.4940725491680498  0.3793718306585578  0.1926822203166113   T   T   T
  0.8280030383624822  0.3737307409837462  0.1914705111926800   T   T   T
  0.1602929800222539  0.8768522640812467  0.1920094813464541   T   T   T
  0.4939712763464204  0.8758455619415092  0.1920459279037639   T   T   T
  0.8273896847132558  0.8766215863273877  0.1918626074858817   T   T   T
  0.1595195764732586  0.3719828378817507  0.0858492214799752   T   T   T
  0.4928983335384488  0.3719090092940817  0.0860037610636899   T   T   T
  0.8261480784167057  0.3719865667471621  0.0857898512481892   T   T   T
  0.1596421572423595  0.8720649823447846  0.0858689565477811   T   T   T
  0.4928624541327258  0.8719188564230824  0.0859244012555652   T   T   T
  0.8260881145684216  0.8721297500643335  0.0858474455207402   T   T   T
  0.3262853242898970  0.1217170220854883  0.1130942480763008   T   T   T
  0.6594716541192377  0.1216940903521439  0.1130656208280448   T   T   T
  0.9929439063762386  0.1216074608794236  0.1129560745320989   T   T   T
  0.3261883392846928  0.6216269034201234  0.1131126404604211   T   T   T
  0.6595795359342277  0.6217110562306603  0.1130550100036339   T   T   T
  0.9929405363001610  0.6218492851503620  0.1129626574401855   T   T   T
  0.0803822461399054  0.3552289236645951  0.0264391359805834   T   T   T
  0.4109486396480991  0.3549258845386441  0.0267278911552831   T   T   T
  0.7432955507278580  0.3545013165059910  0.0266265340348455   T   T   T
  0.0810018836975939  0.8554004852788430  0.0264493957121168   T   T   T
  0.4109022803429332  0.8544667612133059  0.0267033294746142   T   T   T
  0.7431691881208630  0.8544443459020549  0.0266723225898644   T   T   T
  0.3238999125524833  0.0537881189404394  0.0450289219110488   T   T   T
  0.6563564763595757  0.0539206698859664  0.0449899170066782   T   T   T
  0.9901220131876161  0.0540057408316247  0.0448702841245422   T   T   T
  0.3236991862665872  0.5534923711929431  0.0450744590443041   T   T   T
  0.6566753156798144  0.5537472106347685  0.0450039122274482   T   T   T
  0.9901227099187561  0.5541779330588207  0.0448842323888361   T   T   T
  0.8296691888130423  0.8049765526034892  0.2074560298527099   T   T   T
  0.8305653049762438  0.3016906778330264  0.2070367394535279   T   T   T
  0.1617177683616376  0.3028035148216325  0.2073516039548914   T   T   T
  0.4968309970902166  0.3058127982718591  0.2080878467386171   T   T   T
  0.1620903149953059  0.8039300229871152  0.2074869719524618   T   T   T
  0.4945308110134031  0.8032419932804338  0.2075614060836432   T   T   T
  0.0747798005493574  0.1052462816022320  0.2258337771574055   T   T   T
  0.4120947717594716  0.1049678222935485  0.2257557106234978   T   T   T
  0.7455130267014652  0.1041799633778810  0.2256964190455469   T   T   T
  0.0741403146543142  0.6017611074171726  0.2254333832888645   T   T   T
  0.3776130993775820  0.6189967308820333  0.2290763178978457   T   T   T
  0.7797226192497573  0.5903138193302653  0.2233722685845502   T   T   T
  0.5436697444990959  0.6112852836795662  0.2747684445181044   T   T   T
  0.4902291636918272  0.4745613375991167  0.2937840132575220   T   T   T
  0.5705385868586967  0.6390032763949529  0.3037606456450334   T   T   T
  0.3121171058986004  0.3859938772724336  0.3094034462243850   T   T   T
  0.4221627752762281  0.2588619130937264  0.3022813118405016   T   T   T
  0.6512297240728683  0.7314788150606472  0.3341545595107324   T   T   T
  0.4858660622314005  0.7581698563339302  0.3312653989029037   T   T   T
  0.5123896631696933  0.7924982430073129  0.2525120959774316   T   T   T
  0.5826893910643302  0.6501921023103233  0.2393821874457782   T   T   T
  0.1717197153427373  0.3341243760178039  0.0341303394736879   T   T   T
  0.5030468078445287  0.3356932073796012  0.0343284489038562   T   T   T
  0.8356845917001963  0.3348264382756619  0.0341090614657055   T   T   T
  0.1721745984472094  0.8340430708448581  0.0341584129800989   T   T   T
  0.5031688515053443  0.8342652935397782  0.0341982019005534   T   T   T
  0.8355744095433222  0.8350841117980841  0.0341666936986006   T   T   T
  0.3193341238138517  0.0842297732612658  0.2184734059553126   T   T   T
  0.6525051743588881  0.0840488558700314  0.2184318069597442   T   T   T
  0.9831317345008653  0.0864614139999022  0.2180895715059871   T   T   T
  0.3010614575375178  0.5858000187803980  0.2184105383268124   T   T   T
  0.6779922482916533  0.5840748118621442  0.2184539338094255   T   T   T
  0.9812341838009392  0.5820854867195360  0.2179967376232039   T   T   T
  0.5679046718154070  0.5591316216607842  0.2902999541124183   T   T   T
  0.3807319992898939  0.3562360165195012  0.2974709876285854   T   T   T
  0.5764704242330972  0.7529228892620916  0.3227841956781013   T   T   T
  0.5076101286493715  0.6814735593399920  0.2510628626811805   T   T   T
  0.4931479133712537  0.2438043213347071  0.0597693103706094   T   T   T
  0.8264254063190656  0.2436819936263047  0.0596084167159817   T   T   T
  0.1601410241061463  0.7434632858701127  0.0596972929130647   T   T   T
  0.4931704517747337  0.7434421195485695  0.0597205621926181   T   T   T
  0.8264085943794135  0.7437497403501619  0.0596512764741668   T   T   T
  0.1600724632697487  0.2434774759144446  0.0596707427214306   T   T   T
  0.9932190877864436  0.9963618064132261  0.1395682129359847   T   T   T
  0.3266984032721053  0.9969639149595171  0.1397730976547461   T   T   T
  0.6593790523788048  0.9967658082169732  0.1397329326049669   T   T   T
  0.9930998075647118  0.4966302175353501  0.1395579819035448   T   T   T
  0.3263051818002085  0.4969358927033327  0.1398181341772617   T   T   T
  0.6598297698292277  0.4967275058440926  0.1396891069773280   T   T   T
  0.1601674844416231  0.2457942009047257  0.1659462091869182   T   T   T
  0.4933567815019529  0.2478430226166953  0.1664009929322147   T   T   T
  0.8270115321260116  0.2449096485334589  0.1657392649435132   T   T   T
  0.1601121667795014  0.7466578791389220  0.1661000866253235   T   T   T
  0.4932863159224138  0.7461170564064848  0.1661196834753957   T   T   T
  0.8269635414499047  0.7465187271716809  0.1660161008434337   T   T   T
  0.3269625327098364  0.9938024797076054  0.1928887140791753   T   T   T
  0.6605845354480259  0.9936541119565167  0.1928272010622813   T   T   T
  0.9934981764883714  0.9942703139117368  0.1926416385074287   T   T   T
  0.3251711409833801  0.4951949463582316  0.1932234307592295   T   T   T
  0.9937633962804718  0.4917246257780759  0.1923155949693388   T   T   T
  0.6631157359217935  0.4928865107268662  0.1926193750000044   T   T   T
  0.9928734513633168  0.9962881467036097  0.0862994231008265   T   T   T
  0.3263581868716063  0.9962328050728793  0.0864187369817955   T   T   T
  0.6594037024124384  0.9964147347345110  0.0863896247016802   T   T   T
  0.9928454100451339  0.4963382105676907  0.0863031007335985   T   T   T
  0.3262867212757155  0.4961874523638437  0.0864529235960396   T   T   T
  0.6595185523048215  0.4962991984581939  0.0863939113352994   T   T   T
  0.1595836285163512  0.2467039547119766  0.1127187352951110   T   T   T
  0.4928853317610901  0.2468093298690955  0.1128796440775333   T   T   T
  0.8262767867751254  0.2466612489351185  0.1126433766099504   T   T   T
  0.1597274633433254  0.7467889625742989  0.1127542467995565   T   T   T
  0.4928706811071452  0.7466381207110705  0.1127913979904383   T   T   T
  0.8261568734430997  0.7468529568246787  0.1127185832895135   T   T   T
 
  0.00000000E+00  0.00000000E+00  0.00000000E+00
  0.00000000E+00  0.00000000E+00  0.00000000E+00
  0.00000000E+00  0.00000000E+00  0.00000000E+00
  0.00000000E+00  0.00000000E+00  0.00000000E+00
  0.00000000E+00  0.00000000E+00  0.00000000E+00
  0.00000000E+00  0.00000000E+00  0.00000000E+00
  0.00000000E+00  0.00000000E+00  0.00000000E+00
  0.00000000E+00  0.00000000E+00  0.00000000E+00
  0.00000000E+00  0.00000000E+00  0.00000000E+00
  0.00000000E+00  0.00000000E+00  0.00000000E+00
  0.00000000E+00  0.00000000E+00  0.00000000E+00
  0.00000000E+00  0.00000000E+00  0.00000000E+00
  0.00000000E+00  0.00000000E+00  0.00000000E+00
  0.00000000E+00  0.00000000E+00  0.00000000E+00
  0.00000000E+00  0.00000000E+00  0.00000000E+00
  0.00000000E+00  0.00000000E+00  0.00000000E+00
  0.00000000E+00  0.00000000E+00  0.00000000E+00
  0.00000000E+00  0.00000000E+00  0.00000000E+00
  0.00000000E+00  0.00000000E+00  0.00000000E+00
  0.00000000E+00  0.00000000E+00  0.00000000E+00
  0.00000000E+00  0.00000000E+00  0.00000000E+00
  0.00000000E+00  0.00000000E+00  0.00000000E+00
  0.00000000E+00  0.00000000E+00  0.00000000E+00
  0.00000000E+00  0.00000000E+00  0.00000000E+00
  0.00000000E+00  0.00000000E+00  0.00000000E+00
  0.00000000E+00  0.00000000E+00  0.00000000E+00
  0.00000000E+00  0.00000000E+00  0.00000000E+00
  0.00000000E+00  0.00000000E+00  0.00000000E+00
  0.00000000E+00  0.00000000E+00  0.00000000E+00
  0.00000000E+00  0.00000000E+00  0.00000000E+00
  0.00000000E+00  0.00000000E+00  0.00000000E+00
  0.00000000E+00  0.00000000E+00  0.00000000E+00
  0.00000000E+00  0.00000000E+00  0.00000000E+00
  0.00000000E+00  0.00000000E+00  0.00000000E+00
  0.00000000E+00  0.00000000E+00  0.00000000E+00
  0.00000000E+00  0.00000000E+00  0.00000000E+00
  0.00000000E+00  0.00000000E+00  0.00000000E+00
  0.00000000E+00  0.00000000E+00  0.00000000E+00
  0.00000000E+00  0.00000000E+00  0.00000000E+00
  0.00000000E+00  0.00000000E+00  0.00000000E+00
  0.00000000E+00  0.00000000E+00  0.00000000E+00
  0.00000000E+00  0.00000000E+00  0.00000000E+00
  0.00000000E+00  0.00000000E+00  0.00000000E+00
  0.00000000E+00  0.00000000E+00  0.00000000E+00
  0.00000000E+00  0.00000000E+00  0.00000000E+00
  0.00000000E+00  0.00000000E+00  0.00000000E+00
  0.00000000E+00  0.00000000E+00  0.00000000E+00
  0.00000000E+00  0.00000000E+00  0.00000000E+00
  0.00000000E+00  0.00000000E+00  0.00000000E+00
  0.00000000E+00  0.00000000E+00  0.00000000E+00
  0.00000000E+00  0.00000000E+00  0.00000000E+00
  0.00000000E+00  0.00000000E+00  0.00000000E+00
  0.00000000E+00  0.00000000E+00  0.00000000E+00
  0.00000000E+00  0.00000000E+00  0.00000000E+00
  0.00000000E+00  0.00000000E+00  0.00000000E+00
  0.00000000E+00  0.00000000E+00  0.00000000E+00
  0.00000000E+00  0.00000000E+00  0.00000000E+00
  0.00000000E+00  0.00000000E+00  0.00000000E+00
  0.00000000E+00  0.00000000E+00  0.00000000E+00
  0.00000000E+00  0.00000000E+00  0.00000000E+00
  0.00000000E+00  0.00000000E+00  0.00000000E+00
  0.00000000E+00  0.00000000E+00  0.00000000E+00
  0.00000000E+00  0.00000000E+00  0.00000000E+00
  0.00000000E+00  0.00000000E+00  0.00000000E+00
  0.00000000E+00  0.00000000E+00  0.00000000E+00
  0.00000000E+00  0.00000000E+00  0.00000000E+00
  0.00000000E+00  0.00000000E+00  0.00000000E+00
  0.00000000E+00  0.00000000E+00  0.00000000E+00
  0.00000000E+00  0.00000000E+00  0.00000000E+00
  0.00000000E+00  0.00000000E+00  0.00000000E+00
  0.00000000E+00  0.00000000E+00  0.00000000E+00
  0.00000000E+00  0.00000000E+00  0.00000000E+00
  0.00000000E+00  0.00000000E+00  0.00000000E+00
  0.00000000E+00  0.00000000E+00  0.00000000E+00
  0.00000000E+00  0.00000000E+00  0.00000000E+00
  0.00000000E+00  0.00000000E+00  0.00000000E+00
  0.00000000E+00  0.00000000E+00  0.00000000E+00
  0.00000000E+00  0.00000000E+00  0.00000000E+00
  0.00000000E+00  0.00000000E+00  0.00000000E+00
  0.00000000E+00  0.00000000E+00  0.00000000E+00
  0.00000000E+00  0.00000000E+00  0.00000000E+00
  0.00000000E+00  0.00000000E+00  0.00000000E+00
  0.00000000E+00  0.00000000E+00  0.00000000E+00
  0.00000000E+00  0.00000000E+00  0.00000000E+00
  0.00000000E+00  0.00000000E+00  0.00000000E+00
  0.00000000E+00  0.00000000E+00  0.00000000E+00
  0.00000000E+00  0.00000000E+00  0.00000000E+00
  0.00000000E+00  0.00000000E+00  0.00000000E+00
  0.00000000E+00  0.00000000E+00  0.00000000E+00
  0.00000000E+00  0.00000000E+00  0.00000000E+00
  0.00000000E+00  0.00000000E+00  0.00000000E+00
  0.00000000E+00  0.00000000E+00  0.00000000E+00
  0.00000000E+00  0.00000000E+00  0.00000000E+00
  0.00000000E+00  0.00000000E+00  0.00000000E+00
  0.00000000E+00  0.00000000E+00  0.00000000E+00
  0.00000000E+00  0.00000000E+00  0.00000000E+00
  0.00000000E+00  0.00000000E+00  0.00000000E+00
  0.00000000E+00  0.00000000E+00  0.00000000E+00
  0.00000000E+00  0.00000000E+00  0.00000000E+00
  0.00000000E+00  0.00000000E+00  0.00000000E+00
  0.00000000E+00  0.00000000E+00  0.00000000E+00
  0.00000000E+00  0.00000000E+00  0.00000000E+00
  0.00000000E+00  0.00000000E+00  0.00000000E+00
  0.00000000E+00  0.00000000E+00  0.00000000E+00
  0.00000000E+00  0.00000000E+00  0.00000000E+00
  0.00000000E+00  0.00000000E+00  0.00000000E+00
  0.00000000E+00  0.00000000E+00  0.00000000E+00
  0.00000000E+00  0.00000000E+00  0.00000000E+00
  0.00000000E+00  0.00000000E+00  0.00000000E+00
  0.00000000E+00  0.00000000E+00  0.00000000E+00
  0.00000000E+00  0.00000000E+00  0.00000000E+00
  0.00000000E+00  0.00000000E+00  0.00000000E+00
  0.00000000E+00  0.00000000E+00  0.00000000E+00
  0.00000000E+00  0.00000000E+00  0.00000000E+00
  0.00000000E+00  0.00000000E+00  0.00000000E+00
  0.00000000E+00  0.00000000E+00  0.00000000E+00
  0.00000000E+00  0.00000000E+00  0.00000000E+00
  0.00000000E+00  0.00000000E+00  0.00000000E+00
  0.00000000E+00  0.00000000E+00  0.00000000E+00
  0.00000000E+00  0.00000000E+00  0.00000000E+00
  0.00000000E+00  0.00000000E+00  0.00000000E+00
