C H O Si                                
   1.00000000000000     
     9.2874599999999994    0.0000000000000000    0.0000000000000000
     0.0000000000000000    8.7563099999999991    0.0000000000000000
     0.0000000000000000    0.0000000000000000   58.0000000000000000
   C    H    O    Si
    36    33    16    36
Selective dynamics
Direct
  0.9928415296526484  0.1263220549638603  0.0603989902689001   T   T   T
  0.3265648571299671  0.1261055787542510  0.0605514215264362   T   T   T
  0.6594339175417566  0.1263020789795973  0.0604985112395808   T   T   T
  0.9928722139806823  0.6264656831575803  0.0604188323423265   T   T   T
  0.3265653029053396  0.6257986270544217  0.0605887034393463   T   T   T
  0.6595630403653405  0.6261273192325660  0.0605199701754913   T   T   T
  0.1597478281245269  0.3717219941928039  0.1393596066531411   T   T   T
  0.4929517171878425  0.3720588130114288  0.1396154454431272   T   T   T
  0.8262761572723636  0.3716149450528749  0.1392704009675065   T   T   T
  0.1598815849713192  0.8717813239278910  0.1394233712778954   T   T   T
  0.4929652466624742  0.8715790202796405  0.1394803050742024   T   T   T
  0.8260949708284767  0.8718798954300736  0.1393954092502127   T   T   T
  0.3272230649525492  0.1223215351973785  0.1667292419061107   T   T   T
  0.6593743012694657  0.1220573810337939  0.1666852664803520   T   T   T
  0.9935667502730358  0.1212430696857651  0.1663634905287188   T   T   T
  0.3264940158214650  0.6219835194164594  0.1667933100238617   T   T   T
  0.6601492035848713  0.6218286558732157  0.1666349715450487   T   T   T
  0.9934171066820383  0.6218163432938373  0.1664346513517095   T   T   T
  0.1604347666683902  0.3748545209831002  0.1918170946386731   T   T   T
  0.4939442964766050  0.3792698113379540  0.1927006739810987   T   T   T
  0.8277929178622251  0.3735275738121621  0.1914631027728041   T   T   T
  0.1601680507553417  0.8767560587178131  0.1920318238346883   T   T   T
  0.4937799086824385  0.8759219123240137  0.1920696528278291   T   T   T
  0.8272067153720293  0.8765177833327401  0.1918794063995621   T   T   T
  0.1594157334578797  0.3719094539007049  0.0858508412780942   T   T   T
  0.4928409686782476  0.3718543474758679  0.0860027347998626   T   T   T
  0.8260358561293186  0.3720059434822475  0.0858092274263929   T   T   T
  0.1595237803366490  0.8719222173450523  0.0858722152343337   T   T   T
  0.4928314297956521  0.8718092550024164  0.0859116026316572   T   T   T
  0.8259782202172807  0.8720185335847086  0.0858584908631388   T   T   T
  0.3262350302207018  0.1217932094575233  0.1130767090448517   T   T   T
  0.6594173451266993  0.1217884197256892  0.1130621338710534   T   T   T
  0.9928071042735226  0.1217606371204704  0.1129367136701710   T   T   T
  0.3261769690486002  0.6217370936289508  0.1131099286284818   T   T   T
  0.6594566244561977  0.6218060534118673  0.1130508765482785   T   T   T
  0.9927686778353798  0.6219857888735586  0.1129411961780155   T   T   T
  0.0807434265084543  0.3550587592153031  0.0264699701080036   T   T   T
  0.4110853109794022  0.3548574337555117  0.0267215123196164   T   T   T
  0.7433625621649941  0.3544394477280377  0.0266237892022585   T   T   T
  0.0813626725958868  0.8552711712066620  0.0264677129514369   T   T   T
  0.4110436534207283  0.8543983107019237  0.0267036940324918   T   T   T
  0.7432754760711863  0.8544154589296091  0.0266624722956739   T   T   T
  0.3236992684868060  0.0538149214987459  0.0450081565435481   T   T   T
  0.6561753628614928  0.0538835405554394  0.0449709377926853   T   T   T
  0.9899665682966133  0.0540067969863153  0.0448572614798147   T   T   T
  0.3235060712933446  0.5535470010926031  0.0450409266140543   T   T   T
  0.6564581964522404  0.5537486977291939  0.0449896761348024   T   T   T
  0.9899735690035349  0.5541674198092605  0.0448746217921475   T   T   T
  0.8297109731397793  0.8049782782427097  0.2074747667372567   T   T   T
  0.8305884151481455  0.3017319191632718  0.2070504545333358   T   T   T
  0.1617760861280978  0.3026976749704348  0.2073755235400647   T   T   T
  0.4968328053249698  0.3056412537968339  0.2081014578191684   T   T   T
  0.1621567733935458  0.8037636567210390  0.2074969766373292   T   T   T
  0.4946314890087360  0.8032461623421790  0.2075687493933578   T   T   T
  0.0748040507372898  0.1053250054415011  0.2258318641034665   T   T   T
  0.4125248417358970  0.1052933267055410  0.2258121946528574   T   T   T
  0.7459171185393503  0.1044448412185715  0.2257523055171096   T   T   T
  0.0740679662499983  0.6016558305285216  0.2254206553927021   T   T   T
  0.3781061434436957  0.6191235324223455  0.2291129724502803   T   T   T
  0.7796557687194035  0.5905837755772104  0.2234189158898253   T   T   T
  0.5439295269754449  0.6111331601111277  0.2747555723918526   T   T   T
  0.4901647847254525  0.4744106139908840  0.2937865669239721   T   T   T
  0.5707562719584699  0.6390564378017660  0.3037717983011855   T   T   T
  0.3124043574216936  0.3862292030080162  0.3093921975179702   T   T   T
  0.4220595600359676  0.2589543715995943  0.3022640874287114   T   T   T
  0.6513058937277622  0.7316462773143445  0.3341902576336168   T   T   T
  0.4856720217499220  0.7580575420846610  0.3312537662720281   T   T   T
  0.5125078930646815  0.7927574345495766  0.2525125949612289   T   T   T
  0.5825578867932248  0.6498835914237865  0.2393484789828344   T   T   T
  0.1720578669200746  0.3337473058154538  0.0341527691148305   T   T   T
  0.5034245621710582  0.3361267772251434  0.0342971114635207   T   T   T
  0.8359204648870290  0.3350342148639832  0.0340826652002357   T   T   T
  0.1724085906104945  0.8336284586148520  0.0341903810141847   T   T   T
  0.5035585418982383  0.8343212938610995  0.0341543111239042   T   T   T
  0.8357716144148057  0.8352450741392374  0.0341511613102544   T   T   T
  0.3197376357636360  0.0840697918338836  0.2185612646609041   T   T   T
  0.6529037334183428  0.0838781641805451  0.2185189891936494   T   T   T
  0.9833607437614922  0.0865304441722219  0.2180316188681384   T   T   T
  0.3019289245399817  0.5856598653257298  0.2184112096620789   T   T   T
  0.6780434305469446  0.5837708135358985  0.2184607826713334   T   T   T
  0.9814203568585630  0.5821690315024669  0.2179044500403675   T   T   T
  0.5679131450345098  0.5591972810231512  0.2902947336568175   T   T   T
  0.3810011241739192  0.3565038766358106  0.2974539541412545   T   T   T
  0.5764805280798249  0.7529299293801156  0.3228285598939478   T   T   T
  0.5078136603953164  0.6817728157537601  0.2510381124974202   T   T   T
  0.4931461371194050  0.2439711914289196  0.0597456706114770   T   T   T
  0.8262631927540259  0.2437858083027195  0.0595957247290271   T   T   T
  0.1602388272742989  0.7431750824255818  0.0597289143298047   T   T   T
  0.4931958873617419  0.7434996159428872  0.0597105527834588   T   T   T
  0.8262286061816189  0.7438316152017286  0.0596478384658674   T   T   T
  0.1600463979455696  0.2433050777873458  0.0596865865043486   T   T   T
  0.9931279000058743  0.9965082207473360  0.1395583896845113   T   T   T
  0.3266138621303202  0.9970211259691064  0.1397469542048482   T   T   T
  0.6592784812439729  0.9969458988666772  0.1397226706779700   T   T   T
  0.9930885054822316  0.4967441131306058  0.1395296971479422   T   T   T
  0.3261876531965489  0.4970813159835726  0.1398165349035370   T   T   T
  0.6597503408538065  0.4967648538725348  0.1396742272374891   T   T   T
  0.1600174757191125  0.2458157547293055  0.1659594709284013   T   T   T
  0.4932950888455610  0.2478342037653619  0.1664116902707444   T   T   T
  0.8268683392452418  0.2448372710544967  0.1657466271625483   T   T   T
  0.1599650940119965  0.7466810169431899  0.1661094842060855   T   T   T
  0.4931369129789580  0.7461668671132770  0.1661331440593026   T   T   T
  0.8268057956742426  0.7464919390913923  0.1660310914616466   T   T   T
  0.3270521890882380  0.9938827994343536  0.1929192443800537   T   T   T
  0.6607047456665941  0.9936576739059149  0.1928758198338607   T   T   T
  0.9936096030635222  0.9940413072499862  0.1926314357227809   T   T   T
  0.3252728151017787  0.4952363124611796  0.1932523377955125   T   T   T
  0.9937958661319179  0.4914662221540618  0.1922961659391248   T   T   T
  0.6632225437952797  0.4926623652884671  0.1926097769175873   T   T   T
  0.9928321476936840  0.9963154231170142  0.0862988823058032   T   T   T
  0.3263705086418713  0.9962930184846323  0.0864110603041278   T   T   T
  0.6594159067817759  0.9963885395667813  0.0863777218873241   T   T   T
  0.9927923687915415  0.4964076152059143  0.0862937714182298   T   T   T
  0.3263001686083753  0.4961278078751389  0.0864641200514084   T   T   T
  0.6594816881904465  0.4963456233055092  0.0863915796176874   T   T   T
  0.1595050607506162  0.2468138415306387  0.1127069947930347   T   T   T
  0.4928158233179132  0.2468859357560126  0.1128809622382704   T   T   T
  0.8260810003019019  0.2467729887979677  0.1126366050863220   T   T   T
  0.1596015414310641  0.7469076744622658  0.1127467460409233   T   T   T
  0.4927584492674804  0.7468206974487401  0.1127834106528616   T   T   T
  0.8259985366398025  0.7469851289592156  0.1127187206224918   T   T   T
 
  0.00000000E+00  0.00000000E+00  0.00000000E+00
  0.00000000E+00  0.00000000E+00  0.00000000E+00
  0.00000000E+00  0.00000000E+00  0.00000000E+00
  0.00000000E+00  0.00000000E+00  0.00000000E+00
  0.00000000E+00  0.00000000E+00  0.00000000E+00
  0.00000000E+00  0.00000000E+00  0.00000000E+00
  0.00000000E+00  0.00000000E+00  0.00000000E+00
  0.00000000E+00  0.00000000E+00  0.00000000E+00
  0.00000000E+00  0.00000000E+00  0.00000000E+00
  0.00000000E+00  0.00000000E+00  0.00000000E+00
  0.00000000E+00  0.00000000E+00  0.00000000E+00
  0.00000000E+00  0.00000000E+00  0.00000000E+00
  0.00000000E+00  0.00000000E+00  0.00000000E+00
  0.00000000E+00  0.00000000E+00  0.00000000E+00
  0.00000000E+00  0.00000000E+00  0.00000000E+00
  0.00000000E+00  0.00000000E+00  0.00000000E+00
  0.00000000E+00  0.00000000E+00  0.00000000E+00
  0.00000000E+00  0.00000000E+00  0.00000000E+00
  0.00000000E+00  0.00000000E+00  0.00000000E+00
  0.00000000E+00  0.00000000E+00  0.00000000E+00
  0.00000000E+00  0.00000000E+00  0.00000000E+00
  0.00000000E+00  0.00000000E+00  0.00000000E+00
  0.00000000E+00  0.00000000E+00  0.00000000E+00
  0.00000000E+00  0.00000000E+00  0.00000000E+00
  0.00000000E+00  0.00000000E+00  0.00000000E+00
  0.00000000E+00  0.00000000E+00  0.00000000E+00
  0.00000000E+00  0.00000000E+00  0.00000000E+00
  0.00000000E+00  0.00000000E+00  0.00000000E+00
  0.00000000E+00  0.00000000E+00  0.00000000E+00
  0.00000000E+00  0.00000000E+00  0.00000000E+00
  0.00000000E+00  0.00000000E+00  0.00000000E+00
  0.00000000E+00  0.00000000E+00  0.00000000E+00
  0.00000000E+00  0.00000000E+00  0.00000000E+00
  0.00000000E+00  0.00000000E+00  0.00000000E+00
  0.00000000E+00  0.00000000E+00  0.00000000E+00
  0.00000000E+00  0.00000000E+00  0.00000000E+00
  0.00000000E+00  0.00000000E+00  0.00000000E+00
  0.00000000E+00  0.00000000E+00  0.00000000E+00
  0.00000000E+00  0.00000000E+00  0.00000000E+00
  0.00000000E+00  0.00000000E+00  0.00000000E+00
  0.00000000E+00  0.00000000E+00  0.00000000E+00
  0.00000000E+00  0.00000000E+00  0.00000000E+00
  0.00000000E+00  0.00000000E+00  0.00000000E+00
  0.00000000E+00  0.00000000E+00  0.00000000E+00
  0.00000000E+00  0.00000000E+00  0.00000000E+00
  0.00000000E+00  0.00000000E+00  0.00000000E+00
  0.00000000E+00  0.00000000E+00  0.00000000E+00
  0.00000000E+00  0.00000000E+00  0.00000000E+00
  0.00000000E+00  0.00000000E+00  0.00000000E+00
  0.00000000E+00  0.00000000E+00  0.00000000E+00
  0.00000000E+00  0.00000000E+00  0.00000000E+00
  0.00000000E+00  0.00000000E+00  0.00000000E+00
  0.00000000E+00  0.00000000E+00  0.00000000E+00
  0.00000000E+00  0.00000000E+00  0.00000000E+00
  0.00000000E+00  0.00000000E+00  0.00000000E+00
  0.00000000E+00  0.00000000E+00  0.00000000E+00
  0.00000000E+00  0.00000000E+00  0.00000000E+00
  0.00000000E+00  0.00000000E+00  0.00000000E+00
  0.00000000E+00  0.00000000E+00  0.00000000E+00
  0.00000000E+00  0.00000000E+00  0.00000000E+00
  0.00000000E+00  0.00000000E+00  0.00000000E+00
  0.00000000E+00  0.00000000E+00  0.00000000E+00
  0.00000000E+00  0.00000000E+00  0.00000000E+00
  0.00000000E+00  0.00000000E+00  0.00000000E+00
  0.00000000E+00  0.00000000E+00  0.00000000E+00
  0.00000000E+00  0.00000000E+00  0.00000000E+00
  0.00000000E+00  0.00000000E+00  0.00000000E+00
  0.00000000E+00  0.00000000E+00  0.00000000E+00
  0.00000000E+00  0.00000000E+00  0.00000000E+00
  0.00000000E+00  0.00000000E+00  0.00000000E+00
  0.00000000E+00  0.00000000E+00  0.00000000E+00
  0.00000000E+00  0.00000000E+00  0.00000000E+00
  0.00000000E+00  0.00000000E+00  0.00000000E+00
  0.00000000E+00  0.00000000E+00  0.00000000E+00
  0.00000000E+00  0.00000000E+00  0.00000000E+00
  0.00000000E+00  0.00000000E+00  0.00000000E+00
  0.00000000E+00  0.00000000E+00  0.00000000E+00
  0.00000000E+00  0.00000000E+00  0.00000000E+00
  0.00000000E+00  0.00000000E+00  0.00000000E+00
  0.00000000E+00  0.00000000E+00  0.00000000E+00
  0.00000000E+00  0.00000000E+00  0.00000000E+00
  0.00000000E+00  0.00000000E+00  0.00000000E+00
  0.00000000E+00  0.00000000E+00  0.00000000E+00
  0.00000000E+00  0.00000000E+00  0.00000000E+00
  0.00000000E+00  0.00000000E+00  0.00000000E+00
  0.00000000E+00  0.00000000E+00  0.00000000E+00
  0.00000000E+00  0.00000000E+00  0.00000000E+00
  0.00000000E+00  0.00000000E+00  0.00000000E+00
  0.00000000E+00  0.00000000E+00  0.00000000E+00
  0.00000000E+00  0.00000000E+00  0.00000000E+00
  0.00000000E+00  0.00000000E+00  0.00000000E+00
  0.00000000E+00  0.00000000E+00  0.00000000E+00
  0.00000000E+00  0.00000000E+00  0.00000000E+00
  0.00000000E+00  0.00000000E+00  0.00000000E+00
  0.00000000E+00  0.00000000E+00  0.00000000E+00
  0.00000000E+00  0.00000000E+00  0.00000000E+00
  0.00000000E+00  0.00000000E+00  0.00000000E+00
  0.00000000E+00  0.00000000E+00  0.00000000E+00
  0.00000000E+00  0.00000000E+00  0.00000000E+00
  0.00000000E+00  0.00000000E+00  0.00000000E+00
  0.00000000E+00  0.00000000E+00  0.00000000E+00
  0.00000000E+00  0.00000000E+00  0.00000000E+00
  0.00000000E+00  0.00000000E+00  0.00000000E+00
  0.00000000E+00  0.00000000E+00  0.00000000E+00
  0.00000000E+00  0.00000000E+00  0.00000000E+00
  0.00000000E+00  0.00000000E+00  0.00000000E+00
  0.00000000E+00  0.00000000E+00  0.00000000E+00
  0.00000000E+00  0.00000000E+00  0.00000000E+00
  0.00000000E+00  0.00000000E+00  0.00000000E+00
  0.00000000E+00  0.00000000E+00  0.00000000E+00
  0.00000000E+00  0.00000000E+00  0.00000000E+00
  0.00000000E+00  0.00000000E+00  0.00000000E+00
  0.00000000E+00  0.00000000E+00  0.00000000E+00
  0.00000000E+00  0.00000000E+00  0.00000000E+00
  0.00000000E+00  0.00000000E+00  0.00000000E+00
  0.00000000E+00  0.00000000E+00  0.00000000E+00
  0.00000000E+00  0.00000000E+00  0.00000000E+00
  0.00000000E+00  0.00000000E+00  0.00000000E+00
  0.00000000E+00  0.00000000E+00  0.00000000E+00
  0.00000000E+00  0.00000000E+00  0.00000000E+00
  0.00000000E+00  0.00000000E+00  0.00000000E+00
