C H O Si                                
   1.00000000000000     
     9.2874599999999994    0.0000000000000000    0.0000000000000000
     0.0000000000000000    8.7563099999999991    0.0000000000000000
     0.0000000000000000    0.0000000000000000   58.0000000000000000
   C    H    O    Si
    36    33    16    36
Selective dynamics
Direct
  0.9934820422468311  0.1265745483107112  0.0604277148813074   T   T   T
  0.3268516616989290  0.1266451563478920  0.0605319860791079   T   T   T
  0.6600841242518444  0.1265407341543720  0.0605186954391357   T   T   T
  0.9934271462240173  0.6267158532794105  0.0604406815281773   T   T   T
  0.3267783937198790  0.6265292431278863  0.0605520177123754   T   T   T
  0.6601332708100820  0.6265074698817369  0.0605162132954870   T   T   T
  0.1595300334777287  0.3724987887544115  0.1393837310734730   T   T   T
  0.4927996169594121  0.3730589535342548  0.1396588935043792   T   T   T
  0.8261521011200141  0.3724333509758970  0.1393237961410594   T   T   T
  0.1598399214227260  0.8726255009396938  0.1394439958578527   T   T   T
  0.4928166428884547  0.8724008057815038  0.1395002100424404   T   T   T
  0.8260262625294539  0.8726955060085126  0.1394237922122895   T   T   T
  0.3266991361794885  0.1232297856871814  0.1667083669795675   T   T   T
  0.6588868703417168  0.1229954290404786  0.1666927074966724   T   T   T
  0.9930276266043258  0.1221357278774857  0.1664448221030609   T   T   T
  0.3259609634664224  0.6228072846973696  0.1668258235365016   T   T   T
  0.6598792804188454  0.6229807521709863  0.1666592497551316   T   T   T
  0.9929453275489324  0.6227694836253526  0.1665199579244009   T   T   T
  0.1594530998069628  0.3746465436378761  0.1917239562687450   T   T   T
  0.4930426642691568  0.3801335676483338  0.1927927591699449   T   T   T
  0.8268504588725246  0.3739305859274191  0.1915537150806330   T   T   T
  0.1593275895185467  0.8769988536868281  0.1920086496398615   T   T   T
  0.4927467282119802  0.8761071748280799  0.1920929084008470   T   T   T
  0.8263205052315213  0.8768966829669167  0.1919407790574974   T   T   T
  0.1598167103855300  0.3728255207702538  0.0858169311732531   T   T   T
  0.4930577967306187  0.3729194023569625  0.0859658169045564   T   T   T
  0.8263832706942399  0.3728184599062596  0.0857967255539688   T   T   T
  0.1599111370896126  0.8728515129722015  0.0858475245280421   T   T   T
  0.4930985642773749  0.8728360300018660  0.0858875339917960   T   T   T
  0.8263298518496683  0.8728700802464786  0.0858316086265405   T   T   T
  0.3263771669669986  0.1226513646929910  0.1131066415248106   T   T   T
  0.6595501751488733  0.1226497194402987  0.1130953963971997   T   T   T
  0.9930135558368298  0.1225686611847328  0.1129987345285724   T   T   T
  0.3262923562315241  0.6225165054160603  0.1131374259238149   T   T   T
  0.6596283632385471  0.6225818240345826  0.1130846225491465   T   T   T
  0.9929554823001370  0.6227546917462092  0.1130037485289411   T   T   T
  0.0717085802179545  0.3557781795090456  0.0278832177286528   T   T   T
  0.4039956364061418  0.3558559342103026  0.0280806550576018   T   T   T
  0.7369450859489715  0.3554790910691234  0.0279621546645622   T   T   T
  0.0718243908503801  0.8559398782472930  0.0279043718544005   T   T   T
  0.4038328733123135  0.8553388121927271  0.0280236351526310   T   T   T
  0.7367717444197021  0.8555650786310965  0.0279975285404857   T   T   T
  0.3246574580548142  0.0530374103919262  0.0451402613666045   T   T   T
  0.6572008148067775  0.0530240124209220  0.0451259514005318   T   T   T
  0.9909671551380203  0.0531055592371683  0.0450278094763676   T   T   T
  0.3243686033883765  0.5528640502620878  0.0451711511236822   T   T   T
  0.6574847233977347  0.5529600168560677  0.0451237290749160   T   T   T
  0.9909470727547383  0.5532638343656318  0.0450381796274053   T   T   T
  0.8283544943763160  0.8039657122690430  0.2073845975666036   T   T   T
  0.8296517507211710  0.3011136844893174  0.2070224216732975   T   T   T
  0.1609395688076755  0.3018695637973511  0.2072031933358472   T   T   T
  0.4962132976472255  0.3055591660934619  0.2080791905775229   T   T   T
  0.1611044534263204  0.8032819518396075  0.2073843313570591   T   T   T
  0.4931062401539597  0.8024862799604477  0.2074963659948099   T   T   T
  0.0808581428646747  0.1079781826094770  0.2244322234013657   T   T   T
  0.4159623004534835  0.1082612902922790  0.2243376780931873   T   T   T
  0.7496566294021226  0.1066107359577756  0.2244035060153340   T   T   T
  0.0807264320273551  0.6022078269139013  0.2241418288655087   T   T   T
  0.3787621809335583  0.6182460217839937  0.2282924984483625   T   T   T
  0.7825449224298067  0.5909584187476539  0.2226915851023227   T   T   T
  0.5517340694087914  0.6129815975121501  0.2739803506359584   T   T   T
  0.4971464450345061  0.4775337828568189  0.2934428398530149   T   T   T
  0.5750178826306095  0.6398298216358829  0.3034077267722302   T   T   T
  0.3141703288895396  0.3888327355646124  0.3093268400981200   T   T   T
  0.4202898405459195  0.2592512606663210  0.3018959095346220   T   T   T
  0.6502353948762757  0.7332616273020119  0.3345328862972940   T   T   T
  0.4846800805528082  0.7564785333314555  0.3312555289046181   T   T   T
  0.5212055049931708  0.7890741803774556  0.2520701888194895   T   T   T
  0.5887978820826756  0.6436538269141248  0.2386591132850617   T   T   T
  0.1676765197938411  0.3312411916774272  0.0337183750662075   T   T   T
  0.5003047186245017  0.3319785250468871  0.0338477638343045   T   T   T
  0.8332949204842390  0.3309119776288814  0.0336418230659997   T   T   T
  0.1677718950907809  0.8312765992039749  0.0337408243109111   T   T   T
  0.5001507058817206  0.8310996944788867  0.0337506334385205   T   T   T
  0.8331592872580817  0.8312560571742693  0.0336975043850656   T   T   T
  0.3196938763726537  0.0820022467556274  0.2187776379510884   T   T   T
  0.6532017141842430  0.0821823625837603  0.2187383735040597   T   T   T
  0.9851272701941360  0.0821563247511124  0.2186470616438915   T   T   T
  0.2983688063154606  0.5812439986985315  0.2188941737928455   T   T   T
  0.6792534089727537  0.5825081335809255  0.2187767923428518   T   T   T
  0.9837249094330932  0.5779323859649351  0.2184818051378973   T   T   T
  0.5745869302161283  0.5606332937368373  0.2900338470027998   T   T   T
  0.3822886197611629  0.3586967962209228  0.2973485654524062   T   T   T
  0.5762125349513358  0.7539407924085353  0.3229935115989322   T   T   T
  0.5183492215321064  0.6778321204447411  0.2513777091736447   T   T   T
  0.4936762714048723  0.2436882342259230  0.0601436870966191   T   T   T
  0.8269193847314317  0.2434986864136442  0.0600188841402621   T   T   T
  0.1604102122948952  0.7435383997394276  0.0600653424935858   T   T   T
  0.4936280666742021  0.7434682078640764  0.0600941633782771   T   T   T
  0.8268681947970833  0.7435910078489162  0.0600493133498123   T   T   T
  0.1603854383792504  0.2435431707045137  0.0600471459662924   T   T   T
  0.9929748796524956  0.9967286872439149  0.1395353582531639   T   T   T
  0.3265847512321705  0.9973311417447264  0.1396808527776490   T   T   T
  0.6591738749714758  0.9972496172061545  0.1396662297935189   T   T   T
  0.9928919298085088  0.4970481292542716  0.1395256823452813   T   T   T
  0.3260388073534521  0.4972892375840524  0.1397484961942477   T   T   T
  0.6596714358436695  0.4971076438972346  0.1396353176758658   T   T   T
  0.1595205094436441  0.2460110635724985  0.1656871737183732   T   T   T
  0.4928006079112657  0.2483452264013715  0.1662097332512982   T   T   T
  0.8263949126715717  0.2453298333914645  0.1655636090125717   T   T   T
  0.1595269549005371  0.7470475771727062  0.1658638290177862   T   T   T
  0.4927127608257145  0.7465444779953082  0.1659163669252176   T   T   T
  0.8264953020754420  0.7470392656970434  0.1658125727386305   T   T   T
  0.3258213614647441  0.9937875018046819  0.1924611743334542   T   T   T
  0.6594123383311038  0.9936026570930364  0.1924526555018698   T   T   T
  0.9925778246337190  0.9939874094182241  0.1923248314061164   T   T   T
  0.3236873321287695  0.4949442265574819  0.1928044512445717   T   T   T
  0.9928582393419957  0.4913360456285748  0.1919843205841432   T   T   T
  0.6621272269232888  0.4930957121933386  0.1922120126741612   T   T   T
  0.9931461416013089  0.9967870610500281  0.0865702797135336   T   T   T
  0.3265425822943568  0.9968774037968038  0.0866606734573964   T   T   T
  0.6596723649900810  0.9968706330623097  0.0866503119744443   T   T   T
  0.9931142614735243  0.4968508130941740  0.0865709001034061   T   T   T
  0.3264582980911412  0.4968017479022115  0.0866911200127700   T   T   T
  0.6597689604634985  0.4968113290526935  0.0866480819683633   T   T   T
  0.1596529396620532  0.2471522063511745  0.1128097902064208   T   T   T
  0.4929459622185992  0.2473586179280213  0.1129847252574267   T   T   T
  0.8263097610512109  0.2470891203618686  0.1127704902858043   T   T   T
  0.1597903033907345  0.7471958966305254  0.1128506136913810   T   T   T
  0.4929149428951498  0.7471202714007372  0.1128855294350054   T   T   T
  0.8262120010012419  0.7472160098925925  0.1128322071686534   T   T   T
 
  0.00000000E+00  0.00000000E+00  0.00000000E+00
  0.00000000E+00  0.00000000E+00  0.00000000E+00
  0.00000000E+00  0.00000000E+00  0.00000000E+00
  0.00000000E+00  0.00000000E+00  0.00000000E+00
  0.00000000E+00  0.00000000E+00  0.00000000E+00
  0.00000000E+00  0.00000000E+00  0.00000000E+00
  0.00000000E+00  0.00000000E+00  0.00000000E+00
  0.00000000E+00  0.00000000E+00  0.00000000E+00
  0.00000000E+00  0.00000000E+00  0.00000000E+00
  0.00000000E+00  0.00000000E+00  0.00000000E+00
  0.00000000E+00  0.00000000E+00  0.00000000E+00
  0.00000000E+00  0.00000000E+00  0.00000000E+00
  0.00000000E+00  0.00000000E+00  0.00000000E+00
  0.00000000E+00  0.00000000E+00  0.00000000E+00
  0.00000000E+00  0.00000000E+00  0.00000000E+00
  0.00000000E+00  0.00000000E+00  0.00000000E+00
  0.00000000E+00  0.00000000E+00  0.00000000E+00
  0.00000000E+00  0.00000000E+00  0.00000000E+00
  0.00000000E+00  0.00000000E+00  0.00000000E+00
  0.00000000E+00  0.00000000E+00  0.00000000E+00
  0.00000000E+00  0.00000000E+00  0.00000000E+00
  0.00000000E+00  0.00000000E+00  0.00000000E+00
  0.00000000E+00  0.00000000E+00  0.00000000E+00
  0.00000000E+00  0.00000000E+00  0.00000000E+00
  0.00000000E+00  0.00000000E+00  0.00000000E+00
  0.00000000E+00  0.00000000E+00  0.00000000E+00
  0.00000000E+00  0.00000000E+00  0.00000000E+00
  0.00000000E+00  0.00000000E+00  0.00000000E+00
  0.00000000E+00  0.00000000E+00  0.00000000E+00
  0.00000000E+00  0.00000000E+00  0.00000000E+00
  0.00000000E+00  0.00000000E+00  0.00000000E+00
  0.00000000E+00  0.00000000E+00  0.00000000E+00
  0.00000000E+00  0.00000000E+00  0.00000000E+00
  0.00000000E+00  0.00000000E+00  0.00000000E+00
  0.00000000E+00  0.00000000E+00  0.00000000E+00
  0.00000000E+00  0.00000000E+00  0.00000000E+00
  0.00000000E+00  0.00000000E+00  0.00000000E+00
  0.00000000E+00  0.00000000E+00  0.00000000E+00
  0.00000000E+00  0.00000000E+00  0.00000000E+00
  0.00000000E+00  0.00000000E+00  0.00000000E+00
  0.00000000E+00  0.00000000E+00  0.00000000E+00
  0.00000000E+00  0.00000000E+00  0.00000000E+00
  0.00000000E+00  0.00000000E+00  0.00000000E+00
  0.00000000E+00  0.00000000E+00  0.00000000E+00
  0.00000000E+00  0.00000000E+00  0.00000000E+00
  0.00000000E+00  0.00000000E+00  0.00000000E+00
  0.00000000E+00  0.00000000E+00  0.00000000E+00
  0.00000000E+00  0.00000000E+00  0.00000000E+00
  0.00000000E+00  0.00000000E+00  0.00000000E+00
  0.00000000E+00  0.00000000E+00  0.00000000E+00
  0.00000000E+00  0.00000000E+00  0.00000000E+00
  0.00000000E+00  0.00000000E+00  0.00000000E+00
  0.00000000E+00  0.00000000E+00  0.00000000E+00
  0.00000000E+00  0.00000000E+00  0.00000000E+00
  0.00000000E+00  0.00000000E+00  0.00000000E+00
  0.00000000E+00  0.00000000E+00  0.00000000E+00
  0.00000000E+00  0.00000000E+00  0.00000000E+00
  0.00000000E+00  0.00000000E+00  0.00000000E+00
  0.00000000E+00  0.00000000E+00  0.00000000E+00
  0.00000000E+00  0.00000000E+00  0.00000000E+00
  0.00000000E+00  0.00000000E+00  0.00000000E+00
  0.00000000E+00  0.00000000E+00  0.00000000E+00
  0.00000000E+00  0.00000000E+00  0.00000000E+00
  0.00000000E+00  0.00000000E+00  0.00000000E+00
  0.00000000E+00  0.00000000E+00  0.00000000E+00
  0.00000000E+00  0.00000000E+00  0.00000000E+00
  0.00000000E+00  0.00000000E+00  0.00000000E+00
  0.00000000E+00  0.00000000E+00  0.00000000E+00
  0.00000000E+00  0.00000000E+00  0.00000000E+00
  0.00000000E+00  0.00000000E+00  0.00000000E+00
  0.00000000E+00  0.00000000E+00  0.00000000E+00
  0.00000000E+00  0.00000000E+00  0.00000000E+00
  0.00000000E+00  0.00000000E+00  0.00000000E+00
  0.00000000E+00  0.00000000E+00  0.00000000E+00
  0.00000000E+00  0.00000000E+00  0.00000000E+00
  0.00000000E+00  0.00000000E+00  0.00000000E+00
  0.00000000E+00  0.00000000E+00  0.00000000E+00
  0.00000000E+00  0.00000000E+00  0.00000000E+00
  0.00000000E+00  0.00000000E+00  0.00000000E+00
  0.00000000E+00  0.00000000E+00  0.00000000E+00
  0.00000000E+00  0.00000000E+00  0.00000000E+00
  0.00000000E+00  0.00000000E+00  0.00000000E+00
  0.00000000E+00  0.00000000E+00  0.00000000E+00
  0.00000000E+00  0.00000000E+00  0.00000000E+00
  0.00000000E+00  0.00000000E+00  0.00000000E+00
  0.00000000E+00  0.00000000E+00  0.00000000E+00
  0.00000000E+00  0.00000000E+00  0.00000000E+00
  0.00000000E+00  0.00000000E+00  0.00000000E+00
  0.00000000E+00  0.00000000E+00  0.00000000E+00
  0.00000000E+00  0.00000000E+00  0.00000000E+00
  0.00000000E+00  0.00000000E+00  0.00000000E+00
  0.00000000E+00  0.00000000E+00  0.00000000E+00
  0.00000000E+00  0.00000000E+00  0.00000000E+00
  0.00000000E+00  0.00000000E+00  0.00000000E+00
  0.00000000E+00  0.00000000E+00  0.00000000E+00
  0.00000000E+00  0.00000000E+00  0.00000000E+00
  0.00000000E+00  0.00000000E+00  0.00000000E+00
  0.00000000E+00  0.00000000E+00  0.00000000E+00
  0.00000000E+00  0.00000000E+00  0.00000000E+00
  0.00000000E+00  0.00000000E+00  0.00000000E+00
  0.00000000E+00  0.00000000E+00  0.00000000E+00
  0.00000000E+00  0.00000000E+00  0.00000000E+00
  0.00000000E+00  0.00000000E+00  0.00000000E+00
  0.00000000E+00  0.00000000E+00  0.00000000E+00
  0.00000000E+00  0.00000000E+00  0.00000000E+00
  0.00000000E+00  0.00000000E+00  0.00000000E+00
  0.00000000E+00  0.00000000E+00  0.00000000E+00
  0.00000000E+00  0.00000000E+00  0.00000000E+00
  0.00000000E+00  0.00000000E+00  0.00000000E+00
  0.00000000E+00  0.00000000E+00  0.00000000E+00
  0.00000000E+00  0.00000000E+00  0.00000000E+00
  0.00000000E+00  0.00000000E+00  0.00000000E+00
  0.00000000E+00  0.00000000E+00  0.00000000E+00
  0.00000000E+00  0.00000000E+00  0.00000000E+00
  0.00000000E+00  0.00000000E+00  0.00000000E+00
  0.00000000E+00  0.00000000E+00  0.00000000E+00
  0.00000000E+00  0.00000000E+00  0.00000000E+00
  0.00000000E+00  0.00000000E+00  0.00000000E+00
  0.00000000E+00  0.00000000E+00  0.00000000E+00
  0.00000000E+00  0.00000000E+00  0.00000000E+00
  0.00000000E+00  0.00000000E+00  0.00000000E+00
