C H O Si                                
   1.00000000000000     
     9.2874599999999994    0.0000000000000000    0.0000000000000000
     0.0000000000000000    8.7563099999999991    0.0000000000000000
     0.0000000000000000    0.0000000000000000   58.0000000000000000
   C    H    O    Si
    36    33    16    36
Selective dynamics
Direct
  0.9934980675907332  0.1264763608790051  0.0604586677110557   T   T   T
  0.3269471500649689  0.1265242849270497  0.0605500502668657   T   T   T
  0.6600941919417800  0.1265325346664560  0.0605346408928360   T   T   T
  0.9934721524923897  0.6266135158747759  0.0604696855940404   T   T   T
  0.3268593253908293  0.6264206863913373  0.0605708583409598   T   T   T
  0.6601261997489650  0.6264503431375725  0.0605322106565701   T   T   T
  0.1595704157256903  0.3726535079288703  0.1393860735377942   T   T   T
  0.4927902412863165  0.3730632346552789  0.1396434052570735   T   T   T
  0.8261832892697778  0.3725207768145310  0.1393438568741053   T   T   T
  0.1598912168319507  0.8726487130945698  0.1394398214974805   T   T   T
  0.4928625599891984  0.8724470192490795  0.1394952015501811   T   T   T
  0.8260402526410251  0.8727463425393875  0.1394206103474084   T   T   T
  0.3266514264276929  0.1233202662531600  0.1667602569850415   T   T   T
  0.6587183293528652  0.1230084616405012  0.1667304672046234   T   T   T
  0.9929729929058652  0.1220520974442235  0.1664597861996545   T   T   T
  0.3259116326237439  0.6228569219904151  0.1668440951594409   T   T   T
  0.6596588603841533  0.6230063950908002  0.1667089363422876   T   T   T
  0.9928565668922837  0.6227548061406795  0.1665450929284312   T   T   T
  0.1593404748976884  0.3745743554593299  0.1917317860715363   T   T   T
  0.4928670338860334  0.3801020374190075  0.1927987345677196   T   T   T
  0.8268495046490059  0.3739548923604650  0.1915592303210499   T   T   T
  0.1591628957331988  0.8768239551012446  0.1919915563590717   T   T   T
  0.4926346775590968  0.8760084092974605  0.1920809065214075   T   T   T
  0.8262699927021533  0.8766608036053518  0.1919234680092319   T   T   T
  0.1597592426710268  0.3728307132736213  0.0858178628429263   T   T   T
  0.4931463728250600  0.3728484748198808  0.0859446488770355   T   T   T
  0.8264222659473611  0.3728178997154497  0.0857818181981333   T   T   T
  0.1598535993335168  0.8728598603338803  0.0858345470097805   T   T   T
  0.4931415795089210  0.8727652825058890  0.0858877736332039   T   T   T
  0.8263933319238274  0.8728654506130817  0.0858309682462290   T   T   T
  0.3263241601143044  0.1227192574325474  0.1130970603876170   T   T   T
  0.6594613128613522  0.1227154254297814  0.1130887632323037   T   T   T
  0.9930000464561266  0.1225306153935327  0.1129884092511173   T   T   T
  0.3262532142377481  0.6225986834203791  0.1131225665499074   T   T   T
  0.6595418993357564  0.6226721660164118  0.1130841416939233   T   T   T
  0.9929327522686687  0.6228005670229675  0.1129999885790084   T   T   T
  0.0716631270249167  0.3555394555310294  0.0278694734992127   T   T   T
  0.4039273212518821  0.3556705273723420  0.0280591481940631   T   T   T
  0.7368590765245421  0.3553113806125575  0.0279400450127944   T   T   T
  0.0717758678148538  0.8557147087593626  0.0278884017686446   T   T   T
  0.4037443039777784  0.8551685841772785  0.0280007023059928   T   T   T
  0.7366785430161386  0.8554101050738269  0.0279730930856046   T   T   T
  0.3246258363205530  0.0531004398568538  0.0451475268913235   T   T   T
  0.6571709549455214  0.0530850479714164  0.0451341272517227   T   T   T
  0.9909387902001262  0.0532063519958756  0.0450383864300134   T   T   T
  0.3243358558006217  0.5529179558297118  0.0451771190286407   T   T   T
  0.6574591679172930  0.5530290509492024  0.0451309269101883   T   T   T
  0.9909248471721251  0.5533564417452954  0.0450462955888640   T   T   T
  0.8283852518226762  0.8040385267257669  0.2073829982524364   T   T   T
  0.8297115538212346  0.3011383698464062  0.2070184704312470   T   T   T
  0.1609421423261443  0.3018984138169163  0.2072098022589423   T   T   T
  0.4962542570106976  0.3056422183864203  0.2080829500414994   T   T   T
  0.1610650587065855  0.8033560261137092  0.2073844476257188   T   T   T
  0.4930587943476754  0.8025483174574536  0.2074899780959844   T   T   T
  0.0809103310596704  0.1080112152657213  0.2244937126491721   T   T   T
  0.4160426987892859  0.1083297271253025  0.2243874298305353   T   T   T
  0.7497224077185486  0.1066327349164755  0.2244679004989107   T   T   T
  0.0806461023614965  0.6022647054327956  0.2241722734135039   T   T   T
  0.3788816648024890  0.6181365870528950  0.2283453997987224   T   T   T
  0.7825267559395115  0.5909115743888760  0.2227048153032392   T   T   T
  0.5517520931234341  0.6131126499095992  0.2739720714579124   T   T   T
  0.4972971333098585  0.4775832759137232  0.2934525082420420   T   T   T
  0.5750977700203402  0.6400149284945952  0.3034107401547244   T   T   T
  0.3142315662707302  0.3889273397801940  0.3093300241526721   T   T   T
  0.4201669840820229  0.2592132762524006  0.3018926249416386   T   T   T
  0.6501890951623092  0.7333828290718856  0.3345554286143551   T   T   T
  0.4846334908109181  0.7564283957333315  0.3312610340165623   T   T   T
  0.5211102232934678  0.7890286450777414  0.2520441913202623   T   T   T
  0.5889517493226131  0.6435646552966134  0.2386628250048827   T   T   T
  0.1678959553159430  0.3314696883814324  0.0336525119817114   T   T   T
  0.5003787665317857  0.3321229250442211  0.0338035724070021   T   T   T
  0.8333134746940322  0.3309489603675931  0.0335920769783730   T   T   T
  0.1679701865782066  0.8314770415976442  0.0336798840097002   T   T   T
  0.5002222197695447  0.8311363826130469  0.0336917754308067   T   T   T
  0.8331865528603836  0.8313032562991390  0.0336475896446504   T   T   T
  0.3199936884275520  0.0820001908245734  0.2187436698146246   T   T   T
  0.6535154839008455  0.0822511524164309  0.2187023259632526   T   T   T
  0.9853986358985415  0.0820428099029878  0.2186415576601074   T   T   T
  0.2987647149381498  0.5812932661377073  0.2188852941416718   T   T   T
  0.6792772915199835  0.5827351272933469  0.2187480426651852   T   T   T
  0.9839517795348124  0.5775037556583074  0.2184537154862707   T   T   T
  0.5748882712119827  0.5605455047301278  0.2900252961074749   T   T   T
  0.3822336376892106  0.3586563528726119  0.2973509798750790   T   T   T
  0.5761677159848329  0.7537854032797948  0.3230292287274045   T   T   T
  0.5182148741576106  0.6777723816832619  0.2513572205036344   T   T   T
  0.4937381091674009  0.2437594093098790  0.0601242200446720   T   T   T
  0.8269868460273906  0.2435896260465347  0.0599815419485421   T   T   T
  0.1605000496920099  0.7436082192759281  0.0600424768689908   T   T   T
  0.4937131897470164  0.7435666520492321  0.0600805582607762   T   T   T
  0.8269065196437219  0.7436901399001328  0.0600175563343208   T   T   T
  0.1604830922119513  0.2435841751277636  0.0600167023151378   T   T   T
  0.9930820324630779  0.9968614310509643  0.1395372448162689   T   T   T
  0.3265443096457401  0.9975899292900711  0.1396979975884319   T   T   T
  0.6591584882690065  0.9974209654145898  0.1396767797134625   T   T   T
  0.9929004853267609  0.4972352245546984  0.1395333271246343   T   T   T
  0.3259640622527787  0.4975020150312470  0.1397559971103540   T   T   T
  0.6596633690521561  0.4972851009579189  0.1396494168579625   T   T   T
  0.1593889484847023  0.2459876786820887  0.1656945909553270   T   T   T
  0.4927095001918465  0.2483946881589675  0.1662037019515266   T   T   T
  0.8262500231865404  0.2452380134180784  0.1655756161337703   T   T   T
  0.1593839916948097  0.7469552737561190  0.1658643412454499   T   T   T
  0.4925547096458840  0.7465485756404023  0.1659100533143292   T   T   T
  0.8263303526478623  0.7469599060204302  0.1658150558553108   T   T   T
  0.3257782377729421  0.9936721150687921  0.1924638651859307   T   T   T
  0.6593830378667723  0.9933512872270751  0.1924520014557899   T   T   T
  0.9925089090417711  0.9938161417009360  0.1923192118524719   T   T   T
  0.3236430673290424  0.4949227617717877  0.1928316849133626   T   T   T
  0.9928926278142118  0.4912608144272498  0.1919670167664295   T   T   T
  0.6620808626554320  0.4929041715960910  0.1922219909115648   T   T   T
  0.9931423527713160  0.9966462952979571  0.0866011295545172   T   T   T
  0.3265564183193438  0.9967247412088859  0.0866862974141397   T   T   T
  0.6597221297724694  0.9967657867019847  0.0866758351296215   T   T   T
  0.9930915252291249  0.4967428544392449  0.0866041715134977   T   T   T
  0.3264529562681072  0.4966744258375898  0.0867071133281795   T   T   T
  0.6597590364222902  0.4967108917839203  0.0866722070139894   T   T   T
  0.1596148777149966  0.2472666019229698  0.1128089474499241   T   T   T
  0.4928426797930391  0.2473905400065217  0.1129680148802925   T   T   T
  0.8262639978925087  0.2471289328421523  0.1127718011256790   T   T   T
  0.1597177033937865  0.7473101402607318  0.1128406857364768   T   T   T
  0.4928296090461586  0.7471764297277359  0.1128807806033492   T   T   T
  0.8261389535115466  0.7473206510195533  0.1128324175183775   T   T   T
 
  0.00000000E+00  0.00000000E+00  0.00000000E+00
  0.00000000E+00  0.00000000E+00  0.00000000E+00
  0.00000000E+00  0.00000000E+00  0.00000000E+00
  0.00000000E+00  0.00000000E+00  0.00000000E+00
  0.00000000E+00  0.00000000E+00  0.00000000E+00
  0.00000000E+00  0.00000000E+00  0.00000000E+00
  0.00000000E+00  0.00000000E+00  0.00000000E+00
  0.00000000E+00  0.00000000E+00  0.00000000E+00
  0.00000000E+00  0.00000000E+00  0.00000000E+00
  0.00000000E+00  0.00000000E+00  0.00000000E+00
  0.00000000E+00  0.00000000E+00  0.00000000E+00
  0.00000000E+00  0.00000000E+00  0.00000000E+00
  0.00000000E+00  0.00000000E+00  0.00000000E+00
  0.00000000E+00  0.00000000E+00  0.00000000E+00
  0.00000000E+00  0.00000000E+00  0.00000000E+00
  0.00000000E+00  0.00000000E+00  0.00000000E+00
  0.00000000E+00  0.00000000E+00  0.00000000E+00
  0.00000000E+00  0.00000000E+00  0.00000000E+00
  0.00000000E+00  0.00000000E+00  0.00000000E+00
  0.00000000E+00  0.00000000E+00  0.00000000E+00
  0.00000000E+00  0.00000000E+00  0.00000000E+00
  0.00000000E+00  0.00000000E+00  0.00000000E+00
  0.00000000E+00  0.00000000E+00  0.00000000E+00
  0.00000000E+00  0.00000000E+00  0.00000000E+00
  0.00000000E+00  0.00000000E+00  0.00000000E+00
  0.00000000E+00  0.00000000E+00  0.00000000E+00
  0.00000000E+00  0.00000000E+00  0.00000000E+00
  0.00000000E+00  0.00000000E+00  0.00000000E+00
  0.00000000E+00  0.00000000E+00  0.00000000E+00
  0.00000000E+00  0.00000000E+00  0.00000000E+00
  0.00000000E+00  0.00000000E+00  0.00000000E+00
  0.00000000E+00  0.00000000E+00  0.00000000E+00
  0.00000000E+00  0.00000000E+00  0.00000000E+00
  0.00000000E+00  0.00000000E+00  0.00000000E+00
  0.00000000E+00  0.00000000E+00  0.00000000E+00
  0.00000000E+00  0.00000000E+00  0.00000000E+00
  0.00000000E+00  0.00000000E+00  0.00000000E+00
  0.00000000E+00  0.00000000E+00  0.00000000E+00
  0.00000000E+00  0.00000000E+00  0.00000000E+00
  0.00000000E+00  0.00000000E+00  0.00000000E+00
  0.00000000E+00  0.00000000E+00  0.00000000E+00
  0.00000000E+00  0.00000000E+00  0.00000000E+00
  0.00000000E+00  0.00000000E+00  0.00000000E+00
  0.00000000E+00  0.00000000E+00  0.00000000E+00
  0.00000000E+00  0.00000000E+00  0.00000000E+00
  0.00000000E+00  0.00000000E+00  0.00000000E+00
  0.00000000E+00  0.00000000E+00  0.00000000E+00
  0.00000000E+00  0.00000000E+00  0.00000000E+00
  0.00000000E+00  0.00000000E+00  0.00000000E+00
  0.00000000E+00  0.00000000E+00  0.00000000E+00
  0.00000000E+00  0.00000000E+00  0.00000000E+00
  0.00000000E+00  0.00000000E+00  0.00000000E+00
  0.00000000E+00  0.00000000E+00  0.00000000E+00
  0.00000000E+00  0.00000000E+00  0.00000000E+00
  0.00000000E+00  0.00000000E+00  0.00000000E+00
  0.00000000E+00  0.00000000E+00  0.00000000E+00
  0.00000000E+00  0.00000000E+00  0.00000000E+00
  0.00000000E+00  0.00000000E+00  0.00000000E+00
  0.00000000E+00  0.00000000E+00  0.00000000E+00
  0.00000000E+00  0.00000000E+00  0.00000000E+00
  0.00000000E+00  0.00000000E+00  0.00000000E+00
  0.00000000E+00  0.00000000E+00  0.00000000E+00
  0.00000000E+00  0.00000000E+00  0.00000000E+00
  0.00000000E+00  0.00000000E+00  0.00000000E+00
  0.00000000E+00  0.00000000E+00  0.00000000E+00
  0.00000000E+00  0.00000000E+00  0.00000000E+00
  0.00000000E+00  0.00000000E+00  0.00000000E+00
  0.00000000E+00  0.00000000E+00  0.00000000E+00
  0.00000000E+00  0.00000000E+00  0.00000000E+00
  0.00000000E+00  0.00000000E+00  0.00000000E+00
  0.00000000E+00  0.00000000E+00  0.00000000E+00
  0.00000000E+00  0.00000000E+00  0.00000000E+00
  0.00000000E+00  0.00000000E+00  0.00000000E+00
  0.00000000E+00  0.00000000E+00  0.00000000E+00
  0.00000000E+00  0.00000000E+00  0.00000000E+00
  0.00000000E+00  0.00000000E+00  0.00000000E+00
  0.00000000E+00  0.00000000E+00  0.00000000E+00
  0.00000000E+00  0.00000000E+00  0.00000000E+00
  0.00000000E+00  0.00000000E+00  0.00000000E+00
  0.00000000E+00  0.00000000E+00  0.00000000E+00
  0.00000000E+00  0.00000000E+00  0.00000000E+00
  0.00000000E+00  0.00000000E+00  0.00000000E+00
  0.00000000E+00  0.00000000E+00  0.00000000E+00
  0.00000000E+00  0.00000000E+00  0.00000000E+00
  0.00000000E+00  0.00000000E+00  0.00000000E+00
  0.00000000E+00  0.00000000E+00  0.00000000E+00
  0.00000000E+00  0.00000000E+00  0.00000000E+00
  0.00000000E+00  0.00000000E+00  0.00000000E+00
  0.00000000E+00  0.00000000E+00  0.00000000E+00
  0.00000000E+00  0.00000000E+00  0.00000000E+00
  0.00000000E+00  0.00000000E+00  0.00000000E+00
  0.00000000E+00  0.00000000E+00  0.00000000E+00
  0.00000000E+00  0.00000000E+00  0.00000000E+00
  0.00000000E+00  0.00000000E+00  0.00000000E+00
  0.00000000E+00  0.00000000E+00  0.00000000E+00
  0.00000000E+00  0.00000000E+00  0.00000000E+00
  0.00000000E+00  0.00000000E+00  0.00000000E+00
  0.00000000E+00  0.00000000E+00  0.00000000E+00
  0.00000000E+00  0.00000000E+00  0.00000000E+00
  0.00000000E+00  0.00000000E+00  0.00000000E+00
  0.00000000E+00  0.00000000E+00  0.00000000E+00
  0.00000000E+00  0.00000000E+00  0.00000000E+00
  0.00000000E+00  0.00000000E+00  0.00000000E+00
  0.00000000E+00  0.00000000E+00  0.00000000E+00
  0.00000000E+00  0.00000000E+00  0.00000000E+00
  0.00000000E+00  0.00000000E+00  0.00000000E+00
  0.00000000E+00  0.00000000E+00  0.00000000E+00
  0.00000000E+00  0.00000000E+00  0.00000000E+00
  0.00000000E+00  0.00000000E+00  0.00000000E+00
  0.00000000E+00  0.00000000E+00  0.00000000E+00
  0.00000000E+00  0.00000000E+00  0.00000000E+00
  0.00000000E+00  0.00000000E+00  0.00000000E+00
  0.00000000E+00  0.00000000E+00  0.00000000E+00
  0.00000000E+00  0.00000000E+00  0.00000000E+00
  0.00000000E+00  0.00000000E+00  0.00000000E+00
  0.00000000E+00  0.00000000E+00  0.00000000E+00
  0.00000000E+00  0.00000000E+00  0.00000000E+00
  0.00000000E+00  0.00000000E+00  0.00000000E+00
  0.00000000E+00  0.00000000E+00  0.00000000E+00
  0.00000000E+00  0.00000000E+00  0.00000000E+00
  0.00000000E+00  0.00000000E+00  0.00000000E+00
