C H O Si                                
   1.00000000000000     
     9.2874599999999994    0.0000000000000000    0.0000000000000000
     0.0000000000000000    8.7562999999999995    0.0000000000000000
     0.0000000000000000    0.0000000000000000   58.0000000000000000
   C    H    O    Si
    36    33    16    36
Selective dynamics
Direct
  0.0007175329289413  0.1351985281162124  0.3755247060580882   T   T   T
  0.0006932446985154  0.6353420896799801  0.3755411214931670   T   T   T
  0.3341015791284223  0.1352403107699999  0.3756300647031527   T   T   T
  0.3340725178997388  0.6351439314016784  0.3756431543111150   T   T   T
  0.6672161434747838  0.1351646038565240  0.3756295091482856   T   T   T
  0.6672310398818649  0.6350999729426240  0.3756269258065251   T   T   T
  0.1677226033211861  0.3815124355144373  0.4009492104192655   T   T   T
  0.1677920920191597  0.8815123528733502  0.4009773715144356   T   T   T
  0.5010636342068003  0.3814752187898637  0.4010965260980386   T   T   T
  0.5010307582060812  0.8814336039892252  0.4010269644738636   T   T   T
  0.8343962104851856  0.3814334258443002  0.4009143385063990   T   T   T
  0.8343322148425120  0.8814579382463058  0.4009536661457496   T   T   T
  0.0011451969007351  0.1310868813444349  0.4280803859528777   T   T   T
  0.0011466499700281  0.6313172932461726  0.4280940485348644   T   T   T
  0.3346385742232517  0.1312482195021447  0.4282032289054879   T   T   T
  0.3345766007941567  0.6311582521185801  0.4282280381882909   T   T   T
  0.6676429430603760  0.1312026332156576  0.4281927090631267   T   T   T
  0.6677199988595035  0.6311670619946469  0.4281823401772207   T   T   T
  0.1678588292297035  0.3811305693967367  0.4544749119572495   T   T   T
  0.1681337292084360  0.8812771937302171  0.4545441057232307   T   T   T
  0.5011223331309935  0.3815562612055676  0.4547546744244913   T   T   T
  0.5011768404239085  0.8809983720839252  0.4546183576117981   T   T   T
  0.8344737408689032  0.3810739656478724  0.4544195246833913   T   T   T
  0.8343013085452254  0.8812664387817525  0.4545093675981103   T   T   T
  0.0011925301189996  0.1308136580353449  0.4815110363069705   T   T   T
  0.0012196016452320  0.6314427594185219  0.4815964632649009   T   T   T
  0.3350392880777381  0.1319721981343205  0.4818111737273976   T   T   T
  0.3343028975470727  0.6316117373810894  0.4818897546908493   T   T   T
  0.6671045634382474  0.1318806450821620  0.4817918739310613   T   T   T
  0.6680580223313538  0.6317830572187079  0.4817655629634134   T   T   T
  0.1673717286356514  0.3833145739848398  0.5067892948513125   T   T   T
  0.1670435544917645  0.8857337421768290  0.5070887622283224   T   T   T
  0.5010442129840924  0.3891331420047308  0.5079078334622550   T   T   T
  0.5006508067303019  0.8850457356452364  0.5072006198795822   T   T   T
  0.8350708417911608  0.3828993435310600  0.5066843056060267   T   T   T
  0.8343136768510675  0.8856064293893612  0.5070301364604407   T   T   T
  0.0036356692039259  0.0620089837395705  0.3600910634721611   T   T   T
  0.0035734358669625  0.5621337768271247  0.3601084376207780   T   T   T
  0.3370987960207377  0.0619376118562659  0.3602113178061099   T   T   T
  0.3368906751576315  0.5617253551047435  0.3602361215367151   T   T   T
  0.6696059536101595  0.0618581499800254  0.3602077483235051   T   T   T
  0.6698469408142775  0.5617975805623637  0.3602063541652599   T   T   T
  0.1693490785283727  0.3106908056051014  0.5222782350382414   T   T   T
  0.1690464308676804  0.8122497863381011  0.5224839012665805   T   T   T
  0.5044707081473693  0.3145802722430131  0.5231933420145385   T   T   T
  0.5017413675027202  0.8118992320751682  0.5226473037583409   T   T   T
  0.8380036909664034  0.3101406259508577  0.5221552990310654   T   T   T
  0.8366827583836148  0.8129450088775108  0.5224939808904614   T   T   T
  0.0881510996400491  0.1185326772361817  0.5393848751939653   T   T   T
  0.0897064979984350  0.6115106042815142  0.5390470321909880   T   T   T
  0.4214060092402253  0.1188673964039324  0.5395080403284064   T   T   T
  0.3827902376213417  0.6356993822341761  0.5428599945910715   T   T   T
  0.7569771889574467  0.1172699391266822  0.5393845238859911   T   T   T
  0.7901537688025823  0.6004441803484641  0.5378600723662439   T   T   T
  0.2564881996276966  0.3671001331801620  0.3432661730043207   T   T   T
  0.2566637521892750  0.8670432959532569  0.3432951783936187   T   T   T
  0.5891602977805824  0.3672791543584364  0.3433325804715507   T   T   T
  0.5890580918041437  0.8671406089980911  0.3432835327502080   T   T   T
  0.9210688099961101  0.3678566445511463  0.3431237297493475   T   T   T
  0.9210032713166738  0.8679817706507051  0.3431537499005506   T   T   T
  0.5456875563483264  0.6168717550325482  0.5872557350665140   T   T   T
  0.4885953742641655  0.4769786003559870  0.6063088129447680   T   T   T
  0.5674596523152753  0.6395358961127157  0.6165164025951517   T   T   T
  0.3091603196710472  0.3834491405158107  0.6222570192612720   T   T   T
  0.4236787510142715  0.2595152015273184  0.6159230398937322   T   T   T
  0.6461953053261487  0.7348639706261332  0.6468027506201790   T   T   T
  0.4817844579958202  0.7661549373461576  0.6434530296356188   T   T   T
  0.5313669049678964  0.8043135633005410  0.5671022044084453   T   T   T
  0.5938251447324370  0.6585976307131371  0.5529827132577695   T   T   T
  0.1603518228735362  0.3408018706488123  0.3488721379517078   T   T   T
  0.1604861979357802  0.8408798574266722  0.3488996806229646   T   T   T
  0.4931306417172822  0.3411924445322234  0.3490097190340073   T   T   T
  0.4930559132693131  0.8408638177708799  0.3489525205739800   T   T   T
  0.8254999486496006  0.3404923930024500  0.3488430930745898   T   T   T
  0.8254384755505072  0.8406234362545618  0.3488751284398393   T   T   T
  0.9924274187831881  0.0919071507282723  0.5336425842034607   T   T   T
  0.9922411506183217  0.5879266509982479  0.5334759644851580   T   T   T
  0.3258567220550224  0.0909576561146239  0.5338446029666715   T   T   T
  0.3043959962644826  0.5901081243599560  0.5338704376931959   T   T   T
  0.6606858706564022  0.0912368701087832  0.5338045417175880   T   T   T
  0.6870127196702918  0.5915404511494149  0.5338773280145200   T   T   T
  0.5661534846129241  0.5604500427423261  0.6030762540779899   T   T   T
  0.3791893811230658  0.3539902106902563  0.6105314652522369   T   T   T
  0.5731332958665407  0.7579445304945569  0.6352259983527665   T   T   T
  0.5211979157217759  0.6940331764277237  0.5653176999676539   T   T   T
  0.1672297675780519  0.2523756373073908  0.3751595911993479   T   T   T
  0.1672785807422744  0.7523808206148253  0.3751821978304002   T   T   T
  0.5004452680595810  0.2524345279300410  0.3752750566839207   T   T   T
  0.5004337969983457  0.7523115644280491  0.3752328326017721   T   T   T
  0.8336968455246264  0.2522120670349856  0.3751411355897175   T   T   T
  0.8336386596332853  0.7522715088982035  0.3751685185135461   T   T   T
  0.0010350795088571  0.0052942000866492  0.4016743347063892   T   T   T
  0.0010260802665492  0.5053988927125058  0.4016796901534492   T   T   T
  0.3344545972367013  0.0054140404489624  0.4017728053853951   T   T   T
  0.3343998828559410  0.5053594966391376  0.4017974647468864   T   T   T
  0.6675909362130270  0.0053527804061247  0.4017632912522150   T   T   T
  0.6676650120146317  0.5053014142486253  0.4017605784180435   T   T   T
  0.1678664666469229  0.2556902474515041  0.4279186048663188   T   T   T
  0.1679981722610157  0.7557859223707980  0.4279667029430028   T   T   T
  0.5011291299986267  0.2558717885670522  0.4280972056248344   T   T   T
  0.5011143303221683  0.7557083028807440  0.4280057590075421   T   T   T
  0.8344493027462468  0.2555854077413975  0.4278776061721476   T   T   T
  0.8343656623301551  0.7557323639648726  0.4279383178951346   T   T   T
  0.0012423642000087  0.0053559284569240  0.4546187848469471   T   T   T
  0.0011921171026771  0.5056657769377959  0.4546111324789813   T   T   T
  0.3348588779055746  0.0059432894442301  0.4547772868714121   T   T   T
  0.3342917864113364  0.5058953026319859  0.4548330890745312   T   T   T
  0.6674629309486290  0.0058591808899015  0.4547660971861801   T   T   T
  0.6679403789636389  0.5057041648528863  0.4547314638052116   T   T   T
  0.1677068809011460  0.2545799050611348  0.4807741252488718   T   T   T
  0.1677144935752758  0.7557196864077864  0.4809641618389269   T   T   T
  0.5010591631404993  0.2571193476681382  0.4813148509042213   T   T   T
  0.5009497627172516  0.7552762133109044  0.4810318916668576   T   T   T
  0.8346604847398411  0.2541145020891423  0.4806743433611256   T   T   T
  0.8347677060787302  0.7557225026327563  0.4809157201450185   T   T   T
  0.0004245192246578  0.0028960202236009  0.5073851786865822   T   T   T
  0.0010273057540003  0.5003899451336310  0.5070717608952567   T   T   T
  0.3335591461673727  0.0026133812477045  0.5075539996981751   T   T   T
  0.3315135482343753  0.5037978348210389  0.5078638199690352   T   T   T
  0.6673783300534583  0.0024789485670902  0.5075413875039460   T   T   T
  0.6703322852754948  0.5019379377312357  0.5073101002409813   T   T   T
 
  0.00000000E+00  0.00000000E+00  0.00000000E+00
  0.00000000E+00  0.00000000E+00  0.00000000E+00
  0.00000000E+00  0.00000000E+00  0.00000000E+00
  0.00000000E+00  0.00000000E+00  0.00000000E+00
  0.00000000E+00  0.00000000E+00  0.00000000E+00
  0.00000000E+00  0.00000000E+00  0.00000000E+00
  0.00000000E+00  0.00000000E+00  0.00000000E+00
  0.00000000E+00  0.00000000E+00  0.00000000E+00
  0.00000000E+00  0.00000000E+00  0.00000000E+00
  0.00000000E+00  0.00000000E+00  0.00000000E+00
  0.00000000E+00  0.00000000E+00  0.00000000E+00
  0.00000000E+00  0.00000000E+00  0.00000000E+00
  0.00000000E+00  0.00000000E+00  0.00000000E+00
  0.00000000E+00  0.00000000E+00  0.00000000E+00
  0.00000000E+00  0.00000000E+00  0.00000000E+00
  0.00000000E+00  0.00000000E+00  0.00000000E+00
  0.00000000E+00  0.00000000E+00  0.00000000E+00
  0.00000000E+00  0.00000000E+00  0.00000000E+00
  0.00000000E+00  0.00000000E+00  0.00000000E+00
  0.00000000E+00  0.00000000E+00  0.00000000E+00
  0.00000000E+00  0.00000000E+00  0.00000000E+00
  0.00000000E+00  0.00000000E+00  0.00000000E+00
  0.00000000E+00  0.00000000E+00  0.00000000E+00
  0.00000000E+00  0.00000000E+00  0.00000000E+00
  0.00000000E+00  0.00000000E+00  0.00000000E+00
  0.00000000E+00  0.00000000E+00  0.00000000E+00
  0.00000000E+00  0.00000000E+00  0.00000000E+00
  0.00000000E+00  0.00000000E+00  0.00000000E+00
  0.00000000E+00  0.00000000E+00  0.00000000E+00
  0.00000000E+00  0.00000000E+00  0.00000000E+00
  0.00000000E+00  0.00000000E+00  0.00000000E+00
  0.00000000E+00  0.00000000E+00  0.00000000E+00
  0.00000000E+00  0.00000000E+00  0.00000000E+00
  0.00000000E+00  0.00000000E+00  0.00000000E+00
  0.00000000E+00  0.00000000E+00  0.00000000E+00
  0.00000000E+00  0.00000000E+00  0.00000000E+00
  0.00000000E+00  0.00000000E+00  0.00000000E+00
  0.00000000E+00  0.00000000E+00  0.00000000E+00
  0.00000000E+00  0.00000000E+00  0.00000000E+00
  0.00000000E+00  0.00000000E+00  0.00000000E+00
  0.00000000E+00  0.00000000E+00  0.00000000E+00
  0.00000000E+00  0.00000000E+00  0.00000000E+00
  0.00000000E+00  0.00000000E+00  0.00000000E+00
  0.00000000E+00  0.00000000E+00  0.00000000E+00
  0.00000000E+00  0.00000000E+00  0.00000000E+00
  0.00000000E+00  0.00000000E+00  0.00000000E+00
  0.00000000E+00  0.00000000E+00  0.00000000E+00
  0.00000000E+00  0.00000000E+00  0.00000000E+00
  0.00000000E+00  0.00000000E+00  0.00000000E+00
  0.00000000E+00  0.00000000E+00  0.00000000E+00
  0.00000000E+00  0.00000000E+00  0.00000000E+00
  0.00000000E+00  0.00000000E+00  0.00000000E+00
  0.00000000E+00  0.00000000E+00  0.00000000E+00
  0.00000000E+00  0.00000000E+00  0.00000000E+00
  0.00000000E+00  0.00000000E+00  0.00000000E+00
  0.00000000E+00  0.00000000E+00  0.00000000E+00
  0.00000000E+00  0.00000000E+00  0.00000000E+00
  0.00000000E+00  0.00000000E+00  0.00000000E+00
  0.00000000E+00  0.00000000E+00  0.00000000E+00
  0.00000000E+00  0.00000000E+00  0.00000000E+00
  0.00000000E+00  0.00000000E+00  0.00000000E+00
  0.00000000E+00  0.00000000E+00  0.00000000E+00
  0.00000000E+00  0.00000000E+00  0.00000000E+00
  0.00000000E+00  0.00000000E+00  0.00000000E+00
  0.00000000E+00  0.00000000E+00  0.00000000E+00
  0.00000000E+00  0.00000000E+00  0.00000000E+00
  0.00000000E+00  0.00000000E+00  0.00000000E+00
  0.00000000E+00  0.00000000E+00  0.00000000E+00
  0.00000000E+00  0.00000000E+00  0.00000000E+00
  0.00000000E+00  0.00000000E+00  0.00000000E+00
  0.00000000E+00  0.00000000E+00  0.00000000E+00
  0.00000000E+00  0.00000000E+00  0.00000000E+00
  0.00000000E+00  0.00000000E+00  0.00000000E+00
  0.00000000E+00  0.00000000E+00  0.00000000E+00
  0.00000000E+00  0.00000000E+00  0.00000000E+00
  0.00000000E+00  0.00000000E+00  0.00000000E+00
  0.00000000E+00  0.00000000E+00  0.00000000E+00
  0.00000000E+00  0.00000000E+00  0.00000000E+00
  0.00000000E+00  0.00000000E+00  0.00000000E+00
  0.00000000E+00  0.00000000E+00  0.00000000E+00
  0.00000000E+00  0.00000000E+00  0.00000000E+00
  0.00000000E+00  0.00000000E+00  0.00000000E+00
  0.00000000E+00  0.00000000E+00  0.00000000E+00
  0.00000000E+00  0.00000000E+00  0.00000000E+00
  0.00000000E+00  0.00000000E+00  0.00000000E+00
  0.00000000E+00  0.00000000E+00  0.00000000E+00
  0.00000000E+00  0.00000000E+00  0.00000000E+00
  0.00000000E+00  0.00000000E+00  0.00000000E+00
  0.00000000E+00  0.00000000E+00  0.00000000E+00
  0.00000000E+00  0.00000000E+00  0.00000000E+00
  0.00000000E+00  0.00000000E+00  0.00000000E+00
  0.00000000E+00  0.00000000E+00  0.00000000E+00
  0.00000000E+00  0.00000000E+00  0.00000000E+00
  0.00000000E+00  0.00000000E+00  0.00000000E+00
  0.00000000E+00  0.00000000E+00  0.00000000E+00
  0.00000000E+00  0.00000000E+00  0.00000000E+00
  0.00000000E+00  0.00000000E+00  0.00000000E+00
  0.00000000E+00  0.00000000E+00  0.00000000E+00
  0.00000000E+00  0.00000000E+00  0.00000000E+00
  0.00000000E+00  0.00000000E+00  0.00000000E+00
  0.00000000E+00  0.00000000E+00  0.00000000E+00
  0.00000000E+00  0.00000000E+00  0.00000000E+00
  0.00000000E+00  0.00000000E+00  0.00000000E+00
  0.00000000E+00  0.00000000E+00  0.00000000E+00
  0.00000000E+00  0.00000000E+00  0.00000000E+00
  0.00000000E+00  0.00000000E+00  0.00000000E+00
  0.00000000E+00  0.00000000E+00  0.00000000E+00
  0.00000000E+00  0.00000000E+00  0.00000000E+00
  0.00000000E+00  0.00000000E+00  0.00000000E+00
  0.00000000E+00  0.00000000E+00  0.00000000E+00
  0.00000000E+00  0.00000000E+00  0.00000000E+00
  0.00000000E+00  0.00000000E+00  0.00000000E+00
  0.00000000E+00  0.00000000E+00  0.00000000E+00
  0.00000000E+00  0.00000000E+00  0.00000000E+00
  0.00000000E+00  0.00000000E+00  0.00000000E+00
  0.00000000E+00  0.00000000E+00  0.00000000E+00
  0.00000000E+00  0.00000000E+00  0.00000000E+00
  0.00000000E+00  0.00000000E+00  0.00000000E+00
  0.00000000E+00  0.00000000E+00  0.00000000E+00
  0.00000000E+00  0.00000000E+00  0.00000000E+00
  0.00000000E+00  0.00000000E+00  0.00000000E+00
