C H O Si                                
   1.00000000000000     
    18.5749199999999988    0.0000000000000000    0.0000000000000000
     0.0000000000000000   17.5126199999999983    0.0000000000000000
     0.0000000000000000    0.0000000000000000   58.0000000000000000
   C    H    O    Si
   144   105    52   144
Selective dynamics
Direct
  0.4963993096802347  0.0631051836337003  0.0605047975899851   T   T   T
  0.1630348897442382  0.0630204455390889  0.0604671364466097   T   T   T
  0.3297281122260913  0.0630380548430673  0.0604821170883882   T   T   T
  0.4963305812715556  0.3130810354220412  0.0605010910633865   T   T   T
  0.1629589483175658  0.3131113652354290  0.0604647221488540   T   T   T
  0.3296659417007078  0.3131034217596462  0.0604834292259089   T   T   T
  0.0799933543794640  0.1855616376715978  0.1394110268664686   T   T   T
  0.2466445281523446  0.1856075727590175  0.1394298805383021   T   T   T
  0.4133285011113589  0.1855907082461926  0.1394603963586961   T   T   T
  0.0799721002279857  0.4355907364457171  0.1394393489058050   T   T   T
  0.2466107358885505  0.4356219825642287  0.1394419737634974   T   T   T
  0.4132841195837705  0.4356124589538689  0.1394677657617785   T   T   T
  0.1635300931315410  0.0607368257214612  0.1665727151324136   T   T   T
  0.3301535900018263  0.0607122232123488  0.1665893597385355   T   T   T
  0.4967989940433017  0.0605567770229582  0.1666023681285219   T   T   T
  0.1634454177480617  0.3106975552752536  0.1665763752966891   T   T   T
  0.3301201978197364  0.3106950843695092  0.1665977122689851   T   T   T
  0.4968122764468051  0.3106872401121929  0.1666100661814887   T   T   T
  0.0804960807107618  0.1879698311238679  0.1920059596773111   T   T   T
  0.2469600610255317  0.1879467802795714  0.1919941784755557   T   T   T
  0.4135176791571379  0.1878412884817632  0.1920101319424588   T   T   T
  0.0801377600663956  0.4378099502036701  0.1920199943195839   T   T   T
  0.2468639281428528  0.4378581950885302  0.1919986134857793   T   T   T
  0.4135153663806366  0.4379822018238526  0.1920087341216038   T   T   T
  0.0797573973801719  0.1857666503464854  0.0858416393118603   T   T   T
  0.2464336239312687  0.1857471579098958  0.0858705805556555   T   T   T
  0.4131012343515568  0.1857706588640988  0.0858954552808745   T   T   T
  0.0797423014462321  0.4357875752944897  0.0858701041885974   T   T   T
  0.2464146146347567  0.4357814664494598  0.0858920111047547   T   T   T
  0.4130996617954473  0.4357797074800442  0.0859134149279326   T   T   T
  0.1631906388034073  0.0605732639839403  0.1130022390092027   T   T   T
  0.3298636552617554  0.0605930399750025  0.1130269418778095   T   T   T
  0.4965338589903313  0.0605974235830738  0.1130620460020918   T   T   T
  0.1631491513652666  0.3106037040848660  0.1130112789629757   T   T   T
  0.3298118155880621  0.3106057590868126  0.1130332474640475   T   T   T
  0.4964795730172450  0.3105998383813504  0.1130617446448296   T   T   T
  0.4963787418851865  0.5630566584064949  0.0605120416829030   T   T   T
  0.1630111149169745  0.5630983226039347  0.0604915075172080   T   T   T
  0.3297238504521735  0.5630681268426238  0.0605035790311855   T   T   T
  0.4963721650960122  0.8131085601372003  0.0605107480718641   T   T   T
  0.1629923824494948  0.8130130263981130  0.0604599941433933   T   T   T
  0.3297016090147254  0.8130480382991346  0.0604797999442904   T   T   T
  0.0799788633485073  0.6856314373058916  0.1394348239479471   T   T   T
  0.2466041602102803  0.6856245208453497  0.1394589527336429   T   T   T
  0.4132862584334277  0.6856670739309256  0.1394538904966552   T   T   T
  0.0800590924003385  0.9354692018021179  0.1393904326545950   T   T   T
  0.2466396907699846  0.9356126890817004  0.1394276252660773   T   T   T
  0.4133021512772398  0.9355610006921635  0.1394434137004965   T   T   T
  0.1634369362226097  0.5606976631159687  0.1666063832498960   T   T   T
  0.3301254022377352  0.5607805275305047  0.1666137522743543   T   T   T
  0.4967300833031939  0.5608661620999326  0.1666042827693560   T   T   T
  0.1634851185765315  0.8107329294576410  0.1665801564527833   T   T   T
  0.3301500106256220  0.8107474971204749  0.1665899190570413   T   T   T
  0.4968769435190026  0.8107727406506378  0.1666293695509697   T   T   T
  0.0803155398261171  0.6880304768816277  0.1919966626052736   T   T   T
  0.2469260566790216  0.6880205334695055  0.1920310561801121   T   T   T
  0.4135641192999393  0.6880335689494522  0.1920065567833056   T   T   T
  0.0803754227229228  0.9379589017386322  0.1919685186489089   T   T   T
  0.2469725086300713  0.9379481666424140  0.1919927440395140   T   T   T
  0.4135902803726806  0.9379405849834405  0.1920026334274577   T   T   T
  0.0797359862972460  0.6857952693112170  0.0858719544782263   T   T   T
  0.2464465262478609  0.6857294968791576  0.0858823514475578   T   T   T
  0.4131255688290654  0.6857883620133206  0.0859039016790377   T   T   T
  0.0797603863618067  0.9356898022960148  0.0858537951155665   T   T   T
  0.2464464708966408  0.9357047647245784  0.0858772072828909   T   T   T
  0.4131251506949684  0.9357685788697871  0.0858979791017125   T   T   T
  0.1631810061474353  0.5606048259951270  0.1130319989920909   T   T   T
  0.3298617535076856  0.5606136781705123  0.1130491100929700   T   T   T
  0.4965298127207964  0.5606035896616066  0.1130565109646237   T   T   T
  0.1631659005147176  0.8105607932002736  0.1130076356373267   T   T   T
  0.3298028080655311  0.8105908296067982  0.1130275171022649   T   T   T
  0.4965276557779953  0.8106415102238090  0.1130692602146835   T   T   T
  0.9963333124112047  0.0630187360881608  0.0604248005223097   T   T   T
  0.6630238685859470  0.0631712981019013  0.0605733651392035   T   T   T
  0.8296222819163831  0.0631143719894994  0.0605235732220222   T   T   T
  0.9962919545345936  0.3131121038985635  0.0604349572488146   T   T   T
  0.6629531368626296  0.3130548041557846  0.0605810238161538   T   T   T
  0.8296157216319432  0.3130854560432431  0.0605201529443229   T   T   T
  0.5799505109412250  0.1855801120189669  0.1394998682710515   T   T   T
  0.7466020054468955  0.1858283266618202  0.1396675932422495   T   T   T
  0.9133395222823634  0.1854929423968013  0.1393086132757631   T   T   T
  0.5799242103455544  0.4356366975848276  0.1395045803563892   T   T   T
  0.7466403472366602  0.4355666064220254  0.1394987303197464   T   T   T
  0.9133289439035596  0.4356527362138389  0.1394326921985678   T   T   T
  0.6637169021483716  0.0609838094785507  0.1667516723751390   T   T   T
  0.8299378507736682  0.0608847349430129  0.1666431140436407   T   T   T
  0.9970770302009022  0.0603714517507285  0.1664526067862963   T   T   T
  0.6633644251596219  0.3107867610966453  0.1668201125027969   T   T   T
  0.8302928787316993  0.3107685723402023  0.1666357543274017   T   T   T
  0.9968547631364875  0.3107101322320059  0.1665239476645926   T   T   T
  0.5802015413998620  0.1873851447903145  0.1919120518025337   T   T   T
  0.7470935964768372  0.1895863734749917  0.1927152957307367   T   T   T
  0.9142550387343799  0.1866340582500416  0.1914722204551789   T   T   T
  0.5800487545346471  0.4383914169879901  0.1920299539429491   T   T   T
  0.7468958957758995  0.4378573204473339  0.1920156644612632   T   T   T
  0.9136154168479750  0.4383794991423770  0.1919291286715403   T   T   T
  0.5797626410698454  0.1857986308245945  0.0859339487554721   T   T   T
  0.7464210418078371  0.1858366930322450  0.0860165742538456   T   T   T
  0.9130708455844834  0.1857790081089976  0.0858138565130984   T   T   T
  0.5797572037502980  0.4357380508848611  0.0859444172504032   T   T   T
  0.7463873696078694  0.4357456251365828  0.0859405932631730   T   T   T
  0.9130547617669028  0.4357863669081321  0.0858991021032864   T   T   T
  0.6632205284440194  0.0607029711836343  0.1131375392209186   T   T   T
  0.8298237555637618  0.0606911392384589  0.1130716537673995   T   T   T
  0.9965260092309041  0.0605645535413722  0.1129740161198858   T   T   T
  0.6631155646276868  0.3106253179431095  0.1131618253640959   T   T   T
  0.8298431341775599  0.3106227316192816  0.1130593478648264   T   T   T
  0.9964815543970080  0.3106282349924092  0.1129830632803110   T   T   T
  0.9963050635345804  0.5630650464883976  0.0604822387621239   T   T   T
  0.6630083841981791  0.5630635078022840  0.0605348850147427   T   T   T
  0.8296466401385144  0.5630526065006700  0.0605193812082861   T   T   T
  0.9962495021087409  0.8130513633464691  0.0604659241541338   T   T   T
  0.6629710625152184  0.8131088558093221  0.0605310880139420   T   T   T
  0.8296085387538307  0.8130978390839662  0.0605087814118250   T   T   T
  0.5799703326506171  0.6856330728184759  0.1394895423081131   T   T   T
  0.7465945569025427  0.6857133276259246  0.1394772024108984   T   T   T
  0.9132820241490650  0.6856038783581615  0.1394484027616786   T   T   T
  0.5800624179425070  0.9357124780955380  0.1395233986737514   T   T   T
  0.7465870616789584  0.9355990996488556  0.1394867297556827   T   T   T
  0.9132322175358804  0.9356989344972634  0.1394481881045638   T   T   T
  0.6635021928277637  0.5608277919915413  0.1666146189289378   T   T   T
  0.8300831798209899  0.5608145476715216  0.1665966186458038   T   T   T
  0.9968699393124749  0.5608342702494099  0.1665789419410511   T   T   T
  0.6635128964265219  0.8107678064530737  0.1666402932643242   T   T   T
  0.8302048834473061  0.8107882269781003  0.1666169819046137   T   T   T
  0.9968374442635342  0.8107620527824771  0.1665868826860797   T   T   T
  0.5802823683271725  0.6879839846089540  0.1920426866397759   T   T   T
  0.7469617779365497  0.6880389771808867  0.1920396312651075   T   T   T
  0.9136168157257570  0.6879713156148046  0.1919930046073223   T   T   T
  0.5803332177816034  0.9380472657436285  0.1920843520929030   T   T   T
  0.7470270658498269  0.9379581006721187  0.1920692302043616   T   T   T
  0.9137203327767967  0.9380487424864885  0.1919914406158462   T   T   T
  0.5797796603701287  0.6857771601687730  0.0859230599139127   T   T   T
  0.7464014520783850  0.6857826485159971  0.0859194997646994   T   T   T
  0.9130332574767831  0.6857665521021555  0.0858926007291926   T   T   T
  0.5797804562245557  0.9358043253409319  0.0859539397896378   T   T   T
  0.7463820283611456  0.9358005501151924  0.0859396306000341   T   T   T
  0.9130292404065583  0.9357987819189121  0.0858948725250447   T   T   T
  0.6631969770133016  0.5606170433151858  0.1130750391845849   T   T   T
  0.8298389650032550  0.5606223546443866  0.1130526211081685   T   T   T
  0.9965221858941410  0.5606279312217791  0.1130212617227352   T   T   T
  0.6631216571613973  0.8106496310898428  0.1130714882356307   T   T   T
  0.8297879435274798  0.8106201187600653  0.1130444937851365   T   T   T
  0.9964444730367965  0.8106317522613411  0.1130252719150287   T   T   T
  0.0398685769596489  0.1762028455668415  0.0259514310393221   T   T   T
  0.2062505648155901  0.1761392500010320  0.0260605693235371   T   T   T
  0.3729642949838788  0.1761055318484882  0.0260620673840428   T   T   T
  0.0397400544331743  0.4262157748961257  0.0259638598387382   T   T   T
  0.2061445283049884  0.4260873034822848  0.0260753032531418   T   T   T
  0.3727782966324680  0.4260351974391780  0.0260882142106677   T   T   T
  0.1618829761721816  0.0269535345532878  0.0449015851355745   T   T   T
  0.3285843016258437  0.0269786555980678  0.0449158963326484   T   T   T
  0.4952831620309806  0.0270204839551889  0.0449444109254952   T   T   T
  0.1618367350540749  0.2770362403489458  0.0449011546659004   T   T   T
  0.3285270879469452  0.2770340315564705  0.0449174199544148   T   T   T
  0.4951896395262956  0.2769967913634809  0.0449377620402043   T   T   T
  0.4146907845162900  0.4018310080809639  0.2075598079937008   T   T   T
  0.4146641594026200  0.1516933605677602  0.2075550142323802   T   T   T
  0.0814994369084283  0.1517721480418254  0.2075396531628318   T   T   T
  0.2480942238292447  0.1517598008800388  0.2075365475206932   T   T   T
  0.0813474783002176  0.4015775107249001  0.2075603501335208   T   T   T
  0.2479737608541088  0.4016592264714999  0.2075348787000390   T   T   T
  0.0379593807803144  0.0502610735443565  0.2262670789339555   T   T   T
  0.2044438555338538  0.0503701228601390  0.2262963161523313   T   T   T
  0.3712176538303817  0.0503827692638490  0.2262566886702758   T   T   T
  0.0313939681344231  0.3003534566091793  0.2273961942170970   T   T   T
  0.2046939304581499  0.3004018967148925  0.2262764580313459   T   T   T
  0.3712745842259979  0.3001958840293018  0.2263391719580106   T   T   T
  0.0396213348988747  0.6761848589772250  0.0260198200272941   T   T   T
  0.2063235627224350  0.6761425609683972  0.0260500110686447   T   T   T
  0.3730185747578708  0.6761326996746543  0.0260611766106836   T   T   T
  0.0395948580091661  0.9260863311263563  0.0259980259647424   T   T   T
  0.2062406288458967  0.9260441225843435  0.0260428152845451   T   T   T
  0.3729597450384092  0.9260725505854766  0.0260531495302004   T   T   T
  0.1618196676622391  0.5270112027761921  0.0449326064280508   T   T   T
  0.3286077555361208  0.5270020235264841  0.0449401514185780   T   T   T
  0.4952261432516302  0.5270119341963626  0.0449438979076407   T   T   T
  0.1618615886575175  0.7769302294935452  0.0448970270278278   T   T   T
  0.3286045289505967  0.7769739208058999  0.0449131693715967   T   T   T
  0.4952923606884163  0.7770182293720819  0.0449506954799226   T   T   T
  0.4146469274102874  0.9017313294509515  0.2075337416935386   T   T   T
  0.4147280053733571  0.6518602164160761  0.2075468753601702   T   T   T
  0.0814732749072531  0.6518771244233855  0.2075424718594304   T   T   T
  0.2480736767924329  0.6519003799764802  0.2075866910064994   T   T   T
  0.0815277322302239  0.9017654955271033  0.2075090767160253   T   T   T
  0.2480985728928483  0.9017380996804558  0.2075284849041698   T   T   T
  0.0374112873084599  0.5510538676483272  0.2263095449963313   T   T   T
  0.2041795228184944  0.5508666960346039  0.2262797996231161   T   T   T
  0.3707312902504900  0.5509491622252709  0.2262919570437936   T   T   T
  0.0375889587125433  0.8006126129584117  0.2263047834560563   T   T   T
  0.2038857412225271  0.8007749964693338  0.2264040126544141   T   T   T
  0.3714568479384233  0.8003948711456271  0.2262484304889424   T   T   T
  0.5399678471138429  0.1762286960185887  0.0260126654892522   T   T   T
  0.7061657065446458  0.1762817044843411  0.0261802993895871   T   T   T
  0.8727901192883712  0.1761437895770681  0.0260243669969045   T   T   T
  0.5399655019566151  0.4261678559081555  0.0260127454542844   T   T   T
  0.7060110622402868  0.4260542634678659  0.0261377534814078   T   T   T
  0.8724142643151797  0.4259803463713430  0.0261114273335079   T   T   T
  0.6619255424242382  0.0270351270068593  0.0450240305852484   T   T   T
  0.8282785801065471  0.0270514759660007  0.0449599599772043   T   T   T
  0.9951961842899126  0.0269507647925713  0.0448580288113590   T   T   T
  0.6618170598834476  0.2768578432949710  0.0450440614489589   T   T   T
  0.8284318030088780  0.2769831594474748  0.0449626109553137   T   T   T
  0.9950970891205454  0.2771221658683306  0.0448502967274523   T   T   T
  0.9146065821415885  0.4026059725004821  0.2075235604122870   T   T   T
  0.9152287456259023  0.1506957047813466  0.2070612185301400   T   T   T
  0.5810088902835283  0.1514299744125302  0.2075051688835795   T   T   T
  0.7484268591482203  0.1527986357602469  0.2081287009650113   T   T   T
  0.5811149687799720  0.4022133657422765  0.2075592171642641   T   T   T
  0.7471954681924290  0.4016943766313161  0.2075598650127908   T   T   T
  0.5370214988991037  0.0507127547752264  0.2264626939564160   T   T   T
  0.7048452092229145  0.0498514567432195  0.2264588626992707   T   T   T
  0.8714067289837476  0.0502183076257755  0.2263423755693856   T   T   T
  0.5410052096970484  0.3005425959740324  0.2251248951567003   T   T   T
  0.6884362429920315  0.3092042192581653  0.2293850267722595   T   T   T
  0.8901998813672583  0.2948317360018846  0.2233307120887463   T   T   T
  0.7715229007618093  0.3048004935052967  0.2744118944182925   T   T   T
  0.7451603307434086  0.2369391812301032  0.2935345394556071   T   T   T
  0.7855170018798999  0.3192663466065720  0.3033105546440764   T   T   T
  0.6567423134889059  0.1936599216454298  0.3097718365519606   T   T   T
  0.7108303396246091  0.1296710207676836  0.3024015611774938   T   T   T
  0.8259183924435719  0.3656769913594866  0.3333811733631119   T   T   T
  0.7428776730470525  0.3776644599766044  0.3307714281553693   T   T   T
  0.7552546840146810  0.3955869556833940  0.2524631161022097   T   T   T
  0.7913437691124491  0.3249969021669106  0.2393549630511443   T   T   T
  0.5398145624583659  0.6762313621513391  0.0260361599284311   T   T   T
  0.7062938590388296  0.6762199636549816  0.0260858659026462   T   T   T
  0.8727678113402320  0.6761326575490598  0.0260861846679890   T   T   T
  0.5397246428741905  0.9261832456357688  0.0260514251909848   T   T   T
  0.7060979458187839  0.9261391640176737  0.0261110647179651   T   T   T
  0.8727109767994826  0.9261231810594939  0.0260819942579626   T   T   T
  0.6618259522427936  0.5269766212286858  0.0449781688648590   T   T   T
  0.8284775679636269  0.5269857914147157  0.0449569317988908   T   T   T
  0.9951369604964244  0.5270080050472092  0.0449143258743923   T   T   T
  0.6618138555972604  0.7770261092166412  0.0449712102774645   T   T   T
  0.8284385198515583  0.7770617514088788  0.0449399791527586   T   T   T
  0.9950523870575284  0.7769692784497584  0.0449042055912679   T   T   T
  0.9149396664213469  0.9018900714515125  0.2075371575035230   T   T   T
  0.9148888139886425  0.6518689028669385  0.2075452763112813   T   T   T
  0.5814009528939251  0.6518349803439912  0.2075925938165563   T   T   T
  0.7482311481464289  0.6519421497939037  0.2075950213049733   T   T   T
  0.5814088544550206  0.9018718638379254  0.2076292350400409   T   T   T
  0.7482853773919192  0.9017290886354618  0.2076048875078600   T   T   T
  0.5365378482741860  0.5514135611870986  0.2264417931107725   T   T   T
  0.7045281597229781  0.5522843989294890  0.2260833402668019   T   T   T
  0.8705132063136727  0.5515618477719598  0.2262878985640965   T   T   T
  0.5376069870302248  0.8005664397145311  0.2263402465527208   T   T   T
  0.7040086047060056  0.8007244417309408  0.2264306098304688   T   T   T
  0.8715951290373156  0.8003807433557867  0.2262467071021715   T   T   T
  0.0849025931101500  0.1683219934669159  0.0342970502142820   T   T   T
  0.2514440886101005  0.1684132455962700  0.0343351363043787   T   T   T
  0.4181257501656007  0.1684882873740385  0.0343618530677422   T   T   T
  0.0847717498087709  0.4185003213331959  0.0343243770855702   T   T   T
  0.2513536298191168  0.4185156702900993  0.0343537269915332   T   T   T
  0.4179758283211680  0.4186032252851715  0.0343839696692739   T   T   T
  0.1590296340377865  0.0433919167931430  0.2180757731568032   T   T   T
  0.3256962473211913  0.0432478448504157  0.2181083737002321   T   T   T
  0.4918782290098923  0.0432257656249604  0.2181452948198669   T   T   T
  0.1592189433603898  0.2935290933251399  0.2180854753844297   T   T   T
  0.3258486233530601  0.2933247498921648  0.2181221813104387   T   T   T
  0.4934350081881296  0.2925883835927593  0.2181817849345289   T   T   T
  0.0847393586984095  0.6684162155862879  0.0343309587198450   T   T   T
  0.2514826483640913  0.6684303189451183  0.0343432031435340   T   T   T
  0.4181604930025960  0.6685191779712756  0.0343735049364500   T   T   T
  0.0847125758963974  0.9183041440156771  0.0343074257825936   T   T   T
  0.2514008254820249  0.9184068768425810  0.0343404929472271   T   T   T
  0.4180984107996580  0.9185245736008270  0.0343712965362827   T   T   T
  0.1587484555107635  0.5430901200146518  0.2181348496172918   T   T   T
  0.3252964786021891  0.5431415430952862  0.2181528803588919   T   T   T
  0.4914548511694183  0.5435593941286190  0.2181261363010149   T   T   T
  0.1587134397045352  0.7935428150773870  0.2180794898302746   T   T   T
  0.3258706124423402  0.7934534776716466  0.2181180924034158   T   T   T
  0.4921950214609030  0.7932587277002885  0.2181484354839148   T   T   T
  0.5849745638575762  0.1684369976352044  0.0343804586614035   T   T   T
  0.7513354014408211  0.1686525225442040  0.0344764415272471   T   T   T
  0.9179837875197272  0.1683317078015184  0.0342875024215375   T   T   T
  0.5849508777461432  0.4183427351125478  0.0343890076271718   T   T   T
  0.7512441411802492  0.4183531098286747  0.0343928045147381   T   T   T
  0.9176850379899186  0.4186289895767219  0.0343746885533950   T   T   T
  0.6593762077436106  0.0432944010970056  0.2182385482922428   T   T   T
  0.8259421981482920  0.0434871972965261  0.2181312773449255   T   T   T
  0.9925454861573074  0.0435290738191222  0.2180275823006406   T   T   T
  0.6508593547754339  0.2940202133148104  0.2182140012573567   T   T   T
  0.8393465626979321  0.2925312046339245  0.2182518930898355   T   T   T
  0.9888117069281268  0.2922559495619572  0.2178697507406837   T   T   T
  0.7841409993245116  0.2789564332345361  0.2898868142845299   T   T   T
  0.6901382560985830  0.1783754071137454  0.2976221591963369   T   T   T
  0.7880307332109536  0.3761537949758803  0.3221655203486387   T   T   T
  0.7528561879014677  0.3401418447447893  0.2506986425715206   T   T   T
  0.5848802847244601  0.6684475284103421  0.0343743474504778   T   T   T
  0.7514437080772475  0.6684243025008832  0.0343773179296116   T   T   T
  0.9179700953069572  0.6684731285728355  0.0343601506143649   T   T   T
  0.5847944197884477  0.9185127182848755  0.0343973071772502   T   T   T
  0.7512962079495186  0.9185226735393315  0.0343932277627545   T   T   T
  0.9178965574086912  0.9185802801930646  0.0343732608975124   T   T   T
  0.6589354929287583  0.5431196638585685  0.2181690766712110   T   T   T
  0.8252221257662704  0.5431816221671654  0.2181238694918918   T   T   T
  0.9920902145915715  0.5433640055518341  0.2181020377661158   T   T   T
  0.6587638190525802  0.7933717461900940  0.2181533178414858   T   T   T
  0.8259810722501391  0.7933424693052122  0.2181391620142298   T   T   T
  0.9921854983719970  0.7932698282411067  0.2181094429838970   T   T   T
  0.2464171892478318  0.1218532082650735  0.0595174868414492   T   T   T
  0.4130825084463436  0.1218952315390744  0.0595399778550045   T   T   T
  0.0796588926012010  0.3719394504143390  0.0595074504189423   T   T   T
  0.2463435593389757  0.3719345361755914  0.0595338152480492   T   T   T
  0.4130288991662512  0.3719394106119440  0.0595525971115058   T   T   T
  0.0797277511219447  0.1218261476918293  0.0594902759772556   T   T   T
  0.4965906155171943  0.4985630241547432  0.1397776919926198   T   T   T
  0.1632943877550404  0.4985387101073158  0.1397507469264241   T   T   T
  0.3299559128826814  0.4985363477557830  0.1397660034163819   T   T   T
  0.4966311527253657  0.2485171488270342  0.1397719972118118   T   T   T
  0.1633119349526296  0.2485160321124764  0.1397256776149080   T   T   T
  0.3299852512690415  0.2484979310921917  0.1397492588783510   T   T   T
  0.0802233195116853  0.1230766155341395  0.1661218030636390   T   T   T
  0.2468574719651626  0.1232052016156646  0.1661660672197655   T   T   T
  0.4134900007632513  0.1230852309850628  0.1661839054603415   T   T   T
  0.0801775961967623  0.3731719147539929  0.1661617490202209   T   T   T
  0.2467686901366833  0.3731561465697193  0.1661647106740721   T   T   T
  0.4134471688913530  0.3731414684389237  0.1661979997038320   T   T   T
  0.1634709736387977  0.4966254050632319  0.1929278438813831   T   T   T
  0.3301235091746530  0.4967343292145884  0.1929329593650474   T   T   T
  0.4966524454574407  0.4970153097772836  0.1929394000410139   T   T   T
  0.1637165370104061  0.2468696698110447  0.1929315241047304   T   T   T
  0.4968786659544823  0.2464355645832259  0.1928997249977862   T   T   T
  0.3302491835029317  0.2467199057857130  0.1929246785842635   T   T   T
  0.4964643774924014  0.4982097788126044  0.0863222716189752   T   T   T
  0.1631035014088178  0.4982314614754647  0.0862973906343050   T   T   T
  0.3297885688737097  0.4982196788565981  0.0863144756964033   T   T   T
  0.4964413700803448  0.2482497070109381  0.0863182768070870   T   T   T
  0.1631230515719322  0.2482194105001564  0.0862665079843133   T   T   T
  0.3297735285658651  0.2482267045790905  0.0862891562866165   T   T   T
  0.0798719299793939  0.1234842212735519  0.1126791026903718   T   T   T
  0.2465447026356481  0.1235151066314063  0.1127183928637093   T   T   T
  0.4132048484412945  0.1235244325860839  0.1127437402935902   T   T   T
  0.0798405877672359  0.3735375636366156  0.1127073344654484   T   T   T
  0.2464839334531425  0.3735507821509389  0.1127308401745404   T   T   T
  0.4131490363932666  0.3735278048431940  0.1127529692229835   T   T   T
  0.2464123279260837  0.6218724093314298  0.0595260639527955   T   T   T
  0.4130897138922967  0.6219021868986381  0.0595494632566963   T   T   T
  0.0796682927257751  0.8718084632080373  0.0595009635988229   T   T   T
  0.2463660751684810  0.8718454711516465  0.0595184592025214   T   T   T
  0.4130471734591008  0.8719045674953130  0.0595439530418510   T   T   T
  0.0796873547115296  0.6218869277527124  0.0595211532255801   T   T   T
  0.4966237808618404  0.9984548697361386  0.1397654066346186   T   T   T
  0.1633260328311662  0.9985005505054003  0.1397204224918842   T   T   T
  0.3299898219333185  0.9985115831678262  0.1397450799359591   T   T   T
  0.4966373922016608  0.7485592713373974  0.1397800191118844   T   T   T
  0.1633008091158533  0.7485509538107123  0.1397362126336823   T   T   T
  0.3299461433600952  0.7485461613197465  0.1397495245075938   T   T   T
  0.0801554982171206  0.6232527354034327  0.1661734668680559   T   T   T
  0.2467554311453391  0.6232099649912916  0.1662016093251447   T   T   T
  0.4134015487727694  0.6232822749983430  0.1661841115497572   T   T   T
  0.0801705133183675  0.8731706965105305  0.1661472769594532   T   T   T
  0.2468064311582304  0.8732074525913199  0.1661661872182603   T   T   T
  0.4134800846218415  0.8731865155858002  0.1661839971469138   T   T   T
  0.1636303971967666  0.9967457762080700  0.1928919374970318   T   T   T
  0.3302541413146239  0.9967300085941421  0.1929053600627607   T   T   T
  0.4968573484604246  0.9967260399701356  0.1929516967238911   T   T   T
  0.1635723820125965  0.7468356006893115  0.1929177458031985   T   T   T
  0.4968804784628842  0.7467801423440675  0.1929438765994496   T   T   T
  0.3302301291275864  0.7468364329127303  0.1929267285797110   T   T   T
  0.4964733670100528  0.9982516801897993  0.0863199999500402   T   T   T
  0.1631268537278399  0.9981414858858345  0.0862696472134007   T   T   T
  0.3298054365276734  0.9981761796025418  0.0862915137540374   T   T   T
  0.4964763612488429  0.7482620859600997  0.0863226167026364   T   T   T
  0.1631302593985931  0.7481840234204534  0.0862760473774981   T   T   T
  0.3297842224603563  0.7482045587715457  0.0862941159872359   T   T   T
  0.0798606248163065  0.6235536837490682  0.1127160945239362   T   T   T
  0.2465286352958460  0.6235495772985206  0.1127423554547923   T   T   T
  0.4132057546080057  0.6235371879691697  0.1127480404624315   T   T   T
  0.0798526632212620  0.8734329540090818  0.1126927156209111   T   T   T
  0.2464851242823597  0.8735092009048354  0.1127223360917861   T   T   T
  0.4131463848949224  0.8734962990807906  0.1127357228359990   T   T   T
  0.7463488987624005  0.1219923567409731  0.0596409385010683   T   T   T
  0.9130042669153315  0.1218512298685169  0.0594798961765328   T   T   T
  0.5796892731048255  0.3718822457895490  0.0595863436059921   T   T   T
  0.7462892013548209  0.3718766207090088  0.0595865922426041   T   T   T
  0.9129484372750751  0.3719412856554976  0.0595362856693506   T   T   T
  0.5797327528434804  0.1219527383441900  0.0595749969534381   T   T   T
  0.9966861483662832  0.4985744690299493  0.1397341141831920   T   T   T
  0.6632764786327473  0.4985259232421422  0.1397880042932757   T   T   T
  0.8299697910786421  0.4985378230502134  0.1397590254737260   T   T   T
  0.9966527599115904  0.2484164089134168  0.1396469649804585   T   T   T
  0.6631730722047440  0.2486001036655948  0.1399231288546732   T   T   T
  0.8300448948184683  0.2484740395068468  0.1397433336603897   T   T   T
  0.5801011803421043  0.1229688922280667  0.1661867313479375   T   T   T
  0.7467879660530525  0.1239353553226499  0.1665345326229591   T   T   T
  0.9137184362005588  0.1223770962771311  0.1658459043295308   T   T   T
  0.5799983700612408  0.3733115493267537  0.1662579579725909   T   T   T
  0.7466817030511828  0.3730424661266595  0.1662050337595300   T   T   T
  0.9135801313811434  0.3733603038085416  0.1661568961098034   T   T   T
  0.6633947219956635  0.4969243781046427  0.1929198665300145   T   T   T
  0.8302221200477183  0.4969253538263998  0.1928941325002586   T   T   T
  0.9969418872271713  0.4969475901824658  0.1928978664910452   T   T   T
  0.6626137762480702  0.2475115427917036  0.1933891274872114   T   T   T
  0.9970260169604765  0.2460282127109822  0.1925953004191648   T   T   T
  0.8317656206317747  0.2462322784770831  0.1927290918907546   T   T   T
  0.9964274600458475  0.4982181299616848  0.0862887957008441   T   T   T
  0.6630877805219697  0.4982093571803601  0.0863472997737594   T   T   T
  0.8297391827514732  0.4981981992512698  0.0863235061201090   T   T   T
  0.9964383879885427  0.2482228800764292  0.0862338713161659   T   T   T
  0.6630814109384178  0.2482611734580884  0.0864028352619053   T   T   T
  0.8297751867817562  0.2482328742008833  0.0863173101533372   T   T   T
  0.5798353630588279  0.1235766274223870  0.1127841674210015   T   T   T
  0.7465175977753822  0.1236458054572372  0.1128843048519030   T   T   T
  0.9132110583020023  0.1234927969752137  0.1126268900496083   T   T   T