C H O Si                                
   1.00000000000000     
    18.5749199999999988    0.0000000000000000    0.0000000000000000
     0.0000000000000000   17.5126199999999983    0.0000000000000000
     0.0000000000000000    0.0000000000000000   58.0000000000000000
   C    H    O    Si
   144   105    52   144
Selective dynamics
Direct
  0.4963472134001217  0.0630988198544563  0.0604561334209203   T   T   T
  0.1630249857225490  0.0630525166622583  0.0604371034109901   T   T   T
  0.3296724832476911  0.0630958667613457  0.0604483418079946   T   T   T
  0.4963579266891203  0.3131243414397971  0.0604567336103013   T   T   T
  0.1630200786580184  0.3131038837040915  0.0604430678532828   T   T   T
  0.3296671517747338  0.3131156413886060  0.0604528575665332   T   T   T
  0.0798579170416086  0.1854978956881285  0.1393985141847623   T   T   T
  0.2464802755621806  0.1855247036344349  0.1394348181147945   T   T   T
  0.4131252844184419  0.1855400958072025  0.1394555418706458   T   T   T
  0.0798083084621874  0.4355575858519611  0.1394329512720387   T   T   T
  0.2464386977609766  0.4355751851649779  0.1394409547210621   T   T   T
  0.4130805263338691  0.4355651163148491  0.1394676639750969   T   T   T
  0.1633681882072239  0.0605155174655467  0.1665509423934739   T   T   T
  0.3299501668426620  0.0605564880825092  0.1665783268360338   T   T   T
  0.4965870711517139  0.0605048589815935  0.1666050671051824   T   T   T
  0.1633428546085741  0.3105794451118660  0.1665430134083798   T   T   T
  0.3299381611066594  0.3105931505568620  0.1665898911076298   T   T   T
  0.4966228136208081  0.3106244507071856  0.1666264198479662   T   T   T
  0.0805975007163369  0.1877850388555106  0.1919740550235341   T   T   T
  0.2471020422329535  0.1877801372182601  0.1919827625197565   T   T   T
  0.4136247861255653  0.1877616016725290  0.1919951465448625   T   T   T
  0.0801555948983013  0.4376621496028968  0.1920263381199796   T   T   T
  0.2468367076758034  0.4377341637421328  0.1920142677095306   T   T   T
  0.4134625823922752  0.4377430865414402  0.1920335604200225   T   T   T
  0.0796711541744438  0.1858103206925981  0.0858336025429858   T   T   T
  0.2463332731851030  0.1857738761955864  0.0858646494436289   T   T   T
  0.4129938373897253  0.1857741150754729  0.0858798373391928   T   T   T
  0.0797018196933549  0.4357983987550786  0.0858532542208963   T   T   T
  0.2463670478485869  0.4357864986787612  0.0858806051360544   T   T   T
  0.4130199140922688  0.4357736429027124  0.0858996494961157   T   T   T
  0.1629323464122374  0.0605910195440475  0.1129958330156497   T   T   T
  0.3295904038193610  0.0605746789153173  0.1130222742464140   T   T   T
  0.4962466472552177  0.0605707994892411  0.1130496182006389   T   T   T
  0.1630711597194103  0.3106344332792860  0.1130112565540831   T   T   T
  0.3297093561055573  0.3106098415489701  0.1130352976143030   T   T   T
  0.4963685486698919  0.3106110122554723  0.1130641771130733   T   T   T
  0.4963468553463274  0.5630519316988809  0.0604490925475157   T   T   T
  0.1629782141893813  0.5631085055532237  0.0604528957453912   T   T   T
  0.3296773688807054  0.5630909189795131  0.0604581355890105   T   T   T
  0.4964093101030868  0.8131155322620006  0.0604572351442912   T   T   T
  0.1630519578300132  0.8130731036590344  0.0604378238319905   T   T   T
  0.3297133471868635  0.8130896114748165  0.0604414847939460   T   T   T
  0.0797778019238614  0.6855171164801444  0.1394444166598515   T   T   T
  0.2464461261872767  0.6854876409453883  0.1394650502660868   T   T   T
  0.4130991721620587  0.6855258404454583  0.1394668315348674   T   T   T
  0.0798710781771183  0.9354645007163246  0.1393762535257687   T   T   T
  0.2464941895952549  0.9355029758481372  0.1394131649117925   T   T   T
  0.4131315572816681  0.9355104067250629  0.1394341953107106   T   T   T
  0.1632305930354663  0.5605637355432220  0.1666198055208607   T   T   T
  0.3298939305813898  0.5605687752081541  0.1666212577601394   T   T   T
  0.4965367126508298  0.5605862377210720  0.1665816833113089   T   T   T
  0.1632791167102805  0.8105711768249307  0.1665567446136472   T   T   T
  0.3299316689142859  0.8105902051708738  0.1665701176358979   T   T   T
  0.4966292759986712  0.8106408134682880  0.1666095265068576   T   T   T
  0.0802516801792983  0.6878346824875887  0.1920057946073585   T   T   T
  0.2469103541137111  0.6879410765902682  0.1920486572725467   T   T   T
  0.4135745573747745  0.6878296845828945  0.1920139146374169   T   T   T
  0.0803519737659363  0.9377701205398826  0.1919467603422291   T   T   T
  0.2469745116336287  0.9377794418693723  0.1919819552955757   T   T   T
  0.4135508183510395  0.9377536432394351  0.1919888028173198   T   T   T
  0.0796473772979571  0.6857765943517552  0.0858790204475118   T   T   T
  0.2463468568914821  0.6857565799235712  0.0858827766557532   T   T   T
  0.4130512070941505  0.6857816365482605  0.0858955320055494   T   T   T
  0.0796937795455516  0.9357758305988058  0.0858374332650200   T   T   T
  0.2463876110326821  0.9357596082146057  0.0858557179681455   T   T   T
  0.4130428826733596  0.9357713984827430  0.0858756957180037   T   T   T
  0.1629016725817131  0.5605794956230716  0.1130331318650506   T   T   T
  0.3295765480411374  0.5605726325080184  0.1130379330365684   T   T   T
  0.4962286541027472  0.5605585752188462  0.1130332975455307   T   T   T
  0.1630735619231124  0.8105821927967427  0.1130148862652329   T   T   T
  0.3297360283685515  0.8105776304758565  0.1130289320004950   T   T   T
  0.4964489307993376  0.8106614344991929  0.1130575389231589   T   T   T
  0.9963193118506023  0.0631668426591541  0.0604101902798022   T   T   T
  0.6630387910557225  0.0631280625435224  0.0604994751845553   T   T   T
  0.8296015471409657  0.0631313839419948  0.0604480364130566   T   T   T
  0.9963272115359993  0.3131939155827047  0.0603909725611697   T   T   T
  0.6630412157700487  0.3130082822086541  0.0605281475679861   T   T   T
  0.8296497174912564  0.3130682224130449  0.0604723133518082   T   T   T
  0.5797670145042829  0.1855090017668920  0.1394969968561123   T   T   T
  0.7464834306156587  0.1856367152390419  0.1396468633260050   T   T   T
  0.9131719444372822  0.1854816822735483  0.1393278072114479   T   T   T
  0.5797532141300877  0.4355491578818210  0.1394853337416390   T   T   T
  0.7464349481883535  0.4354847399058104  0.1395050383927856   T   T   T
  0.9131244395973894  0.4355658375103729  0.1394336513075660   T   T   T
  0.6635184872395347  0.0609145806104053  0.1667695773284094   T   T   T
  0.8297774829286005  0.0607154763002600  0.1666462236067433   T   T   T
  0.9968233477222919  0.0603044204144614  0.1664444426472318   T   T   T
  0.6632428264868689  0.3105965793349513  0.1668088137187306   T   T   T
  0.8301109429950332  0.3106396845618744  0.1666549923654252   T   T   T
  0.9967316836253551  0.3105734307068104  0.1664683523939273   T   T   T
  0.5801434956412890  0.1873841570751959  0.1919561789016330   T   T   T
  0.7470493099563718  0.1893812774845239  0.1927093042371821   T   T   T
  0.9140815962815276  0.1864936199544571  0.1915272166008333   T   T   T
  0.5800750013970635  0.4381628873407850  0.1920594664686961   T   T   T
  0.7468466947094614  0.4377163571537891  0.1920361194926934   T   T   T
  0.9136271969365697  0.4381366987427443  0.1919600757848948   T   T   T
  0.5796539887141674  0.1857543371242688  0.0859284418314883   T   T   T
  0.7463656940466553  0.1857617043810064  0.0859856545620700   T   T   T
  0.9129693815142724  0.1858024803754486  0.0858076260891051   T   T   T
  0.5796808135946998  0.4357442906313006  0.0859170184254112   T   T   T
  0.7463329370251693  0.4357443363012943  0.0859203292404923   T   T   T
  0.9130112324588024  0.4357714389317946  0.0858782829216744   T   T   T
  0.6629629911627467  0.0605936773512899  0.1131043909579787   T   T   T
  0.8295568943387286  0.0605842233605312  0.1130597305670813   T   T   T
  0.9962584760047333  0.0605971389487197  0.1129794678353507   T   T   T
  0.6630062428095531  0.3105503061952973  0.1131347532539124   T   T   T
  0.8297040288528538  0.3106380790152113  0.1130678757748359   T   T   T
  0.9963929679732063  0.3106726820464703  0.1129693208038874   T   T   T
  0.9962865876556842  0.5630992986673833  0.0604435581727290   T   T   T
  0.6629865187532820  0.5630320159732144  0.0604757274148229   T   T   T
  0.8296025985425709  0.5630328706415336  0.0604701868588006   T   T   T
  0.9963115640606898  0.8131243604751541  0.0604299131079952   T   T   T
  0.6630543537183370  0.8130864924435685  0.0604700046266804   T   T   T
  0.8296623978717121  0.8131001344446055  0.0604419994462356   T   T   T
  0.5797476920708144  0.6855196693705211  0.1394918099630116   T   T   T
  0.7464056644021332  0.6855389726637271  0.1394875947579028   T   T   T
  0.9130769322700265  0.6854997538678210  0.1394607294214943   T   T   T
  0.5798644859272694  0.9356904181811717  0.1395204826137737   T   T   T
  0.7464277591573958  0.9355404032767353  0.1394938599430798   T   T   T
  0.9130715857403192  0.9356396546325498  0.1394551631399573   T   T   T
  0.6632674521127772  0.5606585141414672  0.1666328169490403   T   T   T
  0.8298598309124753  0.5605876188793731  0.1666047283208414   T   T   T
  0.9966265656524063  0.5606202406279270  0.1665657292860247   T   T   T
  0.6632720908269446  0.8106301095611537  0.1666340762661006   T   T   T
  0.8299421572307691  0.8106216901258656  0.1666023873947319   T   T   T
  0.9965998661500796  0.8105993920133687  0.1665640949806097   T   T   T
  0.5802154076128447  0.6878203942289342  0.1920489963447006   T   T   T
  0.7469348473663792  0.6879347878006093  0.1920582118828889   T   T   T
  0.9136067500892041  0.6877750531175150  0.1920002933802414   T   T   T
  0.5802795801812529  0.9379567661576219  0.1920884508848339   T   T   T
  0.7470517280438850  0.9378698881902839  0.1920784709164539   T   T   T
  0.9137132193309844  0.9378085905250093  0.1919963456264697   T   T   T
  0.5796914066024037  0.6857693216561245  0.0859187417040267   T   T   T
  0.7463265970276888  0.6857692877464219  0.0859149070770113   T   T   T
  0.9129541624904234  0.6857624570818562  0.0858856367831440   T   T   T
  0.5797217439964053  0.9357890281289160  0.0859203602128401   T   T   T
  0.7463889319169086  0.9357560816872108  0.0859122463527535   T   T   T
  0.9130268773025021  0.9357916213019154  0.0858760137289189   T   T   T
  0.6628781796361588  0.5605524008949704  0.1130637681931839   T   T   T
  0.8295189622637333  0.5605485229502308  0.1130478769363991   T   T   T
  0.9962129393287080  0.5605623376316802  0.1130187736563633   T   T   T
  0.6630600944994874  0.8106304469806149  0.1130663985299846   T   T   T
  0.8296975990424093  0.8106124664288762  0.1130519319644820   T   T   T
  0.9963584290665611  0.8106253195070473  0.1130300835146145   T   T   T
  0.0400377177629260  0.1760893053071310  0.0260336427893164   T   T   T
  0.2063134031261259  0.1760673467504096  0.0261076342084792   T   T   T
  0.3730248636055656  0.1760391633841273  0.0260972114965360   T   T   T
  0.0398402166695590  0.4260909469706761  0.0260564720311014   T   T   T
  0.2061185533472172  0.4260110449569805  0.0261127908627812   T   T   T
  0.3727818674676109  0.4259786239823659  0.0261163823469818   T   T   T
  0.1617122432812766  0.0267827909660827  0.0449164663977645   T   T   T
  0.3283454157086250  0.0268096578138415  0.0449335460194681   T   T   T
  0.4950688696770194  0.0268173952707231  0.0449365359652586   T   T   T
  0.1616428876090152  0.2767941094491737  0.0449340014762821   T   T   T
  0.3283122268064339  0.2767863424000404  0.0449458049968781   T   T   T
  0.4950081174382510  0.2767705131526962  0.0449544670301634   T   T   T
  0.4147617357355312  0.4016479408356528  0.2075950122899851   T   T   T
  0.4146418021240040  0.1515584877116402  0.2075252666170677   T   T   T
  0.0816713796423174  0.1515715657073367  0.2075051786280839   T   T   T
  0.2481795974413902  0.1516788722714232  0.2075416907796412   T   T   T
  0.0814132287232135  0.4015028950752582  0.2075798149586296   T   T   T
  0.2480369904049622  0.4015768527658323  0.2075558024462984   T   T   T
  0.0383170044030055  0.0504904219564860  0.2263119255060021   T   T   T
  0.2048959200819999  0.0506248857868460  0.2263617189698661   T   T   T
  0.3716722564925176  0.0506830693961865  0.2263507047390455   T   T   T
  0.0313794723824440  0.3002861581810146  0.2271699593641404   T   T   T
  0.2048634480050547  0.3007094492905726  0.2263742922485577   T   T   T
  0.3719367994180215  0.3004910328260307  0.2263920775280188   T   T   T
  0.0397934016965629  0.6760923336354080  0.0260850668031591   T   T   T
  0.2064164545049504  0.6760412722859951  0.0261070264070927   T   T   T
  0.3731450194671487  0.6760430100690324  0.0261122858004450   T   T   T
  0.0396530122014671  0.9259956296213205  0.0260589031038972   T   T   T
  0.2062391852333740  0.9259482538364102  0.0260960104926687   T   T   T
  0.3730134521450187  0.9259670138298934  0.0261114785936208   T   T   T
  0.1616587193715478  0.5268104342062596  0.0449390844881236   T   T   T
  0.3283712588642740  0.5268071329536466  0.0449413166960059   T   T   T
  0.4950062489881674  0.5267707136269517  0.0449293743397109   T   T   T
  0.1616517121257985  0.7767303968985122  0.0449341371191366   T   T   T
  0.3283620307067715  0.7767452883981585  0.0449379477993117   T   T   T
  0.4950767896473913  0.7767818515436105  0.0449519052885349   T   T   T
  0.4146849070821687  0.9016368216827468  0.2075374316453799   T   T   T
  0.4147224976089955  0.6516807871272081  0.2075587406789268   T   T   T
  0.0814409782782845  0.6517118860829523  0.2075566962460272   T   T   T
  0.2481093468436356  0.6517610268290602  0.2075880803221100   T   T   T
  0.0814843246000606  0.9016210256147152  0.2074947781509114   T   T   T
  0.2481033800621281  0.9016184387849592  0.2075247533899394   T   T   T
  0.0376932342654733  0.5513543569622165  0.2263488151493014   T   T   T
  0.2045635578894452  0.5512150566196308  0.2263287232674626   T   T   T
  0.3709759169415437  0.5511656021159884  0.2263246523062160   T   T   T
  0.0379845103692457  0.8008349539096331  0.2263629446761584   T   T   T
  0.2041787868932604  0.8009808234037763  0.2264153347749648   T   T   T
  0.3720051218026064  0.8006634396849087  0.2263313253535224   T   T   T
  0.5402610994072027  0.1760812063775583  0.0261050989628300   T   T   T
  0.7062322828282250  0.1762050932083733  0.0262083875600051   T   T   T
  0.8727895729104493  0.1760949584953617  0.0260440425812529   T   T   T
  0.5401534450840898  0.4260116412951860  0.0261109529281148   T   T   T
  0.7060515966409667  0.4259559042037858  0.0261817390047868   T   T   T
  0.8723581717418811  0.4259885092675483  0.0260973524463999   T   T   T
  0.6617348198025716  0.0268001479542525  0.0449887703034418   T   T   T
  0.8280813227490493  0.0267839529561280  0.0449453683655785   T   T   T
  0.9950395228964172  0.0268455658038373  0.0449027756358873   T   T   T
  0.6616647252173751  0.2766259848744094  0.0450345214067430   T   T   T
  0.8282429272277986  0.2767448022777445  0.0449640663780403   T   T   T
  0.9949452376085159  0.2768286718124677  0.0448909063554733   T   T   T
  0.9146798844886828  0.4023824032465405  0.2075605173924872   T   T   T
  0.9154412233777566  0.1505245450371682  0.2071128602295678   T   T   T
  0.5810015762321433  0.1512906150410300  0.2075144834432643   T   T   T
  0.7485850531226663  0.1527705703888622  0.2081596863226099   T   T   T
  0.5812323711760462  0.4019089011229244  0.2075759745297396   T   T   T
  0.7472097507325859  0.4016707869589458  0.2076036017165895   T   T   T
  0.5374003610325314  0.0509094367614041  0.2264518040588945   T   T   T
  0.7054281073278128  0.0501882525410123  0.2265786969543473   T   T   T
  0.8720135536902558  0.0505245453076389  0.2264582141624972   T   T   T
  0.5414467501119435  0.3007404793944641  0.2252424047275116   T   T   T
  0.6889256491469886  0.3094368887147243  0.2294352548210229   T   T   T
  0.8899441683286174  0.2948658147938588  0.2232883873552902   T   T   T
  0.7717235542533053  0.3050889839374621  0.2742342985633235   T   T   T
  0.7456048157424130  0.2370802953491296  0.2934573777377492   T   T   T
  0.7857725369266712  0.3193681103645930  0.3031789743354775   T   T   T
  0.6571689187990241  0.1941841111798030  0.3097821428612048   T   T   T
  0.7108559279157054  0.1299979765784249  0.3023546720474091   T   T   T
  0.8257621303641499  0.3658307897387349  0.3335042090885245   T   T   T
  0.7427466837740503  0.3771791849855911  0.3307451198777394   T   T   T
  0.7559419761000724  0.3956941393775548  0.2523720104229406   T   T   T
  0.7916418272789222  0.3246412328100060  0.2392817959576869   T   T   T
  0.5400688015260449  0.6761002721023790  0.0261162588645506   T   T   T
  0.7064334235698363  0.6760846850938949  0.0261533091022570   T   T   T
  0.8728575715861254  0.6760497388155531  0.0261317085466794   T   T   T
  0.5399029224478655  0.9260568478487338  0.0261289274629272   T   T   T
  0.7061121277691328  0.9260512595970253  0.0261466771489919   T   T   T
  0.8726927202007188  0.9260840641287423  0.0261021145503953   T   T   T
  0.6616456265227477  0.5267287630451929  0.0449617245078938   T   T   T
  0.8282759095728878  0.5267583111302581  0.0449508258334881   T   T   T
  0.9949522734714528  0.5268095070806097  0.0449278099239966   T   T   T
  0.6616459380537497  0.7767767332954623  0.0449589543786620   T   T   T
  0.8282132469060538  0.7767611171136564  0.0449373978478230   T   T   T
  0.9948631830501785  0.7767538695193085  0.0449332780458381   T   T   T
  0.9149111615212199  0.9016967954091691  0.2075512038314468   T   T   T
  0.9148494403384198  0.6517246075765989  0.2075645342170233   T   T   T
  0.5813893507483091  0.6516868140010755  0.2076011284347272   T   T   T
  0.7482353013996988  0.6518146477638314  0.2076065670423573   T   T   T
  0.5814093523921932  0.9017511948803149  0.2076239599796842   T   T   T
  0.7482113105060386  0.9016510458968509  0.2076129875350805   T   T   T
  0.5366859738660968  0.5515333595482408  0.2263708675382583   T   T   T
  0.7049125117329027  0.5526717150924068  0.2261650044073929   T   T   T
  0.8707608377262678  0.5517679603547903  0.2262933078325285   T   T   T
  0.5380338124496006  0.8008284278562088  0.2263969690700156   T   T   T
  0.7043854007452914  0.8009931796307938  0.2264662913798122   T   T   T
  0.8721364058784238  0.8006565156037514  0.2263338527045537   T   T   T
  0.0852801191630295  0.1685611697902313  0.0343049356010029   T   T   T
  0.2516454477340769  0.1687990902458661  0.0343544912475056   T   T   T
  0.4183211989126401  0.1688187824753712  0.0343643271761039   T   T   T
  0.0850337357270084  0.4191486762682422  0.0343928574845934   T   T   T
  0.2513703481206337  0.4193753347892556  0.0344532690271554   T   T   T
  0.4180103981178907  0.4193591422513985  0.0344698897773738   T   T   T
  0.1597569722725774  0.0435441464613355  0.2180093766278846   T   T   T
  0.3264234187686336  0.0434285107692776  0.2180674763363830   T   T   T
  0.4922855229288916  0.0431763863939191  0.2181382602630688   T   T   T
  0.1598084783267857  0.2936553038882531  0.2179835984276371   T   T   T
  0.3266945890023820  0.2932704806255183  0.2181176924364822   T   T   T
  0.4939597740092853  0.2930364464648154  0.2182174154465868   T   T   T
  0.0850087490369954  0.6690195006171273  0.0343990074714000   T   T   T
  0.2516868944369300  0.6689016239745634  0.0343893139417617   T   T   T
  0.4183835056570753  0.6690811758485355  0.0344264950743239   T   T   T
  0.0849488428268511  0.9188512636019514  0.0343359586537043   T   T   T
  0.2515408276744713  0.9191215179023653  0.0343900275826059   T   T   T
  0.4182835247468494  0.9191556197466489  0.0344241192558677   T   T   T
  0.1592521980649965  0.5430996778940778  0.2181592657172385   T   T   T
  0.3256416637324730  0.5431603775578616  0.2181495846539719   T   T   T
  0.4916828746419209  0.5439291338203037  0.2179933622651817   T   T   T
  0.1591673124373748  0.7939263617793584  0.2179998394114492   T   T   T
  0.3266711404271133  0.7937191336833207  0.2180761167551281   T   T   T
  0.4928519036143146  0.7936707872981410  0.2180707924992595   T   T   T
  0.5853484010866152  0.1690275025785265  0.0344861344677502   T   T   T
  0.7514709568456844  0.1696204548335182  0.0345552427873483   T   T   T
  0.9181725495885903  0.1686349070458255  0.0342534108154923   T   T   T
  0.5852831704870638  0.4190333964836499  0.0344759064319358   T   T   T
  0.7513721321108806  0.4191543681156888  0.0344773388774719   T   T   T
  0.9176052806160274  0.4195733339490390  0.0344512742924344   T   T   T
  0.6601268652014052  0.0430452232122279  0.2183195110668434   T   T   T
  0.8267817837872444  0.0437055933867762  0.2181260989906151   T   T   T
  0.9931877243064389  0.0438451786580112  0.2179185274342082   T   T   T
  0.6515411608360940  0.2940781112288794  0.2182277930448613   T   T   T
  0.8390235705094136  0.2924245539308595  0.2183015559115585   T   T   T
  0.9887108506561620  0.2921471682762861  0.2176990635783971   T   T   T
  0.7843457740743411  0.2791922485354980  0.2897742196241831   T   T   T
  0.6901390905282243  0.1786482438017471  0.2975437101497487   T   T   T
  0.7880734694434287  0.3763989626958256  0.3222265249346815   T   T   T
  0.7537037277685383  0.3401848962157814  0.2508033527093776   T   T   T
  0.5852125909128971  0.6691465289114518  0.0344822479189560   T   T   T
  0.7516892259970560  0.6690814552925397  0.0344564706714432   T   T   T
  0.9181789784257967  0.6689494790929774  0.0343975872845859   T   T   T
  0.5850888193134253  0.9193017850615386  0.0344900008394996   T   T   T
  0.7513701248041438  0.9195321995089384  0.0344878321384103   T   T   T
  0.9179564026415189  0.9194105912777023  0.0344342296823967   T   T   T
  0.6594888002878766  0.5430789999624255  0.2182163757601790   T   T   T
  0.8255461875500512  0.5431536072311162  0.2181182480564300   T   T   T
  0.9925968183818450  0.5436414658047063  0.2180251866090627   T   T   T
  0.6592805599936089  0.7935369109414264  0.2181321349163726   T   T   T
  0.8267671121335985  0.7934429341842505  0.2181165632420540   T   T   T
  0.9928116409939945  0.7936111107171862  0.2180402105291141   T   T   T
  0.2463798222981351  0.1219220375539167  0.0595057377461497   T   T   T
  0.4130306239647373  0.1219547445769226  0.0595150828042229   T   T   T
  0.0797784497936181  0.3720041250305746  0.0594908611182554   T   T   T
  0.2463868536767803  0.3720051127727982  0.0595238116511008   T   T   T
  0.4130556067675377  0.3719952648306479  0.0595379060358851   T   T   T
  0.0797632831365678  0.1219077142020944  0.0594782841302779   T   T   T
  0.4964057355001150  0.4984535917954748  0.1397553843607228   T   T   T
  0.1631167306884860  0.4984816457318384  0.1397558157326349   T   T   T
  0.3297559513649593  0.4984801715838621  0.1397621899401512   T   T   T
  0.4964627880971799  0.2484639811334874  0.1397871114993169   T   T   T
  0.1631962012116600  0.2484501693140853  0.1397120603663625   T   T   T
  0.3298042428911014  0.2484534824734826  0.1397502463286234   T   T   T
  0.0801060993418261  0.1228630068567073  0.1660940824809445   T   T   T
  0.2466905298097455  0.1230030956622900  0.1661558194846800   T   T   T
  0.4132920722741390  0.1229974350145016  0.1661682690967549   T   T   T
  0.0800961471782829  0.3730438774442799  0.1661442633646557   T   T   T
  0.2466286390451177  0.3730736011273760  0.1661566145760446   T   T   T
  0.4132341741323896  0.3730547103734324  0.1661935989348914   T   T   T
  0.1635775739492159  0.4965357736771935  0.1929628703566993   T   T   T
  0.3301760724087989  0.4965681588945600  0.1929611749089563   T   T   T
  0.4966896537565437  0.4967638313125402  0.1929210114871859   T   T   T
  0.1639604816002378  0.2467243088416072  0.1928921703184803   T   T   T
  0.4969907972004443  0.2465267061251823  0.1929582791250919   T   T   T
  0.3304803770006330  0.2466131534386229  0.1929305403471371   T   T   T
  0.4963689493893365  0.4982523075824903  0.0862823794819673   T   T   T
  0.1630589817584233  0.4982837192394214  0.0862748342319041   T   T   T
  0.3297228915592277  0.4982764240617485  0.0862836302516584   T   T   T
  0.4963761828834152  0.2482920046690308  0.0863031444261540   T   T   T
  0.1630589580184774  0.2482790778128808  0.0862654903988419   T   T   T
  0.3296953270175541  0.2482850212954795  0.0862792385161787   T   T   T
  0.0795924792048487  0.1235049856866421  0.1126737161607564   T   T   T
  0.2462573676114871  0.1235433472392556  0.1127142647513339   T   T   T
  0.4129139331366907  0.1235368979130821  0.1127330598844674   T   T   T
  0.0797636026450433  0.3735762099812212  0.1126933572833847   T   T   T
  0.2464041017693225  0.3735677672437004  0.1127165315676775   T   T   T
  0.4130370702000518  0.3735563291449553  0.1127457058866236   T   T   T
  0.2463777179585000  0.6219118960866228  0.0595236487180131   T   T   T
  0.4130488224193593  0.6219550132470980  0.0595329752354827   T   T   T
  0.0797582677512023  0.8719121339800696  0.0594819877532392   T   T   T
  0.2464411116339257  0.8719405911467353  0.0595013502135731   T   T   T
  0.4131175318136771  0.8719481293856978  0.0595200570002909   T   T   T
  0.0796826819240165  0.6219485356885139  0.0595172015652810   T   T   T
  0.4964359869721778  0.9984491015740316  0.1397657159837594   T   T   T
  0.1631747109710334  0.9984092055478949  0.1396960095157564   T   T   T
  0.3298093306567835  0.9984401194261956  0.1397337097470743   T   T   T
  0.4964447340734744  0.7484903111651022  0.1397734034854589   T   T   T
  0.1631370329409781  0.7484287762900927  0.1397331928942242   T   T   T
  0.3297913802683816  0.7484270666654240  0.1397474978459433   T   T   T
  0.0799146055094168  0.6230786559829870  0.1661735183763636   T   T   T
  0.2465576737833065  0.6230838053494019  0.1662157873483806   T   T   T
  0.4132089508713617  0.6230445444694958  0.1661886258694680   T   T   T
  0.0799740399658103  0.8730135813272847  0.1661133855704597   T   T   T
  0.2466173471783601  0.8730408777241624  0.1661428082590721   T   T   T
  0.4132412980056123  0.8730645219947493  0.1661610634952991   T   T   T
  0.1637619711016821  0.9965646702985967  0.1928945198139380   T   T   T
  0.3303600808888629  0.9966089145489537  0.1929223558884346   T   T   T
  0.4968835021706018  0.9965906145282900  0.1929541092800618   T   T   T
  0.1636059677797018  0.7467287217689604  0.1929175777020753   T   T   T
  0.4969654485123643  0.7466832631281042  0.1929433892897788   T   T   T
  0.3303795508212137  0.7467517030220804  0.1929420748242135   T   T   T
  0.4963892653440203  0.9982901414246297  0.0862863302114922   T   T   T
  0.1630638244672465  0.9982549277282552  0.0862522072839612   T   T   T
  0.3297281463219547  0.9982786161233638  0.0862668031423658   T   T   T
  0.4964322721241356  0.7483106600037406  0.0862989439447808   T   T   T
  0.1630585917279951  0.7482656898114181  0.0862723155930032   T   T   T
  0.3297292064990140  0.7482730278003948  0.0862765785148874   T   T   T
  0.0795437262535693  0.6235210479853701  0.1127233811640173   T   T   T
  0.2462285888303574  0.6235221774595253  0.1127377440766918   T   T   T
  0.4128917426616803  0.6235304068540409  0.1127431423463843   T   T   T
  0.0797473145150395  0.8734829444094409  0.1126761685695938   T   T   T
  0.2464164707988341  0.8735138525030282  0.1126983168211603   T   T   T
  0.4130817835321922  0.8735261136182704  0.1127212688040296   T   T   T
  0.7463684565565475  0.1220602548403509  0.0595895731983287   T   T   T
  0.9129748089002677  0.1219554325025722  0.0594381236537953   T   T   T
  0.5798105966839660  0.3719024783762723  0.0595690404468751   T   T   T
  0.7463609782175102  0.3718903121222553  0.0595671670304859   T   T   T
  0.9129622570098008  0.3720243133326688  0.0595082121811540   T   T   T
  0.5797525733296788  0.1219258080699542  0.0595722806787250   T   T   T
  0.9964743898883154  0.4984762312561057  0.1397300420261935   T   T   T
  0.6630632457302819  0.4984745463298665  0.1397884193219424   T   T   T
  0.8297487013305481  0.4984412988263476  0.1397604398375954   T   T   T
  0.9965647269360470  0.2483554122881787  0.1396201298474529   T   T   T
  0.6630668249223373  0.2484701336835822  0.1399015904896705   T   T   T
  0.8298758799696450  0.2484264046263280  0.1397525357627694   T   T   T
  0.5798913140305368  0.1229777633963374  0.1662048670965292   T   T   T
  0.7466447408125745  0.1237618477348197  0.1665264338215428   T   T   T
  0.9134744335165297  0.1223056594056771  0.1658727797362395   T   T   T
  0.5798706352865438  0.3731763253665352  0.1662447769384710   T   T   T
  0.7465232813567173  0.3729309607792812  0.1662134145761030   T   T   T
  0.9134491343892424  0.3731971518888396  0.1661548195023139   T   T   T
  0.6634911520643022  0.4968139859384583  0.1929732587523690   T   T   T
  0.8302932293027565  0.4967258017100033  0.1929177649636289   T   T   T
  0.9970387461548914  0.4967678815402514  0.1928981451280241   T   T   T
  0.6627100742933233  0.2474251370592930  0.1934156942026989   T   T   T
  0.9970311215365649  0.2456950150286435  0.1924858093165668   T   T   T
  0.8316420704037468  0.2460727191803970  0.1927448117950530   T   T   T
  0.9963595114184827  0.4982771206643709  0.0862624980662348   T   T   T
  0.6630170234870031  0.4982322868074984  0.0863030830479709   T   T   T
  0.8296726101602999  0.4982323669821843  0.0862904916129074   T   T   T
  0.9963639245337181  0.2483063104368133  0.0862231752266380   T   T   T
  0.6630479105673959  0.2482129161161744  0.0863661196808674   T   T   T
  0.8297158669085489  0.2482799913859859  0.0863045508542806   T   T   T
  0.5795611287563799  0.1235287652870370  0.1127763703887262   T   T   T
  0.7462614150718118  0.1235343832078234  0.1128505921550695   T   T   T
  0.9128981820546949  0.1234947761983552  0.1126371384927218   T   T   T