C H O Si                                
   1.00000000000000     
    18.5749199999999988    0.0000000000000000    0.0000000000000000
     0.0000000000000000   17.5126199999999983    0.0000000000000000
     0.0000000000000000    0.0000000000000000   58.0000000000000000
   C    H    O    Si
   144   105    52   144
Selective dynamics
Direct
  0.4995149716118920  0.0653505769419815  0.0600663089356304   T   T   T
  0.1661764914727043  0.0653969131352823  0.0601083581108591   T   T   T
  0.3327576108336504  0.0653792573475034  0.0600955331401917   T   T   T
  0.4995316396030678  0.3154034234485538  0.0600537246938306   T   T   T
  0.1661908566211112  0.3154311953211718  0.0601236934930870   T   T   T
  0.3327815125209749  0.3154281960583182  0.0601094275300829   T   T   T
  0.0827369233184797  0.1880972196736322  0.1390110045090400   T   T   T
  0.2493896453740053  0.1881370244577699  0.1390048707432150   T   T   T
  0.4160683693218672  0.1881102586694631  0.1389604911792011   T   T   T
  0.0826733428685651  0.4381381154711181  0.1390438728519948   T   T   T
  0.2493578697941614  0.4381692795172439  0.1390103613209810   T   T   T
  0.4160866670486793  0.4382297257570863  0.1389773566331755   T   T   T
  0.1662607680853199  0.0631371148426002  0.1661365597559731   T   T   T
  0.3327632652010540  0.0631350137451494  0.1661227003461483   T   T   T
  0.4993272127528086  0.0628700758564524  0.1660132468239960   T   T   T
  0.1662038763394917  0.3132401246303841  0.1661515830047582   T   T   T
  0.3327863312355970  0.3132780658590207  0.1661329768748390   T   T   T
  0.4993084459239457  0.3131966704244245  0.1659957440269569   T   T   T
  0.0829697386414660  0.1900979002092436  0.1915188369267479   T   T   T
  0.2494352156216793  0.1903152379623076  0.1915323581010959   T   T   T
  0.4159513513501483  0.1902661017559271  0.1914898466355675   T   T   T
  0.0826245236664293  0.4403016529273888  0.1915757137664655   T   T   T
  0.2494494690609195  0.4403367679956490  0.1915458309034121   T   T   T
  0.4163324898537584  0.4404306337727024  0.1915312162994109   T   T   T
  0.0827212753157914  0.1882689458234200  0.0854685477104945   T   T   T
  0.2493651419457273  0.1883335188573573  0.0854583960372994   T   T   T
  0.4161040202583842  0.1882774338577937  0.0854420503386152   T   T   T
  0.0827328992686680  0.4382696581331514  0.0854842108734092   T   T   T
  0.2493885094469072  0.4383474390623981  0.0854688734742382   T   T   T
  0.4161265942274178  0.4383364149836799  0.0854433824860786   T   T   T
  0.1661497300086478  0.0631068412409279  0.1126116520862260   T   T   T
  0.3327194991647713  0.0630881190358002  0.1125922320388174   T   T   T
  0.4994453658106668  0.0630712354350679  0.1125768711964699   T   T   T
  0.1661358298099917  0.3131493076420515  0.1126228035541275   T   T   T
  0.3327459568889965  0.3131225334789773  0.1126067509486725   T   T   T
  0.4994485711272579  0.3131521795234304  0.1125560780691723   T   T   T
  0.4995404276885606  0.5654530367116865  0.0600693467917601   T   T   T
  0.1661980455893496  0.5653788933367180  0.0601324294080758   T   T   T
  0.3327919217699952  0.5654367024367368  0.0601039826635470   T   T   T
  0.4995298279541292  0.8154514215295474  0.0600927160881626   T   T   T
  0.1661706399924770  0.8153381268532860  0.0601204695265171   T   T   T
  0.3327528788800674  0.8153642722499781  0.0600987387684848   T   T   T
  0.0827102650216107  0.6881052379242125  0.1390452928893965   T   T   T
  0.2493578773020324  0.6881151502930728  0.1390182041328808   T   T   T
  0.4160615039484099  0.6882053361471555  0.1389900616697976   T   T   T
  0.0827773742977815  0.9380294152155194  0.1390096076020739   T   T   T
  0.2493756872755115  0.9380626793477390  0.1390000190480477   T   T   T
  0.4160064096917104  0.9380027666044143  0.1389610196081779   T   T   T
  0.1661570173777908  0.5631987356278974  0.1661695862256258   T   T   T
  0.3328011984891234  0.5632295153871788  0.1661437914777832   T   T   T
  0.4994285611850738  0.5633876151659944  0.1660902627497833   T   T   T
  0.1662109496665952  0.8131594325817334  0.1661628234556362   T   T   T
  0.3327804645361137  0.8131642555304851  0.1661410749485525   T   T   T
  0.4994877451306964  0.8132286182318752  0.1661324789782727   T   T   T
  0.0827621368689020  0.6902779616521796  0.1915665439394180   T   T   T
  0.2494386609609855  0.6902847458654087  0.1915538895779137   T   T   T
  0.4161138056793656  0.6902738990685013  0.1915108042585122   T   T   T
  0.0827821889188672  0.9402484973644369  0.1915382352822313   T   T   T
  0.2494522753348692  0.9402483006144203  0.1915358931820696   T   T   T
  0.4161030869038833  0.9402910553411110  0.1915141887031133   T   T   T
  0.0827082604523661  0.6882455620635449  0.0854933651287494   T   T   T
  0.2493551732878959  0.6882846638749698  0.0854639127524299   T   T   T
  0.4161146349782849  0.6883442346197879  0.0854500255782795   T   T   T
  0.0827369102109307  0.9382607873473867  0.0854675283792425   T   T   T
  0.2493341744767870  0.9382631159066722  0.0854476375601557   T   T   T
  0.4160636781602646  0.9382738228834306  0.0854379619274973   T   T   T
  0.1661201671319618  0.5631346751747047  0.1126348510903748   T   T   T
  0.3327414211067830  0.5631413982282581  0.1126076867350308   T   T   T
  0.4994462488823721  0.5631824647558037  0.1125904922271024   T   T   T
  0.1661299285124579  0.8130838893042560  0.1126231820754309   T   T   T
  0.3327050294479556  0.8130751322578473  0.1125914221736166   T   T   T
  0.4994282531058543  0.8132245142732418  0.1126122282667799   T   T   T
  0.9994878191765040  0.0653431358081630  0.0601071379204376   T   T   T
  0.6662344263037421  0.0654108378025575  0.0601559992389073   T   T   T
  0.8327623309021743  0.0653849402700399  0.0601863957928078   T   T   T
  0.9995071249838998  0.3153825769952477  0.0601258053462466   T   T   T
  0.6662285774054180  0.3153487940598316  0.0601010650139687   T   T   T
  0.8327913882157898  0.3153069641718245  0.0601396397020365   T   T   T
  0.5827167185202037  0.1880766491251982  0.1388785930550995   T   T   T
  0.7493242336484168  0.1885175720472887  0.1392575551216648   T   T   T
  0.9160340884354691  0.1882402774621628  0.1389577251575136   T   T   T
  0.5827185221876752  0.4382007619104120  0.1389797867044639   T   T   T
  0.7493000917572543  0.4372773637446133  0.1389271095727764   T   T   T
  0.9159924059372369  0.4381376056720691  0.1390803701055714   T   T   T
  0.6664242000749051  0.0633754332662681  0.1662200881644147   T   T   T
  0.8325022420092554  0.0636818553311873  0.1662887167055282   T   T   T
  0.9995881401738194  0.0630397850593066  0.1660705740327787   T   T   T
  0.6657917724026237  0.3134443291282711  0.1663081009947893   T   T   T
  0.8328007554173406  0.3134494162649658  0.1662886790043847   T   T   T
  0.9995448641538878  0.3132445730714926  0.1661288900497798   T   T   T
  0.5823636923303016  0.1890886271712445  0.1909916491238059   T   T   T
  0.7490007391649924  0.1924560338083956  0.1923091457538048   T   T   T
  0.9163767697050703  0.1896167677360311  0.1912111442679570   T   T   T
  0.5828153837782015  0.4403019114138254  0.1914398666547393   T   T   T
  0.7492029524535865  0.4390558551571907  0.1918150602314825   T   T   T
  0.9158811737059657  0.4402838809623099  0.1916283514507341   T   T   T
  0.5827509041090237  0.1882787060058587  0.0854027402725711   T   T   T
  0.7493619110038043  0.1883783317633275  0.0855877648299466   T   T   T
  0.9160806470044057  0.1882848685806519  0.0854597073911370   T   T   T
  0.5827818664575596  0.4383303676528243  0.0854303808492484   T   T   T
  0.7493668046385101  0.4382862992675546  0.0853535898312748   T   T   T
  0.9160389453213849  0.4382691719266169  0.0855059165148068   T   T   T
  0.6661944092546983  0.0632200578866391  0.1126744838874640   T   T   T
  0.8326792145975234  0.0632694840873391  0.1127105349541455   T   T   T
  0.9994198983110052  0.0631102040891997  0.1126253716932230   T   T   T
  0.6661035543034887  0.3131268085502951  0.1126449893660197   T   T   T
  0.8327021581529280  0.3131303062621387  0.1126523000632715   T   T   T
  0.9994128980010543  0.3131608060458259  0.1126361113778447   T   T   T
  0.9995207838510389  0.5653287621933971  0.0601458320878799   T   T   T
  0.6662317917432105  0.5654633570386325  0.0600665936873249   T   T   T
  0.8328181872636680  0.5654232760822721  0.0601280694837378   T   T   T
  0.9994961847761307  0.8153649511206449  0.0601423446336221   T   T   T
  0.6662315654131667  0.8154547139609283  0.0601336311430400   T   T   T
  0.8327761447830195  0.8154063200119861  0.0601547445433634   T   T   T
  0.5825864688642792  0.6882892981386980  0.1389754030455083   T   T   T
  0.7493770649589745  0.6880368924842448  0.1390574411344464   T   T   T
  0.9161808671181857  0.6882236880806772  0.1390292612660006   T   T   T
  0.5828460778090475  0.9381920087644003  0.1390448140263603   T   T   T
  0.7494180795661430  0.9381450562163115  0.1390500195747418   T   T   T
  0.9159647787100649  0.9382764253635870  0.1390683991721725   T   T   T
  0.6656993504490054  0.5633673796867125  0.1662325440121638   T   T   T
  0.8330633469436088  0.5631718160437568  0.1663313010364917   T   T   T
  0.9994301687661742  0.5632670847839936  0.1661795385824983   T   T   T
  0.6662116409993468  0.8131411972277961  0.1661645912321124   T   T   T
  0.8327892277857871  0.8131315221372963  0.1661821804330621   T   T   T
  0.9994768774091236  0.8132468238724722  0.1661555084782805   T   T   T
  0.5826962710682765  0.6903207375064584  0.1915345066993124   T   T   T
  0.7493972968476116  0.6901886858484486  0.1915839886688126   T   T   T
  0.9161791199916616  0.6903737189344068  0.1915504574459759   T   T   T
  0.5827544895925029  0.9402846879523373  0.1915531869019527   T   T   T
  0.7494248615070475  0.9402984307649359  0.1915639644716253   T   T   T
  0.9160820077865733  0.9404105745784423  0.1915489525058270   T   T   T
  0.5827722621410012  0.6883371477597986  0.0854481860452471   T   T   T
  0.7494083025831569  0.6883165470867909  0.0854845709189777   T   T   T
  0.9161029795126968  0.6882676016032387  0.0855066695332750   T   T   T
  0.5827954175351254  0.9383320716176465  0.0854779796462377   T   T   T
  0.7494150628694830  0.9383689431414189  0.0855071211829623   T   T   T
  0.9160679416842742  0.9383200138556308  0.0855145025190007   T   T   T
  0.6661602159400617  0.5630461464559935  0.1126253037793549   T   T   T
  0.8327080134371266  0.5629752529591251  0.1126817097268247   T   T   T
  0.9994024162867839  0.5630978426077303  0.1126696533623552   T   T   T
  0.6661707427032019  0.8131449773878013  0.1126408383156595   T   T   T
  0.8327463403242703  0.8131119851380666  0.1126546742200944   T   T   T
  0.9994417511010327  0.8132002552077656  0.1126585665475151   T   T   T
  0.0408410898124817  0.1793865313622460  0.0264902546948779   T   T   T
  0.2073854165479085  0.1793560562729566  0.0264868905361885   T   T   T
  0.3740146832602112  0.1793117760012954  0.0264798333304427   T   T   T
  0.0408725030735871  0.4293708012033160  0.0265074109096417   T   T   T
  0.2073723048890532  0.4292743820161333  0.0265052520518611   T   T   T
  0.3738936145901889  0.4292512115235185  0.0264949215725632   T   T   T
  0.1649773693157694  0.0291054598453311  0.0445997456810690   T   T   T
  0.3315638369456552  0.0291001107861055  0.0445823243141317   T   T   T
  0.4982665656758419  0.0290622260719642  0.0445555077119948   T   T   T
  0.1649577929983171  0.2791308305817852  0.0446198913093844   T   T   T
  0.3315844392082216  0.2791169130283701  0.0446044675501679   T   T   T
  0.4983193557299673  0.2791659062000128  0.0445339040904812   T   T   T
  0.4178063872881091  0.4039733913661048  0.2070097953354735   T   T   T
  0.4173296138348240  0.1539767139224209  0.2069955142969243   T   T   T
  0.0841520022578359  0.1538392812249356  0.2070298902471275   T   T   T
  0.2507534176140347  0.1540231891199124  0.2070403786240312   T   T   T
  0.0839057634634615  0.4038442276171576  0.2070560785874088   T   T   T
  0.2507569569004465  0.4039477084122348  0.2070342709796918   T   T   T
  0.0419246743467211  0.0544239973450904  0.2249967666044771   T   T   T
  0.2082476013778643  0.0545293827895077  0.2250737860370204   T   T   T
  0.3748383171779583  0.0547511994927143  0.2250335228365647   T   T   T
  0.0403936602238758  0.3037834556725413  0.2253849582902716   T   T   T
  0.2082034444770971  0.3045686522923087  0.2250627565702285   T   T   T
  0.3745699905031212  0.3050083673663784  0.2251293940765277   T   T   T
  0.0408505760720478  0.6793843700446535  0.0265317068078696   T   T   T
  0.2073132163509558  0.6792872315449717  0.0265075057352023   T   T   T
  0.3740032119809907  0.6793409638416618  0.0264858172892471   T   T   T
  0.0409456893938057  0.9292934806871632  0.0264681145099480   T   T   T
  0.2073356932589031  0.9292048495165376  0.0264768627473246   T   T   T
  0.3739674594630279  0.9292033049767591  0.0264631330799587   T   T   T
  0.1649205308174209  0.5290780235137569  0.0446291298486287   T   T   T
  0.3316749209182495  0.5291435340355872  0.0445949446958921   T   T   T
  0.4983835684425645  0.5291808205978116  0.0445535935701213   T   T   T
  0.1648858199043030  0.7790135115990383  0.0446208099579466   T   T   T
  0.3315656716253949  0.7790515013557060  0.0445941143862931   T   T   T
  0.4984422867129656  0.7791588627156131  0.0445824768729605   T   T   T
  0.4173793950794657  0.9039694817811896  0.2070158413739671   T   T   T
  0.4174563385738544  0.6538972318696040  0.2070022536760796   T   T   T
  0.0839268774238546  0.6539489832314067  0.2070673562824813   T   T   T
  0.2507200015694106  0.6539523146396712  0.2070548562660666   T   T   T
  0.0839936156012453  0.9039818992505478  0.2070520109009508   T   T   T
  0.2507201356337734  0.9039585754310250  0.2070428228366175   T   T   T
  0.0428009991505573  0.5539992303892822  0.2248978096694433   T   T   T
  0.2083403817904359  0.5541315555803301  0.2251067593363908   T   T   T
  0.3751775061348371  0.5542391363897228  0.2250567109410607   T   T   T
  0.0418999759678604  0.8043836170802110  0.2250465548526948   T   T   T
  0.2081901561395404  0.8043843605312287  0.2251314243637371   T   T   T
  0.3753145456401117  0.8041437918324239  0.2250271841137166   T   T   T
  0.5408616172932124  0.1792642114848003  0.0264600079541587   T   T   T
  0.7074282631779919  0.1793962398532997  0.0266414579488141   T   T   T
  0.8739800168758943  0.1793314994510210  0.0265453467549019   T   T   T
  0.5406840922568825  0.4292851455675807  0.0264921234092279   T   T   T
  0.7075571305270016  0.4291441937496628  0.0264177499122818   T   T   T
  0.8738564600334672  0.4292057794069918  0.0265992097429986   T   T   T
  0.6652059158495399  0.0290488976532618  0.0446646118699434   T   T   T
  0.8314601173737334  0.0290303021266988  0.0446931285908988   T   T   T
  0.9982975368907296  0.0290652858069320  0.0445956782365294   T   T   T
  0.6649265677334225  0.2789399823081642  0.0446207930372803   T   T   T
  0.8317891834130307  0.2789126017682287  0.0446542093074424   T   T   T
  0.9982689803186868  0.2791347976047630  0.0446108662552937   T   T   T
  0.9170030694935704  0.4036185017555368  0.2070483898969478   T   T   T
  0.9176008429345800  0.1535196760857555  0.2067644522779957   T   T   T
  0.5832546700174880  0.1533865671194530  0.2066258837676467   T   T   T
  0.7504612978250748  0.1557339562178385  0.2077210406404478   T   T   T
  0.5838404396106723  0.4036660537372724  0.2068622036691306   T   T   T
  0.7700181813249097  0.4644872863104956  0.2619868469606479   T   T   T
  0.5414483671740340  0.0556536687330617  0.2248372197098712   T   T   T
  0.7083286976195646  0.0553595563547928  0.2249402970692526   T   T   T
  0.8745442518613266  0.0554348756152196  0.2250820129280491   T   T   T
  0.5489599639905678  0.3012576160740310  0.2228977694301104   T   T   T
  0.6845647162760724  0.2829039189072247  0.2311440518724683   T   T   T
  0.8909261795770574  0.2962822997010690  0.2236209803948251   T   T   T
  0.7498464111844086  0.2702959798718316  0.2665399855766614   T   T   T
  0.7357030991322324  0.2273671774632899  0.3007407651067607   T   T   T
  0.7595759606344609  0.3119583128605355  0.3085488868675407   T   T   T
  0.6442779209902672  0.1358997931332058  0.2961406000880683   T   T   T
  0.7181885246854499  0.1074881410666364  0.2874891243416037   T   T   T
  0.8180279516102044  0.3862336800926903  0.3347811972499585   T   T   T
  0.7512418387175587  0.4322507934672000  0.3268053623944209   T   T   T
  0.7525009354538404  0.4388127966219578  0.2707083099398440   T   T   T
  0.7843142641124892  0.2679121436168970  0.2411358172894656   T   T   T
  0.5407138117305862  0.6794494954433693  0.0264797006484765   T   T   T
  0.7075082616496183  0.6794697328162694  0.0265095584198780   T   T   T
  0.8742865054458709  0.6794420282096865  0.0265275415619820   T   T   T
  0.5410068112812780  0.9293685185472538  0.0264742720147371   T   T   T
  0.7074977738975364  0.9293123368524699  0.0265328576894864   T   T   T
  0.8740429947234052  0.9292865293543093  0.0265550530707623   T   T   T
  0.6651325197130838  0.5292149575733899  0.0445474280620137   T   T   T
  0.8316843596385428  0.5291600047931585  0.0446139036504416   T   T   T
  0.9982608482131845  0.5290675287249245  0.0446314983650383   T   T   T
  0.6650512533810011  0.7791808511854957  0.0446244203640431   T   T   T
  0.8315802966704470  0.7791164201363625  0.0446455352128080   T   T   T
  0.9981738579413044  0.7790672106875426  0.0446353189833271   T   T   T
  0.9173088723009767  0.9041468152403670  0.2070637819719665   T   T   T
  0.9170905146580683  0.6538389330554398  0.2070053942431920   T   T   T
  0.5843344780189825  0.6536036595655493  0.2069450909825325   T   T   T
  0.7504174799161241  0.6533770693220163  0.2069870801200150   T   T   T
  0.5839725472578666  0.9039835892509637  0.2070587103476108   T   T   T
  0.7507167592392159  0.9039411136333141  0.2070588128323842   T   T   T
  0.5436491637848450  0.5538854124022825  0.2245403715431314   T   T   T
  0.7083982586289680  0.5498631254879610  0.2252618045350120   T   T   T
  0.8781506276583484  0.5547004163910736  0.2240266485512545   T   T   T
  0.5415291178110831  0.8043274198830632  0.2250558985780640   T   T   T
  0.7082042482327467  0.8043297899085367  0.2250638687853569   T   T   T
  0.8755982487845091  0.8041381049450421  0.2249655591078824   T   T   T
  0.0874417479942398  0.1692261937323040  0.0336777923751420   T   T   T
  0.2539949146655448  0.1692049490938272  0.0336670641005462   T   T   T
  0.4206344856676021  0.1691584165410561  0.0336491408952157   T   T   T
  0.0874545952441576  0.4192830321713729  0.0337081958610151   T   T   T
  0.2540002594093459  0.4192574817061759  0.0336876740654732   T   T   T
  0.4205500993907478  0.4192555486352343  0.0336603480633687   T   T   T
  0.1616160303882418  0.0442851087111623  0.2179303665787041   T   T   T
  0.3281994105216549  0.0442946259607431  0.2179220225774353   T   T   T
  0.4947834317279419  0.0442462550580966  0.2178739766480795   T   T   T
  0.1615573772319064  0.2942559775119802  0.2179323142341950   T   T   T
  0.3281621417562051  0.2942779212222615  0.2179215561064430   T   T   T
  0.4986881448642086  0.2934384253596743  0.2177951607595030   T   T   T
  0.0874638253897366  0.6692121720245602  0.0337092390920137   T   T   T
  0.2539542980154546  0.6691940029265783  0.0336723718231231   T   T   T
  0.4206410907703131  0.6692918625683694  0.0336626644589179   T   T   T
  0.0874945487199873  0.9192293956995159  0.0336980400523675   T   T   T
  0.2539368330837870  0.9191861455516079  0.0336728898990447   T   T   T
  0.4205793807194876  0.9192247464217118  0.0336615725541565   T   T   T
  0.1616250700566591  0.5443036782983771  0.2179634066813635   T   T   T
  0.3284545783188170  0.5443167197045063  0.2179392961547437   T   T   T
  0.4960245940674002  0.5445134614014275  0.2179020023815736   T   T   T
  0.1615820053124812  0.7943575866209092  0.2179464194213564   T   T   T
  0.3285000033593272  0.7943380360482030  0.2179367713351355   T   T   T
  0.4948244897759946  0.7943760110349580  0.2179220200757745   T   T   T
  0.5874717711244497  0.1690878265384192  0.0336324129422156   T   T   T
  0.7540815427412935  0.1691610975565006  0.0337682693669420   T   T   T
  0.9206385017137848  0.1690482506104428  0.0336674107286735   T   T   T
  0.5873677437157573  0.4192350588969976  0.0336430519366414   T   T   T
  0.7541790935501537  0.4189377739807784  0.0335735665248997   T   T   T
  0.9205918497635296  0.4191351768880431  0.0337097698766565   T   T   T
  0.6615617015865258  0.0438554254067423  0.2180544906190340   T   T   T
  0.8279778356459594  0.0437651117512669  0.2180990993034972   T   T   T
  0.9951827963826863  0.0442833505805731  0.2179120409133155   T   T   T
  0.6513170274890722  0.2954806758692951  0.2179918656923234   T   T   T
  0.8403917959278521  0.2919331366248691  0.2187283416168867   T   T   T
  0.9943893181669976  0.2928084597182419  0.2179306735404670   T   T   T
  0.7633726276983646  0.2732234717293630  0.2961350711082575   T   T   T
  0.6947655710589327  0.1320205203443526  0.3005835021641053   T   T   T
  0.7671825079052835  0.3810282285877505  0.3309719141210032   T   T   T
  0.7420704127699248  0.2520174303326170  0.2505158490116989   T   T   T
  0.5873539937234016  0.6693998578389249  0.0336480952707960   T   T   T
  0.7541365479008217  0.6693711455990800  0.0336773961717918   T   T   T
  0.9208900403613931  0.6692322182961237  0.0337062185508579   T   T   T
  0.5875557391833282  0.9193358783964681  0.0336986737646084   T   T   T
  0.7541162318794121  0.9192341348762688  0.0337120317689714   T   T   T
  0.9206922539972321  0.9191616079088483  0.0337123865779171   T   T   T
  0.6616265011876508  0.5458089548832161  0.2176321378802279   T   T   T
  0.8299088735306385  0.5453329107438180  0.2179802059518652   T   T   T
  0.9956415994470641  0.5444902724646079  0.2180155272057309   T   T   T
  0.6614679500281905  0.7943977712730548  0.2179428806981840   T   T   T
  0.8286409568070404  0.7944042100109335  0.2179695242593304   T   T   T
  0.9951565776539740  0.7944051131981891  0.2179490059639295   T   T   T
  0.2495299125433147  0.1240769731413780  0.0593472120650302   T   T   T
  0.4162202904460092  0.1240047104807845  0.0593337484793575   T   T   T
  0.0828753313204898  0.3740332147883252  0.0593766366513420   T   T   T
  0.2495462042179141  0.3740918099530502  0.0593636087138319   T   T   T
  0.4162472912225107  0.3740536580740051  0.0593430508339422   T   T   T
  0.0828713612202399  0.1240188815833840  0.0593497714440136   T   T   T
  0.4993810047007387  0.0004505515749506  0.1392130213424552   T   T   T
  0.1660718740135573  0.0005463700884108  0.1392541363760978   T   T   T
  0.3327198504674531  0.0005286216296605  0.1392408946244124   T   T   T
  0.4995232222496760  0.2506785478090233  0.1392163942166930   T   T   T
  0.1660331885050843  0.2506387532921335  0.1392729800386084   T   T   T
  0.3327898128879286  0.2506100960406346  0.1392627778039860   T   T   T
  0.0828456518863636  0.1252409860174664  0.1655900216937907   T   T   T
  0.2495089322781845  0.1253673796915217  0.1656126769157995   T   T   T
  0.4161686248395817  0.1253051639370433  0.1655703347701185   T   T   T
  0.0826712282872897  0.3753682435594643  0.1656603358115291   T   T   T
  0.2494916411311923  0.3753787492115248  0.1656202399284201   T   T   T
  0.4163380544980243  0.3753990676215148  0.1656037885772884   T   T   T
  0.1659020090522090  0.4988670963562838  0.1922968171900494   T   T   T
  0.3328977756261826  0.4988889016111465  0.1922752631202851   T   T   T
  0.5001624492069231  0.4988905778764009  0.1922027071695817   T   T   T
  0.1660597949543680  0.2489886426672723  0.1922668136228282   T   T   T
  0.4996079890649924  0.2485733685884996  0.1920550844572013   T   T   T
  0.3327553149817926  0.2490036364342759  0.1922457531333035   T   T   T
  0.4994718909399835  0.0004123086582142  0.0859822904335648   T   T   T
  0.1660470875841938  0.0004110816273415  0.0860004256901272   T   T   T
  0.3327141484246203  0.0003714678424411  0.0859859105665251   T   T   T
  0.4995104779348345  0.2504921255324685  0.0859786245585515   T   T   T
  0.1660394849405391  0.2504605264660831  0.0860201460125373   T   T   T
  0.3327666779572002  0.2504320422424191  0.0860033990299688   T   T   T
  0.0827340201517771  0.1256177953899329  0.1123758841303947   T   T   T
  0.2494503009296745  0.1256467729215864  0.1123575195489961   T   T   T
  0.4161430760561019  0.1256083758384501  0.1123465371175830   T   T   T
  0.0826783628159996  0.3756538968780236  0.1124096350962019   T   T   T
  0.2494581063391813  0.3756436215992377  0.1123685134578430   T   T   T
  0.4162070740862355  0.3756524932278361  0.1123614931775528   T   T   T
  0.2495334015909465  0.6240311406598078  0.0593496348444049   T   T   T
  0.4162544296762486  0.6240530382912235  0.0593376728242991   T   T   T
  0.0828863568582392  0.8739663727873269  0.0593599289727310   T   T   T
  0.2495085413098691  0.8739924175108850  0.0593392287131089   T   T   T
  0.4161921416086584  0.8739955782469447  0.0593290478743443   T   T   T
  0.0828764893702923  0.6239583542730947  0.0593809053707852   T   T   T
  0.4997020265748916  0.5006144053603323  0.1392757193036962   T   T   T
  0.1659465555071390  0.5005645205960811  0.1392898967342092   T   T   T
  0.3328014542508161  0.5005739155998118  0.1392645233637330   T   T   T
  0.4995286127021558  0.7505560101307726  0.1392449074211052   T   T   T
  0.1659911194238781  0.7505134357448998  0.1392785059029297   T   T   T
  0.3327507165197094  0.7505183142966444  0.1392523242364969   T   T   T
  0.0825730313738483  0.6251961798899363  0.1656601137353496   T   T   T
  0.2494649948663973  0.6252677089116442  0.1656302781703366   T   T   T
  0.4163081364134987  0.6252554402561248  0.1655963851737945   T   T   T
  0.0827786667964448  0.8752528029501979  0.1656285529173407   T   T   T
  0.2494843674828640  0.8752935243951950  0.1656162605574192   T   T   T
  0.4161669813990089  0.8752790743305399  0.1656007712733393   T   T   T
  0.1660509541685589  0.9989186536632431  0.1922742277162745   T   T   T
  0.3327239191701835  0.9989551170508629  0.1922643406093982   T   T   T
  0.4993913889509482  0.9989950847607069  0.1922013375706080   T   T   T
  0.1660019344299336  0.7488890886446941  0.1923009889283223   T   T   T
  0.4994977667065426  0.7488224547788577  0.1922657180203501   T   T   T
  0.3327696058407820  0.7488958684449164  0.1922831061745633   T   T   T
  0.4995796647853168  0.5004734495408835  0.0859979839525138   T   T   T
  0.1660397805018420  0.5004139130900103  0.0860340511616990   T   T   T
  0.3327930029633113  0.5004176171450480  0.0860027995619537   T   T   T
  0.4995421674623636  0.7504457751896956  0.0860072953773373   T   T   T
  0.1660274301311905  0.7503551334736112  0.0860203107129227   T   T   T
  0.3327375661761922  0.7503544333143343  0.0859913568532706   T   T   T
  0.0826490815831018  0.6255422054455989  0.1124090628204540   T   T   T
  0.2494413195605677  0.6255855229976589  0.1123694980089989   T   T   T
  0.4162030905301821  0.6255981781897143  0.1123599036209544   T   T   T
  0.0827499243799013  0.8755564517468424  0.1123704503183830   T   T   T
  0.2494317003841902  0.8755639902240395  0.1123482543948462   T   T   T
  0.4160942992352261  0.8755449670903664  0.1123310331391790   T   T   T
  0.7495676123223741  0.1241377506316495  0.0594815644068622   T   T   T
  0.9161655095088618  0.1240198368722654  0.0593785821854766   T   T   T
  0.5830016065712550  0.3740811322295411  0.0593467184046931   T   T   T
  0.7495808007812481  0.3741224795033397  0.0593424314596065   T   T   T
  0.9161329785026461  0.3740082530614058  0.0594185208177753   T   T   T
  0.5829538201116403  0.1240357792720721  0.0593344588807019   T   T   T
  0.9994236425699851  0.0005025286164382  0.1392535381017978   T   T   T
  0.6662892188300075  0.0007955958444113  0.1393473077308969   T   T   T
  0.8325068319656069  0.0008947999791038  0.1393872365126517   T   T   T
  0.9992869561280915  0.2506899458301613  0.1392831688613837   T   T   T
  0.6660197221917297  0.2513383285748970  0.1395413208785526   T   T   T
  0.8325763237386850  0.2513165926498824  0.1395073088543086   T   T   T
  0.5827399157861293  0.1250245110978460  0.1653966884552746   T   T   T
  0.7492468118761633  0.1267746727531008  0.1661026341751351   T   T   T
  0.9161576752661217  0.1252538148285195  0.1654834421613220   T   T   T
  0.5830360523377202  0.3755781212352969  0.1656799802441416   T   T   T
  0.7491854568525984  0.3773718785638558  0.1669621137396371   T   T   T
  0.9156393089743685  0.3756164328483919  0.1658014733339388   T   T   T
  0.6689165687549620  0.4958946477665143  0.1924403215661283   T   T   T
  0.8294250269503783  0.4958289248411424  0.1926748557300594   T   T   T
  0.9986576131442989  0.4988062174141760  0.1923151022995243   T   T   T
  0.6643144318751202  0.2508033292822012  0.1927585453706649   T   T   T
  0.9994272577711218  0.2484095263731574  0.1920387190629143   T   T   T
  0.8335206551799300  0.2500089574440003  0.1924495068475502   T   T   T
  0.9994023169174917  0.0004178924872133  0.0860254906263957   T   T   T
  0.6661532106869390  0.0005368741617451  0.0860769869951104   T   T   T
  0.8327022042163590  0.0005176793298876  0.0861104833338198   T   T   T
  0.9993602103841812  0.2504731659337873  0.0860451354188372   T   T   T
  0.6660875702206468  0.2506479504870164  0.0860968332875630   T   T   T
  0.8326931942374439  0.2505885037000133  0.0861155050006182   T   T   T
  0.5828280060655573  0.1257488178294699  0.1123304316122918   T   T   T
  0.7493953823163227  0.1260360282472182  0.1125831744519248   T   T   T
  0.9160242055959937  0.1257910651007490  0.1123882178692882   T   T   T