C H O Si                                
   1.00000000000000     
    18.5749199999999988    0.0000000000000000    0.0000000000000000
     0.0000000000000000   17.5126199999999983    0.0000000000000000
     0.0000000000000000    0.0000000000000000   58.0000000000000000
   C    H    O    Si
   144   105    52   144
Selective dynamics
Direct
  0.4995081116017255  0.0654242379335568  0.0600912226489768   T   T   T
  0.1661659107964708  0.0654441679407614  0.0601145131519663   T   T   T
  0.3328058534987474  0.0654335174123417  0.0601060448445626   T   T   T
  0.4995427185950148  0.3154833041775732  0.0600636006860223   T   T   T
  0.1661518493534496  0.3154446945667508  0.0601373529613281   T   T   T
  0.3328385216165033  0.3154510214923678  0.0601226726535301   T   T   T
  0.0828013535177517  0.1881101553455637  0.1390045480346690   T   T   T
  0.2494589851111721  0.1881283542312001  0.1390110766187055   T   T   T
  0.4160642846299432  0.1880402687108328  0.1389693184669417   T   T   T
  0.0827519147170444  0.4381611119049738  0.1390307483184192   T   T   T
  0.2494553282296207  0.4381768621699082  0.1390231730855141   T   T   T
  0.4160973602762756  0.4382189075844295  0.1389805863093782   T   T   T
  0.1661770429778359  0.0631224918024410  0.1661576443014059   T   T   T
  0.3327414726412913  0.0631114277358012  0.1661441228493781   T   T   T
  0.4992618927601873  0.0628225472883506  0.1660141599494258   T   T   T
  0.1661329823722406  0.3132176411902597  0.1661749728171423   T   T   T
  0.3327577984167752  0.3132635576318322  0.1661563790707241   T   T   T
  0.4992490505851855  0.3131826908380072  0.1660159401747773   T   T   T
  0.0829809008726488  0.1900763066798596  0.1915329747388670   T   T   T
  0.2494850154649179  0.1902624260755797  0.1915439957800281   T   T   T
  0.4159293421944858  0.1901984585565007  0.1915064395422040   T   T   T
  0.0826141947286008  0.4402707476302035  0.1915628232311541   T   T   T
  0.2494867361073553  0.4402656080700139  0.1915481555128853   T   T   T
  0.4163557813142119  0.4403587763079203  0.1915225210875277   T   T   T
  0.0827353955225311  0.1883151902711529  0.0854753267131785   T   T   T
  0.2494012533193847  0.1883090412372363  0.0854748401235826   T   T   T
  0.4160840169036433  0.1883164680444710  0.0854403902560829   T   T   T
  0.0827148538171525  0.4383267491995098  0.0855084967470133   T   T   T
  0.2494182526111472  0.4383494245194937  0.0854990207656514   T   T   T
  0.4161272713269663  0.4383964342108385  0.0854512088845396   T   T   T
  0.1659890753673027  0.0631429906081056  0.1126157016904714   T   T   T
  0.3326329718777403  0.0631067668759466  0.1125978790085186   T   T   T
  0.4993209925267162  0.0631141102547548  0.1125733603803550   T   T   T
  0.1659756796373462  0.3131689432480758  0.1126377732334285   T   T   T
  0.3326744305660272  0.3132027823035635  0.1126145663644585   T   T   T
  0.4993184978303365  0.3131909967132158  0.1125507559218806   T   T   T
  0.4996123072358841  0.5655481061753869  0.0600779064385052   T   T   T
  0.1661516782108381  0.5653999425700025  0.0601426942803790   T   T   T
  0.3328909160744505  0.5654886624932816  0.0601124194068646   T   T   T
  0.4995432436584142  0.8155217414927790  0.0601056456187726   T   T   T
  0.1661124440312374  0.8153636714272904  0.0601407649525437   T   T   T
  0.3328032043411535  0.8154170280492137  0.0601109182035204   T   T   T
  0.0828074516952595  0.6881093809154988  0.1390402379608687   T   T   T
  0.2494596272975101  0.6880967609354248  0.1390351337129382   T   T   T
  0.4160841073257869  0.6881968276884840  0.1389912186816539   T   T   T
  0.0828259860925442  0.9380810144379613  0.1390079845750050   T   T   T
  0.2494496439845554  0.9380682976685795  0.1390100035719002   T   T   T
  0.4160574463093858  0.9379874354080421  0.1389710690725222   T   T   T
  0.1660652460825581  0.5631749204646816  0.1661933378499817   T   T   T
  0.3327578798337885  0.5631874064751135  0.1661619824755835   T   T   T
  0.4993536237765603  0.5633554368422775  0.1661121888216951   T   T   T
  0.1661123884778645  0.8131503857145888  0.1661851894533626   T   T   T
  0.3327942078128966  0.8131705605801410  0.1661654915456042   T   T   T
  0.4994465265010018  0.8132432531517719  0.1661627012840928   T   T   T
  0.0827923342866269  0.6902378654090562  0.1915630852328117   T   T   T
  0.2494694479704059  0.6902328165525322  0.1915701530935527   T   T   T
  0.4161382769284870  0.6902403566619193  0.1915298219597398   T   T   T
  0.0828247274005141  0.9402758965939098  0.1915354193288069   T   T   T
  0.2494813206273541  0.9402152841889599  0.1915588834756906   T   T   T
  0.4161339453565951  0.9402497877861606  0.1915392610131091   T   T   T
  0.0827026790102170  0.6882934827388099  0.0855105029947364   T   T   T
  0.2493771427838878  0.6882922716758835  0.0854824290214433   T   T   T
  0.4161080434770355  0.6883751767464169  0.0854619498039180   T   T   T
  0.0827598670428130  0.9383180585479933  0.0854841366406399   T   T   T
  0.2493754548525257  0.9382926104810426  0.0854764032965198   T   T   T
  0.4160335388145346  0.9383095123960559  0.0854463622546954   T   T   T
  0.1659682558400235  0.5631707281723443  0.1126476775745496   T   T   T
  0.3326576573422173  0.5632249652472276  0.1126147729504096   T   T   T
  0.4993412266140080  0.5632200851739692  0.1125890091738171   T   T   T
  0.1660024822245476  0.8131044241219180  0.1126344160853518   T   T   T
  0.3325918052508453  0.8131221477103365  0.1126052299408052   T   T   T
  0.4992987849751097  0.8132909357049221  0.1125994981549504   T   T   T
  0.9994936735675962  0.0654115113369862  0.0601105577500807   T   T   T
  0.6661907755247453  0.0653970409256459  0.0601611137429877   T   T   T
  0.8328095063351176  0.0653604781800537  0.0601842938633089   T   T   T
  0.9994981220199183  0.3154555817440090  0.0601256222407316   T   T   T
  0.6661951067318930  0.3153934339988907  0.0601090337188855   T   T   T
  0.8328391145640794  0.3153110606992653  0.0601524380363902   T   T   T
  0.5828109656023743  0.1881165510004908  0.1388807707855007   T   T   T
  0.7493329423255084  0.1885445597510894  0.1392588705914781   T   T   T
  0.9160242045196580  0.1882130211392735  0.1389687279297447   T   T   T
  0.5827448277765771  0.4382096732633766  0.1389695758517643   T   T   T
  0.7493384108896823  0.4373780720668723  0.1389520184995274   T   T   T
  0.9160122070009876  0.4381354510206273  0.1390948625876093   T   T   T
  0.6663754060097189  0.0634271082083190  0.1662671538887961   T   T   T
  0.8324517168192664  0.0637626567450923  0.1663462467286979   T   T   T
  0.9995370904411578  0.0630548210005150  0.1661039375360414   T   T   T
  0.6657103951605620  0.3134843992102662  0.1663464713409086   T   T   T
  0.8328181029681770  0.3134678585151486  0.1663120210151658   T   T   T
  0.9995112544433454  0.3132262718979128  0.1661727001224266   T   T   T
  0.5823553867073203  0.1892624088001468  0.1909607300635745   T   T   T
  0.7489715432541315  0.1925040445045141  0.1922896582903055   T   T   T
  0.9163127751357663  0.1897773686334979  0.1912217181052935   T   T   T
  0.5827846834822918  0.4404470029530744  0.1914164455293506   T   T   T
  0.7492395101391577  0.4388887754051936  0.1918641930784309   T   T   T
  0.9159538123650931  0.4402295458916985  0.1916336080708302   T   T   T
  0.5827626825103832  0.1883204690166141  0.0854090629099354   T   T   T
  0.7494101002397680  0.1883539488907983  0.0855951147208387   T   T   T
  0.9160676634130039  0.1883001006407520  0.0854723680028012   T   T   T
  0.5828293728160393  0.4383710004229709  0.0854340619042145   T   T   T
  0.7494436033168912  0.4382531790936151  0.0853775063647225   T   T   T
  0.9160527795316931  0.4383207854300656  0.0855227128619566   T   T   T
  0.6660580345088220  0.0632861803727399  0.1126798227335745   T   T   T
  0.8326051243353415  0.0633220683543442  0.1127125264703463   T   T   T
  0.9993224894430651  0.0631707228764097  0.1126138769932487   T   T   T
  0.6659358599255069  0.3131183817500965  0.1126567931743745   T   T   T
  0.8326245982397117  0.3131191776248938  0.1126707040869607   T   T   T
  0.9992783219172293  0.3131911844689673  0.1126361725055434   T   T   T
  0.9995024563339173  0.5654068839618198  0.0601426902658421   T   T   T
  0.6662720007304100  0.5655596362210629  0.0600659115638089   T   T   T
  0.8329152276203773  0.5655009726346770  0.0601171740717321   T   T   T
  0.9994703285714879  0.8154276242406148  0.0601513100018724   T   T   T
  0.6662030208633174  0.8154884427002661  0.0601470273742859   T   T   T
  0.8328193758420074  0.8154167449467580  0.0601702628370777   T   T   T
  0.5826495891616348  0.6882842237520495  0.1389718472082980   T   T   T
  0.7494449430177212  0.6880038612348065  0.1390596899296837   T   T   T
  0.9162406430839158  0.6882041579283980  0.1390309776869064   T   T   T
  0.5829145470890083  0.9382306019643060  0.1390343156821874   T   T   T
  0.7495226015630644  0.9381551640916278  0.1390539167419587   T   T   T
  0.9160251645204681  0.9382792388712775  0.1390710505628467   T   T   T
  0.6656173772608659  0.5633029515206024  0.1662442613818362   T   T   T
  0.8330067303433385  0.5631549788335148  0.1663826087627405   T   T   T
  0.9993793065691627  0.5632199342745223  0.1662207297084387   T   T   T
  0.6661391497072960  0.8131573038462833  0.1661911015568726   T   T   T
  0.8327547367048242  0.8131434858835505  0.1662014167451931   T   T   T
  0.9994524755304364  0.8132143150855551  0.1661911752770918   T   T   T
  0.5827279075189949  0.6903038677878113  0.1915246688959456   T   T   T
  0.7494225385657739  0.6901241736007853  0.1915997108563279   T   T   T
  0.9161644734567667  0.6902965092146812  0.1915478768479154   T   T   T
  0.5828136924335194  0.9402680377226005  0.1915505004311994   T   T   T
  0.7494668820921416  0.9402234103461750  0.1915721109649129   T   T   T
  0.9161036112164198  0.9403613501200661  0.1915435092622915   T   T   T
  0.5827908479033478  0.6883627169736445  0.0854498603582045   T   T   T
  0.7494286476488170  0.6883244137800206  0.0854946253396775   T   T   T
  0.9160549494515330  0.6883103514977935  0.0855121005352996   T   T   T
  0.5827636721818671  0.9383754716723203  0.0855104269704570   T   T   T
  0.7494316500857112  0.9383477545309564  0.0855296111483037   T   T   T
  0.9160662255699737  0.9383531971715422  0.0855280359316516   T   T   T
  0.6659975752873065  0.5630724190745283  0.1126189036718018   T   T   T
  0.8326167831041705  0.5630045977374742  0.1126962944690216   T   T   T
  0.9992684483672449  0.5631282406286852  0.1126631431005655   T   T   T
  0.6660534880083422  0.8131915090995845  0.1126441215029094   T   T   T
  0.8326794403353747  0.8131816982616784  0.1126634594998228   T   T   T
  0.9993713267930439  0.8132796164773243  0.1126530235099103   T   T   T
  0.0408494306011402  0.1793244546590894  0.0264820810896853   T   T   T
  0.2074205959433358  0.1792941426057249  0.0264860121037331   T   T   T
  0.3740076239359518  0.1792661963981500  0.0264719703239648   T   T   T
  0.0408804584406686  0.4292992206381632  0.0264983482036969   T   T   T
  0.2074139563248961  0.4292073761786676  0.0264949992150649   T   T   T
  0.3739066170249890  0.4291776875568507  0.0264928808018748   T   T   T
  0.1650153745774835  0.0291185543059315  0.0446072272780190   T   T   T
  0.3315977020655573  0.0291135653535206  0.0445967430550008   T   T   T
  0.4982813628432605  0.0291053497667123  0.0445797397678689   T   T   T
  0.1649955301429008  0.2791209688868454  0.0446298294701107   T   T   T
  0.3316210464070684  0.2790988866790279  0.0446207378398779   T   T   T
  0.4983319192411486  0.2791822369668397  0.0445561239875669   T   T   T
  0.4178251668061567  0.4039600133510370  0.2070068165045309   T   T   T
  0.4173525208472325  0.1539101346637873  0.2070068493395080   T   T   T
  0.0841868448370994  0.1537775207334641  0.2070332317004448   T   T   T
  0.2507693832807154  0.1539716089812871  0.2070487875972221   T   T   T
  0.0839509925230814  0.4038071589094809  0.2070383167778343   T   T   T
  0.2507868220012820  0.4038996179654672  0.2070370010647472   T   T   T
  0.0419204750803061  0.0543587671328557  0.2249733054747746   T   T   T
  0.2082573252743153  0.0544750531481807  0.2250576080101435   T   T   T
  0.3748459397980610  0.0546733758066985  0.2250198392210098   T   T   T
  0.0405194282068240  0.3038057406135087  0.2253891436514553   T   T   T
  0.2081829318228462  0.3045271356151142  0.2250588423759181   T   T   T
  0.3746137357724526  0.3049486252591839  0.2251044784458229   T   T   T
  0.0408758264949565  0.6793285145954020  0.0265255282860208   T   T   T
  0.2073578759660135  0.6792450195464627  0.0264956540126595   T   T   T
  0.3740141123308663  0.6793020855914699  0.0264742941977073   T   T   T
  0.0409795625880272  0.9292165038474393  0.0264633283335330   T   T   T
  0.2073712369761742  0.9291514664993192  0.0264629284243560   T   T   T
  0.3739704899619853  0.9291347931155720  0.0264599267131738   T   T   T
  0.1649571999047004  0.5291058103051798  0.0446324105886163   T   T   T
  0.3317233159255028  0.5291681737707971  0.0446057765354509   T   T   T
  0.4983986470657119  0.5292241801524672  0.0445678444369046   T   T   T
  0.1649119186343211  0.7790197053491217  0.0446360697342950   T   T   T
  0.3316101109720100  0.7790382183945165  0.0446128993937988   T   T   T
  0.4984788613018759  0.7791752107270689  0.0446043581216099   T   T   T
  0.4174034327505068  0.9038911007652405  0.2070299133531630   T   T   T
  0.4174862577908188  0.6538536340428779  0.2070163666161406   T   T   T
  0.0839702405526704  0.6539095665762346  0.2070602287791338   T   T   T
  0.2507464591178906  0.6538863341619695  0.2070643831662720   T   T   T
  0.0840327060645965  0.9039838224281108  0.2070378376759146   T   T   T
  0.2507425924748976  0.9038860814018461  0.2070552655090975   T   T   T
  0.0428250607555342  0.5539523720245368  0.2249007470554387   T   T   T
  0.2083143111657760  0.5540402487792981  0.2250974480412398   T   T   T
  0.3751797642182311  0.5541520961881655  0.2250373744141648   T   T   T
  0.0419017129795831  0.8043057166328254  0.2250253699771463   T   T   T
  0.2081749937171449  0.8043081801621574  0.2251105929274432   T   T   T
  0.3753284189610832  0.8040617360688765  0.2250084302890106   T   T   T
  0.5408283497779472  0.1792061385586679  0.0264531286976744   T   T   T
  0.7074725867245406  0.1793005266244345  0.0266533821129810   T   T   T
  0.8739788855163670  0.1792830149086141  0.0265277707990166   T   T   T
  0.5406587516112267  0.4292446617413536  0.0264738160243784   T   T   T
  0.7075855288156115  0.4290605710490055  0.0263986043098787   T   T   T
  0.8738786207864283  0.4291254866649414  0.0265913821340479   T   T   T
  0.6652336924812650  0.0290262766682511  0.0446675848441403   T   T   T
  0.8315289885973053  0.0290102404325646  0.0446869059945338   T   T   T
  0.9983378332441312  0.0290950387657608  0.0446042209974397   T   T   T
  0.6649468155335084  0.2789233675546153  0.0446400385852675   T   T   T
  0.8318742662333533  0.2788826731700052  0.0446692291427843   T   T   T
  0.9983113648462032  0.2791509004099409  0.0446132391499070   T   T   T
  0.9169967309596126  0.4035977710744865  0.2070510070515212   T   T   T
  0.9176488341556922  0.1535277205205851  0.2067353354140429   T   T   T
  0.5832178971857396  0.1534862692672792  0.2065746190728310   T   T   T
  0.7504517893599605  0.1558129374409497  0.2077012330523190   T   T   T
  0.5839349115835512  0.4037981105011458  0.2068258128130580   T   T   T
  0.7700555114509060  0.4643919788477062  0.2619032109503723   T   T   T
  0.5414748225075919  0.0555988825436043  0.2248253820027552   T   T   T
  0.7083472295859802  0.0553264469253197  0.2249351549442470   T   T   T
  0.8745770577450803  0.0553877236060608  0.2250694192984750   T   T   T
  0.5489198030331972  0.3013299614522921  0.2228710812526055   T   T   T
  0.6846854380184504  0.2828789399146244  0.2311951852734671   T   T   T
  0.8905223178120092  0.2962247247865795  0.2235941934520736   T   T   T
  0.7497082103469016  0.2703224055101859  0.2665141042234814   T   T   T
  0.7355316554677261  0.2276407090782686  0.3006983862394755   T   T   T
  0.7593997322233393  0.3120373597121672  0.3085078389257414   T   T   T
  0.6442288769643297  0.1359561751120772  0.2960804407459486   T   T   T
  0.7183972097792694  0.1076760510322908  0.2873664985801888   T   T   T
  0.8181858591766353  0.3861872829831982  0.3347582945003610   T   T   T
  0.7513603263747314  0.4323549408783804  0.3268411890213408   T   T   T
  0.7524197463582241  0.4386184795777868  0.2705723601816553   T   T   T
  0.7843628557892811  0.2679343971422109  0.2410798094143475   T   T   T
  0.5406622004853430  0.6794317320298864  0.0264536992481230   T   T   T
  0.7074928528498192  0.6794207317120199  0.0264967337655016   T   T   T
  0.8742981372274838  0.6793717792182098  0.0265259298225714   T   T   T
  0.5410061623160261  0.9292878894277693  0.0264717111071727   T   T   T
  0.7075335960444585  0.9292199315949352  0.0265408522711400   T   T   T
  0.8740570246665509  0.9292211709975607  0.0265490209756720   T   T   T
  0.6651381891181812  0.5292650093700233  0.0445540018838437   T   T   T
  0.8317293465011804  0.5291823597899310  0.0446128001950807   T   T   T
  0.9983046202919248  0.5291057850622277  0.0446357144719024   T   T   T
  0.6650780620285275  0.7791963367617690  0.0446368800323323   T   T   T
  0.8316358100007494  0.7791350376047712  0.0446546038193588   T   T   T
  0.9981987956524480  0.7790866373489539  0.0446502511868231   T   T   T
  0.9173354290470679  0.9041264589126604  0.2070602204191082   T   T   T
  0.9171216721527208  0.6537618097385447  0.2070004674639959   T   T   T
  0.5843710272230176  0.6535735292431971  0.2069309470210018   T   T   T
  0.7504526942447693  0.6532960790211416  0.2069977670312787   T   T   T
  0.5840117283335172  0.9039390390921904  0.2070503359999843   T   T   T
  0.7507667300031944  0.9038816815971504  0.2070651290947963   T   T   T
  0.5435947430548875  0.5538806873683244  0.2245222643073342   T   T   T
  0.7085979078713381  0.5498425399988859  0.2252418807516375   T   T   T
  0.8780529262466130  0.5546317689729582  0.2240292372639620   T   T   T
  0.5415546961952656  0.8042688851905510  0.2250470713560600   T   T   T
  0.7081924733231547  0.8042518753529411  0.2250442238656697   T   T   T
  0.8756128732698676  0.8040555983404732  0.2249524771505334   T   T   T
  0.0874282289117555  0.1690665123761202  0.0336540883608140   T   T   T
  0.2540365517387446  0.1690511131456967  0.0336404694859328   T   T   T
  0.4206455408352370  0.1690826952830506  0.0336241179551537   T   T   T
  0.0874895153511526  0.4191994521186628  0.0336798500520449   T   T   T
  0.2540268838866813  0.4191295883971793  0.0336754078278905   T   T   T
  0.4206040744913370  0.4192116580847845  0.0336328155006202   T   T   T
  0.1616149578926191  0.0444015543510407  0.2178888260314096   T   T   T
  0.3281731216088790  0.0444681783919654  0.2178862338374303   T   T   T
  0.4947882407380382  0.0444502588514888  0.2178370384982753   T   T   T
  0.1615602172536390  0.2944717736327227  0.2178854806298411   T   T   T
  0.3281973545785693  0.2944127379851519  0.2178881737383864   T   T   T
  0.4987002983923179  0.2934155794806840  0.2177171047356574   T   T   T
  0.0874889130448192  0.6690420314741227  0.0336776529138038   T   T   T
  0.2539747614051229  0.6690400093408752  0.0336558879259293   T   T   T
  0.4206476265100116  0.6692038954146780  0.0336305228743465   T   T   T
  0.0875309802681014  0.9191413351951642  0.0336808399493509   T   T   T
  0.2539784473344567  0.9190860110354797  0.0336550643997544   T   T   T
  0.4206203390284530  0.9191839938763209  0.0336315245564334   T   T   T
  0.1616506951297317  0.5444369168800246  0.2178945750627801   T   T   T
  0.3284515000785815  0.5444109456458321  0.2178813839608393   T   T   T
  0.4959785176327252  0.5444710898737928  0.2178865562758514   T   T   T
  0.1615642104065895  0.7944698569265721  0.2179018640594009   T   T   T
  0.3285339268838072  0.7944068426483210  0.2178861692673786   T   T   T
  0.4948173643420967  0.7944749945100659  0.2178971835793474   T   T   T
  0.5874524860282009  0.1690634215365357  0.0336137390333487   T   T   T
  0.7541371235541638  0.1689412883625952  0.0337678321751630   T   T   T
  0.9206453889083065  0.1689980982050434  0.0336577771180053   T   T   T
  0.5873399474174028  0.4192353091868615  0.0336051762618699   T   T   T
  0.7542084630590200  0.4191235302418935  0.0335852190473729   T   T   T
  0.9206230960258197  0.4190135265666236  0.0336878054496842   T   T   T
  0.6615758311091843  0.0439383985753717  0.2180436667962033   T   T   T
  0.8280233541536823  0.0438085342159534  0.2180725896925170   T   T   T
  0.9951642908732431  0.0443455964550923  0.2178772872747873   T   T   T
  0.6514951796153434  0.2954653219107477  0.2180197539702902   T   T   T
  0.8400245826525439  0.2918060765324743  0.2187200967880540   T   T   T
  0.9944625280550622  0.2930343740671203  0.2179637923782651   T   T   T
  0.7634416341969290  0.2732784080206506  0.2960996225627741   T   T   T
  0.6946908071178187  0.1315505310538550  0.3005263230553352   T   T   T
  0.7672848602552076  0.3810777238913508  0.3309742676539842   T   T   T
  0.7421257555078142  0.2521704605553353  0.2504696173682409   T   T   T
  0.5873534619883816  0.6693713314427615  0.0335917993853995   T   T   T
  0.7541736420733016  0.6693002095334756  0.0336303978774706   T   T   T
  0.9209395926183198  0.6691487515902036  0.0336690617134831   T   T   T
  0.5875904685276263  0.9192133529415902  0.0336736352213372   T   T   T
  0.7541953135147803  0.9190655130687293  0.0336828885183458   T   T   T
  0.9207014250257232  0.9189842953587513  0.0336911744091183   T   T   T
  0.6617669299595019  0.5455154461212368  0.2176947549622321   T   T   T
  0.8297715002032622  0.5451094601301275  0.2180138587005686   T   T   T
  0.9957030447519694  0.5445130381343269  0.2179758188241453   T   T   T
  0.6614828460440648  0.7945065530262267  0.2178967583158757   T   T   T
  0.8287025240581533  0.7944952420122218  0.2179044006626946   T   T   T
  0.9951142203656739  0.7945065365350722  0.2179167554649068   T   T   T
  0.2495441444737018  0.1240374862791952  0.0593446974704352   T   T   T
  0.4162249255222713  0.1240476144642537  0.0593265451389453   T   T   T
  0.0828506437684431  0.3740981053846396  0.0593780492668841   T   T   T
  0.2495498065708124  0.3740380335309386  0.0593741961484226   T   T   T
  0.4162634591612477  0.3740850972473090  0.0593338930402707   T   T   T
  0.0828653120656435  0.1240376559885922  0.0593524277038192   T   T   T
  0.4994174935284132  0.0004735430860401  0.1392118491455293   T   T   T
  0.1661267269873380  0.0005719162672295  0.1392680242514424   T   T   T
  0.3328046522051183  0.0005490335000459  0.1392513123677614   T   T   T
  0.4995565588818358  0.2506814928502659  0.1392257954211995   T   T   T
  0.1660927729562774  0.2506352769479154  0.1392888566990836   T   T   T
  0.3328457470112536  0.2506538329986561  0.1392728333125531   T   T   T
  0.0827898258102013  0.1252477050166327  0.1655912630140724   T   T   T
  0.2494558248843208  0.1253284917773546  0.1656239345411730   T   T   T
  0.4161196083541843  0.1252598555972115  0.1655841248240554   T   T   T
  0.0826038863932288  0.3753778856667709  0.1656549551905185   T   T   T
  0.2494501521913386  0.3753338142667749  0.1656292009433131   T   T   T
  0.4163164941727787  0.3753488191735365  0.1656012066896455   T   T   T
  0.1659094787278562  0.4987557903429539  0.1922798528586449   T   T   T
  0.3329524398194793  0.4988011532724175  0.1922619667091353   T   T   T
  0.5001040269353658  0.4988582718226963  0.1921963366964314   T   T   T
  0.1661168452444894  0.2489383175610077  0.1922687120900009   T   T   T
  0.4995597317074660  0.2484781587394873  0.1920254425047808   T   T   T
  0.3327893520314240  0.2489538856904021  0.1922476764226778   T   T   T
  0.4994593242304810  0.0004639638336284  0.0860035328837137   T   T   T
  0.1661033816628460  0.0004574551255099  0.0860166143607551   T   T   T
  0.3327645269287319  0.0004379412807473  0.0860013989110498   T   T   T
  0.4995178515808853  0.2505435249543656  0.0859881228589741   T   T   T
  0.1660851564211735  0.2504774219711509  0.0860427368512014   T   T   T
  0.3328095789668338  0.2504801598149103  0.0860300971263367   T   T   T
  0.0826358908556623  0.1256752069510644  0.1123571062095313   T   T   T
  0.2493462029431804  0.1256478582877686  0.1123610346548087   T   T   T
  0.4160256835224165  0.1256277463210859  0.1123273162113435   T   T   T
  0.0825505140534748  0.3756631839810701  0.1124054187569755   T   T   T
  0.2493494936902461  0.3756717068365819  0.1123833841780667   T   T   T
  0.4161330676934971  0.3757216705399392  0.1123557181426179   T   T   T
  0.2495437538280675  0.6239853562419287  0.0593559603350908   T   T   T
  0.4163221037836245  0.6240753178481180  0.0593287362156941   T   T   T
  0.0828405315822418  0.8740004437485365  0.0593692627048795   T   T   T
  0.2494946381627074  0.8739739624464592  0.0593457416841903   T   T   T
  0.4162266610412788  0.8740433272727275  0.0593175040189696   T   T   T
  0.0828461684428181  0.6239901820237121  0.0593838680037766   T   T   T
  0.4997007776697128  0.5006425022213578  0.1392812295686878   T   T   T
  0.1660392443095331  0.5005863432438821  0.1393009032908031   T   T   T
  0.3328591658524041  0.5006174508432844  0.1392689785735469   T   T   T
  0.4995554171556265  0.7506009939813012  0.1392503891584126   T   T   T
  0.1660880295152066  0.7505138311375635  0.1392919049482511   T   T   T
  0.3328085574687265  0.7505690967120757  0.1392685365588227   T   T   T
  0.0825062101416751  0.6251622193066898  0.1656647760887346   T   T   T
  0.2494130412203327  0.6252154477551709  0.1656533880806226   T   T   T
  0.4162655553144653  0.6252430363946370  0.1656040302116170   T   T   T
  0.0827105598431451  0.8752726005729983  0.1656300897284257   T   T   T
  0.2494355132835130  0.8752661657360346  0.1656324829024834   T   T   T
  0.4161446360618893  0.8753057232546728  0.1656101761408826   T   T   T
  0.1660940823257110  0.9988759707919709  0.1922718748139313   T   T   T
  0.3327634917671079  0.9989139843877832  0.1922687997742102   T   T   T
  0.4994337638747863  0.9989526953873091  0.1922047080971496   T   T   T
  0.1660315415429497  0.7488225129765066  0.1922966461499528   T   T   T
  0.4995247436486615  0.7488105489020676  0.1922693305233721   T   T   T
  0.3328110001486710  0.7488169505221632  0.1922723867535016   T   T   T
  0.4996093813572876  0.5005206599319372  0.0860070516133392   T   T   T
  0.1660665047608940  0.5004390431609017  0.0860547598908304   T   T   T
  0.3328481296633372  0.5004958776213126  0.0860233032250207   T   T   T
  0.4995426116959541  0.7504803886083522  0.0860151377391084   T   T   T
  0.1660602137525638  0.7503782070712627  0.0860434104171729   T   T   T
  0.3327728961778725  0.7504004623366419  0.0860177201044446   T   T   T
  0.0825224486768172  0.6255637037590615  0.1124089799925096   T   T   T
  0.2493223270024698  0.6256224551222308  0.1123764641237091   T   T   T
  0.4161275611466497  0.6256594294532998  0.1123553074524236   T   T   T
  0.0826897507797916  0.8756368618337130  0.1123635382444963   T   T   T
  0.2493226191543540  0.8755952307050340  0.1123569068255734   T   T   T
  0.4159804592628671  0.8756019735988373  0.1123214820434535   T   T   T
  0.7495776501783656  0.1240543169346699  0.0594976856359818   T   T   T
  0.9161649537631967  0.1240284475606331  0.0593773618432744   T   T   T
  0.5829917127994125  0.3741298031203755  0.0593281707736899   T   T   T
  0.7496022827750145  0.3740947625255706  0.0593375600300843   T   T   T
  0.9161400573968053  0.3740454542008841  0.0594273071511938   T   T   T
  0.5829356911454365  0.1240528862346515  0.0593266172748481   T   T   T
  0.9994633360019322  0.0005844297888376  0.1392624424250799   T   T   T
  0.6663525718463963  0.0008541527751629  0.1393560722911380   T   T   T
  0.8325881218860699  0.0009705072450128  0.1394000738309320   T   T   T
  0.9993138358265039  0.2507026144350262  0.1393035493094961   T   T   T
  0.6660319136931203  0.2514042715499927  0.1395582176642579   T   T   T
  0.8325976735654954  0.2513438193048068  0.1395161553182993   T   T   T
  0.5826920793790703  0.1250671482182297  0.1653983431391747   T   T   T
  0.7491928924041572  0.1268419574932469  0.1661282466434045   T   T   T
  0.9161081107069239  0.1253282985861239  0.1655136076233563   T   T   T
  0.5829692695857553  0.3756299274581488  0.1656863854864276   T   T   T
  0.7491784470943820  0.3773663663305992  0.1669824046563416   T   T   T
  0.9156552030374705  0.3756162918397893  0.1658220076561447   T   T   T
  0.6689578242450388  0.4957934726996922  0.1924529848634816   T   T   T
  0.8294568948597649  0.4957231549210823  0.1926842739569006   T   T   T
  0.9987104455575176  0.4987323301944527  0.1923171666830180   T   T   T
  0.6643346787537840  0.2508739101071141  0.1927778149231047   T   T   T
  0.9994306200584763  0.2484264701731728  0.1920889215775407   T   T   T
  0.8334108398933737  0.2499896673248552  0.1924244211139801   T   T   T
  0.9994158601151669  0.0004726920781252  0.0860332442434251   T   T   T
  0.6661508417778533  0.0005397862759862  0.0860950715765639   T   T   T
  0.8327291994823198  0.0005282595652408  0.0861147668561508   T   T   T
  0.9993717036401811  0.2505129963557090  0.0860513302672205   T   T   T
  0.6661328702659307  0.2506436344043779  0.0861060743115235   T   T   T
  0.8327288361266872  0.2505822714696372  0.0861276868136845   T   T   T
  0.5827305764868284  0.1258258812117024  0.1123269056618182   T   T   T
  0.7493319870318446  0.1260561231957708  0.1126033857094993   T   T   T
  0.9159507836216846  0.1258417366191598  0.1123903721753759   T   T   T