C H O Si                                
   1.00000000000000     
     9.2874599999999994    0.0000000000000000    0.0000000000000000
     0.0000000000000000    8.7562999999999995    0.0000000000000000
     0.0000000000000000    0.0000000000000000   58.0000000000000000
   C    H    O    Si
    36    33    16    36
Selective dynamics
Direct
  0.0013481658083741  0.1352727227774651  0.3755366603541837   T   T   T
  0.0013173932466223  0.6353925553952765  0.3755553975838134   T   T   T
  0.3346549145891340  0.1353623498561585  0.3756486835382352   T   T   T
  0.3346439940953722  0.6352318477624589  0.3756643618716646   T   T   T
  0.6677946702210450  0.1351939780283180  0.3756507510918429   T   T   T
  0.6678463355153714  0.6351251130260317  0.3756463088241718   T   T   T
  0.1682018725688960  0.3812496592287549  0.4009706465960766   T   T   T
  0.1682778928061665  0.8812595132405444  0.4009942120822074   T   T   T
  0.5015408821671142  0.3812418299480537  0.4011079912826626   T   T   T
  0.5015175946760768  0.8811778805646756  0.4010435709832587   T   T   T
  0.8349186084443797  0.3811169625068542  0.4009154241320990   T   T   T
  0.8348502937988718  0.8811884018715653  0.4009567148198748   T   T   T
  0.0016830521776566  0.1309030498819318  0.4280789569074759   T   T   T
  0.0016921259360632  0.6311500847905008  0.4280944236459283   T   T   T
  0.3350836029942577  0.1310800214122637  0.4282045389945420   T   T   T
  0.3350186623931237  0.6309576281042877  0.4282321174738487   T   T   T
  0.6681583959226924  0.1310250277368402  0.4281807738299838   T   T   T
  0.6682700524924062  0.6309933829565098  0.4281726913594618   T   T   T
  0.1684534789314104  0.3809322714277567  0.4544861757938971   T   T   T
  0.1687294272067795  0.8810097590008984  0.4545437999344010   T   T   T
  0.5016757603745580  0.3813173555132658  0.4547432039977732   T   T   T
  0.5017351713840047  0.8807228700150276  0.4546063200730693   T   T   T
  0.8350866662844095  0.3808282884401460  0.4543980131327066   T   T   T
  0.8349094335246821  0.8810480194696484  0.4544972526751647   T   T   T
  0.0019204952993675  0.1304024543900867  0.4814875004316231   T   T   T
  0.0018198213602507  0.6311647077421522  0.4815815435044072   T   T   T
  0.3356193304795685  0.1316450663184970  0.4817868749969149   T   T   T
  0.3349523038850657  0.6311736286459870  0.4818762827862924   T   T   T
  0.6676733553968629  0.1315363254178063  0.4817495181722358   T   T   T
  0.6686286684647705  0.6313514553603948  0.4817365225936622   T   T   T
  0.1682417238502270  0.3834008103491071  0.5068109230133970   T   T   T
  0.1677000020773902  0.8855979279764945  0.5070644420164881   T   T   T
  0.5019379144611499  0.3889852446231653  0.5078635642945680   T   T   T
  0.5012839115463962  0.8850498068121470  0.5071536263136934   T   T   T
  0.8359237760105750  0.3826726431015336  0.5065950291672759   T   T   T
  0.8348883408474073  0.8855542510726154  0.5069899290218390   T   T   T
  0.0043562025112881  0.0626825780000479  0.3600288920478216   T   T   T
  0.0042567263036593  0.5628327041727106  0.3600465758885351   T   T   T
  0.3377210772493083  0.0626788355007856  0.3601582065695012   T   T   T
  0.3375210015506419  0.5624402042958900  0.3601874725467039   T   T   T
  0.6701518548373744  0.0625467626768905  0.3601493418199381   T   T   T
  0.6704684023079479  0.5624928668812361  0.3601461139392405   T   T   T
  0.1699561012932387  0.3113560375703696  0.5223619869444661   T   T   T
  0.1700185741862952  0.8127697867975422  0.5225305273123916   T   T   T
  0.5053223794986199  0.3152049250729265  0.5232368837045670   T   T   T
  0.5022967054287955  0.8125318103193281  0.5226665112230910   T   T   T
  0.8387138432876674  0.3105518310663875  0.5221446984306338   T   T   T
  0.8372403264317447  0.8135830962581977  0.5225344021481265   T   T   T
  0.0853766508083382  0.1164011867176455  0.5402230230183842   T   T   T
  0.0864000300679324  0.6107774118290378  0.5398413447969294   T   T   T
  0.4185938448484106  0.1172502049017309  0.5403177628154099   T   T   T
  0.3825430362148782  0.6336333799845653  0.5435311558878736   T   T   T
  0.7539765470133629  0.1155159563525804  0.5402240454265134   T   T   T
  0.7899379341820769  0.5990734625533820  0.5381983243040217   T   T   T
  0.2537787060542454  0.3653642303459452  0.3424270345940028   T   T   T
  0.2539557861453139  0.8652886112862347  0.3424589880507674   T   T   T
  0.5863869190935715  0.3655280747474806  0.3425037801599701   T   T   T
  0.5862900954610032  0.8653694031530864  0.3424470095387324   T   T   T
  0.9181727557709227  0.3660799133715302  0.3422584386851716   T   T   T
  0.9181019556374429  0.8661951507224652  0.3422949888472970   T   T   T
  0.5433256858217222  0.6151817004878088  0.5877635790214304   T   T   T
  0.4875337773165748  0.4757980031908710  0.6066190885112102   T   T   T
  0.5668060423195528  0.6399341357917273  0.6168030503112611   T   T   T
  0.3082279324963421  0.3824703142837650  0.6220731540567138   T   T   T
  0.4236497352640408  0.2589156724014710  0.6159294822684341   T   T   T
  0.6468182739517786  0.7349364920220444  0.6468273884101878   T   T   T
  0.4824480877259291  0.7670911755706621  0.6435284006187392   T   T   T
  0.5263348145978441  0.8039561141830601  0.5671941310174974   T   T   T
  0.5918337732756563  0.6602397715662248  0.5533778892514039   T   T   T
  0.1595971609960033  0.3426841799937121  0.3491083776523258   T   T   T
  0.1597391786285368  0.8427214742349208  0.3491370318158633   T   T   T
  0.4923273541190004  0.3429078820454297  0.3492352895818622   T   T   T
  0.4922729188744223  0.8425594567222383  0.3491787407514375   T   T   T
  0.8246541492979261  0.3420744220333218  0.3490561160736117   T   T   T
  0.8245867160537896  0.8422635204705919  0.3490980707224000   T   T   T
  0.9916855561930508  0.0932142008736634  0.5334142509993816   T   T   T
  0.9911898659998255  0.5890547348654344  0.5332780838278908   T   T   T
  0.3250511116252492  0.0925427977015857  0.5335904434751226   T   T   T
  0.3057417113691570  0.5924908467180257  0.5336238405060242   T   T   T
  0.6597639951193829  0.0928236243957992  0.5335476837786042   T   T   T
  0.6876255388690781  0.5925586111843002  0.5336139604559177   T   T   T
  0.5649377983688179  0.5601603782362506  0.6033515765211364   T   T   T
  0.3794732239546664  0.3534566306796812  0.6105026922806749   T   T   T
  0.5735652625816496  0.7577529660457449  0.6352632797371807   T   T   T
  0.5166419113976255  0.6937849302309232  0.5651052418243496   T   T   T
  0.1678757872030659  0.2527068047274992  0.3749269863423564   T   T   T
  0.1679256883047022  0.7526896418158395  0.3749512821702298   T   T   T
  0.5010815438878635  0.2527303412737338  0.3750431636597236   T   T   T
  0.5010816474164224  0.7525794237761850  0.3750027541612694   T   T   T
  0.8343616017340041  0.2524315051044198  0.3748949446270823   T   T   T
  0.8343019097889147  0.7525147741007513  0.3749299172130028   T   T   T
  0.0015504047138423  0.0053048975325774  0.4015268539801514   T   T   T
  0.0015328674059426  0.5053747940203919  0.4015315743497300   T   T   T
  0.3348948605438788  0.0054172339255601  0.4016253194035622   T   T   T
  0.3348434019848234  0.5053614711332602  0.4016550456578061   T   T   T
  0.6680916140727075  0.0052960605963602  0.4016143496119711   T   T   T
  0.6681920078124293  0.5052336624806210  0.4016125526150153   T   T   T
  0.1683647452334670  0.2558528976679347  0.4278814498592591   T   T   T
  0.1685141184978784  0.7559166224216136  0.4279216309597935   T   T   T
  0.5016238284962126  0.2559644015898698  0.4280429234309661   T   T   T
  0.5016014997121140  0.7557626738759448  0.4279568592681021   T   T   T
  0.8349893298201663  0.2556814367929302  0.4278172701201186   T   T   T
  0.8349169519901596  0.7558567654042719  0.4278817527407732   T   T   T
  0.0018973463611821  0.0053637879919400  0.4546455458801213   T   T   T
  0.0018002368261263  0.5057191992007769  0.4546411864312521   T   T   T
  0.3354478747609705  0.0059872857204937  0.4548053803201574   T   T   T
  0.3349060244065001  0.5059489641104501  0.4548740222251639   T   T   T
  0.6679999983638583  0.0058854073290403  0.4547821760723794   T   T   T
  0.6685026516103408  0.5057318558978783  0.4547495651101067   T   T   T
  0.1683617533045030  0.2545638054151666  0.4809254388081804   T   T   T
  0.1683643501889309  0.7555800092277477  0.4810988987433230   T   T   T
  0.5016186837867255  0.2570626550338545  0.4814444690704601   T   T   T
  0.5014846279807693  0.7551441127916546  0.4811506080771876   T   T   T
  0.8353390717767758  0.2538918496583076  0.4807704142202729   T   T   T
  0.8352795687905944  0.7556112887714210  0.4810361341002523   T   T   T
  0.0011275187651213  0.0029600632857221  0.5076095246162134   T   T   T
  0.0018264304767488  0.5004711684719171  0.5072758672082602   T   T   T
  0.3342143169496934  0.0027750487478051  0.5077622473502863   T   T   T
  0.3325100818172279  0.5040954233763710  0.5081386800109363   T   T   T
  0.6680804065779099  0.0027077595554653  0.5077411798034255   T   T   T
  0.6713289703271710  0.5019953354986648  0.5075353410645208   T   T   T
 
  0.00000000E+00  0.00000000E+00  0.00000000E+00
  0.00000000E+00  0.00000000E+00  0.00000000E+00
  0.00000000E+00  0.00000000E+00  0.00000000E+00
  0.00000000E+00  0.00000000E+00  0.00000000E+00
  0.00000000E+00  0.00000000E+00  0.00000000E+00
  0.00000000E+00  0.00000000E+00  0.00000000E+00
  0.00000000E+00  0.00000000E+00  0.00000000E+00
  0.00000000E+00  0.00000000E+00  0.00000000E+00
  0.00000000E+00  0.00000000E+00  0.00000000E+00
  0.00000000E+00  0.00000000E+00  0.00000000E+00
  0.00000000E+00  0.00000000E+00  0.00000000E+00
  0.00000000E+00  0.00000000E+00  0.00000000E+00
  0.00000000E+00  0.00000000E+00  0.00000000E+00
  0.00000000E+00  0.00000000E+00  0.00000000E+00
  0.00000000E+00  0.00000000E+00  0.00000000E+00
  0.00000000E+00  0.00000000E+00  0.00000000E+00
  0.00000000E+00  0.00000000E+00  0.00000000E+00
  0.00000000E+00  0.00000000E+00  0.00000000E+00
  0.00000000E+00  0.00000000E+00  0.00000000E+00
  0.00000000E+00  0.00000000E+00  0.00000000E+00
  0.00000000E+00  0.00000000E+00  0.00000000E+00
  0.00000000E+00  0.00000000E+00  0.00000000E+00
  0.00000000E+00  0.00000000E+00  0.00000000E+00
  0.00000000E+00  0.00000000E+00  0.00000000E+00
  0.00000000E+00  0.00000000E+00  0.00000000E+00
  0.00000000E+00  0.00000000E+00  0.00000000E+00
  0.00000000E+00  0.00000000E+00  0.00000000E+00
  0.00000000E+00  0.00000000E+00  0.00000000E+00
  0.00000000E+00  0.00000000E+00  0.00000000E+00
  0.00000000E+00  0.00000000E+00  0.00000000E+00
  0.00000000E+00  0.00000000E+00  0.00000000E+00
  0.00000000E+00  0.00000000E+00  0.00000000E+00
  0.00000000E+00  0.00000000E+00  0.00000000E+00
  0.00000000E+00  0.00000000E+00  0.00000000E+00
  0.00000000E+00  0.00000000E+00  0.00000000E+00
  0.00000000E+00  0.00000000E+00  0.00000000E+00
  0.00000000E+00  0.00000000E+00  0.00000000E+00
  0.00000000E+00  0.00000000E+00  0.00000000E+00
  0.00000000E+00  0.00000000E+00  0.00000000E+00
  0.00000000E+00  0.00000000E+00  0.00000000E+00
  0.00000000E+00  0.00000000E+00  0.00000000E+00
  0.00000000E+00  0.00000000E+00  0.00000000E+00
  0.00000000E+00  0.00000000E+00  0.00000000E+00
  0.00000000E+00  0.00000000E+00  0.00000000E+00
  0.00000000E+00  0.00000000E+00  0.00000000E+00
  0.00000000E+00  0.00000000E+00  0.00000000E+00
  0.00000000E+00  0.00000000E+00  0.00000000E+00
  0.00000000E+00  0.00000000E+00  0.00000000E+00
  0.00000000E+00  0.00000000E+00  0.00000000E+00
  0.00000000E+00  0.00000000E+00  0.00000000E+00
  0.00000000E+00  0.00000000E+00  0.00000000E+00
  0.00000000E+00  0.00000000E+00  0.00000000E+00
  0.00000000E+00  0.00000000E+00  0.00000000E+00
  0.00000000E+00  0.00000000E+00  0.00000000E+00
  0.00000000E+00  0.00000000E+00  0.00000000E+00
  0.00000000E+00  0.00000000E+00  0.00000000E+00
  0.00000000E+00  0.00000000E+00  0.00000000E+00
  0.00000000E+00  0.00000000E+00  0.00000000E+00
  0.00000000E+00  0.00000000E+00  0.00000000E+00
  0.00000000E+00  0.00000000E+00  0.00000000E+00
  0.00000000E+00  0.00000000E+00  0.00000000E+00
  0.00000000E+00  0.00000000E+00  0.00000000E+00
  0.00000000E+00  0.00000000E+00  0.00000000E+00
  0.00000000E+00  0.00000000E+00  0.00000000E+00
  0.00000000E+00  0.00000000E+00  0.00000000E+00
  0.00000000E+00  0.00000000E+00  0.00000000E+00
  0.00000000E+00  0.00000000E+00  0.00000000E+00
  0.00000000E+00  0.00000000E+00  0.00000000E+00
  0.00000000E+00  0.00000000E+00  0.00000000E+00
  0.00000000E+00  0.00000000E+00  0.00000000E+00
  0.00000000E+00  0.00000000E+00  0.00000000E+00
  0.00000000E+00  0.00000000E+00  0.00000000E+00
  0.00000000E+00  0.00000000E+00  0.00000000E+00
  0.00000000E+00  0.00000000E+00  0.00000000E+00
  0.00000000E+00  0.00000000E+00  0.00000000E+00
  0.00000000E+00  0.00000000E+00  0.00000000E+00
  0.00000000E+00  0.00000000E+00  0.00000000E+00
  0.00000000E+00  0.00000000E+00  0.00000000E+00
  0.00000000E+00  0.00000000E+00  0.00000000E+00
  0.00000000E+00  0.00000000E+00  0.00000000E+00
  0.00000000E+00  0.00000000E+00  0.00000000E+00
  0.00000000E+00  0.00000000E+00  0.00000000E+00
  0.00000000E+00  0.00000000E+00  0.00000000E+00
  0.00000000E+00  0.00000000E+00  0.00000000E+00
  0.00000000E+00  0.00000000E+00  0.00000000E+00
  0.00000000E+00  0.00000000E+00  0.00000000E+00
  0.00000000E+00  0.00000000E+00  0.00000000E+00
  0.00000000E+00  0.00000000E+00  0.00000000E+00
  0.00000000E+00  0.00000000E+00  0.00000000E+00
  0.00000000E+00  0.00000000E+00  0.00000000E+00
  0.00000000E+00  0.00000000E+00  0.00000000E+00
  0.00000000E+00  0.00000000E+00  0.00000000E+00
  0.00000000E+00  0.00000000E+00  0.00000000E+00
  0.00000000E+00  0.00000000E+00  0.00000000E+00
  0.00000000E+00  0.00000000E+00  0.00000000E+00
  0.00000000E+00  0.00000000E+00  0.00000000E+00
  0.00000000E+00  0.00000000E+00  0.00000000E+00
  0.00000000E+00  0.00000000E+00  0.00000000E+00
  0.00000000E+00  0.00000000E+00  0.00000000E+00
  0.00000000E+00  0.00000000E+00  0.00000000E+00
  0.00000000E+00  0.00000000E+00  0.00000000E+00
  0.00000000E+00  0.00000000E+00  0.00000000E+00
  0.00000000E+00  0.00000000E+00  0.00000000E+00
  0.00000000E+00  0.00000000E+00  0.00000000E+00
  0.00000000E+00  0.00000000E+00  0.00000000E+00
  0.00000000E+00  0.00000000E+00  0.00000000E+00
  0.00000000E+00  0.00000000E+00  0.00000000E+00
  0.00000000E+00  0.00000000E+00  0.00000000E+00
  0.00000000E+00  0.00000000E+00  0.00000000E+00
  0.00000000E+00  0.00000000E+00  0.00000000E+00
  0.00000000E+00  0.00000000E+00  0.00000000E+00
  0.00000000E+00  0.00000000E+00  0.00000000E+00
  0.00000000E+00  0.00000000E+00  0.00000000E+00
  0.00000000E+00  0.00000000E+00  0.00000000E+00
  0.00000000E+00  0.00000000E+00  0.00000000E+00
  0.00000000E+00  0.00000000E+00  0.00000000E+00
  0.00000000E+00  0.00000000E+00  0.00000000E+00
  0.00000000E+00  0.00000000E+00  0.00000000E+00
  0.00000000E+00  0.00000000E+00  0.00000000E+00
  0.00000000E+00  0.00000000E+00  0.00000000E+00
  0.00000000E+00  0.00000000E+00  0.00000000E+00
