C H O Si                                
   1.00000000000000     
     9.2874599999999994    0.0000000000000000    0.0000000000000000
     0.0000000000000000   17.5126199999999983    0.0000000000000000
     0.0000000000000000    0.0000000000000000   58.0000000000000000
   C    H    O    Si
    72    57    28    72
Selective dynamics
Direct
  0.9933807040452866  0.0630425587125343  0.0604625710217293   T   T   T
  0.3267753443941832  0.0630643688357258  0.0605457569802616   T   T   T
  0.6599801036670121  0.0630746776575380  0.0605296034782147   T   T   T
  0.9932796425829594  0.3130431060281872  0.0604570628929012   T   T   T
  0.3266558596793909  0.3129852758360727  0.0605665820605634   T   T   T
  0.6599919687271841  0.3130135711144313  0.0605281533905814   T   T   T
  0.1599078421085048  0.1858287574260802  0.1393868443190483   T   T   T
  0.4931621572451638  0.1861372400765458  0.1396391031346137   T   T   T
  0.8265974516568982  0.1858231232980682  0.1393503429270889   T   T   T
  0.1597334923067735  0.4359841349590423  0.1394490483093679   T   T   T
  0.4931247229575854  0.4358819457532295  0.1394933588114780   T   T   T
  0.8265419295173837  0.4359892850040666  0.1394356063749035   T   T   T
  0.3272351749109335  0.0612032210070028  0.1666877919615127   T   T   T
  0.6595844854496475  0.0612047268972260  0.1666776447543849   T   T   T
  0.9935677878474478  0.0605324247416752  0.1664663925617620   T   T   T
  0.3264720458458760  0.3111282076377931  0.1667795231412565   T   T   T
  0.6604051401595249  0.3112011885391156  0.1666752903506695   T   T   T
  0.9934504351186176  0.3110552389079497  0.1665248755265757   T   T   T
  0.1601296690483412  0.1870863850442951  0.1917019844800465   T   T   T
  0.4935457183361526  0.1898236618136481  0.1927454429685216   T   T   T
  0.8275447236078608  0.1867880484377188  0.1915854333964967   T   T   T
  0.1600310743276697  0.4382808758518772  0.1920091849021378   T   T   T
  0.4935490093734709  0.4378886804469782  0.1920663186913079   T   T   T
  0.8271336686043457  0.4383517085724484  0.1919708275295409   T   T   T
  0.1597490401637790  0.1860951546306060  0.0858397458344744   T   T   T
  0.4930113461795003  0.1861115790710198  0.0859890485262091   T   T   T
  0.8263428079861003  0.1860740024293173  0.0858111111925902   T   T   T
  0.1597608540690614  0.4360621882256278  0.0858716763762773   T   T   T
  0.4930741756506523  0.4360440504118328  0.0859152245633852   T   T   T
  0.8263585872595374  0.4360459084980779  0.0858558505539728   T   T   T
  0.3264204295539742  0.0609295779805043  0.1130862080312743   T   T   T
  0.6596282298972038  0.0609365389714139  0.1130792948180379   T   T   T
  0.9930453969014554  0.0608513608908915  0.1130100903990686   T   T   T
  0.3262914151330091  0.3109247925396263  0.1131413556470885   T   T   T
  0.6597335119322849  0.3109279689176117  0.1130950376795892   T   T   T
  0.9929974384135463  0.3109167938989970  0.1130120432584520   T   T   T
  0.9934084859395685  0.5629700284514567  0.0604970258179344   T   T   T
  0.3266830217956379  0.5629727816366022  0.0605126602083817   T   T   T
  0.6600974447928591  0.5629898677474091  0.0605094803501548   T   T   T
  0.9932888803942628  0.8130429359313338  0.0604913757622699   T   T   T
  0.3266470085758804  0.8129993579521841  0.0604882231078500   T   T   T
  0.6600241963965858  0.8130429970744182  0.0604790348832926   T   T   T
  0.1598437962270090  0.6859721839146403  0.1394349415898698   T   T   T
  0.4931260569645292  0.6859447650037276  0.1394369985979126   T   T   T
  0.8264214468672791  0.6859669466634510  0.1394368091510151   T   T   T
  0.1601410319304047  0.9358963810931058  0.1394392454100545   T   T   T
  0.4931571471681936  0.9358520983482848  0.1394414172260808   T   T   T
  0.8262878386474056  0.9359323164157647  0.1394397744250973   T   T   T
  0.3267014547580576  0.5611081790811483  0.1666098568708546   T   T   T
  0.6599344132823926  0.5611012321044792  0.1666153469876988   T   T   T
  0.9933707743560870  0.5613050500763370  0.1665847655114388   T   T   T
  0.3267317666838147  0.8110718052717761  0.1666049406634278   T   T   T
  0.6600821872510236  0.8111021130451894  0.1666084713479477   T   T   T
  0.9933940918370809  0.8111292153180201  0.1666021010616558   T   T   T
  0.1603316703697835  0.6881245311439848  0.1920144475624374   T   T   T
  0.4935788189381715  0.6880687479250237  0.1920108238733213   T   T   T
  0.8268556268330519  0.6881258044950459  0.1920096118229672   T   T   T
  0.1604078254447715  0.9380268340370362  0.1920108116883184   T   T   T
  0.4936502259073400  0.9379948953409110  0.1920359276876041   T   T   T
  0.8268591457296309  0.9380363260717132  0.1920127808515045   T   T   T
  0.1597462669642475  0.6860807521947018  0.0858537678564974   T   T   T
  0.4930616891740258  0.6860573046406283  0.0858635185660710   T   T   T
  0.8263626795046962  0.6860697347711908  0.0858467249301691   T   T   T
  0.1598061643534035  0.9360835979819838  0.0858450653356682   T   T   T
  0.4930617585644735  0.9360670934132118  0.0858753237228815   T   T   T
  0.8263063219055939  0.9360992467774381  0.0858485927729631   T   T   T
  0.3263390419689191  0.5608945178417913  0.1130605935108282   T   T   T
  0.6596879887972878  0.5608876745417631  0.1130611508318903   T   T   T
  0.9929948264110662  0.5609353575756886  0.1130402641452039   T   T   T
  0.3263711948245727  0.8108888861835495  0.1130337332221972   T   T   T
  0.6596719456001299  0.8108861781281608  0.1130349640069562   T   T   T
  0.9930126975837220  0.8109522907595270  0.1130453085378678   T   T   T
  0.0729464004528283  0.1789055838853794  0.0278782264966878   T   T   T
  0.4052947039729595  0.1788592847963933  0.0280414723991427   T   T   T
  0.7383481864764969  0.1787805449140828  0.0279193618180287   T   T   T
  0.0727925307321786  0.4289160128733302  0.0279150998158450   T   T   T
  0.4050067258295304  0.4287017283739710  0.0279960024699541   T   T   T
  0.7378609955529635  0.4287159674680001  0.0279707901212832   T   T   T
  0.3245616274559220  0.0265330726746934  0.0450986884830015   T   T   T
  0.6570399132216865  0.0265358072325617  0.0450900064661087   T   T   T
  0.9909027575587479  0.0265434408563096  0.0450132746706497   T   T   T
  0.3241621589596221  0.2763685649012450  0.0451412023142194   T   T   T
  0.6573528247635284  0.2764097221861112  0.0450992426284736   T   T   T
  0.9908089370625947  0.2765463458852381  0.0450074278040569   T   T   T
  0.8288320439609873  0.4020238180472573  0.2074450696057966   T   T   T
  0.8299299053833697  0.1505476593988136  0.2070944400750925   T   T   T
  0.1616592821295897  0.1508693654864795  0.2072064577620040   T   T   T
  0.4962979005663192  0.1527130695608159  0.2080666033694297   T   T   T
  0.1617320007624895  0.4015653221939700  0.2074116621435564   T   T   T
  0.4940276520001510  0.4013378037430553  0.2075179699874208   T   T   T
  0.0825506872971810  0.0536796386501135  0.2244757532052439   T   T   T
  0.4160140164692313  0.0532892777536318  0.2246060338042652   T   T   T
  0.7492978770828098  0.0534586625316060  0.2245762439438280   T   T   T
  0.0821915825735450  0.3008644089635447  0.2241858629385637   T   T   T
  0.3777668045292094  0.3107612621892718  0.2282212099688999   T   T   T
  0.7821965949946098  0.2954163389488370  0.2228371415780551   T   T   T
  0.5460361880064243  0.3059469219623491  0.2736310508251233   T   T   T
  0.4917352896343243  0.2380138539733814  0.2932089461463501   T   T   T
  0.5712229915425741  0.3196381891271887  0.3028282316737738   T   T   T
  0.3130251744585277  0.1930348402060962  0.3096212629353950   T   T   T
  0.4223656292040448  0.1295027126306145  0.3023587373991304   T   T   T
  0.6513295712352377  0.3667168515472120  0.3334358924136593   T   T   T
  0.4857263197501590  0.3791808679183126  0.3308097492528493   T   T   T
  0.5215128514507029  0.3959461915389282  0.2521980400098575   T   T   T
  0.5864022430824339  0.3232182215283072  0.2386096302915233   T   T   T
  0.0724322827254007  0.6788636222058483  0.0279333651137383   T   T   T
  0.4055323474012281  0.6788019416763553  0.0279440933705765   T   T   T
  0.7387554657670388  0.6788070213494355  0.0279381407479079   T   T   T
  0.0721884563629302  0.9288558772476349  0.0279218527122221   T   T   T
  0.4049782886974949  0.9287638664479608  0.0279573454801682   T   T   T
  0.7383567770998608  0.9288486112391231  0.0279444573359076   T   T   T
  0.3241732141501988  0.5264519789875951  0.0450704032776146   T   T   T
  0.6575365115191462  0.5264626949344557  0.0450686098653795   T   T   T
  0.9908354900625322  0.5264610423955193  0.0450471926135065   T   T   T
  0.3241855930098907  0.7764722742765398  0.0450493965946014   T   T   T
  0.6574038398777553  0.7764937277120150  0.0450413005290595   T   T   T
  0.9907847408293605  0.7764957391286110  0.0450508523268386   T   T   T
  0.8292161210819399  0.9014905453241024  0.2074571721910247   T   T   T
  0.8292691417553468  0.6515860894371169  0.2074549597274296   T   T   T
  0.1625780618913119  0.6515691558629710  0.2074567598097782   T   T   T
  0.4960401301817536  0.6516111341367270  0.2074681042241412   T   T   T
  0.1626348788139600  0.9014854871202805  0.2074546545777619   T   T   T
  0.4960748238343151  0.9014268065972404  0.2074723464509295   T   T   T
  0.0823216942751387  0.5543123390272400  0.2244791917342963   T   T   T
  0.4157480436013894  0.5546369251158207  0.2243815078934503   T   T   T
  0.7492103512172067  0.5542256497383797  0.2244360898058454   T   T   T
  0.0825728989092603  0.8037831834457931  0.2244977448093955   T   T   T
  0.4157547261334122  0.8039524180688902  0.2245087461276646   T   T   T
  0.7493484307087491  0.8036502427110309  0.2244955109187703   T   T   T
  0.1682534437729616  0.1658918304868428  0.0338440154720852   T   T   T
  0.5009057009095845  0.1663433113793712  0.0339923414651314   T   T   T
  0.8339176895310043  0.1657892931061063  0.0337874713408954   T   T   T
  0.1681074581420633  0.4159099917433448  0.0338752311841496   T   T   T
  0.5006366892751108  0.4161044569735456  0.0339208010813227   T   T   T
  0.8335694660284723  0.4160582731927873  0.0338521645170693   T   T   T
  0.3202125667290709  0.0413527170610112  0.2186258829929270   T   T   T
  0.6534699838779943  0.0413896790194576  0.2186234468659397   T   T   T
  0.9868395226361109  0.0412947933970258  0.2185392747504865   T   T   T
  0.2987883113634261  0.2910315061627889  0.2186927838427449   T   T   T
  0.6792934975928908  0.2914052750416491  0.2186809079067556   T   T   T
  0.9852094845211490  0.2892828172093177  0.2183870685508061   T   T   T
  0.5690924615774059  0.2797111842648473  0.2895753942422033   T   T   T
  0.3805362011362659  0.1781122470233721  0.2975400142845696   T   T   T
  0.5760779948477150  0.3780227112705887  0.3221902075955709   T   T   T
  0.5145855374274237  0.3404742270044224  0.2509692433267354   T   T   T
  0.1678630123407236  0.6658779132427987  0.0338592584338194   T   T   T
  0.5010450668923992  0.6659263873960095  0.0338608271769365   T   T   T
  0.8342642794560661  0.6658483325343667  0.0338387086558278   T   T   T
  0.1676533729669888  0.9158420950930670  0.0338292275982262   T   T   T
  0.5006267081555694  0.9161762139853507  0.0338800681010309   T   T   T
  0.8339403052121516  0.9160578004335516  0.0338478226903141   T   T   T
  0.3201518764888551  0.5413465520190128  0.2185913209017281   T   T   T
  0.6534795939224690  0.5413984109195151  0.2185895068722474   T   T   T
  0.9866912314377060  0.5415158421572500  0.2185993605695074   T   T   T
  0.3201109252636303  0.7913561196915685  0.2185947217728188   T   T   T
  0.6535100961341970  0.7913293309744625  0.2186023921528238   T   T   T
  0.9868219032561126  0.7913797231523365  0.2185863249104406   T   T   T
  0.4935580971706670  0.1216960855605163  0.0600897114170945   T   T   T
  0.8268020394874506  0.1216067634905536  0.0599514259560085   T   T   T
  0.1601869067969707  0.3715656766675450  0.0600157620294305   T   T   T
  0.4934534207768464  0.3715781831756489  0.0600375803139380   T   T   T
  0.8267174334623760  0.3716299649885093  0.0599835773418131   T   T   T
  0.1602655441060291  0.1216021808876151  0.0599899437768094   T   T   T
  0.9931067097182750  0.4983419148379017  0.1396338552848186   T   T   T
  0.3264225970505294  0.4982373684640091  0.1396477163470946   T   T   T
  0.6597456291323908  0.4982401436279770  0.1396481814787773   T   T   T
  0.9932150109623670  0.2481506646271176  0.1395417332374512   T   T   T
  0.3263171935290928  0.2482827584588891  0.1397500758903895   T   T   T
  0.6600029181821945  0.2482035944116014  0.1396538345531898   T   T   T
  0.1600131721251084  0.1226180105127355  0.1657461851277682   T   T   T
  0.4932993692168223  0.1238432848246965  0.1662487219132077   T   T   T
  0.8269659443596953  0.1223916702383250  0.1656520746712129   T   T   T
  0.1598767951164220  0.3732624582287880  0.1659225310518193   T   T   T
  0.4932296694384968  0.3730006260490763  0.1659564726434247   T   T   T
  0.8270662108290294  0.3733020470827166  0.1659026722068655   T   T   T
  0.3264707698897944  0.4967520155503385  0.1924867340063681   T   T   T
  0.6601096485687081  0.4967281910975226  0.1924924110102427   T   T   T
  0.9934024796952396  0.4969851126205902  0.1924667732374347   T   T   T
  0.3242978960984431  0.2473172374664638  0.1928330358776359   T   T   T
  0.9936044931444431  0.2455399504334926  0.1920875711990873   T   T   T
  0.6626945844756427  0.2463444142775283  0.1922988088266892   T   T   T
  0.9930557124557686  0.4980109489102322  0.0865813126265919   T   T   T
  0.3264099687317882  0.4980072245315627  0.0865981432778466   T   T   T
  0.6597289945007493  0.4980101068153661  0.0865953462388647   T   T   T
  0.9930226151729288  0.2480276112834820  0.0865369838081839   T   T   T
  0.3263795374517877  0.2480370058410671  0.0866564815564717   T   T   T
  0.6597161066420327  0.2480450683164967  0.0866189691654342   T   T   T
  0.1597386753678583  0.1232341146720781  0.1128049285359168   T   T   T
  0.4930168719549592  0.1233207748132290  0.1129704191810933   T   T   T
  0.8263884857955822  0.1232082783700410  0.1127727181044276   T   T   T
  0.1596756031053116  0.3732957263313159  0.1128586395484805   T   T   T
  0.4930095056151875  0.3732505069227106  0.1128866135856267   T   T   T
  0.8264216680778702  0.3732819282186278  0.1128449154086070   T   T   T
  0.4935751416947216  0.6215473415470535  0.0600047819376834   T   T   T
  0.8269018484803303  0.6215710296115646  0.0599896769008129   T   T   T
  0.1601712189596418  0.8715863942176434  0.0599854478067080   T   T   T
  0.4934650281262133  0.8716271792490999  0.0599995424773620   T   T   T
  0.8267482175894854  0.8716525148622793  0.0599805242095372   T   T   T
  0.1602305770658098  0.6215537359663593  0.0600005617272945   T   T   T
  0.9932085661843535  0.9979684616923624  0.1395587992796140   T   T   T
  0.3268276102659639  0.9982863817559794  0.1396703919643967   T   T   T
  0.6594674909125486  0.9982798525487414  0.1396672357803398   T   T   T
  0.9930886085858548  0.7482831982686304  0.1396316006828086   T   T   T
  0.3264536738492836  0.7482615886524748  0.1396273660032364   T   T   T
  0.6597473852592737  0.7482767122913430  0.1396322165197175   T   T   T
  0.1600476752505992  0.6231986572780157  0.1659025787380564   T   T   T
  0.4933268101344365  0.6231312179875680  0.1659115462473713   T   T   T
  0.8266230119944882  0.6231763748147157  0.1659071211701660   T   T   T
  0.1601185469481544  0.8730942416089097  0.1659073287029532   T   T   T
  0.4934033489654809  0.8730818114935641  0.1659275461971692   T   T   T
  0.8266774901358142  0.8731107959714496  0.1659099661539047   T   T   T
  0.3267674418943536  0.9966340418765566  0.1925335331584337   T   T   T
  0.6600131486769060  0.9966471725418641  0.1925183912651447   T   T   T
  0.9934111509301494  0.9965631350175513  0.1924504334685408   T   T   T
  0.3267253329132069  0.7467195541798021  0.1924934077456629   T   T   T
  0.9933660288580286  0.7467322921722810  0.1924912478537772   T   T   T
  0.6599831341781508  0.7467116497395764  0.1924900383034798   T   T   T
  0.9930751637014708  0.9980213080074810  0.0865416046347649   T   T   T
  0.3264761818355820  0.9980456245072619  0.0866081747654870   T   T   T
  0.6596704276170881  0.9980548349704407  0.0866044300553522   T   T   T
  0.9930363145421738  0.7480550906481382  0.0865784622620881   T   T   T
  0.3264191028667212  0.7480136012646117  0.0865744416993362   T   T   T
  0.6597061664574200  0.7480290636109745  0.0865704090825357   T   T   T
  0.1597041061922188  0.6232842138333980  0.1128433463385445   T   T   T
  0.4930376023941783  0.6232645445031193  0.1128479915852515   T   T   T
  0.8263530500518248  0.6232863876342738  0.1128401609398644   T   T   T
  0.1598471501913754  0.8732701082079838  0.1128352221943051   T   T   T
  0.4930667682801320  0.8732357145255660  0.1128418894205753   T   T   T
  0.8262881378102152  0.8732873717079537  0.1128371934656433   T   T   T
 
  0.00000000E+00  0.00000000E+00  0.00000000E+00
  0.00000000E+00  0.00000000E+00  0.00000000E+00
  0.00000000E+00  0.00000000E+00  0.00000000E+00
  0.00000000E+00  0.00000000E+00  0.00000000E+00
  0.00000000E+00  0.00000000E+00  0.00000000E+00
  0.00000000E+00  0.00000000E+00  0.00000000E+00
  0.00000000E+00  0.00000000E+00  0.00000000E+00
  0.00000000E+00  0.00000000E+00  0.00000000E+00
  0.00000000E+00  0.00000000E+00  0.00000000E+00
  0.00000000E+00  0.00000000E+00  0.00000000E+00
  0.00000000E+00  0.00000000E+00  0.00000000E+00
  0.00000000E+00  0.00000000E+00  0.00000000E+00
  0.00000000E+00  0.00000000E+00  0.00000000E+00
  0.00000000E+00  0.00000000E+00  0.00000000E+00
  0.00000000E+00  0.00000000E+00  0.00000000E+00
  0.00000000E+00  0.00000000E+00  0.00000000E+00
  0.00000000E+00  0.00000000E+00  0.00000000E+00
  0.00000000E+00  0.00000000E+00  0.00000000E+00
  0.00000000E+00  0.00000000E+00  0.00000000E+00
  0.00000000E+00  0.00000000E+00  0.00000000E+00
  0.00000000E+00  0.00000000E+00  0.00000000E+00
  0.00000000E+00  0.00000000E+00  0.00000000E+00
  0.00000000E+00  0.00000000E+00  0.00000000E+00
  0.00000000E+00  0.00000000E+00  0.00000000E+00
  0.00000000E+00  0.00000000E+00  0.00000000E+00
  0.00000000E+00  0.00000000E+00  0.00000000E+00
  0.00000000E+00  0.00000000E+00  0.00000000E+00
  0.00000000E+00  0.00000000E+00  0.00000000E+00
  0.00000000E+00  0.00000000E+00  0.00000000E+00
  0.00000000E+00  0.00000000E+00  0.00000000E+00
  0.00000000E+00  0.00000000E+00  0.00000000E+00
  0.00000000E+00  0.00000000E+00  0.00000000E+00
  0.00000000E+00  0.00000000E+00  0.00000000E+00
  0.00000000E+00  0.00000000E+00  0.00000000E+00
  0.00000000E+00  0.00000000E+00  0.00000000E+00
  0.00000000E+00  0.00000000E+00  0.00000000E+00
  0.00000000E+00  0.00000000E+00  0.00000000E+00
  0.00000000E+00  0.00000000E+00  0.00000000E+00
  0.00000000E+00  0.00000000E+00  0.00000000E+00
  0.00000000E+00  0.00000000E+00  0.00000000E+00
  0.00000000E+00  0.00000000E+00  0.00000000E+00
  0.00000000E+00  0.00000000E+00  0.00000000E+00
  0.00000000E+00  0.00000000E+00  0.00000000E+00
  0.00000000E+00  0.00000000E+00  0.00000000E+00
  0.00000000E+00  0.00000000E+00  0.00000000E+00
  0.00000000E+00  0.00000000E+00  0.00000000E+00
  0.00000000E+00  0.00000000E+00  0.00000000E+00
  0.00000000E+00  0.00000000E+00  0.00000000E+00
  0.00000000E+00  0.00000000E+00  0.00000000E+00
  0.00000000E+00  0.00000000E+00  0.00000000E+00
  0.00000000E+00  0.00000000E+00  0.00000000E+00
  0.00000000E+00  0.00000000E+00  0.00000000E+00
  0.00000000E+00  0.00000000E+00  0.00000000E+00
  0.00000000E+00  0.00000000E+00  0.00000000E+00
  0.00000000E+00  0.00000000E+00  0.00000000E+00
  0.00000000E+00  0.00000000E+00  0.00000000E+00
  0.00000000E+00  0.00000000E+00  0.00000000E+00
  0.00000000E+00  0.00000000E+00  0.00000000E+00
  0.00000000E+00  0.00000000E+00  0.00000000E+00
  0.00000000E+00  0.00000000E+00  0.00000000E+00
  0.00000000E+00  0.00000000E+00  0.00000000E+00
  0.00000000E+00  0.00000000E+00  0.00000000E+00
  0.00000000E+00  0.00000000E+00  0.00000000E+00
  0.00000000E+00  0.00000000E+00  0.00000000E+00
  0.00000000E+00  0.00000000E+00  0.00000000E+00
  0.00000000E+00  0.00000000E+00  0.00000000E+00
  0.00000000E+00  0.00000000E+00  0.00000000E+00
  0.00000000E+00  0.00000000E+00  0.00000000E+00
  0.00000000E+00  0.00000000E+00  0.00000000E+00
  0.00000000E+00  0.00000000E+00  0.00000000E+00
  0.00000000E+00  0.00000000E+00  0.00000000E+00
  0.00000000E+00  0.00000000E+00  0.00000000E+00
  0.00000000E+00  0.00000000E+00  0.00000000E+00
  0.00000000E+00  0.00000000E+00  0.00000000E+00
  0.00000000E+00  0.00000000E+00  0.00000000E+00
  0.00000000E+00  0.00000000E+00  0.00000000E+00
  0.00000000E+00  0.00000000E+00  0.00000000E+00
  0.00000000E+00  0.00000000E+00  0.00000000E+00
  0.00000000E+00  0.00000000E+00  0.00000000E+00
  0.00000000E+00  0.00000000E+00  0.00000000E+00
  0.00000000E+00  0.00000000E+00  0.00000000E+00
  0.00000000E+00  0.00000000E+00  0.00000000E+00
  0.00000000E+00  0.00000000E+00  0.00000000E+00
  0.00000000E+00  0.00000000E+00  0.00000000E+00
  0.00000000E+00  0.00000000E+00  0.00000000E+00
  0.00000000E+00  0.00000000E+00  0.00000000E+00
  0.00000000E+00  0.00000000E+00  0.00000000E+00
  0.00000000E+00  0.00000000E+00  0.00000000E+00
  0.00000000E+00  0.00000000E+00  0.00000000E+00
  0.00000000E+00  0.00000000E+00  0.00000000E+00
  0.00000000E+00  0.00000000E+00  0.00000000E+00
  0.00000000E+00  0.00000000E+00  0.00000000E+00
  0.00000000E+00  0.00000000E+00  0.00000000E+00
  0.00000000E+00  0.00000000E+00  0.00000000E+00
  0.00000000E+00  0.00000000E+00  0.00000000E+00
  0.00000000E+00  0.00000000E+00  0.00000000E+00
  0.00000000E+00  0.00000000E+00  0.00000000E+00
  0.00000000E+00  0.00000000E+00  0.00000000E+00
  0.00000000E+00  0.00000000E+00  0.00000000E+00
  0.00000000E+00  0.00000000E+00  0.00000000E+00
  0.00000000E+00  0.00000000E+00  0.00000000E+00
  0.00000000E+00  0.00000000E+00  0.00000000E+00
  0.00000000E+00  0.00000000E+00  0.00000000E+00
  0.00000000E+00  0.00000000E+00  0.00000000E+00
  0.00000000E+00  0.00000000E+00  0.00000000E+00
  0.00000000E+00  0.00000000E+00  0.00000000E+00
  0.00000000E+00  0.00000000E+00  0.00000000E+00
  0.00000000E+00  0.00000000E+00  0.00000000E+00
  0.00000000E+00  0.00000000E+00  0.00000000E+00
  0.00000000E+00  0.00000000E+00  0.00000000E+00
  0.00000000E+00  0.00000000E+00  0.00000000E+00
  0.00000000E+00  0.00000000E+00  0.00000000E+00
  0.00000000E+00  0.00000000E+00  0.00000000E+00
  0.00000000E+00  0.00000000E+00  0.00000000E+00
  0.00000000E+00  0.00000000E+00  0.00000000E+00
  0.00000000E+00  0.00000000E+00  0.00000000E+00
  0.00000000E+00  0.00000000E+00  0.00000000E+00
  0.00000000E+00  0.00000000E+00  0.00000000E+00
  0.00000000E+00  0.00000000E+00  0.00000000E+00
  0.00000000E+00  0.00000000E+00  0.00000000E+00
  0.00000000E+00  0.00000000E+00  0.00000000E+00
  0.00000000E+00  0.00000000E+00  0.00000000E+00
  0.00000000E+00  0.00000000E+00  0.00000000E+00
  0.00000000E+00  0.00000000E+00  0.00000000E+00
  0.00000000E+00  0.00000000E+00  0.00000000E+00
  0.00000000E+00  0.00000000E+00  0.00000000E+00
  0.00000000E+00  0.00000000E+00  0.00000000E+00
  0.00000000E+00  0.00000000E+00  0.00000000E+00
  0.00000000E+00  0.00000000E+00  0.00000000E+00
  0.00000000E+00  0.00000000E+00  0.00000000E+00
  0.00000000E+00  0.00000000E+00  0.00000000E+00
  0.00000000E+00  0.00000000E+00  0.00000000E+00
  0.00000000E+00  0.00000000E+00  0.00000000E+00
  0.00000000E+00  0.00000000E+00  0.00000000E+00
  0.00000000E+00  0.00000000E+00  0.00000000E+00
  0.00000000E+00  0.00000000E+00  0.00000000E+00
  0.00000000E+00  0.00000000E+00  0.00000000E+00
  0.00000000E+00  0.00000000E+00  0.00000000E+00
  0.00000000E+00  0.00000000E+00  0.00000000E+00
  0.00000000E+00  0.00000000E+00  0.00000000E+00
  0.00000000E+00  0.00000000E+00  0.00000000E+00
  0.00000000E+00  0.00000000E+00  0.00000000E+00
  0.00000000E+00  0.00000000E+00  0.00000000E+00
  0.00000000E+00  0.00000000E+00  0.00000000E+00
  0.00000000E+00  0.00000000E+00  0.00000000E+00
  0.00000000E+00  0.00000000E+00  0.00000000E+00
  0.00000000E+00  0.00000000E+00  0.00000000E+00
  0.00000000E+00  0.00000000E+00  0.00000000E+00
  0.00000000E+00  0.00000000E+00  0.00000000E+00
  0.00000000E+00  0.00000000E+00  0.00000000E+00
  0.00000000E+00  0.00000000E+00  0.00000000E+00
  0.00000000E+00  0.00000000E+00  0.00000000E+00
  0.00000000E+00  0.00000000E+00  0.00000000E+00
  0.00000000E+00  0.00000000E+00  0.00000000E+00
  0.00000000E+00  0.00000000E+00  0.00000000E+00
  0.00000000E+00  0.00000000E+00  0.00000000E+00
  0.00000000E+00  0.00000000E+00  0.00000000E+00
  0.00000000E+00  0.00000000E+00  0.00000000E+00
  0.00000000E+00  0.00000000E+00  0.00000000E+00
  0.00000000E+00  0.00000000E+00  0.00000000E+00
  0.00000000E+00  0.00000000E+00  0.00000000E+00
  0.00000000E+00  0.00000000E+00  0.00000000E+00
  0.00000000E+00  0.00000000E+00  0.00000000E+00
  0.00000000E+00  0.00000000E+00  0.00000000E+00
  0.00000000E+00  0.00000000E+00  0.00000000E+00
  0.00000000E+00  0.00000000E+00  0.00000000E+00
  0.00000000E+00  0.00000000E+00  0.00000000E+00
  0.00000000E+00  0.00000000E+00  0.00000000E+00
  0.00000000E+00  0.00000000E+00  0.00000000E+00
  0.00000000E+00  0.00000000E+00  0.00000000E+00
  0.00000000E+00  0.00000000E+00  0.00000000E+00
  0.00000000E+00  0.00000000E+00  0.00000000E+00
  0.00000000E+00  0.00000000E+00  0.00000000E+00
  0.00000000E+00  0.00000000E+00  0.00000000E+00
  0.00000000E+00  0.00000000E+00  0.00000000E+00
  0.00000000E+00  0.00000000E+00  0.00000000E+00
  0.00000000E+00  0.00000000E+00  0.00000000E+00
  0.00000000E+00  0.00000000E+00  0.00000000E+00
  0.00000000E+00  0.00000000E+00  0.00000000E+00
  0.00000000E+00  0.00000000E+00  0.00000000E+00
  0.00000000E+00  0.00000000E+00  0.00000000E+00
  0.00000000E+00  0.00000000E+00  0.00000000E+00
  0.00000000E+00  0.00000000E+00  0.00000000E+00
  0.00000000E+00  0.00000000E+00  0.00000000E+00
  0.00000000E+00  0.00000000E+00  0.00000000E+00
  0.00000000E+00  0.00000000E+00  0.00000000E+00
  0.00000000E+00  0.00000000E+00  0.00000000E+00
  0.00000000E+00  0.00000000E+00  0.00000000E+00
  0.00000000E+00  0.00000000E+00  0.00000000E+00
  0.00000000E+00  0.00000000E+00  0.00000000E+00
  0.00000000E+00  0.00000000E+00  0.00000000E+00
  0.00000000E+00  0.00000000E+00  0.00000000E+00
  0.00000000E+00  0.00000000E+00  0.00000000E+00
  0.00000000E+00  0.00000000E+00  0.00000000E+00
  0.00000000E+00  0.00000000E+00  0.00000000E+00
  0.00000000E+00  0.00000000E+00  0.00000000E+00
  0.00000000E+00  0.00000000E+00  0.00000000E+00
  0.00000000E+00  0.00000000E+00  0.00000000E+00
  0.00000000E+00  0.00000000E+00  0.00000000E+00
  0.00000000E+00  0.00000000E+00  0.00000000E+00
  0.00000000E+00  0.00000000E+00  0.00000000E+00
  0.00000000E+00  0.00000000E+00  0.00000000E+00
  0.00000000E+00  0.00000000E+00  0.00000000E+00
  0.00000000E+00  0.00000000E+00  0.00000000E+00
  0.00000000E+00  0.00000000E+00  0.00000000E+00
  0.00000000E+00  0.00000000E+00  0.00000000E+00
  0.00000000E+00  0.00000000E+00  0.00000000E+00
  0.00000000E+00  0.00000000E+00  0.00000000E+00
  0.00000000E+00  0.00000000E+00  0.00000000E+00
  0.00000000E+00  0.00000000E+00  0.00000000E+00
  0.00000000E+00  0.00000000E+00  0.00000000E+00
  0.00000000E+00  0.00000000E+00  0.00000000E+00
  0.00000000E+00  0.00000000E+00  0.00000000E+00
  0.00000000E+00  0.00000000E+00  0.00000000E+00
  0.00000000E+00  0.00000000E+00  0.00000000E+00
  0.00000000E+00  0.00000000E+00  0.00000000E+00
  0.00000000E+00  0.00000000E+00  0.00000000E+00
  0.00000000E+00  0.00000000E+00  0.00000000E+00
  0.00000000E+00  0.00000000E+00  0.00000000E+00
  0.00000000E+00  0.00000000E+00  0.00000000E+00
  0.00000000E+00  0.00000000E+00  0.00000000E+00
  0.00000000E+00  0.00000000E+00  0.00000000E+00
  0.00000000E+00  0.00000000E+00  0.00000000E+00
  0.00000000E+00  0.00000000E+00  0.00000000E+00
  0.00000000E+00  0.00000000E+00  0.00000000E+00
  0.00000000E+00  0.00000000E+00  0.00000000E+00
  0.00000000E+00  0.00000000E+00  0.00000000E+00
  0.00000000E+00  0.00000000E+00  0.00000000E+00
  0.00000000E+00  0.00000000E+00  0.00000000E+00
