C H O Si                                
   1.00000000000000     
     9.2874599999999994    0.0000000000000000    0.0000000000000000
     0.0000000000000000   17.5126199999999983    0.0000000000000000
     0.0000000000000000    0.0000000000000000   58.0000000000000000
   C    H    O    Si
    72    57    28    72
Selective dynamics
Direct
  0.9933960042517949  0.0630434195392732  0.0604760543140391   T   T   T
  0.3267921209256650  0.0630541482486310  0.0605532373070609   T   T   T
  0.6599407203062841  0.0630461222741844  0.0605447565869340   T   T   T
  0.9932593029949606  0.3130438605357316  0.0604712357796873   T   T   T
  0.3266547056052691  0.3129781979957524  0.0605754582520050   T   T   T
  0.6599122102147548  0.3129799218240278  0.0605414385895810   T   T   T
  0.1598366409657362  0.1858014508932764  0.1393835158345444   T   T   T
  0.4931306192088902  0.1860388376315013  0.1396401045645823   T   T   T
  0.8265234712188334  0.1857923158621016  0.1393444244607321   T   T   T
  0.1596386537360806  0.4359614768121027  0.1394422413666630   T   T   T
  0.4930757737394950  0.4358161329600227  0.1394987629587423   T   T   T
  0.8264296690864370  0.4359538551125807  0.1394314246249335   T   T   T
  0.3272262002091562  0.0611965773173886  0.1667119608431550   T   T   T
  0.6595061272150945  0.0612287565034382  0.1666959519155899   T   T   T
  0.9934218285787341  0.0605720602389580  0.1664888264869236   T   T   T
  0.3264288116702377  0.3111730915802356  0.1667955382006324   T   T   T
  0.6603094628612650  0.3111878960395675  0.1666819803937936   T   T   T
  0.9933533314589535  0.3110079016664927  0.1665339203857201   T   T   T
  0.1600113705345919  0.1870932534989852  0.1916985041265902   T   T   T
  0.4934490323412014  0.1898275608798519  0.1927466281986854   T   T   T
  0.8274592470678134  0.1868308031917092  0.1916041819841879   T   T   T
  0.1599029431885330  0.4382390899022763  0.1920047107700593   T   T   T
  0.4934749306124770  0.4378872013125997  0.1920646019034391   T   T   T
  0.8271185522971284  0.4383344409431052  0.1919758114801854   T   T   T
  0.1596860830883114  0.1860558842894343  0.0858384507436100   T   T   T
  0.4930317191728453  0.1860754454469671  0.0859804903877445   T   T   T
  0.8263208740962736  0.1860513552696305  0.0858132166869633   T   T   T
  0.1596924808189789  0.4360272512498799  0.0858664474165485   T   T   T
  0.4930532216811885  0.4359908930288965  0.0858978003390602   T   T   T
  0.8263655953377089  0.4360240386961743  0.0858537952010202   T   T   T
  0.3264070750513051  0.0608839724144318  0.1130769500960772   T   T   T
  0.6595801349132254  0.0608960366359078  0.1130767700880373   T   T   T
  0.9930422831418595  0.0608361280520969  0.1129972307245350   T   T   T
  0.3262735478137009  0.3109032975020053  0.1131216802402250   T   T   T
  0.6596947407114810  0.3108882814974043  0.1130917968402140   T   T   T
  0.9930425816461973  0.3108950921406388  0.1129962700667016   T   T   T
  0.9934093408870944  0.5629678811152569  0.0605053249432420   T   T   T
  0.3267427698901632  0.5629593045717611  0.0605244641297690   T   T   T
  0.6600475152749147  0.5629741649990105  0.0605222099750696   T   T   T
  0.9932991283114071  0.8130472863055233  0.0605003691318653   T   T   T
  0.3266717117331744  0.8129892760465810  0.0605046080365764   T   T   T
  0.6599499121519333  0.8130131150124541  0.0604941867130313   T   T   T
  0.1597339560325004  0.6859609939246619  0.1394320729183822   T   T   T
  0.4930470921970231  0.6859205680898585  0.1394361882506903   T   T   T
  0.8263296892637603  0.6859532914979473  0.1394297604176011   T   T   T
  0.1600425713571413  0.9358842329484198  0.1394353080065664   T   T   T
  0.4931292662070521  0.9358085398458675  0.1394415648965956   T   T   T
  0.8262100892133121  0.9359236055699918  0.1394350779780559   T   T   T
  0.3266682038195153  0.5610909809737314  0.1666289793749116   T   T   T
  0.6598773270056861  0.5610722528752778  0.1666299042885399   T   T   T
  0.9933018698361273  0.5612789930887281  0.1666056862324346   T   T   T
  0.3267071291182459  0.8110649370049214  0.1666219671366238   T   T   T
  0.6600180415838305  0.8110858269745439  0.1666317772052058   T   T   T
  0.9933456197529833  0.8111133575532653  0.1666247832019048   T   T   T
  0.1601823764374428  0.6880919210441733  0.1920121927195514   T   T   T
  0.4935159250424826  0.6880618440381447  0.1920084613101398   T   T   T
  0.8268143170979630  0.6880981091623600  0.1920093956929322   T   T   T
  0.1602988511789347  0.9380105456912626  0.1920100605718516   T   T   T
  0.4935451647060121  0.9380156835565373  0.1920409286030854   T   T   T
  0.8268163856416125  0.9380301812196968  0.1920176773650574   T   T   T
  0.1596900467075938  0.6860561293065944  0.0858515020498119   T   T   T
  0.4930329505874854  0.6860183959715932  0.0858555152960799   T   T   T
  0.8263742842363294  0.6860621926020375  0.0858427201675689   T   T   T
  0.1597566664018071  0.9360735339564781  0.0858433582370713   T   T   T
  0.4930297116539941  0.9360230609305865  0.0858645493200019   T   T   T
  0.8263239282655372  0.9360774631763056  0.0858472937906893   T   T   T
  0.3263487251623010  0.5608586173880817  0.1130465336937999   T   T   T
  0.6596539033196523  0.5608535469741037  0.1130478928558169   T   T   T
  0.9930064139260143  0.5609139578319443  0.1130283620133212   T   T   T
  0.3263990025946117  0.8108532087889371  0.1130236176502059   T   T   T
  0.6596869907799773  0.8108610914927279  0.1130243155905637   T   T   T
  0.9930094167643536  0.8109474745076883  0.1130377387977781   T   T   T
  0.0728949997419365  0.1788835250264997  0.0278856081731237   T   T   T
  0.4052357491758339  0.1788487112939619  0.0280406566317437   T   T   T
  0.7382612901149882  0.1787863116351799  0.0279159285586918   T   T   T
  0.0727355057823063  0.4288923989717032  0.0279239785986735   T   T   T
  0.4049280676478267  0.4286983059120871  0.0279925435704800   T   T   T
  0.7377520008596429  0.4287155385709856  0.0279696991581976   T   T   T
  0.3245803734282230  0.0265398985650138  0.0451045245590018   T   T   T
  0.6570719723219332  0.0265427776060608  0.0450941336371501   T   T   T
  0.9909265165369543  0.0265575412419146  0.0450199326652739   T   T   T
  0.3241847612551021  0.2763760643559557  0.0451455294413293   T   T   T
  0.6573942662888992  0.2764206636424273  0.0451027188830938   T   T   T
  0.9908374348612193  0.2765573440929381  0.0450118924285071   T   T   T
  0.8287942612289662  0.4020116607692428  0.2074440437665983   T   T   T
  0.8299005655687091  0.1505481618975510  0.2070968965447257   T   T   T
  0.1616165917679452  0.1508641382461211  0.2072062008399868   T   T   T
  0.4962670270745028  0.1527232293031960  0.2080672423023626   T   T   T
  0.1616917373430398  0.4015493242371323  0.2074157814351356   T   T   T
  0.4939921301601387  0.4013311963187922  0.2075158257239597   T   T   T
  0.0827203483093993  0.0537034982374303  0.2244851293556258   T   T   T
  0.4161321609567978  0.0532959288540569  0.2246129578361172   T   T   T
  0.7494391120067468  0.0534723263857433  0.2245836457767314   T   T   T
  0.0822653992637504  0.3008847975857605  0.2241878414047385   T   T   T
  0.3779270616557808  0.3107752837107586  0.2282423176816315   T   T   T
  0.7822670016429971  0.2954034696575611  0.2228270902398489   T   T   T
  0.5460898075949896  0.3059682056300365  0.2736129317716461   T   T   T
  0.4917874138343886  0.2379599951010451  0.2932182657903524   T   T   T
  0.5713258400496449  0.3196495887293467  0.3028367858841776   T   T   T
  0.3131252863795411  0.1930479228489546  0.3096289041819252   T   T   T
  0.4223029450957961  0.1295393613652854  0.3023601162010338   T   T   T
  0.6513230452997347  0.3666902711129372  0.3334495967435590   T   T   T
  0.4856482765626157  0.3791031074672456  0.3308188758474681   T   T   T
  0.5215627860680593  0.3959286202137469  0.2521953123753772   T   T   T
  0.5862843182770257  0.3232051903851874  0.2386004720225981   T   T   T
  0.0723712597354975  0.6788524507429543  0.0279375164594770   T   T   T
  0.4054774862291717  0.6787960384886504  0.0279444261228611   T   T   T
  0.7386810532059028  0.6788069827191093  0.0279377353321997   T   T   T
  0.0721039053065558  0.9288494902319525  0.0279248704905760   T   T   T
  0.4049005160009011  0.9287611112089406  0.0279552926186425   T   T   T
  0.7382492546704820  0.9288466912601165  0.0279425630402571   T   T   T
  0.3241918215961825  0.5264535914714419  0.0450701334246896   T   T   T
  0.6575653812662092  0.5264642453074501  0.0450686809943094   T   T   T
  0.9908568628185692  0.5264730488377146  0.0450509027799033   T   T   T
  0.3242133027712388  0.7764686568617859  0.0450490487321887   T   T   T
  0.6574299162631531  0.7764876444075447  0.0450409947844381   T   T   T
  0.9908114085036410  0.7764986576264336  0.0450543794100436   T   T   T
  0.8291921878476929  0.9014830655584460  0.2074583930207748   T   T   T
  0.8292384384646699  0.6515799261564528  0.2074552232604321   T   T   T
  0.1625487967437706  0.6515664258612128  0.2074556995620147   T   T   T
  0.4960201337636419  0.6516122292232703  0.2074707147209425   T   T   T
  0.1626037879957465  0.9014855062460799  0.2074545482480228   T   T   T
  0.4960645070775273  0.9014240455654012  0.2074696044290684   T   T   T
  0.0824417256332826  0.5543451405551900  0.2244870153159538   T   T   T
  0.4158839479281500  0.5546624493210766  0.2243896939900422   T   T   T
  0.7493554479362369  0.5542522273924344  0.2244444513472946   T   T   T
  0.0827306142145091  0.8038051521929137  0.2245084187597466   T   T   T
  0.4158935077119243  0.8039882680881805  0.2245232173869882   T   T   T
  0.7494991525696173  0.8036615847748670  0.2245016294347040   T   T   T
  0.1683843366140001  0.1659406261805503  0.0338181239791461   T   T   T
  0.5009519323770434  0.1664070896701426  0.0339816682122491   T   T   T
  0.8339462246392898  0.1658223428806950  0.0337536035987738   T   T   T
  0.1682066287056284  0.4159699608321273  0.0338483902232863   T   T   T
  0.5006435726627350  0.4161857333621871  0.0339040907539521   T   T   T
  0.8335996024372125  0.4161467755019710  0.0338186684036800   T   T   T
  0.3203132028024813  0.0414450703825931  0.2186256454512462   T   T   T
  0.6536157139950927  0.0414751638139879  0.2186229683526699   T   T   T
  0.9869421898637963  0.0413506796993824  0.2185638159183450   T   T   T
  0.2991359542555528  0.2910912005536432  0.2186809419093546   T   T   T
  0.6793831572626946  0.2914638522330837  0.2186652127104506   T   T   T
  0.9853657729940386  0.2892623458809005  0.2184103104288607   T   T   T
  0.5691013595837595  0.2796840255093093  0.2895595705367153   T   T   T
  0.3806335296803945  0.1781923670401738  0.2975267080392337   T   T   T
  0.5760780708671570  0.3781329376273710  0.3221947817603786   T   T   T
  0.5144927713557447  0.3404516639278672  0.2509717055787978   T   T   T
  0.1679557806485705  0.6659287209589619  0.0338303675146853   T   T   T
  0.5010671293727279  0.6659523640593084  0.0338434397627968   T   T   T
  0.8343069849304503  0.6658857144357347  0.0338089733118551   T   T   T
  0.1677135134440937  0.9158661668177972  0.0337985216756404   T   T   T
  0.5006178374461506  0.9162425368146152  0.0338676442810478   T   T   T
  0.8339647278800316  0.9161306323595554  0.0338164762678326   T   T   T
  0.3202873650859261  0.5414478302009348  0.2186067650452555   T   T   T
  0.6536378764784982  0.5414865809314930  0.2185947440519234   T   T   T
  0.9868838115546477  0.5415529187252014  0.2186101989704781   T   T   T
  0.3202575691675957  0.7914541742610050  0.2186045947401206   T   T   T
  0.6536540407896620  0.7914303595303464  0.2186131998101208   T   T   T
  0.9869396225001877  0.7914702456503494  0.2186015140172612   T   T   T
  0.4935870508473688  0.1217351720106644  0.0600880844561482   T   T   T
  0.8268393856968691  0.1216235432460405  0.0599443874273269   T   T   T
  0.1602792818685206  0.3715960701006344  0.0600043579187212   T   T   T
  0.4935013087590635  0.3716042704979353  0.0600340552620702   T   T   T
  0.8267444224928848  0.3716456175428661  0.0599656214561939   T   T   T
  0.1603832327430602  0.1216272262750580  0.0599790255250206   T   T   T
  0.9930917664805553  0.4983561297210934  0.1396426385926970   T   T   T
  0.3264374430161359  0.4982170064185240  0.1396531897308805   T   T   T
  0.6597430658622317  0.4982212640806160  0.1396551215898856   T   T   T
  0.9932645538227343  0.2481186924109887  0.1395460980997130   T   T   T
  0.3263210491815903  0.2482878639744997  0.1397538359457098   T   T   T
  0.6600405767719382  0.2481690075027247  0.1396604963500854   T   T   T
  0.1599722927799589  0.1225860772516347  0.1657488645875171   T   T   T
  0.4932685805452152  0.1238083694381317  0.1662435590558104   T   T   T
  0.8269462692855668  0.1223755258423704  0.1656570967409728   T   T   T
  0.1598305259035053  0.3732796828682743  0.1659249382205000   T   T   T
  0.4931502658730993  0.3730198849137366  0.1659662238018056   T   T   T
  0.8269887585297301  0.3733168300273569  0.1659040150173936   T   T   T
  0.3265646667920643  0.4967095942547076  0.1924902168605013   T   T   T
  0.6602159023781462  0.4967071695711744  0.1924971621680042   T   T   T
  0.9935002310536191  0.4969616300038243  0.1924793290302628   T   T   T
  0.3243071496812482  0.2473557464977369  0.1928522935661121   T   T   T
  0.9936147832805515  0.2455352429031353  0.1920925634959842   T   T   T
  0.6627114793330212  0.2463125391722271  0.1923100252725045   T   T   T
  0.9930764162939330  0.4979781117185802  0.0865773102811421   T   T   T
  0.3264470445559828  0.4979555999326216  0.0865918103580617   T   T   T
  0.6597485723203601  0.4979670104895585  0.0865896230998710   T   T   T
  0.9930387558227527  0.2480100697482283  0.0865423649111296   T   T   T
  0.3263506009392386  0.2480297266312055  0.0866551286461152   T   T   T
  0.6597119195904120  0.2480065770967271  0.0866220836655821   T   T   T
  0.1596801803701614  0.1232515874933385  0.1127964054853987   T   T   T
  0.4929479652143386  0.1233172227796542  0.1129634044295685   T   T   T
  0.8263178304445430  0.1232209983883046  0.1127656773430296   T   T   T
  0.1595877168047380  0.3733170686871560  0.1128521293358654   T   T   T
  0.4929162460981052  0.3732505597927584  0.1128836935636506   T   T   T
  0.8263257458680017  0.3733007991745638  0.1128348537997891   T   T   T
  0.4936155215718889  0.6215813435572152  0.0599944047281620   T   T   T
  0.8269349511932186  0.6215804484318879  0.0599808727591366   T   T   T
  0.1602732077904850  0.8716147406205086  0.0599766291508960   T   T   T
  0.4935149040884397  0.8716494408867952  0.0599864061197955   T   T   T
  0.8268263750438765  0.8716672489947459  0.0599686620665627   T   T   T
  0.1603126088494653  0.6215856154051853  0.0599910112779772   T   T   T
  0.9932283481408013  0.9979745267897213  0.1395611021872909   T   T   T
  0.3268362561089009  0.9982578342186248  0.1396748400673337   T   T   T
  0.6594531412359318  0.9982645329582067  0.1396692223307117   T   T   T
  0.9930866256215232  0.7482744300109905  0.1396403983414381   T   T   T
  0.3264665246943242  0.7482513689308580  0.1396335395168614   T   T   T
  0.6597458664864850  0.7482629020488686  0.1396394794751492   T   T   T
  0.1599773299660090  0.6232194435630444  0.1659069364392842   T   T   T
  0.4932812549613833  0.6231548402404596  0.1659108047624851   T   T   T
  0.8265699429261654  0.6232031677925823  0.1659086749954681   T   T   T
  0.1600497174342395  0.8731005023559706  0.1659082452942727   T   T   T
  0.4933285437325216  0.8730936690423284  0.1659277665847735   T   T   T
  0.8266190205492081  0.8731300159021514  0.1659095600828999   T   T   T
  0.3268431046569700  0.9966081681543597  0.1925398784402515   T   T   T
  0.6601114311817435  0.9966199946798017  0.1925347488270362   T   T   T
  0.9934908321833182  0.9965182326369193  0.1924564304143802   T   T   T
  0.3267729074811014  0.7466689604556966  0.1924947762794725   T   T   T
  0.9934198856234231  0.7466822179054425  0.1924898193864769   T   T   T
  0.6600729771131448  0.7466744954793584  0.1924970382442550   T   T   T
  0.9930900353363802  0.9980074782047221  0.0865435175074641   T   T   T
  0.3264950579434929  0.9980190731587050  0.0866041039447175   T   T   T
  0.6596310141202364  0.9980206556551767  0.0865990327305201   T   T   T
  0.9930628089521968  0.7480404878765990  0.0865706534793816   T   T   T
  0.3264141199023508  0.7479849932278554  0.0865689332550145   T   T   T
  0.6597115151868060  0.7479976180957053  0.0865621214760111   T   T   T
  0.1596393734328757  0.6232985561021139  0.1128353342573161   T   T   T
  0.4929577041426024  0.6232666735736587  0.1128366463413818   T   T   T
  0.8262615955868351  0.6233037341954100  0.1128290420765422   T   T   T
  0.1597570483518477  0.8732873160137614  0.1128219520407253   T   T   T
  0.4929677806209581  0.8732406053714571  0.1128293909585373   T   T   T
  0.8261728331352397  0.8733024285273581  0.1128237955728827   T   T   T
 
  0.00000000E+00  0.00000000E+00  0.00000000E+00
  0.00000000E+00  0.00000000E+00  0.00000000E+00
  0.00000000E+00  0.00000000E+00  0.00000000E+00
  0.00000000E+00  0.00000000E+00  0.00000000E+00
  0.00000000E+00  0.00000000E+00  0.00000000E+00
  0.00000000E+00  0.00000000E+00  0.00000000E+00
  0.00000000E+00  0.00000000E+00  0.00000000E+00
  0.00000000E+00  0.00000000E+00  0.00000000E+00
  0.00000000E+00  0.00000000E+00  0.00000000E+00
  0.00000000E+00  0.00000000E+00  0.00000000E+00
  0.00000000E+00  0.00000000E+00  0.00000000E+00
  0.00000000E+00  0.00000000E+00  0.00000000E+00
  0.00000000E+00  0.00000000E+00  0.00000000E+00
  0.00000000E+00  0.00000000E+00  0.00000000E+00
  0.00000000E+00  0.00000000E+00  0.00000000E+00
  0.00000000E+00  0.00000000E+00  0.00000000E+00
  0.00000000E+00  0.00000000E+00  0.00000000E+00
  0.00000000E+00  0.00000000E+00  0.00000000E+00
  0.00000000E+00  0.00000000E+00  0.00000000E+00
  0.00000000E+00  0.00000000E+00  0.00000000E+00
  0.00000000E+00  0.00000000E+00  0.00000000E+00
  0.00000000E+00  0.00000000E+00  0.00000000E+00
  0.00000000E+00  0.00000000E+00  0.00000000E+00
  0.00000000E+00  0.00000000E+00  0.00000000E+00
  0.00000000E+00  0.00000000E+00  0.00000000E+00
  0.00000000E+00  0.00000000E+00  0.00000000E+00
  0.00000000E+00  0.00000000E+00  0.00000000E+00
  0.00000000E+00  0.00000000E+00  0.00000000E+00
  0.00000000E+00  0.00000000E+00  0.00000000E+00
  0.00000000E+00  0.00000000E+00  0.00000000E+00
  0.00000000E+00  0.00000000E+00  0.00000000E+00
  0.00000000E+00  0.00000000E+00  0.00000000E+00
  0.00000000E+00  0.00000000E+00  0.00000000E+00
  0.00000000E+00  0.00000000E+00  0.00000000E+00
  0.00000000E+00  0.00000000E+00  0.00000000E+00
  0.00000000E+00  0.00000000E+00  0.00000000E+00
  0.00000000E+00  0.00000000E+00  0.00000000E+00
  0.00000000E+00  0.00000000E+00  0.00000000E+00
  0.00000000E+00  0.00000000E+00  0.00000000E+00
  0.00000000E+00  0.00000000E+00  0.00000000E+00
  0.00000000E+00  0.00000000E+00  0.00000000E+00
  0.00000000E+00  0.00000000E+00  0.00000000E+00
  0.00000000E+00  0.00000000E+00  0.00000000E+00
  0.00000000E+00  0.00000000E+00  0.00000000E+00
  0.00000000E+00  0.00000000E+00  0.00000000E+00
  0.00000000E+00  0.00000000E+00  0.00000000E+00
  0.00000000E+00  0.00000000E+00  0.00000000E+00
  0.00000000E+00  0.00000000E+00  0.00000000E+00
  0.00000000E+00  0.00000000E+00  0.00000000E+00
  0.00000000E+00  0.00000000E+00  0.00000000E+00
  0.00000000E+00  0.00000000E+00  0.00000000E+00
  0.00000000E+00  0.00000000E+00  0.00000000E+00
  0.00000000E+00  0.00000000E+00  0.00000000E+00
  0.00000000E+00  0.00000000E+00  0.00000000E+00
  0.00000000E+00  0.00000000E+00  0.00000000E+00
  0.00000000E+00  0.00000000E+00  0.00000000E+00
  0.00000000E+00  0.00000000E+00  0.00000000E+00
  0.00000000E+00  0.00000000E+00  0.00000000E+00
  0.00000000E+00  0.00000000E+00  0.00000000E+00
  0.00000000E+00  0.00000000E+00  0.00000000E+00
  0.00000000E+00  0.00000000E+00  0.00000000E+00
  0.00000000E+00  0.00000000E+00  0.00000000E+00
  0.00000000E+00  0.00000000E+00  0.00000000E+00
  0.00000000E+00  0.00000000E+00  0.00000000E+00
  0.00000000E+00  0.00000000E+00  0.00000000E+00
  0.00000000E+00  0.00000000E+00  0.00000000E+00
  0.00000000E+00  0.00000000E+00  0.00000000E+00
  0.00000000E+00  0.00000000E+00  0.00000000E+00
  0.00000000E+00  0.00000000E+00  0.00000000E+00
  0.00000000E+00  0.00000000E+00  0.00000000E+00
  0.00000000E+00  0.00000000E+00  0.00000000E+00
  0.00000000E+00  0.00000000E+00  0.00000000E+00
  0.00000000E+00  0.00000000E+00  0.00000000E+00
  0.00000000E+00  0.00000000E+00  0.00000000E+00
  0.00000000E+00  0.00000000E+00  0.00000000E+00
  0.00000000E+00  0.00000000E+00  0.00000000E+00
  0.00000000E+00  0.00000000E+00  0.00000000E+00
  0.00000000E+00  0.00000000E+00  0.00000000E+00
  0.00000000E+00  0.00000000E+00  0.00000000E+00
  0.00000000E+00  0.00000000E+00  0.00000000E+00
  0.00000000E+00  0.00000000E+00  0.00000000E+00
  0.00000000E+00  0.00000000E+00  0.00000000E+00
  0.00000000E+00  0.00000000E+00  0.00000000E+00
  0.00000000E+00  0.00000000E+00  0.00000000E+00
  0.00000000E+00  0.00000000E+00  0.00000000E+00
  0.00000000E+00  0.00000000E+00  0.00000000E+00
  0.00000000E+00  0.00000000E+00  0.00000000E+00
  0.00000000E+00  0.00000000E+00  0.00000000E+00
  0.00000000E+00  0.00000000E+00  0.00000000E+00
  0.00000000E+00  0.00000000E+00  0.00000000E+00
  0.00000000E+00  0.00000000E+00  0.00000000E+00
  0.00000000E+00  0.00000000E+00  0.00000000E+00
  0.00000000E+00  0.00000000E+00  0.00000000E+00
  0.00000000E+00  0.00000000E+00  0.00000000E+00
  0.00000000E+00  0.00000000E+00  0.00000000E+00
  0.00000000E+00  0.00000000E+00  0.00000000E+00
  0.00000000E+00  0.00000000E+00  0.00000000E+00
  0.00000000E+00  0.00000000E+00  0.00000000E+00
  0.00000000E+00  0.00000000E+00  0.00000000E+00
  0.00000000E+00  0.00000000E+00  0.00000000E+00
  0.00000000E+00  0.00000000E+00  0.00000000E+00
  0.00000000E+00  0.00000000E+00  0.00000000E+00
  0.00000000E+00  0.00000000E+00  0.00000000E+00
  0.00000000E+00  0.00000000E+00  0.00000000E+00
  0.00000000E+00  0.00000000E+00  0.00000000E+00
  0.00000000E+00  0.00000000E+00  0.00000000E+00
  0.00000000E+00  0.00000000E+00  0.00000000E+00
  0.00000000E+00  0.00000000E+00  0.00000000E+00
  0.00000000E+00  0.00000000E+00  0.00000000E+00
  0.00000000E+00  0.00000000E+00  0.00000000E+00
  0.00000000E+00  0.00000000E+00  0.00000000E+00
  0.00000000E+00  0.00000000E+00  0.00000000E+00
  0.00000000E+00  0.00000000E+00  0.00000000E+00
  0.00000000E+00  0.00000000E+00  0.00000000E+00
  0.00000000E+00  0.00000000E+00  0.00000000E+00
  0.00000000E+00  0.00000000E+00  0.00000000E+00
  0.00000000E+00  0.00000000E+00  0.00000000E+00
  0.00000000E+00  0.00000000E+00  0.00000000E+00
  0.00000000E+00  0.00000000E+00  0.00000000E+00
  0.00000000E+00  0.00000000E+00  0.00000000E+00
  0.00000000E+00  0.00000000E+00  0.00000000E+00
  0.00000000E+00  0.00000000E+00  0.00000000E+00
  0.00000000E+00  0.00000000E+00  0.00000000E+00
  0.00000000E+00  0.00000000E+00  0.00000000E+00
  0.00000000E+00  0.00000000E+00  0.00000000E+00
  0.00000000E+00  0.00000000E+00  0.00000000E+00
  0.00000000E+00  0.00000000E+00  0.00000000E+00
  0.00000000E+00  0.00000000E+00  0.00000000E+00
  0.00000000E+00  0.00000000E+00  0.00000000E+00
  0.00000000E+00  0.00000000E+00  0.00000000E+00
  0.00000000E+00  0.00000000E+00  0.00000000E+00
  0.00000000E+00  0.00000000E+00  0.00000000E+00
  0.00000000E+00  0.00000000E+00  0.00000000E+00
  0.00000000E+00  0.00000000E+00  0.00000000E+00
  0.00000000E+00  0.00000000E+00  0.00000000E+00
  0.00000000E+00  0.00000000E+00  0.00000000E+00
  0.00000000E+00  0.00000000E+00  0.00000000E+00
  0.00000000E+00  0.00000000E+00  0.00000000E+00
  0.00000000E+00  0.00000000E+00  0.00000000E+00
  0.00000000E+00  0.00000000E+00  0.00000000E+00
  0.00000000E+00  0.00000000E+00  0.00000000E+00
  0.00000000E+00  0.00000000E+00  0.00000000E+00
  0.00000000E+00  0.00000000E+00  0.00000000E+00
  0.00000000E+00  0.00000000E+00  0.00000000E+00
  0.00000000E+00  0.00000000E+00  0.00000000E+00
  0.00000000E+00  0.00000000E+00  0.00000000E+00
  0.00000000E+00  0.00000000E+00  0.00000000E+00
  0.00000000E+00  0.00000000E+00  0.00000000E+00
  0.00000000E+00  0.00000000E+00  0.00000000E+00
  0.00000000E+00  0.00000000E+00  0.00000000E+00
  0.00000000E+00  0.00000000E+00  0.00000000E+00
  0.00000000E+00  0.00000000E+00  0.00000000E+00
  0.00000000E+00  0.00000000E+00  0.00000000E+00
  0.00000000E+00  0.00000000E+00  0.00000000E+00
  0.00000000E+00  0.00000000E+00  0.00000000E+00
  0.00000000E+00  0.00000000E+00  0.00000000E+00
  0.00000000E+00  0.00000000E+00  0.00000000E+00
  0.00000000E+00  0.00000000E+00  0.00000000E+00
  0.00000000E+00  0.00000000E+00  0.00000000E+00
  0.00000000E+00  0.00000000E+00  0.00000000E+00
  0.00000000E+00  0.00000000E+00  0.00000000E+00
  0.00000000E+00  0.00000000E+00  0.00000000E+00
  0.00000000E+00  0.00000000E+00  0.00000000E+00
  0.00000000E+00  0.00000000E+00  0.00000000E+00
  0.00000000E+00  0.00000000E+00  0.00000000E+00
  0.00000000E+00  0.00000000E+00  0.00000000E+00
  0.00000000E+00  0.00000000E+00  0.00000000E+00
  0.00000000E+00  0.00000000E+00  0.00000000E+00
  0.00000000E+00  0.00000000E+00  0.00000000E+00
  0.00000000E+00  0.00000000E+00  0.00000000E+00
  0.00000000E+00  0.00000000E+00  0.00000000E+00
  0.00000000E+00  0.00000000E+00  0.00000000E+00
  0.00000000E+00  0.00000000E+00  0.00000000E+00
  0.00000000E+00  0.00000000E+00  0.00000000E+00
  0.00000000E+00  0.00000000E+00  0.00000000E+00
  0.00000000E+00  0.00000000E+00  0.00000000E+00
  0.00000000E+00  0.00000000E+00  0.00000000E+00
  0.00000000E+00  0.00000000E+00  0.00000000E+00
  0.00000000E+00  0.00000000E+00  0.00000000E+00
  0.00000000E+00  0.00000000E+00  0.00000000E+00
  0.00000000E+00  0.00000000E+00  0.00000000E+00
  0.00000000E+00  0.00000000E+00  0.00000000E+00
  0.00000000E+00  0.00000000E+00  0.00000000E+00
  0.00000000E+00  0.00000000E+00  0.00000000E+00
  0.00000000E+00  0.00000000E+00  0.00000000E+00
  0.00000000E+00  0.00000000E+00  0.00000000E+00
  0.00000000E+00  0.00000000E+00  0.00000000E+00
  0.00000000E+00  0.00000000E+00  0.00000000E+00
  0.00000000E+00  0.00000000E+00  0.00000000E+00
  0.00000000E+00  0.00000000E+00  0.00000000E+00
  0.00000000E+00  0.00000000E+00  0.00000000E+00
  0.00000000E+00  0.00000000E+00  0.00000000E+00
  0.00000000E+00  0.00000000E+00  0.00000000E+00
  0.00000000E+00  0.00000000E+00  0.00000000E+00
  0.00000000E+00  0.00000000E+00  0.00000000E+00
  0.00000000E+00  0.00000000E+00  0.00000000E+00
  0.00000000E+00  0.00000000E+00  0.00000000E+00
  0.00000000E+00  0.00000000E+00  0.00000000E+00
  0.00000000E+00  0.00000000E+00  0.00000000E+00
  0.00000000E+00  0.00000000E+00  0.00000000E+00
  0.00000000E+00  0.00000000E+00  0.00000000E+00
  0.00000000E+00  0.00000000E+00  0.00000000E+00
  0.00000000E+00  0.00000000E+00  0.00000000E+00
  0.00000000E+00  0.00000000E+00  0.00000000E+00
  0.00000000E+00  0.00000000E+00  0.00000000E+00
  0.00000000E+00  0.00000000E+00  0.00000000E+00
  0.00000000E+00  0.00000000E+00  0.00000000E+00
  0.00000000E+00  0.00000000E+00  0.00000000E+00
  0.00000000E+00  0.00000000E+00  0.00000000E+00
  0.00000000E+00  0.00000000E+00  0.00000000E+00
  0.00000000E+00  0.00000000E+00  0.00000000E+00
  0.00000000E+00  0.00000000E+00  0.00000000E+00
  0.00000000E+00  0.00000000E+00  0.00000000E+00
  0.00000000E+00  0.00000000E+00  0.00000000E+00
  0.00000000E+00  0.00000000E+00  0.00000000E+00
  0.00000000E+00  0.00000000E+00  0.00000000E+00
  0.00000000E+00  0.00000000E+00  0.00000000E+00
  0.00000000E+00  0.00000000E+00  0.00000000E+00
  0.00000000E+00  0.00000000E+00  0.00000000E+00
  0.00000000E+00  0.00000000E+00  0.00000000E+00
  0.00000000E+00  0.00000000E+00  0.00000000E+00
  0.00000000E+00  0.00000000E+00  0.00000000E+00
  0.00000000E+00  0.00000000E+00  0.00000000E+00
  0.00000000E+00  0.00000000E+00  0.00000000E+00
  0.00000000E+00  0.00000000E+00  0.00000000E+00
  0.00000000E+00  0.00000000E+00  0.00000000E+00
  0.00000000E+00  0.00000000E+00  0.00000000E+00
  0.00000000E+00  0.00000000E+00  0.00000000E+00
  0.00000000E+00  0.00000000E+00  0.00000000E+00
