C H O Si                                
   1.00000000000000     
     9.2874599999999994    0.0000000000000000    0.0000000000000000
     0.0000000000000000    8.7563099999999991    0.0000000000000000
     0.0000000000000000    0.0000000000000000   58.0000000000000000
   C    H    O    Si
    36    31    16    36
Selective dynamics
Direct
  0.9958762893079990  0.1307629846062677  0.0594624523777317   T   T   T
  0.3293940831497234  0.1310075342109466  0.0595053502549296   T   T   T
  0.6625630506056540  0.1309204514136893  0.0595731681645118   T   T   T
  0.9958712427211759  0.6311078661306501  0.0594737419483016   T   T   T
  0.3292775918896854  0.6307138981794977  0.0595214553879680   T   T   T
  0.6626387602074310  0.6306455235054483  0.0595651479482743   T   T   T
  0.1615573626039449  0.3765380331516260  0.1382041194754473   T   T   T
  0.4949275267503782  0.3767822124309576  0.1386876815595620   T   T   T
  0.8282712440706747  0.3765849686034182  0.1382772629426143   T   T   T
  0.1619500447144411  0.8764086703192704  0.1383504581065566   T   T   T
  0.4949583633582842  0.8745296923123186  0.1383705517634642   T   T   T
  0.8277598454894737  0.8764557988832304  0.1384237056312625   T   T   T
  0.3281547726927190  0.1269009337793234  0.1656892344837942   T   T   T
  0.6616335759368492  0.1271443737118489  0.1658203688675442   T   T   T
  0.9948281330141098  0.1256445998184245  0.1653213301483371   T   T   T
  0.3278848533457532  0.6266953900962462  0.1657272277931081   T   T   T
  0.6619583189039048  0.6267544190048173  0.1657103896833766   T   T   T
  0.9948684341781245  0.6265735633306946  0.1653547389202737   T   T   T
  0.1612177180745782  0.3781192143055846  0.1902449114943386   T   T   T
  0.4943656001638025  0.3850450896696483  0.1918131345717653   T   T   T
  0.8288529899553303  0.3790130322662790  0.1904997305952917   T   T   T
  0.1615523118254426  0.8806604206913062  0.1907618289301002   T   T   T
  0.4948925340228769  0.8776093140159783  0.1913541977293346   T   T   T
  0.8286161642837145  0.8810176251610280  0.1909529552546862   T   T   T
  0.1620151618128942  0.3766513923281752  0.0847777012105896   T   T   T
  0.4953295216837845  0.3767425449400295  0.0849904778915149   T   T   T
  0.8286847644239439  0.3766782284251947  0.0848254346113915   T   T   T
  0.1621538121883023  0.8768637911818506  0.0848315756648504   T   T   T
  0.4953230999759122  0.8765736171156291  0.0847865162671979   T   T   T
  0.8285257734108725  0.8768647718652535  0.0848867356685302   T   T   T
  0.3286509041698574  0.1262903138104735  0.1120770964582903   T   T   T
  0.6615509543729267  0.1262717988070520  0.1121406606022583   T   T   T
  0.9950562406198207  0.1262318286529502  0.1119737109389590   T   T   T
  0.3284449840245980  0.6262107337680470  0.1120607477747611   T   T   T
  0.6617749633058504  0.6261647173926426  0.1120790401098304   T   T   T
  0.9950827687674627  0.6268224871452415  0.1119486104713404   T   T   T
  0.0769086999155275  0.3622977394486735  0.0265329871148592   T   T   T
  0.4107268003958442  0.3625571735049022  0.0266413478234566   T   T   T
  0.7433332479763571  0.3621928786306454  0.0265752430063238   T   T   T
  0.0773006149931203  0.8625003869682762  0.0265575070355416   T   T   T
  0.4107072714312985  0.8619953155751341  0.0265027580896020   T   T   T
  0.7427598821902215  0.8620402532190167  0.0266468203157023   T   T   T
  0.3273855896005548  0.0581812909271108  0.0440318591504045   T   T   T
  0.6597729332713990  0.0580064192825452  0.0441109322880672   T   T   T
  0.9933123797120712  0.0580878970421212  0.0439780530769793   T   T   T
  0.3266539341219931  0.5578669840012620  0.0440527161010232   T   T   T
  0.6603684952681266  0.5577906175296120  0.0440976959579180   T   T   T
  0.9932513385791196  0.5586405046498090  0.0439622775202156   T   T   T
  0.8308034691284261  0.8070915599985740  0.2063145880081733   T   T   T
  0.8317811921417154  0.3063840532041948  0.2059779149254145   T   T   T
  0.1631210356374772  0.3056748114570946  0.2057510359696888   T   T   T
  0.4966395949959499  0.3103393336595988  0.2070856968007546   T   T   T
  0.1632827761231995  0.8067163350563132  0.2061048660972591   T   T   T
  0.0896361106299613  0.1107520983162161  0.2226839673215442   T   T   T
  0.4165477642609564  0.1027178248655132  0.2239053501649589   T   T   T
  0.7553491612917710  0.1156790458981805  0.2222884524921361   T   T   T
  0.0938869737702678  0.5997651185049017  0.2221268875251480   T   T   T
  0.3666268903575342  0.5672323090700954  0.2302883691654679   T   T   T
  0.7831385510378243  0.5909383668036898  0.2224707148908213   T   T   T
  0.5047745690564733  0.5442664957640448  0.2662102101283554   T   T   T
  0.4730971748390481  0.4559560023138955  0.3007296826095791   T   T   T
  0.5215088279033875  0.6234732662212286  0.3090055589353090   T   T   T
  0.2899817149657180  0.2737493925426502  0.2965487100812326   T   T   T
  0.4392563144286154  0.2156741778371575  0.2886715418783433   T   T   T
  0.6384806438849471  0.7726130866318049  0.3349955146988496   T   T   T
  0.5024753849727236  0.8623083704026603  0.3274746051635983   T   T   T
  0.5700390195736943  0.5378356595455803  0.2404230881385301   T   T   T
  0.1714040975766621  0.3368767812176759  0.0328595052586660   T   T   T
  0.5051346506907732  0.3377685406363676  0.0330507068421199   T   T   T
  0.8378847732275173  0.3370260196367438  0.0329066978623061   T   T   T
  0.1717100998465714  0.8370034942359466  0.0329047448765714   T   T   T
  0.5051455684787209  0.8364023929320961  0.0328394544394761   T   T   T
  0.8374742720813620  0.8372466200387989  0.0329514879511559   T   T   T
  0.3205739141735948  0.0890875454388042  0.2172813576420018   T   T   T
  0.6575984002864391  0.0887709600525499  0.2175713199125744   T   T   T
  0.9918460759041879  0.0879912207728730  0.2173599789713097   T   T   T
  0.2969349106731954  0.5885744269478208  0.2175724266379437   T   T   T
  0.6808539772310268  0.5833631944288704  0.2182307034690377   T   T   T
  0.9930774286659273  0.5836984756173418  0.2171548625980799   T   T   T
  0.5291153496302463  0.5477121771867763  0.2963545225095408   T   T   T
  0.3904080797466778  0.2673849074745058  0.3013400605891044   T   T   T
  0.5363775522786296  0.7605880545347197  0.3315807239019817   T   T   T
  0.4866343842519626  0.5079082767536131  0.2502837066399299   T   T   T
  0.4961981440321694  0.2483029726078668  0.0590086275310502   T   T   T
  0.8293722479384070  0.2480625392071097  0.0588946265857319   T   T   T
  0.1628821446294707  0.7481339088752113  0.0589003168083350   T   T   T
  0.4961833343713286  0.7480170416645235  0.0588961840406191   T   T   T
  0.8292362322576436  0.7482191142473243  0.0589395257532485   T   T   T
  0.1627696340085766  0.2480114398355350  0.0588544966427157   T   T   T
  0.9948543986967558  0.0004129311010577  0.1386707753598909   T   T   T
  0.3298730939919722  0.0009043159606986  0.1389533556445242   T   T   T
  0.6599814466542437  0.0010660234224755  0.1390356840833049   T   T   T
  0.9949845421876581  0.5011139828084290  0.1385939257402085   T   T   T
  0.3284169513028444  0.5018964539119170  0.1389623417894567   T   T   T
  0.6614754759985926  0.5018194295866102  0.1389351336052038   T   T   T
  0.1621794211051407  0.2488334799995417  0.1646906544278706   T   T   T
  0.4946757143324960  0.2514148546074068  0.1655684785440298   T   T   T
  0.8277860725592022  0.2490666336459020  0.1647979862310924   T   T   T
  0.1620885655995643  0.7507852233001296  0.1650130118234003   T   T   T
  0.4948358457691946  0.7540577123425624  0.1663982706434086   T   T   T
  0.8279819806818518  0.7510147079646842  0.1651199224502055   T   T   T
  0.3338078959513502  0.9912435091142787  0.1916874302755660   T   T   T
  0.6555826152808089  0.9914752390968629  0.1918924560472722   T   T   T
  0.9952445970828544  0.9971521969185277  0.1913777702295968   T   T   T
  0.3248908987397253  0.5004823074201653  0.1920287593049826   T   T   T
  0.9953950670230586  0.4953964740418839  0.1910114246244748   T   T   T
  0.6636566619386154  0.4991092192029951  0.1917552960651100   T   T   T
  0.9954203174439317  0.0009225602089640  0.0855101836914681   T   T   T
  0.3290876934074380  0.0010597822798162  0.0855722309634618   T   T   T
  0.6617797012295056  0.0010614340201043  0.0856313653547973   T   T   T
  0.9954105009008106  0.5010370177847019  0.0854992984551580   T   T   T
  0.3287745492423687  0.5009905692756679  0.0855950690890999   T   T   T
  0.6620841276698830  0.5009725513569486  0.0856189994945913   T   T   T
  0.1620495170207517  0.2511393928520780  0.1118107618890787   T   T   T
  0.4950885958959278  0.2514157180564643  0.1121015459766741   T   T   T
  0.8281799247431785  0.2510772167447258  0.1118600461853508   T   T   T
  0.1621559784695225  0.7513758240309063  0.1118786140718010   T   T   T
  0.4951091492235905  0.7514726472280221  0.1119805368844573   T   T   T
  0.8280558919926074  0.7513839030663984  0.1119291837162864   T   T   T
 
  0.00000000E+00  0.00000000E+00  0.00000000E+00
  0.00000000E+00  0.00000000E+00  0.00000000E+00
  0.00000000E+00  0.00000000E+00  0.00000000E+00
  0.00000000E+00  0.00000000E+00  0.00000000E+00
  0.00000000E+00  0.00000000E+00  0.00000000E+00
  0.00000000E+00  0.00000000E+00  0.00000000E+00
  0.00000000E+00  0.00000000E+00  0.00000000E+00
  0.00000000E+00  0.00000000E+00  0.00000000E+00
  0.00000000E+00  0.00000000E+00  0.00000000E+00
  0.00000000E+00  0.00000000E+00  0.00000000E+00
  0.00000000E+00  0.00000000E+00  0.00000000E+00
  0.00000000E+00  0.00000000E+00  0.00000000E+00
  0.00000000E+00  0.00000000E+00  0.00000000E+00
  0.00000000E+00  0.00000000E+00  0.00000000E+00
  0.00000000E+00  0.00000000E+00  0.00000000E+00
  0.00000000E+00  0.00000000E+00  0.00000000E+00
  0.00000000E+00  0.00000000E+00  0.00000000E+00
  0.00000000E+00  0.00000000E+00  0.00000000E+00
  0.00000000E+00  0.00000000E+00  0.00000000E+00
  0.00000000E+00  0.00000000E+00  0.00000000E+00
  0.00000000E+00  0.00000000E+00  0.00000000E+00
  0.00000000E+00  0.00000000E+00  0.00000000E+00
  0.00000000E+00  0.00000000E+00  0.00000000E+00
  0.00000000E+00  0.00000000E+00  0.00000000E+00
  0.00000000E+00  0.00000000E+00  0.00000000E+00
  0.00000000E+00  0.00000000E+00  0.00000000E+00
  0.00000000E+00  0.00000000E+00  0.00000000E+00
  0.00000000E+00  0.00000000E+00  0.00000000E+00
  0.00000000E+00  0.00000000E+00  0.00000000E+00
  0.00000000E+00  0.00000000E+00  0.00000000E+00
  0.00000000E+00  0.00000000E+00  0.00000000E+00
  0.00000000E+00  0.00000000E+00  0.00000000E+00
  0.00000000E+00  0.00000000E+00  0.00000000E+00
  0.00000000E+00  0.00000000E+00  0.00000000E+00
  0.00000000E+00  0.00000000E+00  0.00000000E+00
  0.00000000E+00  0.00000000E+00  0.00000000E+00
  0.00000000E+00  0.00000000E+00  0.00000000E+00
  0.00000000E+00  0.00000000E+00  0.00000000E+00
  0.00000000E+00  0.00000000E+00  0.00000000E+00
  0.00000000E+00  0.00000000E+00  0.00000000E+00
  0.00000000E+00  0.00000000E+00  0.00000000E+00
  0.00000000E+00  0.00000000E+00  0.00000000E+00
  0.00000000E+00  0.00000000E+00  0.00000000E+00
  0.00000000E+00  0.00000000E+00  0.00000000E+00
  0.00000000E+00  0.00000000E+00  0.00000000E+00
  0.00000000E+00  0.00000000E+00  0.00000000E+00
  0.00000000E+00  0.00000000E+00  0.00000000E+00
  0.00000000E+00  0.00000000E+00  0.00000000E+00
  0.00000000E+00  0.00000000E+00  0.00000000E+00
  0.00000000E+00  0.00000000E+00  0.00000000E+00
  0.00000000E+00  0.00000000E+00  0.00000000E+00
  0.00000000E+00  0.00000000E+00  0.00000000E+00
  0.00000000E+00  0.00000000E+00  0.00000000E+00
  0.00000000E+00  0.00000000E+00  0.00000000E+00
  0.00000000E+00  0.00000000E+00  0.00000000E+00
  0.00000000E+00  0.00000000E+00  0.00000000E+00
  0.00000000E+00  0.00000000E+00  0.00000000E+00
  0.00000000E+00  0.00000000E+00  0.00000000E+00
  0.00000000E+00  0.00000000E+00  0.00000000E+00
  0.00000000E+00  0.00000000E+00  0.00000000E+00
  0.00000000E+00  0.00000000E+00  0.00000000E+00
  0.00000000E+00  0.00000000E+00  0.00000000E+00
  0.00000000E+00  0.00000000E+00  0.00000000E+00
  0.00000000E+00  0.00000000E+00  0.00000000E+00
  0.00000000E+00  0.00000000E+00  0.00000000E+00
  0.00000000E+00  0.00000000E+00  0.00000000E+00
  0.00000000E+00  0.00000000E+00  0.00000000E+00
  0.00000000E+00  0.00000000E+00  0.00000000E+00
  0.00000000E+00  0.00000000E+00  0.00000000E+00
  0.00000000E+00  0.00000000E+00  0.00000000E+00
  0.00000000E+00  0.00000000E+00  0.00000000E+00
  0.00000000E+00  0.00000000E+00  0.00000000E+00
  0.00000000E+00  0.00000000E+00  0.00000000E+00
  0.00000000E+00  0.00000000E+00  0.00000000E+00
  0.00000000E+00  0.00000000E+00  0.00000000E+00
  0.00000000E+00  0.00000000E+00  0.00000000E+00
  0.00000000E+00  0.00000000E+00  0.00000000E+00
  0.00000000E+00  0.00000000E+00  0.00000000E+00
  0.00000000E+00  0.00000000E+00  0.00000000E+00
  0.00000000E+00  0.00000000E+00  0.00000000E+00
  0.00000000E+00  0.00000000E+00  0.00000000E+00
  0.00000000E+00  0.00000000E+00  0.00000000E+00
  0.00000000E+00  0.00000000E+00  0.00000000E+00
  0.00000000E+00  0.00000000E+00  0.00000000E+00
  0.00000000E+00  0.00000000E+00  0.00000000E+00
  0.00000000E+00  0.00000000E+00  0.00000000E+00
  0.00000000E+00  0.00000000E+00  0.00000000E+00
  0.00000000E+00  0.00000000E+00  0.00000000E+00
  0.00000000E+00  0.00000000E+00  0.00000000E+00
  0.00000000E+00  0.00000000E+00  0.00000000E+00
  0.00000000E+00  0.00000000E+00  0.00000000E+00
  0.00000000E+00  0.00000000E+00  0.00000000E+00
  0.00000000E+00  0.00000000E+00  0.00000000E+00
  0.00000000E+00  0.00000000E+00  0.00000000E+00
  0.00000000E+00  0.00000000E+00  0.00000000E+00
  0.00000000E+00  0.00000000E+00  0.00000000E+00
  0.00000000E+00  0.00000000E+00  0.00000000E+00
  0.00000000E+00  0.00000000E+00  0.00000000E+00
  0.00000000E+00  0.00000000E+00  0.00000000E+00
  0.00000000E+00  0.00000000E+00  0.00000000E+00
  0.00000000E+00  0.00000000E+00  0.00000000E+00
  0.00000000E+00  0.00000000E+00  0.00000000E+00
  0.00000000E+00  0.00000000E+00  0.00000000E+00
  0.00000000E+00  0.00000000E+00  0.00000000E+00
  0.00000000E+00  0.00000000E+00  0.00000000E+00
  0.00000000E+00  0.00000000E+00  0.00000000E+00
  0.00000000E+00  0.00000000E+00  0.00000000E+00
  0.00000000E+00  0.00000000E+00  0.00000000E+00
  0.00000000E+00  0.00000000E+00  0.00000000E+00
  0.00000000E+00  0.00000000E+00  0.00000000E+00
  0.00000000E+00  0.00000000E+00  0.00000000E+00
  0.00000000E+00  0.00000000E+00  0.00000000E+00
  0.00000000E+00  0.00000000E+00  0.00000000E+00
  0.00000000E+00  0.00000000E+00  0.00000000E+00
  0.00000000E+00  0.00000000E+00  0.00000000E+00
  0.00000000E+00  0.00000000E+00  0.00000000E+00
  0.00000000E+00  0.00000000E+00  0.00000000E+00
  0.00000000E+00  0.00000000E+00  0.00000000E+00
  0.00000000E+00  0.00000000E+00  0.00000000E+00
