C H O Si                                
   1.00000000000000     
     9.2874599999999994    0.0000000000000000    0.0000000000000000
     0.0000000000000000    8.7563099999999991    0.0000000000000000
     0.0000000000000000    0.0000000000000000   58.0000000000000000
   C    H    O    Si
    36    31    16    36
Selective dynamics
Direct
  0.9958964403538233  0.1307434372635855  0.0594713819257466   T   T   T
  0.3294397810727240  0.1310503161001897  0.0595087594222689   T   T   T
  0.6625530255043112  0.1308692725533482  0.0595846026187066   T   T   T
  0.9958933629094727  0.6310995934251936  0.0594904764812501   T   T   T
  0.3293415175601644  0.6308074304140721  0.0595217720654755   T   T   T
  0.6626204044361527  0.6306737224375495  0.0595721288114266   T   T   T
  0.1615766102919387  0.3765452180687413  0.1382030129486101   T   T   T
  0.4947967345893821  0.3768197733775884  0.1386905496495516   T   T   T
  0.8283564308304389  0.3765406099099208  0.1382814038279328   T   T   T
  0.1620254876061510  0.8764630635827928  0.1383547759137279   T   T   T
  0.4947973908117838  0.8744150963068708  0.1383737570858443   T   T   T
  0.8276975431122359  0.8765192609492362  0.1384182842995909   T   T   T
  0.3281787991331592  0.1268728827302897  0.1657054375977991   T   T   T
  0.6616438442153023  0.1271592763662320  0.1658411160093723   T   T   T
  0.9946569161310062  0.1257779303020500  0.1653026378909583   T   T   T
  0.3278593967911676  0.6268105899250805  0.1657354912043023   T   T   T
  0.6619903156323474  0.6267718666744099  0.1657216286150458   T   T   T
  0.9948243771982523  0.6264750551731039  0.1653303138375724   T   T   T
  0.1610391904074817  0.3781116100669831  0.1902415529228801   T   T   T
  0.4942941080504240  0.3850671553559128  0.1918285132944101   T   T   T
  0.8288417651725462  0.3790479810510899  0.1904957982072285   T   T   T
  0.1617793844853575  0.8806227619316079  0.1907518687815857   T   T   T
  0.4949824523498131  0.8775394774790835  0.1913226031241503   T   T   T
  0.8284742720427879  0.8810842855918140  0.1909588929939134   T   T   T
  0.1620294117399450  0.3766835773576852  0.0847869876722092   T   T   T
  0.4953131789485024  0.3767366981247254  0.0849879164303611   T   T   T
  0.8287303348118200  0.3767341774064095  0.0848369989972368   T   T   T
  0.1622623368575230  0.8768997637296915  0.0848278748259933   T   T   T
  0.4953027802347068  0.8765216174719446  0.0847833449450745   T   T   T
  0.8284989850895577  0.8769284085139011  0.0848900799568720   T   T   T
  0.3285225775005740  0.1262706170360716  0.1120748717825556   T   T   T
  0.6616442033899229  0.1262699209860435  0.1121299635504225   T   T   T
  0.9949419558837725  0.1262381838167734  0.1119870314380954   T   T   T
  0.3284510304107699  0.6262015203446823  0.1120607254447805   T   T   T
  0.6617526592284344  0.6261892556140879  0.1120743193792777   T   T   T
  0.9949186739959477  0.6267717463931282  0.1119391288762213   T   T   T
  0.0770271541105784  0.3622442827940331  0.0265370260797446   T   T   T
  0.4108513367839555  0.3624930260795049  0.0266371397867784   T   T   T
  0.7434471225582806  0.3621374610098509  0.0265731062470959   T   T   T
  0.0774001331593732  0.8624510005577467  0.0265619749790437   T   T   T
  0.4108144946401144  0.8619462920364271  0.0265052383570518   T   T   T
  0.7428778383396132  0.8619978888002771  0.0266485741400532   T   T   T
  0.3274985155491311  0.0581980412473865  0.0440341324071247   T   T   T
  0.6599104587978389  0.0580043698728718  0.0441121053996827   T   T   T
  0.9934489568569486  0.0581218436437214  0.0439745180606884   T   T   T
  0.3267555189652037  0.5579148252817759  0.0440552183992422   T   T   T
  0.6604865603003399  0.5578350824844127  0.0441001424556582   T   T   T
  0.9933319674186502  0.5587401654016912  0.0439630468558018   T   T   T
  0.8308081046873186  0.8071662684193761  0.2063232765530945   T   T   T
  0.8317334077217784  0.3064607946807217  0.2059749162084618   T   T   T
  0.1630274937209314  0.3055595181987711  0.2057418463780614   T   T   T
  0.4965548614151422  0.3103405970739559  0.2071040915651048   T   T   T
  0.1633223540586494  0.8067702890125175  0.2061065809022123   T   T   T
  0.0898414568438859  0.1108513006361134  0.2226638247030987   T   T   T
  0.4169635227198883  0.1022478697777778  0.2238783839054996   T   T   T
  0.7555211950941312  0.1155869948987353  0.2222759491929858   T   T   T
  0.0939403519507198  0.5998093505553674  0.2220927250828197   T   T   T
  0.3666483558602359  0.5674379983917927  0.2302812652420680   T   T   T
  0.7830455345507585  0.5909080888829958  0.2224630045026496   T   T   T
  0.5047510859904536  0.5445769117690249  0.2661675416303581   T   T   T
  0.4729315894921874  0.4558637848533186  0.3007169160412702   T   T   T
  0.5213483158089437  0.6235395395973328  0.3089991589054300   T   T   T
  0.2900026520422264  0.2736136077407774  0.2965089658288024   T   T   T
  0.4394071733408765  0.2159407286164078  0.2886122450354592   T   T   T
  0.6386018542933598  0.7724614600704365  0.3349779311417037   T   T   T
  0.5025903453797337  0.8623678829576209  0.3275057457333840   T   T   T
  0.5698315544982120  0.5380699568080042  0.2404077153625526   T   T   T
  0.1715651316596197  0.3369184890117801  0.0328575502876785   T   T   T
  0.5052581613284354  0.3377577194613823  0.0330509530266022   T   T   T
  0.8380846122877940  0.3371168487961182  0.0328921810903863   T   T   T
  0.1718520108766198  0.8370215134687213  0.0329016786466271   T   T   T
  0.5052761221719543  0.8364102080296714  0.0328417153478503   T   T   T
  0.8376326378937167  0.8372286547211090  0.0329416527627271   T   T   T
  0.3208098099971058  0.0889461387165522  0.2173031759526001   T   T   T
  0.6577694071527252  0.0889456722351059  0.2175326039848742   T   T   T
  0.9919506891369044  0.0878768246030314  0.2173940720471487   T   T   T
  0.2966909779981312  0.5882681504865451  0.2175880910105187   T   T   T
  0.6808061332247610  0.5831042808186323  0.2182184875065449   T   T   T
  0.9930277950953393  0.5840420577005944  0.2171414552705979   T   T   T
  0.5288958391689551  0.5476901708577565  0.2963562696182111   T   T   T
  0.3903996348289227  0.2672889260079007  0.3013035967658399   T   T   T
  0.5365160024793852  0.7605405135144250  0.3315426750113909   T   T   T
  0.4867503538739607  0.5073656749106947  0.2502818902173305   T   T   T
  0.4962314411932802  0.2483661702254996  0.0590259936583108   T   T   T
  0.8293831392589882  0.2481620770800882  0.0589055299994068   T   T   T
  0.1629601862159289  0.7482189573678553  0.0589155950077640   T   T   T
  0.4962146621915918  0.7480809263538403  0.0589070073914776   T   T   T
  0.8292604611672011  0.7482854747821276  0.0589554348839404   T   T   T
  0.1628346463294189  0.2481024952480431  0.0588673483643225   T   T   T
  0.9947824172809834  0.0004803139627809  0.1386770095712421   T   T   T
  0.3297948525854539  0.0008774848167505  0.1389585179108187   T   T   T
  0.6598443215314370  0.0010294387250838  0.1390450589976166   T   T   T
  0.9948566067878305  0.5010819567076674  0.1385967972998667   T   T   T
  0.3282268813012855  0.5019493471252729  0.1389635588862918   T   T   T
  0.6614532035483894  0.5018194314381126  0.1389460217909602   T   T   T
  0.1621237766761511  0.2487854546314946  0.1646815534105208   T   T   T
  0.4946235462923610  0.2512583235141388  0.1655773415237683   T   T   T
  0.8276349836102357  0.2490611782722238  0.1648058110030274   T   T   T
  0.1620749837868010  0.7507022357642741  0.1650218065512183   T   T   T
  0.4947864364273319  0.7541057552532144  0.1663969633051339   T   T   T
  0.8278809805644806  0.7509808857775870  0.1651348259333614   T   T   T
  0.3340930280242488  0.9911434529479513  0.1917160564915721   T   T   T
  0.6554416923818672  0.9914271342799511  0.1919254472802835   T   T   T
  0.9952689371877766  0.9971551047011127  0.1913669686838134   T   T   T
  0.3247843093756606  0.5004914180401935  0.1920283044321620   T   T   T
  0.9952664848671324  0.4954187409483664  0.1910102623754176   T   T   T
  0.6635325904716846  0.4991265928715843  0.1917675550247699   T   T   T
  0.9952801188127657  0.0009431560293225  0.0855229646560783   T   T   T
  0.3289648133546191  0.0011002523115431  0.0855745841340960   T   T   T
  0.6616415389342216  0.0010419327579951  0.0856325905398937   T   T   T
  0.9952954522129350  0.5010543344606857  0.0854949815907266   T   T   T
  0.3286888482422669  0.5009976575292140  0.0856009338722287   T   T   T
  0.6619349583306174  0.5010020835452594  0.0856266496456043   T   T   T
  0.1618449212708401  0.2510823775901789  0.1118276566102800   T   T   T
  0.4950168279692712  0.2514385235934037  0.1121111720600206   T   T   T
  0.8281492253861874  0.2511380406567057  0.1118782376366218   T   T   T
  0.1620491088520427  0.7513614684449706  0.1118816656801498   T   T   T
  0.4950249300479727  0.7514469645204838  0.1119896711418021   T   T   T
  0.8279150032193725  0.7514006579999493  0.1119307184997540   T   T   T
 
  0.00000000E+00  0.00000000E+00  0.00000000E+00
  0.00000000E+00  0.00000000E+00  0.00000000E+00
  0.00000000E+00  0.00000000E+00  0.00000000E+00
  0.00000000E+00  0.00000000E+00  0.00000000E+00
  0.00000000E+00  0.00000000E+00  0.00000000E+00
  0.00000000E+00  0.00000000E+00  0.00000000E+00
  0.00000000E+00  0.00000000E+00  0.00000000E+00
  0.00000000E+00  0.00000000E+00  0.00000000E+00
  0.00000000E+00  0.00000000E+00  0.00000000E+00
  0.00000000E+00  0.00000000E+00  0.00000000E+00
  0.00000000E+00  0.00000000E+00  0.00000000E+00
  0.00000000E+00  0.00000000E+00  0.00000000E+00
  0.00000000E+00  0.00000000E+00  0.00000000E+00
  0.00000000E+00  0.00000000E+00  0.00000000E+00
  0.00000000E+00  0.00000000E+00  0.00000000E+00
  0.00000000E+00  0.00000000E+00  0.00000000E+00
  0.00000000E+00  0.00000000E+00  0.00000000E+00
  0.00000000E+00  0.00000000E+00  0.00000000E+00
  0.00000000E+00  0.00000000E+00  0.00000000E+00
  0.00000000E+00  0.00000000E+00  0.00000000E+00
  0.00000000E+00  0.00000000E+00  0.00000000E+00
  0.00000000E+00  0.00000000E+00  0.00000000E+00
  0.00000000E+00  0.00000000E+00  0.00000000E+00
  0.00000000E+00  0.00000000E+00  0.00000000E+00
  0.00000000E+00  0.00000000E+00  0.00000000E+00
  0.00000000E+00  0.00000000E+00  0.00000000E+00
  0.00000000E+00  0.00000000E+00  0.00000000E+00
  0.00000000E+00  0.00000000E+00  0.00000000E+00
  0.00000000E+00  0.00000000E+00  0.00000000E+00
  0.00000000E+00  0.00000000E+00  0.00000000E+00
  0.00000000E+00  0.00000000E+00  0.00000000E+00
  0.00000000E+00  0.00000000E+00  0.00000000E+00
  0.00000000E+00  0.00000000E+00  0.00000000E+00
  0.00000000E+00  0.00000000E+00  0.00000000E+00
  0.00000000E+00  0.00000000E+00  0.00000000E+00
  0.00000000E+00  0.00000000E+00  0.00000000E+00
  0.00000000E+00  0.00000000E+00  0.00000000E+00
  0.00000000E+00  0.00000000E+00  0.00000000E+00
  0.00000000E+00  0.00000000E+00  0.00000000E+00
  0.00000000E+00  0.00000000E+00  0.00000000E+00
  0.00000000E+00  0.00000000E+00  0.00000000E+00
  0.00000000E+00  0.00000000E+00  0.00000000E+00
  0.00000000E+00  0.00000000E+00  0.00000000E+00
  0.00000000E+00  0.00000000E+00  0.00000000E+00
  0.00000000E+00  0.00000000E+00  0.00000000E+00
  0.00000000E+00  0.00000000E+00  0.00000000E+00
  0.00000000E+00  0.00000000E+00  0.00000000E+00
  0.00000000E+00  0.00000000E+00  0.00000000E+00
  0.00000000E+00  0.00000000E+00  0.00000000E+00
  0.00000000E+00  0.00000000E+00  0.00000000E+00
  0.00000000E+00  0.00000000E+00  0.00000000E+00
  0.00000000E+00  0.00000000E+00  0.00000000E+00
  0.00000000E+00  0.00000000E+00  0.00000000E+00
  0.00000000E+00  0.00000000E+00  0.00000000E+00
  0.00000000E+00  0.00000000E+00  0.00000000E+00
  0.00000000E+00  0.00000000E+00  0.00000000E+00
  0.00000000E+00  0.00000000E+00  0.00000000E+00
  0.00000000E+00  0.00000000E+00  0.00000000E+00
  0.00000000E+00  0.00000000E+00  0.00000000E+00
  0.00000000E+00  0.00000000E+00  0.00000000E+00
  0.00000000E+00  0.00000000E+00  0.00000000E+00
  0.00000000E+00  0.00000000E+00  0.00000000E+00
  0.00000000E+00  0.00000000E+00  0.00000000E+00
  0.00000000E+00  0.00000000E+00  0.00000000E+00
  0.00000000E+00  0.00000000E+00  0.00000000E+00
  0.00000000E+00  0.00000000E+00  0.00000000E+00
  0.00000000E+00  0.00000000E+00  0.00000000E+00
  0.00000000E+00  0.00000000E+00  0.00000000E+00
  0.00000000E+00  0.00000000E+00  0.00000000E+00
  0.00000000E+00  0.00000000E+00  0.00000000E+00
  0.00000000E+00  0.00000000E+00  0.00000000E+00
  0.00000000E+00  0.00000000E+00  0.00000000E+00
  0.00000000E+00  0.00000000E+00  0.00000000E+00
  0.00000000E+00  0.00000000E+00  0.00000000E+00
  0.00000000E+00  0.00000000E+00  0.00000000E+00
  0.00000000E+00  0.00000000E+00  0.00000000E+00
  0.00000000E+00  0.00000000E+00  0.00000000E+00
  0.00000000E+00  0.00000000E+00  0.00000000E+00
  0.00000000E+00  0.00000000E+00  0.00000000E+00
  0.00000000E+00  0.00000000E+00  0.00000000E+00
  0.00000000E+00  0.00000000E+00  0.00000000E+00
  0.00000000E+00  0.00000000E+00  0.00000000E+00
  0.00000000E+00  0.00000000E+00  0.00000000E+00
  0.00000000E+00  0.00000000E+00  0.00000000E+00
  0.00000000E+00  0.00000000E+00  0.00000000E+00
  0.00000000E+00  0.00000000E+00  0.00000000E+00
  0.00000000E+00  0.00000000E+00  0.00000000E+00
  0.00000000E+00  0.00000000E+00  0.00000000E+00
  0.00000000E+00  0.00000000E+00  0.00000000E+00
  0.00000000E+00  0.00000000E+00  0.00000000E+00
  0.00000000E+00  0.00000000E+00  0.00000000E+00
  0.00000000E+00  0.00000000E+00  0.00000000E+00
  0.00000000E+00  0.00000000E+00  0.00000000E+00
  0.00000000E+00  0.00000000E+00  0.00000000E+00
  0.00000000E+00  0.00000000E+00  0.00000000E+00
  0.00000000E+00  0.00000000E+00  0.00000000E+00
  0.00000000E+00  0.00000000E+00  0.00000000E+00
  0.00000000E+00  0.00000000E+00  0.00000000E+00
  0.00000000E+00  0.00000000E+00  0.00000000E+00
  0.00000000E+00  0.00000000E+00  0.00000000E+00
  0.00000000E+00  0.00000000E+00  0.00000000E+00
  0.00000000E+00  0.00000000E+00  0.00000000E+00
  0.00000000E+00  0.00000000E+00  0.00000000E+00
  0.00000000E+00  0.00000000E+00  0.00000000E+00
  0.00000000E+00  0.00000000E+00  0.00000000E+00
  0.00000000E+00  0.00000000E+00  0.00000000E+00
  0.00000000E+00  0.00000000E+00  0.00000000E+00
  0.00000000E+00  0.00000000E+00  0.00000000E+00
  0.00000000E+00  0.00000000E+00  0.00000000E+00
  0.00000000E+00  0.00000000E+00  0.00000000E+00
  0.00000000E+00  0.00000000E+00  0.00000000E+00
  0.00000000E+00  0.00000000E+00  0.00000000E+00
  0.00000000E+00  0.00000000E+00  0.00000000E+00
  0.00000000E+00  0.00000000E+00  0.00000000E+00
  0.00000000E+00  0.00000000E+00  0.00000000E+00
  0.00000000E+00  0.00000000E+00  0.00000000E+00
  0.00000000E+00  0.00000000E+00  0.00000000E+00
  0.00000000E+00  0.00000000E+00  0.00000000E+00
  0.00000000E+00  0.00000000E+00  0.00000000E+00
  0.00000000E+00  0.00000000E+00  0.00000000E+00
  0.00000000E+00  0.00000000E+00  0.00000000E+00
