C H O Si                                
   1.00000000000000     
     9.2874599999999994    0.0000000000000000    0.0000000000000000
     0.0000000000000000    8.7562999999999995    0.0000000000000000
     0.0000000000000000    0.0000000000000000   58.0000000000000000
   C    H    O    Si
    36    33    16    36
Selective dynamics
Direct
  0.0011447045725292  0.1357120592200828  0.3756435071383751   T   T   T
  0.0011222501327817  0.6358164885855346  0.3756601675157086   T   T   T
  0.3345480136989047  0.1358119211767876  0.3757381055517835   T   T   T
  0.3344775416279314  0.6357161060967671  0.3757453664824891   T   T   T
  0.6675945160684997  0.1357397274837643  0.3757590203763844   T   T   T
  0.6676325219522570  0.6356311235759292  0.3757485111470844   T   T   T
  0.1677326092177840  0.3815541646735624  0.4010700038047633   T   T   T
  0.1677766874784587  0.8815731455653389  0.4011027197373072   T   T   T
  0.5010463602075339  0.3815816050415998  0.4012420566386187   T   T   T
  0.5009990538428476  0.8815334626178771  0.4011661973732213   T   T   T
  0.8343846271823445  0.3814780939365265  0.4010449318379818   T   T   T
  0.8343074537194862  0.8815256775588644  0.4010792070278171   T   T   T
  0.0009516599473670  0.1311962655141885  0.4281628774868836   T   T   T
  0.0009448779535407  0.6314459168968496  0.4281799919762387   T   T   T
  0.3344179258386057  0.1313724625261360  0.4282827457269265   T   T   T
  0.3343589988823869  0.6312691711451954  0.4283016513095497   T   T   T
  0.6674192386986501  0.1313636652005898  0.4283035172527480   T   T   T
  0.6675135835024645  0.6313412346770552  0.4282690930979431   T   T   T
  0.1675809255602479  0.3811872700995371  0.4545678879025513   T   T   T
  0.1678567792535157  0.8813540019713078  0.4546348231254834   T   T   T
  0.5008262979909800  0.3815566187427656  0.4548714838703182   T   T   T
  0.5008635379957284  0.8810188878343869  0.4547075251054786   T   T   T
  0.8341708593032832  0.3810745997631383  0.4545133781152824   T   T   T
  0.8339616096639807  0.8814020214990400  0.4546121140887852   T   T   T
  0.0010153450485606  0.1308774733127747  0.4815515053275065   T   T   T
  0.0009786631976020  0.6314367138095309  0.4816322478118871   T   T   T
  0.3347659116892045  0.1321764818971644  0.4818900988804872   T   T   T
  0.3339583931751507  0.6314668172610568  0.4819435916313607   T   T   T
  0.6667666549969337  0.1317498798881424  0.4819467228418106   T   T   T
  0.6677942475947006  0.6316781914579122  0.4818486820614262   T   T   T
  0.1672756305105745  0.3836590279409548  0.5069172422498821   T   T   T
  0.1667912988158042  0.8860782528564549  0.5071516539031732   T   T   T
  0.5010212883142859  0.3895708834539544  0.5080403686443231   T   T   T
  0.5003352097053904  0.8849926065479659  0.5071957735426815   T   T   T
  0.8350620744016216  0.3828048611693458  0.5067071084713550   T   T   T
  0.8343931010187908  0.8857047961418660  0.5070486550900497   T   T   T
  0.0036681923965135  0.0635417076945593  0.3600871352115951   T   T   T
  0.0036038289336626  0.5636737633327550  0.3601017260477623   T   T   T
  0.3373180729121263  0.0635432689283409  0.3601960104931921   T   T   T
  0.3370768159401726  0.5633502451919296  0.3602111949877801   T   T   T
  0.6695894057482294  0.0633573062501515  0.3602245039506944   T   T   T
  0.6698664502532438  0.5632833232250649  0.3602124537668138   T   T   T
  0.1685299934237460  0.3117226688073296  0.5224875311164797   T   T   T
  0.1684263205747775  0.8134276832251954  0.5226415170027677   T   T   T
  0.5039123798829607  0.3156534530774869  0.5234066307210914   T   T   T
  0.4999830186840508  0.8120255498577661  0.5226612715474532   T   T   T
  0.8381957239859423  0.3111194864299681  0.5223049335587368   T   T   T
  0.8377557025699891  0.8142641819853859  0.5226396159564725   T   T   T
  0.0848294712185007  0.1123978298870968  0.5404622452618393   T   T   T
  0.0850195720669753  0.6073969522812226  0.5400630053622129   T   T   T
  0.4206412439014233  0.1175219922189878  0.5399498451829372   T   T   T
  0.3819178311872365  0.6331187587411174  0.5433828000990758   T   T   T
  0.7554351523916132  0.1111560298844719  0.5402466669087673   T   T   T
  0.7937080765631237  0.5970200574489113  0.5380076576445040   T   T   T
  0.2543221616270848  0.3590316926490210  0.3421385391811042   T   T   T
  0.2543574921572040  0.8589162207302097  0.3421589452114801   T   T   T
  0.5872054089125174  0.3590526796972159  0.3422422227069597   T   T   T
  0.5871010621035139  0.8587905653324444  0.3421719939263377   T   T   T
  0.9195624318293824  0.3588336768280623  0.3420347130909321   T   T   T
  0.9195363033111020  0.8589705561752715  0.3420738098885621   T   T   T
  0.5491823735673992  0.6201932814090644  0.5862558264911543   T   T   T
  0.4930034308900783  0.4770079702265632  0.6052423427733699   T   T   T
  0.5711611512231518  0.6357512918188778  0.6156483457108618   T   T   T
  0.3116278176198530  0.3858542116774054  0.6231522197039142   T   T   T
  0.4177854009561321  0.2539278319543385  0.6166766915016106   T   T   T
  0.6444554543710840  0.7386711252734468  0.6473558909586818   T   T   T
  0.4792063380847055  0.7626603405497252  0.6431911958575858   T   T   T
  0.5383683446982026  0.8090847560677534  0.5653166709026224   T   T   T
  0.6003057673426453  0.6585550907880584  0.5520532656837422   T   T   T
  0.1602474729390811  0.3451421195437626  0.3493858490103991   T   T   T
  0.1603082476369134  0.8452429272321352  0.3494241118609007   T   T   T
  0.4932802390736339  0.3459035025809342  0.3495718333162165   T   T   T
  0.4931538752366977  0.8453641781669989  0.3494827871148065   T   T   T
  0.8257921924500664  0.3447652783640237  0.3493661095312844   T   T   T
  0.8257559880683581  0.8449276130845648  0.3494039933663667   T   T   T
 -0.0091096763833099  0.0948102033391962  0.5333673905950903   T   T   T
 -0.0102222261597269  0.5906830267538392  0.5331959041466007   T   T   T
  0.3258713182538547  0.0925862895583845  0.5336906493183090   T   T   T
  0.3043721640230151  0.5939026846869914  0.5336091325718705   T   T   T
  0.6597138937054539  0.0892620348592053  0.5340060237259975   T   T   T
  0.6902610419452802  0.5931009864650250  0.5337530629123318   T   T   T
  0.5685863336729629  0.5603521642296123  0.6019716730854395   T   T   T
  0.3794709564076265  0.3518948668075657  0.6111806095572850   T   T   T
  0.5728115092200918  0.7562645435251157  0.6351728947947827   T   T   T
  0.5286600341164031  0.6982424002676051  0.5646272504139934   T   T   T
  0.1677478163612292  0.2530842262218815  0.3749218332559273   T   T   T
  0.1677687377994803  0.7530931578937281  0.3749522951881764   T   T   T
  0.5009662631478546  0.2532442183240068  0.3750621686982303   T   T   T
  0.5009462524665993  0.7531148366795813  0.3750075138865382   T   T   T
  0.8342235553820014  0.2529010241527676  0.3749189961302102   T   T   T
  0.8341692206951057  0.7529448994006269  0.3749479471128822   T   T   T
  0.0010353450110506  0.0056451785902576  0.4015316827205120   T   T   T
  0.0010342068742092  0.5057412751835624  0.4015358704751036   T   T   T
  0.3343816416892474  0.0057706183679297  0.4016214494890843   T   T   T
  0.3343330440303177  0.5057527426618709  0.4016411531479062   T   T   T
  0.6675550731059963  0.0057173240144580  0.4016385932197664   T   T   T
  0.6676571212440905  0.5056492042018650  0.4016229600937414   T   T   T
  0.1676274941567243  0.2562250581696862  0.4278961168529729   T   T   T
  0.1677990633682873  0.7563250270214857  0.4279443545730052   T   T   T
  0.5008731700005130  0.2563662257163882  0.4280906800730073   T   T   T
  0.5008720928969863  0.7562180496207279  0.4279838812042484   T   T   T
  0.8342637352045241  0.2560927304635437  0.4278594497872457   T   T   T
  0.8341745510936656  0.7563226439627746  0.4279216620699481   T   T   T
  0.0009836935250541  0.0058001941534679  0.4546908574091877   T   T   T
  0.0009286021915621  0.5060034677413225  0.4546715792336947   T   T   T
  0.3345539588366437  0.0063982223909566  0.4548562477516432   T   T   T
  0.3340257311001537  0.5062232863026658  0.4549001003911010   T   T   T
  0.6670945442235255  0.0061953154275904  0.4548676858031036   T   T   T
  0.6676320846664939  0.5060028012747957  0.4547927122218958   T   T   T
  0.1673809566251508  0.2550396800383621  0.4809961782998238   T   T   T
  0.1674111806177109  0.7560651785071482  0.4811701066756784   T   T   T
  0.5007875894404038  0.2574144704055683  0.4815513489204556   T   T   T
  0.5005049759136343  0.7552632677820967  0.4811782945983563   T   T   T
  0.8344773422578117  0.2541572272879405  0.4808630885893895   T   T   T
  0.8345974072379293  0.7559400528360444  0.4811007095689650   T   T   T
  0.0003580905613110  0.0035469007421909  0.5076620637455681   T   T   T
  0.0009849045681769  0.5007622988652511  0.5072959077028929   T   T   T
  0.3333277923879787  0.0030405065644895  0.5078192353907529   T   T   T
  0.3312900618921296  0.5043660552571279  0.5081793878624736   T   T   T
  0.6673864664434634  0.0020945557473398  0.5078519113889318   T   T   T
  0.6706450700175008  0.5019138153753654  0.5075311573360451   T   T   T
 
  0.00000000E+00  0.00000000E+00  0.00000000E+00
  0.00000000E+00  0.00000000E+00  0.00000000E+00
  0.00000000E+00  0.00000000E+00  0.00000000E+00
  0.00000000E+00  0.00000000E+00  0.00000000E+00
  0.00000000E+00  0.00000000E+00  0.00000000E+00
  0.00000000E+00  0.00000000E+00  0.00000000E+00
  0.00000000E+00  0.00000000E+00  0.00000000E+00
  0.00000000E+00  0.00000000E+00  0.00000000E+00
  0.00000000E+00  0.00000000E+00  0.00000000E+00
  0.00000000E+00  0.00000000E+00  0.00000000E+00
  0.00000000E+00  0.00000000E+00  0.00000000E+00
  0.00000000E+00  0.00000000E+00  0.00000000E+00
  0.00000000E+00  0.00000000E+00  0.00000000E+00
  0.00000000E+00  0.00000000E+00  0.00000000E+00
  0.00000000E+00  0.00000000E+00  0.00000000E+00
  0.00000000E+00  0.00000000E+00  0.00000000E+00
  0.00000000E+00  0.00000000E+00  0.00000000E+00
  0.00000000E+00  0.00000000E+00  0.00000000E+00
  0.00000000E+00  0.00000000E+00  0.00000000E+00
  0.00000000E+00  0.00000000E+00  0.00000000E+00
  0.00000000E+00  0.00000000E+00  0.00000000E+00
  0.00000000E+00  0.00000000E+00  0.00000000E+00
  0.00000000E+00  0.00000000E+00  0.00000000E+00
  0.00000000E+00  0.00000000E+00  0.00000000E+00
  0.00000000E+00  0.00000000E+00  0.00000000E+00
  0.00000000E+00  0.00000000E+00  0.00000000E+00
  0.00000000E+00  0.00000000E+00  0.00000000E+00
  0.00000000E+00  0.00000000E+00  0.00000000E+00
  0.00000000E+00  0.00000000E+00  0.00000000E+00
  0.00000000E+00  0.00000000E+00  0.00000000E+00
  0.00000000E+00  0.00000000E+00  0.00000000E+00
  0.00000000E+00  0.00000000E+00  0.00000000E+00
  0.00000000E+00  0.00000000E+00  0.00000000E+00
  0.00000000E+00  0.00000000E+00  0.00000000E+00
  0.00000000E+00  0.00000000E+00  0.00000000E+00
  0.00000000E+00  0.00000000E+00  0.00000000E+00
  0.00000000E+00  0.00000000E+00  0.00000000E+00
  0.00000000E+00  0.00000000E+00  0.00000000E+00
  0.00000000E+00  0.00000000E+00  0.00000000E+00
  0.00000000E+00  0.00000000E+00  0.00000000E+00
  0.00000000E+00  0.00000000E+00  0.00000000E+00
  0.00000000E+00  0.00000000E+00  0.00000000E+00
  0.00000000E+00  0.00000000E+00  0.00000000E+00
  0.00000000E+00  0.00000000E+00  0.00000000E+00
  0.00000000E+00  0.00000000E+00  0.00000000E+00
  0.00000000E+00  0.00000000E+00  0.00000000E+00
  0.00000000E+00  0.00000000E+00  0.00000000E+00
  0.00000000E+00  0.00000000E+00  0.00000000E+00
  0.00000000E+00  0.00000000E+00  0.00000000E+00
  0.00000000E+00  0.00000000E+00  0.00000000E+00
  0.00000000E+00  0.00000000E+00  0.00000000E+00
  0.00000000E+00  0.00000000E+00  0.00000000E+00
  0.00000000E+00  0.00000000E+00  0.00000000E+00
  0.00000000E+00  0.00000000E+00  0.00000000E+00
  0.00000000E+00  0.00000000E+00  0.00000000E+00
  0.00000000E+00  0.00000000E+00  0.00000000E+00
  0.00000000E+00  0.00000000E+00  0.00000000E+00
  0.00000000E+00  0.00000000E+00  0.00000000E+00
  0.00000000E+00  0.00000000E+00  0.00000000E+00
  0.00000000E+00  0.00000000E+00  0.00000000E+00
  0.00000000E+00  0.00000000E+00  0.00000000E+00
  0.00000000E+00  0.00000000E+00  0.00000000E+00
  0.00000000E+00  0.00000000E+00  0.00000000E+00
  0.00000000E+00  0.00000000E+00  0.00000000E+00
  0.00000000E+00  0.00000000E+00  0.00000000E+00
  0.00000000E+00  0.00000000E+00  0.00000000E+00
  0.00000000E+00  0.00000000E+00  0.00000000E+00
  0.00000000E+00  0.00000000E+00  0.00000000E+00
  0.00000000E+00  0.00000000E+00  0.00000000E+00
  0.00000000E+00  0.00000000E+00  0.00000000E+00
  0.00000000E+00  0.00000000E+00  0.00000000E+00
  0.00000000E+00  0.00000000E+00  0.00000000E+00
  0.00000000E+00  0.00000000E+00  0.00000000E+00
  0.00000000E+00  0.00000000E+00  0.00000000E+00
  0.00000000E+00  0.00000000E+00  0.00000000E+00
  0.00000000E+00  0.00000000E+00  0.00000000E+00
  0.00000000E+00  0.00000000E+00  0.00000000E+00
  0.00000000E+00  0.00000000E+00  0.00000000E+00
  0.00000000E+00  0.00000000E+00  0.00000000E+00
  0.00000000E+00  0.00000000E+00  0.00000000E+00
  0.00000000E+00  0.00000000E+00  0.00000000E+00
  0.00000000E+00  0.00000000E+00  0.00000000E+00
  0.00000000E+00  0.00000000E+00  0.00000000E+00
  0.00000000E+00  0.00000000E+00  0.00000000E+00
  0.00000000E+00  0.00000000E+00  0.00000000E+00
  0.00000000E+00  0.00000000E+00  0.00000000E+00
  0.00000000E+00  0.00000000E+00  0.00000000E+00
  0.00000000E+00  0.00000000E+00  0.00000000E+00
  0.00000000E+00  0.00000000E+00  0.00000000E+00
  0.00000000E+00  0.00000000E+00  0.00000000E+00
  0.00000000E+00  0.00000000E+00  0.00000000E+00
  0.00000000E+00  0.00000000E+00  0.00000000E+00
  0.00000000E+00  0.00000000E+00  0.00000000E+00
  0.00000000E+00  0.00000000E+00  0.00000000E+00
  0.00000000E+00  0.00000000E+00  0.00000000E+00
  0.00000000E+00  0.00000000E+00  0.00000000E+00
  0.00000000E+00  0.00000000E+00  0.00000000E+00
  0.00000000E+00  0.00000000E+00  0.00000000E+00
  0.00000000E+00  0.00000000E+00  0.00000000E+00
  0.00000000E+00  0.00000000E+00  0.00000000E+00
  0.00000000E+00  0.00000000E+00  0.00000000E+00
  0.00000000E+00  0.00000000E+00  0.00000000E+00
  0.00000000E+00  0.00000000E+00  0.00000000E+00
  0.00000000E+00  0.00000000E+00  0.00000000E+00
  0.00000000E+00  0.00000000E+00  0.00000000E+00
  0.00000000E+00  0.00000000E+00  0.00000000E+00
  0.00000000E+00  0.00000000E+00  0.00000000E+00
  0.00000000E+00  0.00000000E+00  0.00000000E+00
  0.00000000E+00  0.00000000E+00  0.00000000E+00
  0.00000000E+00  0.00000000E+00  0.00000000E+00
  0.00000000E+00  0.00000000E+00  0.00000000E+00
  0.00000000E+00  0.00000000E+00  0.00000000E+00
  0.00000000E+00  0.00000000E+00  0.00000000E+00
  0.00000000E+00  0.00000000E+00  0.00000000E+00
  0.00000000E+00  0.00000000E+00  0.00000000E+00
  0.00000000E+00  0.00000000E+00  0.00000000E+00
  0.00000000E+00  0.00000000E+00  0.00000000E+00
  0.00000000E+00  0.00000000E+00  0.00000000E+00
  0.00000000E+00  0.00000000E+00  0.00000000E+00
  0.00000000E+00  0.00000000E+00  0.00000000E+00
  0.00000000E+00  0.00000000E+00  0.00000000E+00
