C H O Si                                
   1.00000000000000     
    18.5749199999999988    0.0000000000000000    0.0000000000000000
     0.0000000000000000   17.5126199999999983    0.0000000000000000
     0.0000000000000000    0.0000000000000000   55.0000000000000000
   C    H    O    Si
   144   105    52   144
Selective dynamics
Direct
  0.4965999365973042  0.0632553420253684  0.0638033037036559   T   T   T
  0.1632809343483721  0.0632756414256880  0.0638710010372276   T   T   T
  0.3298818163833703  0.0632715940722036  0.0638479141924663   T   T   T
  0.4964135913029769  0.3133151274230790  0.0638095497494024   T   T   T
  0.1630992178047164  0.3132891130061213  0.0638621665193665   T   T   T
  0.3297482597275964  0.3132795889256017  0.0638449764584799   T   T   T
  0.0800222064550396  0.1858935594651537  0.1469973297235806   T   T   T
  0.2466209624355662  0.1858297406472441  0.1470457670579724   T   T   T
  0.4132316603472053  0.1859302447774145  0.1469951396719074   T   T   T
  0.0799762568300655  0.4359900831112508  0.1470609359677884   T   T   T
  0.2466108136773384  0.4359395761940699  0.1470658234854714   T   T   T
  0.4132426296178357  0.4359513344410189  0.1470559890326163   T   T   T
  0.1635547728360527  0.0609491170964009  0.1756504247636550   T   T   T
  0.3299271841480973  0.0609528143135870  0.1756168609662761   T   T   T
  0.4966099968853538  0.0609327740814957  0.1756020754664082   T   T   T
  0.1633463517526411  0.3110003187802347  0.1756379026131651   T   T   T
  0.3299584972791381  0.3110287259104484  0.1756551230512458   T   T   T
  0.4964928903097234  0.3110459501675682  0.1756530097059232   T   T   T
  0.0803524842902295  0.1878738975932573  0.2023473763295424   T   T   T
  0.2467558462545500  0.1881455079305756  0.2024271833209288   T   T   T
  0.4131006905613737  0.1877365035644597  0.2023081178184910   T   T   T
  0.0799828298262462  0.4382083763524199  0.2024836249575745   T   T   T
  0.2465876937496417  0.4381144727801045  0.2024646899832377   T   T   T
  0.4132958392903921  0.4381403837230851  0.2024683650245627   T   T   T
  0.0798891067066635  0.1861201355866757  0.0905905939597701   T   T   T
  0.2465500863472222  0.1861394327637308  0.0906247978945351   T   T   T
  0.4132150290548081  0.1861073956208513  0.0905707291020290   T   T   T
  0.0798583147477245  0.4361295349318370  0.0906173682319863   T   T   T
  0.2465121344817681  0.4361224192260447  0.0906262115288977   T   T   T
  0.4131686881384826  0.4361068516781412  0.0906112792046868   T   T   T
  0.1632715281086422  0.0608706237631507  0.1192167746437915   T   T   T
  0.3300006959933878  0.0608698925339224  0.1191972534146519   T   T   T
  0.4966318318316777  0.0609565684397962  0.1191958252375076   T   T   T
  0.1632157385283326  0.3109790491985524  0.1192172444374189   T   T   T
  0.3298443145754766  0.3109618249419419  0.1192226903780887   T   T   T
  0.4965053866166564  0.3109765450492563  0.1191987265997651   T   T   T
  0.4965952761697334  0.5633023870995243  0.0638383235899102   T   T   T
  0.1632536718996823  0.5633085790190082  0.0638661582534030   T   T   T
  0.3299144015670400  0.5633011868609049  0.0638673317153392   T   T   T
  0.4964463881093955  0.8133186864550678  0.0638387001760487   T   T   T
  0.1631028544941961  0.8132645002035864  0.0638505122881210   T   T   T
  0.3297385312232569  0.8132861688810837  0.0638405778425358   T   T   T
  0.0799788047677021  0.6860611823603064  0.1470566434877819   T   T   T
  0.2466336256483614  0.6859892379200122  0.1470888245361473   T   T   T
  0.4132750762754357  0.6860173698991882  0.1470585231510248   T   T   T
  0.0799989156348790  0.9358065544185109  0.1470515081858394   T   T   T
  0.2466478800764033  0.9358038409321364  0.1470471309593445   T   T   T
  0.4133346726610509  0.9358668759453648  0.1470323235112444   T   T   T
  0.1633841038576469  0.5610997922255838  0.1756669613685362   T   T   T
  0.3300198167199455  0.5610205923191708  0.1756880652955870   T   T   T
  0.4966309008858560  0.5611792427483265  0.1756458897665566   T   T   T
  0.1634054934097890  0.8111154262484218  0.1757112129319278   T   T   T
  0.3300949911032862  0.8111171387199634  0.1756720241675286   T   T   T
  0.4967887067406285  0.8111036216152885  0.1756915872003488   T   T   T
  0.0801090620536184  0.6882962119092700  0.2024538627111526   T   T   T
  0.2468204748766702  0.6884058543711130  0.2024993749815531   T   T   T
  0.4134391407360503  0.6882410773326189  0.2024337006293135   T   T   T
  0.0800970057986306  0.9382447429895895  0.2024881035314590   T   T   T
  0.2468293278000768  0.9382204841023998  0.2024735292026026   T   T   T
  0.4134718703721402  0.9382227814464136  0.2024346082499365   T   T   T
  0.0798514272490312  0.6861532127000673  0.0906131948437317   T   T   T
  0.2465424480116559  0.6861117521797634  0.0906301014558221   T   T   T
  0.4132230814233879  0.6861421643699632  0.0906128513227909   T   T   T
  0.0798477100862578  0.9360426693178894  0.0906081892905124   T   T   T
  0.2465099661950466  0.9360683149510665  0.0906193671178619   T   T   T
  0.4132026170393947  0.9360571441734703  0.0905931666830656   T   T   T
  0.1632696724204925  0.5610157247723083  0.1192338354513952   T   T   T
  0.3299373030004761  0.5609973171737607  0.1192406953899642   T   T   T
  0.4965867831238061  0.5609998940007038  0.1192286800662320   T   T   T
  0.1631979000661125  0.8109156409545366  0.1192292221704091   T   T   T
  0.3298732196808444  0.8109229895654326  0.1192196061490203   T   T   T
  0.4966027747648388  0.8109856673924195  0.1192355943208614   T   T   T
  0.9965924576153128  0.0632596280935784  0.0638085895943246   T   T   T
  0.6632857898947064  0.0633084931096141  0.0639036975059483   T   T   T
  0.8298739778497046  0.0633127289126973  0.0638863672718182   T   T   T
  0.9964209467039000  0.3133310967660631  0.0638018223533722   T   T   T
  0.6630891483298096  0.3132802240325283  0.0639078425679684   T   T   T
  0.8297315272806715  0.3132914260598091  0.0638862357511617   T   T   T
  0.5798762391256391  0.1859852067624727  0.1470247709874592   T   T   T
  0.7465886509122535  0.1862244436776612  0.1472911209643535   T   T   T
  0.9133645089808320  0.1859451397868606  0.1469372633491875   T   T   T
  0.5798927260005718  0.4359772279160140  0.1470742140739174   T   T   T
  0.7466156525719297  0.4358844596911552  0.1471114985768842   T   T   T
  0.9133355424566371  0.4359987332221355  0.1470505138782857   T   T   T
  0.6635046363532736  0.0616062668487516  0.1758408308638080   T   T   T
  0.8298067151600842  0.0614975920940717  0.1757727423897718   T   T   T
  0.9969040889947751  0.0607486161224121  0.1755588574282921   T   T   T
  0.6631066800194427  0.3110915387527710  0.1758626742361887   T   T   T
  0.8302067067402813  0.3111668728991956  0.1757980295185329   T   T   T
  0.9968384059831618  0.3110627551768724  0.1755795132640837   T   T   T
  0.5795506684517306  0.1877591813927594  0.2022807040166936   T   T   T
  0.7466909063833017  0.1902663942776257  0.2033747104594684   T   T   T
  0.9140303652526127  0.1871641713762182  0.2020021105640661   T   T   T
  0.5797016790477332  0.4384903831988818  0.2024462556255714   T   T   T
  0.7464991000755989  0.4378431964587550  0.2024207387575905   T   T   T
  0.9135581529677091  0.4384279116478268  0.2023419698700140   T   T   T
  0.5798713944031065  0.1861192542983832  0.0905960639278815   T   T   T
  0.7465304087966090  0.1861750273039074  0.0907434753469617   T   T   T
  0.9132157111957171  0.1861169060380548  0.0905581030022084   T   T   T
  0.5798315129903596  0.4361139821299597  0.0906239811537752   T   T   T
  0.7465002846854807  0.4361115306730349  0.0906563831114605   T   T   T
  0.9131748538102757  0.4361316564257219  0.0906112231875106   T   T   T
  0.6633047928067096  0.0610630816022926  0.1192914992519373   T   T   T
  0.8299059505778309  0.0610560753802493  0.1192680385661966   T   T   T
  0.9966562880518290  0.0609260858819870  0.1191930614444231   T   T   T
  0.6631622088483241  0.3110007715252946  0.1193154954078144   T   T   T
  0.8298879544219866  0.3110361607748861  0.1192860803449629   T   T   T
  0.9965682083483964  0.3110176999579790  0.1191735789976576   T   T   T
  0.9965865004567994  0.5633103494816750  0.0638413046605714   T   T   T
  0.6632555346427630  0.5632861092267811  0.0638830520436549   T   T   T
  0.8299044578343392  0.5632870501495909  0.0638878399521333   T   T   T
  0.9964183250372324  0.8133252296126298  0.0638408720361253   T   T   T
  0.6631066764692110  0.8132690602165420  0.0638584784332474   T   T   T
  0.8297400925996821  0.8132952390043261  0.0638502776217734   T   T   T
  0.5799715668366583  0.6860080257572269  0.1470708897641402   T   T   T
  0.7466382025060205  0.6860190695026944  0.1471027807859381   T   T   T
  0.9132656271013033  0.6859898945007233  0.1470781659431745   T   T   T
  0.5800805656621437  0.9361254680877044  0.1471103305947563   T   T   T
  0.7465936315293862  0.9360308222946283  0.1471122411798428   T   T   T
  0.9131891490842483  0.9360922621602736  0.1470911134018158   T   T   T
  0.6634023751849191  0.5611540960894245  0.1757132665132290   T   T   T
  0.8299399811270195  0.5610799727659929  0.1757925414591125   T   T   T
  0.9968044422984458  0.5612214817333007  0.1756443891702257   T   T   T
  0.6634089829054227  0.8111728476128589  0.1757232775671216   T   T   T
  0.8300803794978422  0.8111885533829679  0.1756944412685097   T   T   T
  0.9966962032460372  0.8111260684676292  0.1757007129748176   T   T   T
  0.5801063645978258  0.6882591620293620  0.2024623340076510   T   T   T
  0.7468038790493089  0.6884436747280186  0.2025164997646668   T   T   T
  0.9134262884910025  0.6882219305880225  0.2024547593282339   T   T   T
  0.5801093180453223  0.9383883428513420  0.2024763962094129   T   T   T
  0.7468012949785153  0.9383495358961969  0.2025075785521019   T   T   T
  0.9134441618554077  0.9383821004494053  0.2024583297353123   T   T   T
  0.5798835409558887  0.6861178820628602  0.0906200680893311   T   T   T
  0.7465375541358785  0.6861328429661343  0.0906448847117488   T   T   T
  0.9131937659790619  0.6861291810894227  0.0906194795220674   T   T   T
  0.5798816422374139  0.9361193684870780  0.0906326741943425   T   T   T
  0.7465045373525789  0.9361070216540865  0.0906451580186139   T   T   T
  0.9131572759928288  0.9361336831947736  0.0906252913758508   T   T   T
  0.6632710621578710  0.5609817499024069  0.1192641011302608   T   T   T
  0.8299319315053419  0.5609959638842975  0.1192812484378034   T   T   T
  0.9966212207552502  0.5610166302886402  0.1192271308720236   T   T   T
  0.6632042121063880  0.8110136146956248  0.1192585620009296   T   T   T
  0.8298509655830738  0.8110250339013041  0.1192498257655775   T   T   T
  0.9964488329687265  0.8109888915514070  0.1192361985043530   T   T   T
  0.0371418835815578  0.1749197774828568  0.0283983823930866   T   T   T
  0.2034894527723073  0.1750479626040188  0.0285333074507187   T   T   T
  0.3701446465853667  0.1749444555455374  0.0284328165732550   T   T   T
  0.0370154270295390  0.4249543308456764  0.0284022670068917   T   T   T
  0.2033629628450473  0.4248817953551725  0.0284681613467105   T   T   T
  0.3699581933841000  0.4249120683138194  0.0284461918600303   T   T   T
  0.1621612345594721  0.0270919917680999  0.0474729891922417   T   T   T
  0.3284188062638519  0.0271101308514333  0.0474461772798481   T   T   T
  0.4953412531021888  0.0271143189209396  0.0473887083919558   T   T   T
  0.1618804401493006  0.2770701138135990  0.0474722932391803   T   T   T
  0.3284478122921925  0.2771037533559594  0.0474430295942898   T   T   T
  0.4951748259664835  0.2772032875897284  0.0473890835602476   T   T   T
  0.4148565967154017  0.4017664606424629  0.2188328096094040   T   T   T
  0.4144832925982959  0.1514827825259667  0.2186973062520185   T   T   T
  0.0812616510116068  0.1517759948809638  0.2187724360411776   T   T   T
  0.2479276861145977  0.1518769824285820  0.2188108564693842   T   T   T
  0.0813499839907994  0.4021594049376563  0.2189235973613210   T   T   T
  0.2478170730196702  0.4019242411406130  0.2188736399694216   T   T   T
  0.0397802223858923  0.0500820478618042  0.2377431750436040   T   T   T
  0.2066043500263523  0.0498305201433435  0.2377834470865229   T   T   T
  0.3733945905134378  0.0499453611327880  0.2377195277209085   T   T   T
  0.0373648847791064  0.2998908049230672  0.2380012323627511   T   T   T
  0.2058790044324270  0.2998782100401215  0.2379129039054750   T   T   T
  0.3740727925291059  0.2994819882548224  0.2375576501176245   T   T   T
  0.0370744109564570  0.6749837967133415  0.0284261328598253   T   T   T
  0.2035678323961706  0.6749765313528260  0.0284860254637894   T   T   T
  0.3701959276038953  0.6749173229033618  0.0284577222486841   T   T   T
  0.0369198078634042  0.9249730806984512  0.0284321801113157   T   T   T
  0.2033506380908944  0.9249220150928117  0.0284750949157679   T   T   T
  0.3700339351249142  0.9249604238442416  0.0284561415549021   T   T   T
  0.1620067269212688  0.5271100800671232  0.0474675582344662   T   T   T
  0.3286271066839278  0.5270849664453361  0.0474729525742346   T   T   T
  0.4953211720756313  0.5271418538131236  0.0474287532859978   T   T   T
  0.1618658341395674  0.7770919916740244  0.0474479494866925   T   T   T
  0.3284511597816857  0.7771153807548640  0.0474375491391134   T   T   T
  0.4951881351559529  0.7771325168235905  0.0474380072635741   T   T   T
  0.4146478014832436  0.9021147240482988  0.2188578403836512   T   T   T
  0.4147234325419585  0.6520661993287890  0.2188378897794496   T   T   T
  0.0814679931060472  0.6520499935557830  0.2188373463885705   T   T   T
  0.2483251932404011  0.6523639592244884  0.2189282840699032   T   T   T
  0.0812947219919853  0.9020792631334279  0.2189006501906851   T   T   T
  0.2482058203670874  0.9021436512990597  0.2189024544064886   T   T   T
  0.0390418161311315  0.5514825873260132  0.2376584743351549   T   T   T
  0.2062664528067732  0.5520459857726204  0.2374396422409830   T   T   T
  0.3725269769293362  0.5508427147879168  0.2376893781934209   T   T   T
  0.0396764480620216  0.8000070362084408  0.2378200165177738   T   T   T
  0.2058265009391782  0.8005567119714209  0.2379357251557130   T   T   T
  0.3739630028445583  0.7996770999967792  0.2376984163449164   T   T   T
  0.5371671105293518  0.1749330034201645  0.0283957846991194   T   T   T
  0.7035207785530279  0.1750353296965376  0.0285672670827602   T   T   T
  0.8701143670331114  0.1749356214927024  0.0284338479427124   T   T   T
  0.5370632638787997  0.4249505838681588  0.0284047574024437   T   T   T
  0.7033822104643553  0.4248693790988762  0.0284822810848109   T   T   T
  0.8699222282651482  0.4249130591019111  0.0284524880856540   T   T   T
  0.6621775476029252  0.0271125582386937  0.0475006180020980   T   T   T
  0.8284032467960889  0.0271292709063346  0.0474838664486425   T   T   T
  0.9953376102844577  0.0271131968289113  0.0473970505177177   T   T   T
  0.6618661237406335  0.2770277822318971  0.0475208308667759   T   T   T
  0.8284455188579424  0.2770491947598243  0.0474965147144926   T   T   T
  0.9951792467434775  0.2772079447353301  0.0473849178800931   T   T   T
  0.9150258907252116  0.4026564545099849  0.2187948388752137   T   T   T
  0.9153242683749464  0.1508342007857176  0.2183647480639126   T   T   T
  0.5805607225450790  0.1515477795357356  0.2186772896249359   T   T   T
  0.7480122063495082  0.1529284845495352  0.2195146877212997   T   T   T
  0.5805374050511721  0.4021026978530615  0.2187887353855782   T   T   T
  0.7461909640416731  0.4011552010830122  0.2187101236716823   T   T   T
  0.5396777695370522  0.0504040826224496  0.2377203922828383   T   T   T
  0.7071166733769120  0.0492680572568948  0.2377887824700799   T   T   T
  0.8739159915673121  0.0494505622370031  0.2376882022205845   T   T   T
  0.5397756343802618  0.2996874556873272  0.2371722337125171   T   T   T
  0.6884482004645197  0.3066355624345286  0.2414756012435247   T   T   T
  0.8927271950617505  0.2938170042904792  0.2350992586600498   T   T   T
  0.7760275998100832  0.3082535265966113  0.2876890318406781   T   T   T
  0.7496931955219515  0.2394874572809112  0.3085451824151427   T   T   T
  0.7884227414752065  0.3193996858254853  0.3189581821694188   T   T   T
  0.6575218556105342  0.1954517058209069  0.3270970653224898   T   T   T
  0.7074598120459978  0.1279555019963548  0.3189728730701685   T   T   T
  0.8244469337488102  0.3680763494438817  0.3531044948588449   T   T   T
  0.7411848031591732  0.3752512946041009  0.3494473960362238   T   T   T
  0.7618948091341170  0.3960866766600475  0.2639368051480975   T   T   T
  0.7965365340577244  0.3215466388114143  0.2506592498360968   T   T   T
  0.5371113926347226  0.6749817239470822  0.0284289125010508   T   T   T
  0.7035768036477625  0.6749685227154339  0.0284933761062540   T   T   T
  0.8701702433268431  0.6749143202884899  0.0284621897711089   T   T   T
  0.5369465678902705  0.9249840906360479  0.0284368153414630   T   T   T
  0.7033527737399526  0.9249155925532534  0.0284805464444973   T   T   T
  0.8700125001968357  0.9249472030667067  0.0284589470727800   T   T   T
  0.6619981492514303  0.5270922411318115  0.0474816300951884   T   T   T
  0.8286215370556831  0.5270573317922032  0.0474943565101184   T   T   T
  0.9953252679848652  0.5271348478563695  0.0474349533052909   T   T   T
  0.6618583622191990  0.7770878745691981  0.0474545765825594   T   T   T
  0.8284585588498949  0.7771113939112805  0.0474469263000246   T   T   T
  0.9951799958369558  0.7771350229116316  0.0474407293512779   T   T   T
  0.9146298180739687  0.9022064853356082  0.2188612038601430   T   T   T
  0.9149378681033954  0.6521520509797613  0.2188817580145620   T   T   T
  0.5812444402952103  0.6520363556234842  0.2188563189374803   T   T   T
  0.7483219586628136  0.6524969143561977  0.2189685096999865   T   T   T
  0.5812602375357182  0.9022208277921921  0.2188815279361266   T   T   T
  0.7481526917010788  0.9021275234096625  0.2189060628084590   T   T   T
  0.5390042089127329  0.5513887674305195  0.2376438666511974   T   T   T
  0.7069032751871471  0.5545897221639320  0.2368675894346328   T   T   T
  0.8728945544966153  0.5518492178704072  0.2374307507464815   T   T   T
  0.5397380759124349  0.8000079786094324  0.2378096516553000   T   T   T
  0.7060574032496456  0.8006004561578421  0.2378768882273370   T   T   T
  0.8741451870448063  0.7997055923855004  0.2376533611603638   T   T   T
  0.0840495586361588  0.1680185014975266  0.0361560420744598   T   T   T
  0.2505194520638320  0.1682224487935907  0.0362203684146073   T   T   T
  0.4171560596655531  0.1679143693945819  0.0361141804088754   T   T   T
  0.0839169374629438  0.4179910823801787  0.0361579025241869   T   T   T
  0.2503653716154535  0.4179748686509835  0.0361677339683722   T   T   T
  0.4169643589695262  0.4179874764862372  0.0361420050271236   T   T   T
  0.1595217744711403  0.0428618627570090  0.2301520668139390   T   T   T
  0.3262902630560451  0.0428744681444410  0.2301118207452841   T   T   T
  0.4926423037621611  0.0429951431041105  0.2301104581448750   T   T   T
  0.1590634207471031  0.2926807973944189  0.2301240659829598   T   T   T
  0.3266652397590812  0.2926776085142835  0.2301262573029688   T   T   T
  0.4918384060232484  0.2921704914876763  0.2300983104400789   T   T   T
  0.0839977548555773  0.6680484463612003  0.0361711599467194   T   T   T
  0.2505615479083991  0.6680451133330269  0.0361883222747665   T   T   T
  0.4171910728037965  0.6680226918938501  0.0361626426285016   T   T   T
  0.0838515315827571  0.9180095309109655  0.0361690391295611   T   T   T
  0.2503498938845576  0.9180234683171530  0.0361764020776829   T   T   T
  0.4170284096278268  0.9179945776853118  0.0361536491214690   T   T   T
  0.1591311311608171  0.5433154754232323  0.2300447029541811   T   T   T
  0.3255346757446028  0.5429049917492313  0.2301067416867373   T   T   T
  0.4920399811050099  0.5431605248848201  0.2300870210154038   T   T   T
  0.1589945014829721  0.7930026774507661  0.2301941753325512   T   T   T
  0.3267030038257582  0.7931551300393346  0.2301337334682506   T   T   T
  0.4926892971299686  0.7928232326328943  0.2301772520458309   T   T   T
  0.5840807956267638  0.1680006578984100  0.0361499885694610   T   T   T
  0.7505032992284978  0.1682647446831486  0.0362946825958640   T   T   T
  0.9171239110136292  0.1679562487248748  0.0361198753909270   T   T   T
  0.5839556155947776  0.4179634861214234  0.0361678873274042   T   T   T
  0.7503648143805052  0.4179498677990152  0.0361960374284269   T   T   T
  0.9169192998379274  0.4179848823346951  0.0361532618686151   T   T   T
  0.6598345549515352  0.0429753561004430  0.2302419975188233   T   T   T
  0.8265329614808807  0.0432454037530184  0.2301817758868827   T   T   T
  0.9927187608131091  0.0433278421381035  0.2300731141390900   T   T   T
  0.6496081665190755  0.2937446202817940  0.2301840990162297   T   T   T
  0.8409870251980887  0.2918723076111272  0.2305951793840723   T   T   T
  0.9910852564041164  0.2913335362214291  0.2299735414363734   T   T   T
  0.7874170039895502  0.2810488594083808  0.3047160447462167   T   T   T
  0.6908721126372149  0.1789311838541753  0.3142249614429592   T   T   T
  0.7874514085791305  0.3769247608343339  0.3406649807089389   T   T   T
  0.7612956547614785  0.3403695615612755  0.2642715494930997   T   T   T
  0.5840375951985873  0.6680496150468880  0.0361749577331412   T   T   T
  0.7505658016965648  0.6680354309325046  0.0362000219870362   T   T   T
  0.9171589935669512  0.6680163426754192  0.0361707247622812   T   T   T
  0.5838785487039931  0.9180077947393899  0.0361747189841503   T   T   T
  0.7503507909861740  0.9180411228870866  0.0361871151896565   T   T   T
  0.9169996656972687  0.9180259276232593  0.0361662500243896   T   T   T
  0.6594996088040784  0.5414769472727060  0.2303665613582594   T   T   T
  0.8254695824982164  0.5399139506748212  0.2306716635991582   T   T   T
  0.9920589656633002  0.5427459573371960  0.2301457988022329   T   T   T
  0.6591107789578998  0.7928863270699285  0.2302367577323209   T   T   T
  0.8267651381511217  0.7930442548746165  0.2301782638671697   T   T   T
  0.9926058642676870  0.7928079681390915  0.2301899524928326   T   T   T
  0.2466576403902958  0.1219306627770628  0.0630766163945717   T   T   T
  0.4132974024613015  0.1218649617978271  0.0630096184146121   T   T   T
  0.0798400676091303  0.3719247854082056  0.0630471122444426   T   T   T
  0.2464709855640839  0.3719176284084005  0.0630614299563539   T   T   T
  0.4130879507798013  0.3719298021574968  0.0630338713901702   T   T   T
  0.0800214585840005  0.1218645295574501  0.0630329022878777   T   T   T
  0.4965166429481825  0.4984896683454947  0.1472992006666116   T   T   T
  0.1633551940636347  0.4985101921965728  0.1473051107065529   T   T   T
  0.3299200025231915  0.4984583769050778  0.1473103097129360   T   T   T
  0.4965052415888560  0.2484839699936703  0.1472674068756784   T   T   T
  0.1633774256252056  0.2483834789554956  0.1472577574794148   T   T   T
  0.3299015889780456  0.2484152283676228  0.1472839751537199   T   T   T
  0.0802440088365973  0.1228827000929938  0.1749765140706903   T   T   T
  0.2467453858396376  0.1231444008615001  0.1750707851528715   T   T   T
  0.4132062681585246  0.1230508099710754  0.1750099847284808   T   T   T
  0.0802074952505282  0.3733009730490268  0.1751003544853923   T   T   T
  0.2466652850638930  0.3732107550032088  0.1751245317523565   T   T   T
  0.4131873627151453  0.3732397521903656  0.1751195206407765   T   T   T
  0.1633291231678118  0.4969459383108971  0.2031953263311873   T   T   T
  0.3298722692814184  0.4967610527349937  0.2032202539452967   T   T   T
  0.4963150112162546  0.4970582613450582  0.2031630492038166   T   T   T
  0.1635504669480146  0.2467669804030139  0.2031528665189548   T   T   T
  0.4960841664878410  0.2465456435237880  0.2031459407225928   T   T   T
  0.3300273940922385  0.2467690556027027  0.2031979805023721   T   T   T
  0.4964969438092769  0.4982700142207168  0.0911416022709439   T   T   T
  0.1632159246031572  0.4982778599276307  0.0911513837723861   T   T   T
  0.3298666173938438  0.4982642379323146  0.0911574959020828   T   T   T
  0.4965026681149451  0.2482584543558138  0.0910973130822454   T   T   T
  0.1632151746232754  0.2482637041737036  0.0911327238118528   T   T   T
  0.3298773011962534  0.2482613076608085  0.0911280137424135   T   T   T
  0.0799984900044416  0.1234048122488921  0.1188841611562639   T   T   T
  0.2466630237564721  0.1233751622256455  0.1189293284368562   T   T   T
  0.4133037505952247  0.1234577975935570  0.1188920613980062   T   T   T
  0.0799011312750476  0.3735145760947114  0.1189341584262057   T   T   T
  0.2465464721643650  0.3734921633387508  0.1189513532926106   T   T   T
  0.4131655355027107  0.3734786376101072  0.1189414865263696   T   T   T
  0.2466555344990035  0.6219219997270563  0.0630719651817614   T   T   T
  0.4133071549604564  0.6219271712061588  0.0630511934704167   T   T   T
  0.0798286814055705  0.8718877481812146  0.0630485062173513   T   T   T
  0.2464505723819212  0.8719078076174750  0.0630595331845810   T   T   T
  0.4131107755093704  0.8718932887692654  0.0630357964792114   T   T   T
  0.0800014730173128  0.6219355333592302  0.0630555209966450   T   T   T
  0.4966003564824562  0.9983922552917874  0.1472727782464664   T   T   T
  0.1633743815567138  0.9982808908248194  0.1472884156557527   T   T   T
  0.3299547241752035  0.9983086066440766  0.1472769272596068   T   T   T
  0.4966036895985330  0.7485125286284747  0.1473177749042610   T   T   T
  0.1633244286164007  0.7485258055860778  0.1473288103065544   T   T   T
  0.3299470906670217  0.7485115892314234  0.1473141452291225   T   T   T
  0.0801352275045645  0.6233707568448026  0.1751015496156877   T   T   T
  0.2467300672177839  0.6232932700199821  0.1751582563122869   T   T   T
  0.4132722780462353  0.6232810168788161  0.1751060925205919   T   T   T
  0.0800515477169260  0.8732065820305785  0.1751459407948665   T   T   T
  0.2467441080843714  0.8732206390521167  0.1751434420644133   T   T   T
  0.4134118899847499  0.8732340408410215  0.1751142427887878   T   T   T
  0.1634485904249386  0.9968197463826000  0.2032193130391189   T   T   T
  0.3300941781890726  0.9968685559038335  0.2031765351501512   T   T   T
  0.4966509355880784  0.9969270488188553  0.2031718468108954   T   T   T
  0.1633871013043514  0.7469781013359134  0.2032592764920792   T   T   T
  0.4966643384105724  0.7469076315912787  0.2032185447213105   T   T   T
  0.3301378636279764  0.7470281790855126  0.2032202765269829   T   T   T
  0.4965321655685270  0.9982203985509083  0.0911152760172873   T   T   T
  0.1631994433325991  0.9981459825874444  0.0911361088876149   T   T   T
  0.3298876618079245  0.9981595363852583  0.0911195097173046   T   T   T
  0.4965452180783137  0.7482804982599959  0.0911310039521251   T   T   T
  0.1632095953922698  0.7482397136474944  0.0911403949262938   T   T   T
  0.3298538818248777  0.7482532832295232  0.0911313846448138   T   T   T
  0.0799806284960812  0.6235587990704031  0.1189397781273539   T   T   T
  0.2466369352985539  0.6235224394614325  0.1189642917821875   T   T   T
  0.4132674604651183  0.6235289192149196  0.1189458931349463   T   T   T
  0.0798552969494038  0.8733548323211250  0.1189312875133671   T   T   T
  0.2465234536484947  0.8733689220836043  0.1189330513712668   T   T   T
  0.4131965705423331  0.8733944363026274  0.1189222535651693   T   T   T
  0.7466327904174450  0.1219701682032993  0.0631508898863894   T   T   T
  0.9132968294790336  0.1218582325667453  0.0630039163246561   T   T   T
  0.5797923358606710  0.3719087670990930  0.0630592378984050   T   T   T
  0.7464260968394790  0.3718987054726920  0.0630863591032686   T   T   T
  0.9130912782654598  0.3719181714868071  0.0630385410371003   T   T   T
  0.5800007612980678  0.1218881795322963  0.0630356777284456   T   T   T
  0.9967223599508591  0.4985391995054770  0.1472873619237584   T   T   T
  0.6632021467938761  0.4984494950769211  0.1473216985366632   T   T   T
  0.8299467328858022  0.4984460258681073  0.1473387780422845   T   T   T
  0.9967270578639255  0.2483860372816339  0.1471618716737194   T   T   T
  0.6630529213125322  0.2485086566337030  0.1474082221588376   T   T   T
  0.8300306437882254  0.2483920656423373  0.1472954075527708   T   T   T
  0.5797448613324272  0.1231834635980592  0.1750375229272621   T   T   T
  0.7465884783102659  0.1241341078805774  0.1754882880761897   T   T   T
  0.9136235525449800  0.1225982116031005  0.1747813851271523   T   T   T
  0.5796370019594779  0.3733309328075318  0.1751341205756290   T   T   T
  0.7464248431937035  0.3729629023282388  0.1750667891389253   T   T   T
  0.9136244857012394  0.3733740372541864  0.1750445804089089   T   T   T
  0.6629409092702719  0.4967997754513374  0.2031345211175654   T   T   T
  0.8299474238296721  0.4964801449852216  0.2031705920134191   T   T   T
  0.9967779796516187  0.4971172477989886  0.2031303788343881   T   T   T
  0.6618128073241495  0.2476354871281443  0.2035982197998523   T   T   T
  0.9971282303578258  0.2459509120157521  0.2027291650806824   T   T   T
  0.8314875801313779  0.2462823887343871  0.2029484858671165   T   T   T
  0.9965541840991110  0.4982801974951947  0.0911386097254512   T   T   T
  0.6631640345641346  0.4982445713419615  0.0911702546656613   T   T   T
  0.8298456084459044  0.4982514287102188  0.0911757445722109   T   T   T
  0.9965533670443935  0.2482426014066821  0.0910717769888429   T   T   T
  0.6631485317190751  0.2482685212694991  0.0912005967780415   T   T   T
  0.8298598076756996  0.2482462514945621  0.0911656704850028   T   T   T
  0.5799171173406771  0.1234959644844294  0.1189198609049513   T   T   T
  0.7465844591676079  0.1235459006369315  0.1190744131837846   T   T   T
  0.9133454224437743  0.1234022857733728  0.1188418661786520   T   T   T