C H O Si
1.0
 18.574920000000   0.000000000000   0.000000000000
  0.000000000000  17.512620000000   0.000000000000
  0.000000000000   0.000000000000  55.000000000000
C H O Si
144 105  52 144
Selective dynamics
Direct
  0.496539718785   0.063235362801   0.063799780050  T T T
  0.163239183348   0.063305585885   0.063900652533  T T T
  0.329826597980   0.063284804582   0.063878145796  T T T
  0.496360206527   0.313240379836   0.063771455837  T T T
  0.163054216165   0.313183302053   0.063887111622  T T T
  0.329674360637   0.313195726563   0.063857311572  T T T
  0.079916947482   0.186022692853   0.147009518193  T T T
  0.246609975321   0.186249923273   0.147286656568  T T T
  0.413305468551   0.185976483039   0.146929034513  T T T
  0.079961624343   0.436112472241   0.147077430183  T T T
  0.246565781257   0.435942744800   0.147119542443  T T T
  0.413313762971   0.436096063373   0.147044681063  T T T
  0.163652404114   0.061546881450   0.175804401276  T T T
  0.329743231021   0.061550128999   0.175719899608  T T T
  0.496834536956   0.060689271999   0.175515715750  T T T
  0.163190472741   0.311136444192   0.175857114537  T T T
  0.330181824099   0.311201631608   0.175782921185  T T T
  0.496731625941   0.311088275158   0.175552447078  T T T
  0.079903754258   0.187371213841   0.202209779289  T T T
  0.246673390324   0.190236439210   0.203385421739  T T T
  0.413738523231   0.186866713780   0.201955686017  T T T
  0.079769472665   0.438504713008   0.202405554785  T T T
  0.246541030964   0.437806783251   0.202413948537  T T T
  0.413572378078   0.438453036920   0.202325582418  T T T
  0.079856653889   0.186167294229   0.090604722569  T T T
  0.246513074652   0.186203314608   0.090745630749  T T T
  0.413193241066   0.186161081217   0.090562905985  T T T
  0.079882391134   0.436098656933   0.090618841895  T T T
  0.246540594397   0.436109211707   0.090658856026  T T T
  0.413195887530   0.436136349554   0.090611807289  T T T
  0.163329833446   0.061086941737   0.119283437553  T T T
  0.329926591385   0.061115755378   0.119242601800  T T T
  0.496662407809   0.060962461657   0.119179060507  T T T
  0.163183920556   0.311040293152   0.119304143045  T T T
  0.329880826178   0.311093645355   0.119281959482  T T T
  0.496565978271   0.311089794906   0.119156380393  T T T
  0.496557980604   0.563217538249   0.063805520508  T T T
  0.163229204918   0.563164999512   0.063857827713  T T T
  0.329859404122   0.563224951943   0.063861548959  T T T
  0.496345460082   0.813322866251   0.063840669823  T T T
  0.163046037826   0.813257991715   0.063871883414  T T T
  0.329672628362   0.813251859344   0.063827262337  T T T
  0.080054729139   0.686215069775   0.147082973517  T T T
  0.246643183370   0.686096500736   0.147120032843  T T T
  0.413275758657   0.686082488171   0.147082475015  T T T
  0.080158251373   0.936059846811   0.147096927935  T T T
  0.246605779527   0.936002273828   0.147088392333  T T T
  0.413205852044   0.936090870475   0.147084368236  T T T
  0.163450672795   0.561278255107   0.175718775938  T T T
  0.329923085808   0.561182473926   0.175779213639  T T T
  0.496689572049   0.561465954407   0.175607131342  T T T
  0.163422222084   0.811253849557   0.175743978657  T T T
  0.330093333252   0.811312827026   0.175731714441  T T T
  0.496744961429   0.811255171041   0.175713218209  T T T
  0.080166917925   0.688182522577   0.202489779185  T T T
  0.246920825488   0.688449073803   0.202584147377  T T T
  0.413424029847   0.688209471834   0.202448910378  T T T
  0.080155235687   0.938413989473   0.202476929061  T T T
  0.246846841132   0.938458326324   0.202487648143  T T T
  0.413385356399   0.938405059935   0.202436745951  T T T
  0.079909670483   0.686108915584   0.090643411737  T T T
  0.246552108421   0.686113869048   0.090638670294  T T T
  0.413249140208   0.686145850583   0.090595830590  T T T
  0.079871562195   0.936138970862   0.090651862761  T T T
  0.246528459076   0.936117075251   0.090645066320  T T T
  0.413127302914   0.936128059965   0.090613475107  T T T
  0.163344507102   0.561092004748   0.119265302802  T T T
  0.330001435643   0.561039391153   0.119256572023  T T T
  0.496718304476   0.561111363092   0.119207885840  T T T
  0.163303095771   0.811024337569   0.119251552752  T T T
  0.329895413716   0.811008637749   0.119226830365  T T T
  0.496616870364   0.811134722589   0.119238333508  T T T
  0.996539718785   0.063235362801   0.063799780050  T T T
  0.663239183348   0.063305585885   0.063900652533  T T T
  0.829826597980   0.063284804582   0.063878145796  T T T
  0.996360206527   0.313240379836   0.063771455837  T T T
  0.663054216165   0.313183302053   0.063887111622  T T T
  0.829674360637   0.313195726563   0.063857311572  T T T
  0.579916947482   0.186022692853   0.147009518193  T T T
  0.746609975321   0.186249923273   0.147286656568  T T T
  0.913305468551   0.185976483039   0.146929034513  T T T
  0.579961624343   0.436112472241   0.147077430183  T T T
  0.746565781257   0.435942744800   0.147119542443  T T T
  0.913313762971   0.436096063373   0.147044681063  T T T
  0.663652404114   0.061546881450   0.175804401276  T T T
  0.829743231021   0.061550128999   0.175719899608  T T T
  0.996834536956   0.060689271999   0.175515715750  T T T
  0.663190472741   0.311136444192   0.175857114537  T T T
  0.830181824099   0.311201631608   0.175782921185  T T T
  0.996731625941   0.311088275158   0.175552447078  T T T
  0.579903754258   0.187371213841   0.202209779289  T T T
  0.746673390324   0.190236439210   0.203385421739  T T T
  0.913738523231   0.186866713780   0.201955686017  T T T
  0.579769472665   0.438504713008   0.202405554785  T T T
  0.746541030964   0.437806783251   0.202413948537  T T T
  0.913572378078   0.438453036920   0.202325582418  T T T
  0.579856653889   0.186167294229   0.090604722569  T T T
  0.746513074652   0.186203314608   0.090745630749  T T T
  0.913193241066   0.186161081217   0.090562905985  T T T
  0.579882391134   0.436098656933   0.090618841895  T T T
  0.746540594397   0.436109211707   0.090658856026  T T T
  0.913195887530   0.436136349554   0.090611807289  T T T
  0.663329833446   0.061086941737   0.119283437553  T T T
  0.829926591385   0.061115755378   0.119242601800  T T T
  0.996662407809   0.060962461657   0.119179060507  T T T
  0.663183920556   0.311040293152   0.119304143045  T T T
  0.829880826178   0.311093645355   0.119281959482  T T T
  0.996565978271   0.311089794906   0.119156380393  T T T
  0.996557980604   0.563217538249   0.063805520508  T T T
  0.663229204918   0.563164999512   0.063857827713  T T T
  0.829859404122   0.563224951943   0.063861548959  T T T
  0.996345460082   0.813322866251   0.063840669823  T T T
  0.663046037826   0.813257991715   0.063871883414  T T T
  0.829672628362   0.813251859344   0.063827262337  T T T
  0.580054729139   0.686215069775   0.147082973517  T T T
  0.746643183370   0.686096500736   0.147120032843  T T T
  0.913275758657   0.686082488171   0.147082475015  T T T
  0.580158251373   0.936059846811   0.147096927935  T T T
  0.746605779527   0.936002273828   0.147088392333  T T T
  0.913205852044   0.936090870475   0.147084368236  T T T
  0.663450672795   0.561278255107   0.175718775938  T T T
  0.829923085808   0.561182473926   0.175779213639  T T T
  0.996689572049   0.561465954407   0.175607131342  T T T
  0.663422222084   0.811253849557   0.175743978657  T T T
  0.830093333252   0.811312827026   0.175731714441  T T T
  0.996744961429   0.811255171041   0.175713218209  T T T
  0.580166917925   0.688182522577   0.202489779185  T T T
  0.746920825488   0.688449073803   0.202584147377  T T T
  0.913424029847   0.688209471834   0.202448910378  T T T
  0.580155235687   0.938413989473   0.202476929061  T T T
  0.746846841132   0.938458326324   0.202487648143  T T T
  0.913385356399   0.938405059935   0.202436745951  T T T
  0.579909670483   0.686108915584   0.090643411737  T T T
  0.746552108421   0.686113869048   0.090638670294  T T T
  0.913249140208   0.686145850583   0.090595830590  T T T
  0.579871562195   0.936138970862   0.090651862761  T T T
  0.746528459076   0.936117075251   0.090645066320  T T T
  0.913127302914   0.936128059965   0.090613475107  T T T
  0.663344507102   0.561092004748   0.119265302802  T T T
  0.830001435643   0.561039391153   0.119256572023  T T T
  0.996718304476   0.561111363092   0.119207885840  T T T
  0.663303095771   0.811024337569   0.119251552752  T T T
  0.829895413716   0.811008637749   0.119226830365  T T T
  0.996616870364   0.811134722589   0.119238333508  T T T
  0.037169018299   0.174977163593   0.028409276340  T T T
  0.203500231075   0.175068406452   0.028584454572  T T T
  0.370076218582   0.174986236354   0.028455117861  T T T
  0.037067076023   0.425005944061   0.028416194798  T T T
  0.203356084514   0.424901510713   0.028495829284  T T T
  0.369902794594   0.424952727929   0.028471045813  T T T
  0.162141679675   0.027151740714   0.047488341817  T T T
  0.328310498090   0.027182774983   0.047457467508  T T T
  0.495253910951   0.027128659636   0.047377264563  T T T
  0.161773852667   0.276933920042   0.047497014865  T T T
  0.328334361459   0.276954788632   0.047463934701  T T T
  0.495086744654   0.277132250988   0.047349534372  T T T
  0.415305517802   0.402693291115   0.218780623365  T T T
  0.415088177661   0.150755036379   0.218367116688  T T T
  0.080684126140   0.151489621184   0.218677653750  T T T
  0.248006778051   0.152996159796   0.219546220887  T T T
  0.080847298284   0.402292551721   0.218788380911  T T T
  0.246447567851   0.401184604791   0.218718764177  T T T
  0.039652525102   0.050486561576   0.237670816915  T T T
  0.206987264540   0.049446983090   0.237829349160  T T T
  0.373773191975   0.049608527086   0.237707569284  T T T
  0.038244367434   0.299396497648   0.237263252498  T T T
  0.206987163336   0.299396663663   0.237454545455  T T T
  0.373773345996   0.299402373831   0.237454545455  T T T
  0.037135436725   0.675016677526   0.028417711718  T T T
  0.203510311336   0.675073335807   0.028500147541  T T T
  0.370128127018   0.674966295262   0.028455604731  T T T
  0.036985459076   0.925043265060   0.028429855375  T T T
  0.203311068576   0.924968965024   0.028476956542  T T T
  0.369953020261   0.924972729611   0.028464179854  T T T
  0.161936230221   0.527067031658   0.047431656549  T T T
  0.328499549966   0.527056397248   0.047455697744  T T T
  0.495280669995   0.527115293762   0.047379687034  T T T
  0.161756165801   0.777179478024   0.047448075805  T T T
  0.328332438535   0.777266674541   0.047380955262  T T T
  0.495061951117   0.777206412012   0.047423762492  T T T
  0.414274820420   0.902277377875   0.218846894731  T T T
  0.415190363449   0.652091355599   0.218853126225  T T T
  0.081866419398   0.652128767785   0.218922885696  T T T
  0.248945114360   0.652284798463   0.218982701607  T T T
  0.081383387871   0.902235985326   0.218881710321  T T T
  0.248393020634   0.902236303084   0.218875576266  T T T
  0.038891259951   0.551701377012   0.237593699496  T T T
  0.206797519240   0.554559147662   0.236845682702  T T T
  0.372789444877   0.551892031282   0.237416548486  T T T
  0.039624671453   0.799809316577   0.237801374716  T T T
  0.205505226102   0.800614002715   0.237927024419  T T T
  0.374571279703   0.799361526102   0.237655575852  T T T
  0.537169018299   0.174977163593   0.028409276340  T T T
  0.703500231075   0.175068406452   0.028584454572  T T T
  0.870076218582   0.174986236354   0.028455117861  T T T
  0.537067076023   0.425005944061   0.028416194798  T T T
  0.703356084514   0.424901510713   0.028495829284  T T T
  0.869902794594   0.424952727929   0.028471045813  T T T
  0.662141679675   0.027151740714   0.047488341817  T T T
  0.828310498090   0.027182774983   0.047457467508  T T T
  0.995253910951   0.027128659636   0.047377264563  T T T
  0.661773852667   0.276933920042   0.047497014865  T T T
  0.828334361459   0.276954788632   0.047463934701  T T T
  0.995086744654   0.277132250988   0.047349534372  T T T
  0.915305517802   0.402693291115   0.218780623365  T T T
  0.915088177661   0.150755036379   0.218367116688  T T T
  0.580684126140   0.151489621184   0.218677653750  T T T
  0.748006778051   0.152996159796   0.219546220887  T T T
  0.580847298284   0.402292551721   0.218788380911  T T T
  0.746447567851   0.401184604791   0.218718764177  T T T
  0.539652525102   0.050486561576   0.237670816915  T T T
  0.706987264540   0.049446983090   0.237829349160  T T T
  0.873773191975   0.049608527086   0.237707569284  T T T
  0.538244367434   0.299396497648   0.237263252498  T T T
  0.687845118812   0.306369305100   0.241511986854  T T T
  0.892668770773   0.293808736691   0.235078652137  T T T
  0.776276378616   0.308022300600   0.287962386050  T T T
  0.749880613904   0.239385480702   0.308758069380  T T T
  0.788633673537   0.319537267472   0.319188132935  T T T
  0.657601070266   0.195525511874   0.326976454285  T T T
  0.707446463169   0.127841270569   0.318910032313  T T T
  0.824508496391   0.367899359688   0.353269920290  T T T
  0.741301525169   0.375408582464   0.349439581148  T T T
  0.761680851789   0.395803528834   0.264022782505  T T T
  0.796306221345   0.321352597105   0.250752822766  T T T
  0.537135436725   0.675016677526   0.028417711718  T T T
  0.703510311336   0.675073335807   0.028500147541  T T T
  0.870128127018   0.674966295262   0.028455604731  T T T
  0.536985459076   0.925043265060   0.028429855375  T T T
  0.703311068576   0.924968965024   0.028476956542  T T T
  0.869953020261   0.924972729611   0.028464179854  T T T
  0.661936230221   0.527067031658   0.047431656549  T T T
  0.828499549966   0.527056397248   0.047455697744  T T T
  0.995280669995   0.527115293762   0.047379687034  T T T
  0.661756165801   0.777179478024   0.047448075805  T T T
  0.828332438535   0.777266674541   0.047380955262  T T T
  0.995061951117   0.777206412012   0.047423762492  T T T
  0.914274820420   0.902277377875   0.218846894731  T T T
  0.915190363449   0.652091355599   0.218853126225  T T T
  0.581866419398   0.652128767785   0.218922885696  T T T
  0.748945114360   0.652284798463   0.218982701607  T T T
  0.581383387871   0.902235985326   0.218881710321  T T T
  0.748393020634   0.902236303084   0.218875576266  T T T
  0.538891259951   0.551701377012   0.237593699496  T T T
  0.706797519240   0.554559147662   0.236845682702  T T T
  0.872789444877   0.551892031282   0.237416548486  T T T
  0.539624671453   0.799809316577   0.237801374716  T T T
  0.705505226102   0.800614002715   0.237927024419  T T T
  0.874571279703   0.799361526102   0.237655575852  T T T
  0.084067762298   0.167992416925   0.036165001110  T T T
  0.250481984946   0.168259049818   0.036306091193  T T T
  0.417102713153   0.167931595714   0.036121411207  T T T
  0.083962481898   0.417935852035   0.036166666132  T T T
  0.250338299004   0.417885771183   0.036198109066  T T T
  0.416911007618   0.417917099189   0.036151601350  T T T
  0.159762286014   0.042780305364   0.230277455151  T T T
  0.326435629057   0.043171145215   0.230191287342  T T T
  0.492555056047   0.042881112563   0.230119794740  T T T
  0.159762195476   0.290675524279   0.230000000000  T T T
  0.326435860827   0.290675524279   0.230000000000  T T T
  0.490827605226   0.290675761867   0.229909308339  T T T
  0.084034225961   0.668004254861   0.036175016105  T T T
  0.250505536922   0.667965693251   0.036187911906  T T T
  0.417122117920   0.667890682113   0.036142721069  T T T
  0.083874643744   0.918029705193   0.036191647825  T T T
  0.250298057633   0.918081457441   0.036189848568  T T T
  0.416932370863   0.918054359992   0.036175027548  T T T
  0.159397081645   0.541279003976   0.230381474322  T T T
  0.325395929468   0.539878287046   0.230654043506  T T T
  0.491891455424   0.542723726340   0.230140215690  T T T
  0.158643591849   0.792538679926   0.230278780416  T T T
  0.327038901788   0.792821459308   0.230273039477  T T T
  0.492430526691   0.792408824290   0.230251926112  T T T
  0.584067762298   0.167992416925   0.036165001110  T T T
  0.750481984946   0.168259049818   0.036306091193  T T T
  0.917102713153   0.167931595714   0.036121411207  T T T
  0.583962481898   0.417935852035   0.036166666132  T T T
  0.750338299004   0.417885771183   0.036198109066  T T T
  0.916911007618   0.417917099189   0.036151601350  T T T
  0.659762286014   0.042780305364   0.230277455151  T T T
  0.826435629057   0.043171145215   0.230191287342  T T T
  0.992555056047   0.042881112563   0.230119794740  T T T
  0.649033010589   0.293402080603   0.230202637995  T T T
  0.840894777198   0.291764391568   0.230597448506  T T T
  0.990827605226   0.290675761867   0.229909308339  T T T
  0.787664451304   0.281007194355   0.304960757914  T T T
  0.690923582342   0.178796188919   0.314098552724  T T T
  0.787792109504   0.377371462183   0.340770908798  T T T
  0.761164926562   0.340083661781   0.264378461793  T T T
  0.584034225961   0.668004254861   0.036175016105  T T T
  0.750505536922   0.667965693251   0.036187911906  T T T
  0.917122117920   0.667890682113   0.036142721069  T T T
  0.583874643744   0.918029705193   0.036191647825  T T T
  0.750298057633   0.918081457441   0.036189848568  T T T
  0.916932370863   0.918054359992   0.036175027548  T T T
  0.659397081645   0.541279003976   0.230381474322  T T T
  0.825395929468   0.539878287046   0.230654043506  T T T
  0.991891455424   0.542723726340   0.230140215690  T T T
  0.658643591849   0.792538679926   0.230278780416  T T T
  0.827038901788   0.792821459308   0.230273039477  T T T
  0.992430526691   0.792408824290   0.230251926112  T T T
  0.246601628763   0.121970208415   0.063162824581  T T T
  0.413247078458   0.121874417455   0.063015117556  T T T
  0.079774914494   0.371838790467   0.063051243561  T T T
  0.246401146042   0.371859565441   0.063092431445  T T T
  0.413040825169   0.371861806162   0.063039901241  T T T
  0.079952353596   0.121887003616   0.063052749205  T T T
  0.496652002749   0.498666617141   0.147263743369  T T T
  0.163275306010   0.498596411267   0.147314250003  T T T
  0.329925628661   0.498482226865   0.147311189149  T T T
  0.496611845828   0.248418345594   0.147128161822  T T T
  0.163149519996   0.248513461021   0.147372586025  T T T
  0.330018145991   0.248391846633   0.147265737261  T T T
  0.079978350130   0.122891742433   0.174914439094  T T T
  0.246650296288   0.124184645560   0.175457367690  T T T
  0.413543175079   0.122500636645   0.174727207032  T T T
  0.079928434288   0.373426236232   0.175066342147  T T T
  0.246517147214   0.373011536812   0.175039441072  T T T
  0.413566656604   0.373425832139   0.175018506985  T T T
  0.163081536296   0.496864235166   0.203097827062  T T T
  0.329940344968   0.496527744887   0.203133494452  T T T
  0.496578385456   0.497395113246   0.203052147237  T T T
  0.161960867013   0.247628219379   0.203549866288  T T T
  0.496682467511   0.245707178993   0.202641962820  T T T
  0.331462704548   0.246309427728   0.202935278895  T T T
  0.496591751788   0.498269537703   0.091123823533  T T T
  0.163221314241   0.498229238088   0.091168883906  T T T
  0.329878357285   0.498243357389   0.091154614957  T T T
  0.496507052589   0.248264715334   0.091061448192  T T T
  0.163161029248   0.248267147543   0.091195530388  T T T
  0.329841088407   0.248273651826   0.091162688528  T T T
  0.079975028928   0.123474483050   0.118896234532  T T T
  0.246604487274   0.123544919356   0.119062581465  T T T
  0.413343321057   0.123424614643   0.118838176067  T T T
  0.079890681365   0.373534121464   0.118939627225  T T T
  0.246482349314   0.373474994909   0.118964681444  T T T
  0.413223883842   0.373534486277   0.118921633611  T T T
  0.246603294752   0.621847003642   0.063076717838  T T T
  0.413266269881   0.621856393784   0.063038939028  T T T
  0.079761370240   0.871917667481   0.063081262273  T T T
  0.246399696447   0.871922358493   0.063070134258  T T T
  0.413010518648   0.871909137751   0.063049678951  T T T
  0.079976680086   0.621872308494   0.063065785005  T T T
  0.496682535120   0.998214033398   0.147200595910  T T T
  0.163495876822   0.998612298908   0.147346780065  T T T
  0.329761080419   0.998560863716   0.147292928120  T T T
  0.496614505089   0.748644690186   0.147305861023  T T T
  0.163356377709   0.748633112079   0.147326746116  T T T
  0.329986726302   0.748635987916   0.147335106791  T T T
  0.080038954453   0.623473340183   0.175084015225  T T T
  0.246685003185   0.623550888405   0.175160978358  T T T
  0.413293355577   0.623453555904   0.175099499670  T T T
  0.080065100654   0.873393842166   0.175144161547  T T T
  0.246736241101   0.873403609530   0.175154210162  T T T
  0.413347513543   0.873375160949   0.175120615635  T T T
  0.163394905428   0.997003802392   0.203247467730  T T T
  0.330083735348   0.997132670230   0.203180086700  T T T
  0.496705141310   0.996865195352   0.203138867637  T T T
  0.163292493959   0.747014704526   0.203250510439  T T T
  0.496752703866   0.746871288409   0.203205178250  T T T
  0.330219061993   0.747179731364   0.203237262251  T T T
  0.496521660950   0.998194043481   0.091104583650  T T T
  0.163237685476   0.998245451983   0.091186450275  T T T
  0.329825377733   0.998243669167   0.091162975127  T T T
  0.496575288462   0.748297338898   0.091130581824  T T T
  0.163224275698   0.748250146002   0.091158123824  T T T
  0.329856887008   0.748244354481   0.091123317133  T T T
  0.080036839466   0.623578026635   0.118967689773  T T T
  0.246689623286   0.623610687454   0.118981210171  T T T
  0.413365168297   0.623566471159   0.118940503305  T T T
  0.080016997680   0.873512007306   0.118971737944  T T T
  0.246568752641   0.873489196810   0.118958567341  T T T
  0.413187721748   0.873525405166   0.118950657196  T T T
  0.746601628763   0.121970208415   0.063162824581  T T T
  0.913247078458   0.121874417455   0.063015117556  T T T
  0.579774914494   0.371838790467   0.063051243561  T T T
  0.746401146042   0.371859565441   0.063092431445  T T T
  0.913040825169   0.371861806162   0.063039901241  T T T
  0.579952353596   0.121887003616   0.063052749205  T T T
  0.996652002749   0.498666617141   0.147263743369  T T T
  0.663275306010   0.498596411267   0.147314250003  T T T
  0.829925628661   0.498482226865   0.147311189149  T T T
  0.996611845828   0.248418345594   0.147128161822  T T T
  0.663149519996   0.248513461021   0.147372586025  T T T
  0.830018145991   0.248391846633   0.147265737261  T T T
  0.579978350130   0.122891742433   0.174914439094  T T T
  0.746650296288   0.124184645560   0.175457367690  T T T
  0.913543175079   0.122500636645   0.174727207032  T T T
  0.579928434288   0.373426236232   0.175066342147  T T T
  0.746517147214   0.373011536812   0.175039441072  T T T
  0.913566656604   0.373425832139   0.175018506985  T T T
  0.663081536296   0.496864235166   0.203097827062  T T T
  0.829940344968   0.496527744887   0.203133494452  T T T
  0.996578385456   0.497395113246   0.203052147237  T T T
  0.661960867013   0.247628219379   0.203549866288  T T T
  0.996682467511   0.245707178993   0.202641962820  T T T
  0.831462704548   0.246309427728   0.202935278895  T T T
  0.996591751788   0.498269537703   0.091123823533  T T T
  0.663221314241   0.498229238088   0.091168883906  T T T
  0.829878357285   0.498243357389   0.091154614957  T T T
  0.996507052589   0.248264715334   0.091061448192  T T T
  0.663161029248   0.248267147543   0.091195530388  T T T
  0.829841088407   0.248273651826   0.091162688528  T T T
  0.579975028928   0.123474483050   0.118896234532  T T T
  0.746604487274   0.123544919356   0.119062581465  T T T
  0.913343321057   0.123424614643   0.118838176067  T T T
  0.579890681365   0.373534121464   0.118939627225  T T T
  0.746482349314   0.373474994909   0.118964681444  T T T
  0.913223883842   0.373534486277   0.118921633611  T T T
  0.746603294752   0.621847003642   0.063076717838  T T T
  0.913266269881   0.621856393784   0.063038939028  T T T
  0.579761370240   0.871917667481   0.063081262273  T T T
  0.746399696447   0.871922358493   0.063070134258  T T T
  0.913010518648   0.871909137751   0.063049678951  T T T
  0.579976680086   0.621872308494   0.063065785005  T T T
  0.996682535120   0.998214033398   0.147200595910  T T T
  0.663495876822   0.998612298908   0.147346780065  T T T
  0.829761080419   0.998560863716   0.147292928120  T T T
  0.996614505089   0.748644690186   0.147305861023  T T T
  0.663356377709   0.748633112079   0.147326746116  T T T
  0.829986726302   0.748635987916   0.147335106791  T T T
  0.580038954453   0.623473340183   0.175084015225  T T T
  0.746685003185   0.623550888405   0.175160978358  T T T
  0.913293355577   0.623453555904   0.175099499670  T T T
  0.580065100654   0.873393842166   0.175144161547  T T T
  0.746736241101   0.873403609530   0.175154210162  T T T
  0.913347513543   0.873375160949   0.175120615635  T T T
  0.663394905428   0.997003802392   0.203247467730  T T T
  0.830083735348   0.997132670230   0.203180086700  T T T
  0.996705141310   0.996865195352   0.203138867637  T T T
  0.663292493959   0.747014704526   0.203250510439  T T T
  0.996752703866   0.746871288409   0.203205178250  T T T
  0.830219061993   0.747179731364   0.203237262251  T T T
  0.996521660950   0.998194043481   0.091104583650  T T T
  0.663237685476   0.998245451983   0.091186450275  T T T
  0.829825377733   0.998243669167   0.091162975127  T T T
  0.996575288462   0.748297338898   0.091130581824  T T T
  0.663224275698   0.748250146002   0.091158123824  T T T
  0.829856887008   0.748244354481   0.091123317133  T T T
  0.580036839466   0.623578026635   0.118967689773  T T T
  0.746689623286   0.623610687454   0.118981210171  T T T
  0.913365168297   0.623566471159   0.118940503305  T T T
  0.580016997680   0.873512007306   0.118971737944  T T T
  0.746568752641   0.873489196810   0.118958567341  T T T
  0.913187721748   0.873525405166   0.118950657196  T T T
