C H O Si                                
   1.00000000000000     
     9.2874599999999994    0.0000000000000000    0.0000000000000000
     0.0000000000000000    8.7563099999999991    0.0000000000000000
     0.0000000000000000    0.0000000000000000   58.0000000000000000
   C    H    O    Si
    36    32    16    36
Selective dynamics
Direct
  0.9929357583819998  0.1257457376081957  0.0605836997922594   T   T   T
  0.3263135519447377  0.1257043314162261  0.0605556774199191   T   T   T
  0.6595669403540649  0.1256173685091940  0.0606820164587908   T   T   T
  0.9928844469294670  0.6257963933589901  0.0605825972055819   T   T   T
  0.3263315674485765  0.6257302196632814  0.0606893728944442   T   T   T
  0.6596171172619064  0.6256862798151965  0.0606927666762035   T   T   T
  0.1602657947269403  0.3715759996287659  0.1394209280433447   T   T   T
  0.4935413782853548  0.3712448123290065  0.1395518927577070   T   T   T
  0.8268503048052483  0.3714002058644745  0.1394902645284448   T   T   T
  0.1604313599408932  0.8713957097309980  0.1395581232741243   T   T   T
  0.4934501477922131  0.8708454964216700  0.1396780917532313   T   T   T
  0.8263904861920238  0.8712273137290792  0.1395126447749419   T   T   T
  0.3275182160863840  0.1224805408301447  0.1663003993376415   T   T   T
  0.6600564010976687  0.1217764255228535  0.1668127323334786   T   T   T
  0.9940574927744397  0.1207263821970044  0.1664856761403361   T   T   T
  0.3267269964747552  0.6220249482154798  0.1669830426213146   T   T   T
  0.6606451157643688  0.6210941225529242  0.1669698074620113   T   T   T
  0.9941202432497698  0.6220248650073963  0.1665466275891623   T   T   T
  0.1591435498696820  0.3742317260962935  0.1916639437518143   T   T   T
  0.4919689176482196  0.3796097708813677  0.1921416379947265   T   T   T
  0.8278163076729801  0.3731396688789624  0.1916960953884265   T   T   T
  0.1622419478889579  0.8775433303942015  0.1922886253030126   T   T   T
  0.4939949467998334  0.8778569354530625  0.1923521852448622   T   T   T
  0.8284932064404548  0.8753340829830888  0.1918416910724587   T   T   T
  0.1595982115303027  0.3715141719280782  0.0859503499981501   T   T   T
  0.4928843274350448  0.3714292987840110  0.0860150103043800   T   T   T
  0.8261875792362247  0.3714744932170870  0.0859908727051211   T   T   T
  0.1596332508632797  0.8714691351888765  0.0860052133646722   T   T   T
  0.4929059379716618  0.8713677636054029  0.0860745415448404   T   T   T
  0.8261467756088988  0.8715151088347700  0.0860041698395663   T   T   T
  0.3264927109437508  0.1211692135706043  0.1130371439868810   T   T   T
  0.6596965122608911  0.1211851905588961  0.1132115779878727   T   T   T
  0.9930878906267747  0.1212303195950147  0.1131034825913344   T   T   T
  0.3264893996228656  0.6211658907780635  0.1132493879246812   T   T   T
  0.6597627643900329  0.6211272186240423  0.1132281225483987   T   T   T
  0.9930654384945812  0.6214440788373257  0.1130871471499274   T   T   T
  0.0762641073274124  0.3550649168213366  0.0270462098847293   T   T   T
  0.4099711856648234  0.3549715199284569  0.0270657527701000   T   T   T
  0.7415232557153657  0.3546372572577796  0.0271915167275249   T   T   T
  0.0766079660823107  0.8549657391412467  0.0270739338551617   T   T   T
  0.4093486525615823  0.8548304807912549  0.0271969599145155   T   T   T
  0.7416726458586284  0.8547995599477597  0.0271845353283958   T   T   T
  0.3236940631165849  0.0534676678251487  0.0450128347308405   T   T   T
  0.6567667039890622  0.0529884526676863  0.0451812180363282   T   T   T
  0.9900242859569313  0.0532954352304676  0.0450627611089281   T   T   T
  0.3237695466838101  0.5530227548059035  0.0451945091539437   T   T   T
  0.6567551318500199  0.5531107115259170  0.0451855967191325   T   T   T
  0.9899891100771695  0.5533327581432171  0.0450650690524366   T   T   T
  0.8305628930546098  0.8032458253204726  0.2073819906448630   T   T   T
  0.8312097894398167  0.3004547670346388  0.2071788193344527   T   T   T
  0.1583033246195180  0.3019963752424417  0.2071824983173341   T   T   T
  0.1649329865564293  0.8042537540777250  0.2077119085875187   T   T   T
  0.4925966632886657  0.8058546012479062  0.2079209684228361   T   T   T
  0.0759609309543607  0.1106164975096717  0.2252473938250411   T   T   T
  0.3868015937537622  0.1899436404045328  0.2159979371154973   T   T   T
  0.7657619848827169  0.0945980227429249  0.2243862465252806   T   T   T
  0.0804698137163026  0.6004794981071327  0.2246859309274941   T   T   T
  0.3744395041041272  0.6158699513291099  0.2291924226827540   T   T   T
  0.7805056567273505  0.5888592510279796  0.2233053601328901   T   T   T
  0.5422145222853015  0.6067142066114795  0.2744021056869630   T   T   T
  0.4893496024636803  0.4713682011917856  0.2938786799297184   T   T   T
  0.5689165259993306  0.6372244499288224  0.3034132354886883   T   T   T
  0.3105044302409620  0.3793155421868928  0.3095378547472669   T   T   T
  0.4233550132317151  0.2543794509197103  0.3027707841385921   T   T   T
  0.6523177855958704  0.7331615063251775  0.3332034842784005   T   T   T
  0.4871305983232492  0.7625446733121156  0.3305851882148626   T   T   T
  0.5131188424155497  0.7865623998792636  0.2524517414243032   T   T   T
  0.5824889544972106  0.6434011558363980  0.2391281226039314   T   T   T
  0.1693462367752392  0.3338753113140089  0.0342003933422791   T   T   T
  0.5029959216863833  0.3338396004975412  0.0342507512295525   T   T   T
  0.8350092843052125  0.3336854302433234  0.0342344269018929   T   T   T
  0.1696117985190125  0.8337952644245507  0.0342573225464580   T   T   T
  0.5025748854831606  0.8339722458410123  0.0343302608481770   T   T   T
  0.8351027308811755  0.8338488149859273  0.0342498582034218   T   T   T
  0.3206379790313507  0.1018882636547153  0.2170168688861022   T   T   T
  0.6665998396638511  0.0821481458427247  0.2188933272703630   T   T   T
  0.9833318742696474  0.0831387255713477  0.2184408436798626   T   T   T
  0.2975693384285709  0.5842041680775963  0.2185282096298879   T   T   T
  0.6782404298851212  0.5824157487956395  0.2187796037269436   T   T   T
  0.9845695367406332  0.5808272364286464  0.2181844889542231   T   T   T
  0.5662374598805678  0.5557476572985260  0.2902095249472518   T   T   T
  0.3804266710285355  0.3504821956618868  0.2977534600880649   T   T   T
  0.5771059961843460  0.7553259925277530  0.3219458663269544   T   T   T
  0.5084044378695006  0.6754518196195928  0.2511318977703801   T   T   T
  0.4931477890846852  0.2431255564808767  0.0598985674588235   T   T   T
  0.8262858794239964  0.2430446583808644  0.0598923131449591   T   T   T
  0.1598287131842351  0.7430265105641147  0.0598934534945729   T   T   T
  0.4931516039079868  0.7430576712591364  0.0599620965749227   T   T   T
  0.8262836890377354  0.7431421166085340  0.0598985139710071   T   T   T
  0.1598426836766590  0.2431353579078441  0.0598391065913394   T   T   T
  0.9934250286588093  0.9957137703405331  0.1397321947710511   T   T   T
  0.3272702808843840  0.9965975224512310  0.1397204184125744   T   T   T
  0.6595776192906270  0.9965143396322461  0.1399530154952723   T   T   T
  0.9936644854353230  0.4963862583612754  0.1397165371037019   T   T   T
  0.3272062300971088  0.4964726446141451  0.1400491883017166   T   T   T
  0.6596960094363825  0.4961902489957407  0.1399866910594060   T   T   T
  0.1603781814106966  0.2453357151597210  0.1658982780556241   T   T   T
  0.4936402676782058  0.2487012775422545  0.1669519064600599   T   T   T
  0.8270100820519601  0.2444957279104871  0.1659609396969572   T   T   T
  0.1610148467293624  0.7465510661124298  0.1663370676060254   T   T   T
  0.4937516576235063  0.7456428468532492  0.1664969373243659   T   T   T
  0.8271487748777314  0.7453682156831827  0.1661455724518003   T   T   T
  0.3275846100855893  0.9975287226926076  0.1925477151696309   T   T   T
  0.6621282011818757  0.9941784748390882  0.1930974805928398   T   T   T
  0.9943841211565918  0.9930713960714672  0.1926746948656303   T   T   T
  0.3262092410516598  0.4911994202505152  0.1934283334916955   T   T   T
  0.9932954015919875  0.4914582669061767  0.1923024027798861   T   T   T
  0.6596292499723044  0.4875956992994731  0.1930716242946028   T   T   T
  0.9929310496117499  0.9957677943360727  0.0865167758899387   T   T   T
  0.3263316485846809  0.9958173421521319  0.0865028789004174   T   T   T
  0.6595167338409932  0.9958007600925514  0.0866178075704462   T   T   T
  0.9929170855946344  0.4958446216218138  0.0865057899229529   T   T   T
  0.3263686643381618  0.4957947482208711  0.0866278803979193   T   T   T
  0.6595317663787149  0.4957451665680915  0.0866182190405054   T   T   T
  0.1598900544385122  0.2462699546652896  0.1128492073298009   T   T   T
  0.4930730563934261  0.2463078924586344  0.1129848995726560   T   T   T
  0.8262807246729676  0.2462558653532847  0.1128987457752294   T   T   T
  0.1599244541434592  0.7461737295526631  0.1129495109424402   T   T   T
  0.4930933914737797  0.7460653747675221  0.1130297515407074   T   T   T
  0.8261738732517524  0.7462296522436347  0.1129137092233515   T   T   T
 
  0.00000000E+00  0.00000000E+00  0.00000000E+00
  0.00000000E+00  0.00000000E+00  0.00000000E+00
  0.00000000E+00  0.00000000E+00  0.00000000E+00
  0.00000000E+00  0.00000000E+00  0.00000000E+00
  0.00000000E+00  0.00000000E+00  0.00000000E+00
  0.00000000E+00  0.00000000E+00  0.00000000E+00
  0.00000000E+00  0.00000000E+00  0.00000000E+00
  0.00000000E+00  0.00000000E+00  0.00000000E+00
  0.00000000E+00  0.00000000E+00  0.00000000E+00
  0.00000000E+00  0.00000000E+00  0.00000000E+00
  0.00000000E+00  0.00000000E+00  0.00000000E+00
  0.00000000E+00  0.00000000E+00  0.00000000E+00
  0.00000000E+00  0.00000000E+00  0.00000000E+00
  0.00000000E+00  0.00000000E+00  0.00000000E+00
  0.00000000E+00  0.00000000E+00  0.00000000E+00
  0.00000000E+00  0.00000000E+00  0.00000000E+00
  0.00000000E+00  0.00000000E+00  0.00000000E+00
  0.00000000E+00  0.00000000E+00  0.00000000E+00
  0.00000000E+00  0.00000000E+00  0.00000000E+00
  0.00000000E+00  0.00000000E+00  0.00000000E+00
  0.00000000E+00  0.00000000E+00  0.00000000E+00
  0.00000000E+00  0.00000000E+00  0.00000000E+00
  0.00000000E+00  0.00000000E+00  0.00000000E+00
  0.00000000E+00  0.00000000E+00  0.00000000E+00
  0.00000000E+00  0.00000000E+00  0.00000000E+00
  0.00000000E+00  0.00000000E+00  0.00000000E+00
  0.00000000E+00  0.00000000E+00  0.00000000E+00
  0.00000000E+00  0.00000000E+00  0.00000000E+00
  0.00000000E+00  0.00000000E+00  0.00000000E+00
  0.00000000E+00  0.00000000E+00  0.00000000E+00
  0.00000000E+00  0.00000000E+00  0.00000000E+00
  0.00000000E+00  0.00000000E+00  0.00000000E+00
  0.00000000E+00  0.00000000E+00  0.00000000E+00
  0.00000000E+00  0.00000000E+00  0.00000000E+00
  0.00000000E+00  0.00000000E+00  0.00000000E+00
  0.00000000E+00  0.00000000E+00  0.00000000E+00
  0.00000000E+00  0.00000000E+00  0.00000000E+00
  0.00000000E+00  0.00000000E+00  0.00000000E+00
  0.00000000E+00  0.00000000E+00  0.00000000E+00
  0.00000000E+00  0.00000000E+00  0.00000000E+00
  0.00000000E+00  0.00000000E+00  0.00000000E+00
  0.00000000E+00  0.00000000E+00  0.00000000E+00
  0.00000000E+00  0.00000000E+00  0.00000000E+00
  0.00000000E+00  0.00000000E+00  0.00000000E+00
  0.00000000E+00  0.00000000E+00  0.00000000E+00
  0.00000000E+00  0.00000000E+00  0.00000000E+00
  0.00000000E+00  0.00000000E+00  0.00000000E+00
  0.00000000E+00  0.00000000E+00  0.00000000E+00
  0.00000000E+00  0.00000000E+00  0.00000000E+00
  0.00000000E+00  0.00000000E+00  0.00000000E+00
  0.00000000E+00  0.00000000E+00  0.00000000E+00
  0.00000000E+00  0.00000000E+00  0.00000000E+00
  0.00000000E+00  0.00000000E+00  0.00000000E+00
  0.00000000E+00  0.00000000E+00  0.00000000E+00
  0.00000000E+00  0.00000000E+00  0.00000000E+00
  0.00000000E+00  0.00000000E+00  0.00000000E+00
  0.00000000E+00  0.00000000E+00  0.00000000E+00
  0.00000000E+00  0.00000000E+00  0.00000000E+00
  0.00000000E+00  0.00000000E+00  0.00000000E+00
  0.00000000E+00  0.00000000E+00  0.00000000E+00
  0.00000000E+00  0.00000000E+00  0.00000000E+00
  0.00000000E+00  0.00000000E+00  0.00000000E+00
  0.00000000E+00  0.00000000E+00  0.00000000E+00
  0.00000000E+00  0.00000000E+00  0.00000000E+00
  0.00000000E+00  0.00000000E+00  0.00000000E+00
  0.00000000E+00  0.00000000E+00  0.00000000E+00
  0.00000000E+00  0.00000000E+00  0.00000000E+00
  0.00000000E+00  0.00000000E+00  0.00000000E+00
  0.00000000E+00  0.00000000E+00  0.00000000E+00
  0.00000000E+00  0.00000000E+00  0.00000000E+00
  0.00000000E+00  0.00000000E+00  0.00000000E+00
  0.00000000E+00  0.00000000E+00  0.00000000E+00
  0.00000000E+00  0.00000000E+00  0.00000000E+00
  0.00000000E+00  0.00000000E+00  0.00000000E+00
  0.00000000E+00  0.00000000E+00  0.00000000E+00
  0.00000000E+00  0.00000000E+00  0.00000000E+00
  0.00000000E+00  0.00000000E+00  0.00000000E+00
  0.00000000E+00  0.00000000E+00  0.00000000E+00
  0.00000000E+00  0.00000000E+00  0.00000000E+00
  0.00000000E+00  0.00000000E+00  0.00000000E+00
  0.00000000E+00  0.00000000E+00  0.00000000E+00
  0.00000000E+00  0.00000000E+00  0.00000000E+00
  0.00000000E+00  0.00000000E+00  0.00000000E+00
  0.00000000E+00  0.00000000E+00  0.00000000E+00
  0.00000000E+00  0.00000000E+00  0.00000000E+00
  0.00000000E+00  0.00000000E+00  0.00000000E+00
  0.00000000E+00  0.00000000E+00  0.00000000E+00
  0.00000000E+00  0.00000000E+00  0.00000000E+00
  0.00000000E+00  0.00000000E+00  0.00000000E+00
  0.00000000E+00  0.00000000E+00  0.00000000E+00
  0.00000000E+00  0.00000000E+00  0.00000000E+00
  0.00000000E+00  0.00000000E+00  0.00000000E+00
  0.00000000E+00  0.00000000E+00  0.00000000E+00
  0.00000000E+00  0.00000000E+00  0.00000000E+00
  0.00000000E+00  0.00000000E+00  0.00000000E+00
  0.00000000E+00  0.00000000E+00  0.00000000E+00
  0.00000000E+00  0.00000000E+00  0.00000000E+00
  0.00000000E+00  0.00000000E+00  0.00000000E+00
  0.00000000E+00  0.00000000E+00  0.00000000E+00
  0.00000000E+00  0.00000000E+00  0.00000000E+00
  0.00000000E+00  0.00000000E+00  0.00000000E+00
  0.00000000E+00  0.00000000E+00  0.00000000E+00
  0.00000000E+00  0.00000000E+00  0.00000000E+00
  0.00000000E+00  0.00000000E+00  0.00000000E+00
  0.00000000E+00  0.00000000E+00  0.00000000E+00
  0.00000000E+00  0.00000000E+00  0.00000000E+00
  0.00000000E+00  0.00000000E+00  0.00000000E+00
  0.00000000E+00  0.00000000E+00  0.00000000E+00
  0.00000000E+00  0.00000000E+00  0.00000000E+00
  0.00000000E+00  0.00000000E+00  0.00000000E+00
  0.00000000E+00  0.00000000E+00  0.00000000E+00
  0.00000000E+00  0.00000000E+00  0.00000000E+00
  0.00000000E+00  0.00000000E+00  0.00000000E+00
  0.00000000E+00  0.00000000E+00  0.00000000E+00
  0.00000000E+00  0.00000000E+00  0.00000000E+00
  0.00000000E+00  0.00000000E+00  0.00000000E+00
  0.00000000E+00  0.00000000E+00  0.00000000E+00
  0.00000000E+00  0.00000000E+00  0.00000000E+00
  0.00000000E+00  0.00000000E+00  0.00000000E+00
  0.00000000E+00  0.00000000E+00  0.00000000E+00
