C H O Si                                
   1.00000000000000     
     9.2874599999999994    0.0000000000000000    0.0000000000000000
     0.0000000000000000    8.7563099999999991    0.0000000000000000
     0.0000000000000000    0.0000000000000000   58.0000000000000000
   C    H    O    Si
    36    32    16    36
Selective dynamics
Direct
  0.9928760454150932  0.1257197348824336  0.0605854976477608   T   T   T
  0.3262820752582570  0.1256067546808453  0.0605613502176676   T   T   T
  0.6594768612803816  0.1255917682036766  0.0606835169413863   T   T   T
  0.9927928791286076  0.6257931819640801  0.0605849481105419   T   T   T
  0.3263015860621178  0.6256786598797441  0.0606939822046229   T   T   T
  0.6595284413671764  0.6256541630407019  0.0606940569806431   T   T   T
  0.1602445683584446  0.3714866868079088  0.1394169977750837   T   T   T
  0.4934928178808418  0.3711553590268082  0.1395791047078966   T   T   T
  0.8268400889310968  0.3713483222845186  0.1394884533519288   T   T   T
  0.1603439266923889  0.8713439067055406  0.1395640076072824   T   T   T
  0.4934280302996291  0.8708226062134659  0.1396769557968582   T   T   T
  0.8264499058051183  0.8711526558438710  0.1395183675648402   T   T   T
  0.3274519276167308  0.1225476542334284  0.1662921460358209   T   T   T
  0.6599619116516212  0.1217985596230083  0.1668135775802849   T   T   T
  0.9939642637923726  0.1208070832921674  0.1664890490532997   T   T   T
  0.3267211122625002  0.6219099427397123  0.1669991882090843   T   T   T
  0.6605263157434208  0.6211004872553433  0.1669883096914620   T   T   T
  0.9941164060593056  0.6220913354423283  0.1665524090008450   T   T   T
  0.1591570664991630  0.3742757705658086  0.1916655528999550   T   T   T
  0.4919839405135905  0.3794996129909617  0.1921637786838087   T   T   T
  0.8277107984468378  0.3731571774161617  0.1917035552010269   T   T   T
  0.1621267489274492  0.8775520227051085  0.1922854118093497   T   T   T
  0.4940298436751053  0.8778375678575165  0.1923362967891958   T   T   T
  0.8285194624311679  0.8753203940413039  0.1918343988735275   T   T   T
  0.1595883917082861  0.3715476992901668  0.0859559069304148   T   T   T
  0.4928928807694986  0.3714301288486666  0.0860218907947474   T   T   T
  0.8261831455931470  0.3715167519174554  0.0859904138895497   T   T   T
  0.1595696857989993  0.8714126347752433  0.0860048434532237   T   T   T
  0.4928613597063053  0.8713525554254391  0.0860842085067344   T   T   T
  0.8261574859450148  0.8715095219119389  0.0859983139863032   T   T   T
  0.3264315588880491  0.1212741946196193  0.1130391091863472   T   T   T
  0.6595626111129406  0.1211421858176315  0.1132008495633078   T   T   T
  0.9930019447392425  0.1212913574619061  0.1130957952412906   T   T   T
  0.3263803839677172  0.6211113822777281  0.1132527623749797   T   T   T
  0.6596492250051847  0.6210692571061690  0.1132276669519500   T   T   T
  0.9930046812721569  0.6214814364946314  0.1130761742198972   T   T   T
  0.0762411827612008  0.3550275663845416  0.0270547423086105   T   T   T
  0.4099319064463665  0.3549427083494780  0.0270709608725793   T   T   T
  0.7415312923318383  0.3546206582888229  0.0271969371067444   T   T   T
  0.0765818605265124  0.8549289966951830  0.0270824918494828   T   T   T
  0.4093240605694564  0.8547974730564711  0.0272044798708334   T   T   T
  0.7416657232393428  0.8547799223538113  0.0271902220658710   T   T   T
  0.3236652384557833  0.0534699796459541  0.0450082159561344   T   T   T
  0.6567278854874099  0.0529757676907104  0.0451785277831966   T   T   T
  0.9899816013183489  0.0532972947198920  0.0450610035101122   T   T   T
  0.3237379115490661  0.5530215681472931  0.0451899127571879   T   T   T
  0.6567227958981526  0.5531186370840179  0.0451826261529467   T   T   T
  0.9899458403456954  0.5533238185863529  0.0450659361381344   T   T   T
  0.8306026338533835  0.8032659822670315  0.2073785791617370   T   T   T
  0.8312174148336490  0.3004848511391887  0.2071829005980447   T   T   T
  0.1583095652623433  0.3020380932281507  0.2071899751089537   T   T   T
  0.1649791934607484  0.8042780666606754  0.2077130595989332   T   T   T
  0.4926141235953340  0.8058614575362295  0.2079205158213135   T   T   T
  0.0759922240930752  0.1106260363536138  0.2252608947521578   T   T   T
  0.3867489447457925  0.1901081872442169  0.2159709800227897   T   T   T
  0.7657790101546018  0.0945042356098149  0.2243878866647329   T   T   T
  0.0804796712797895  0.6004912518349992  0.2246977597837362   T   T   T
  0.3743873460300403  0.6159023012925959  0.2291967906100456   T   T   T
  0.7805154354376207  0.5887795210016188  0.2233076955569508   T   T   T
  0.5422620840361568  0.6066400209209073  0.2744311690273424   T   T   T
  0.4895045761629765  0.4714598486481670  0.2938786864643825   T   T   T
  0.5689490329079880  0.6371101010487352  0.3034057085542446   T   T   T
  0.3105305981482952  0.3794083582913529  0.3095402898531748   T   T   T
  0.4233703359720775  0.2543970326042028  0.3027671645640784   T   T   T
  0.6523101031950872  0.7331458530340336  0.3332121572976086   T   T   T
  0.4870992856189180  0.7624748151582906  0.3305867789136636   T   T   T
  0.5132060546286842  0.7865504762432445  0.2524529650935646   T   T   T
  0.5824239795724450  0.6433931908294417  0.2391204151411156   T   T   T
  0.1695035343918066  0.3339968312535322  0.0341864587177339   T   T   T
  0.5031275164551732  0.3339665308162494  0.0342382238338790   T   T   T
  0.8350551730514225  0.3337849178832822  0.0342346379124902   T   T   T
  0.1697626855328606  0.8339159938855762  0.0342464977135279   T   T   T
  0.5026893873814741  0.8341077098937060  0.0343224455912275   T   T   T
  0.8351786676200741  0.8339509742672774  0.0342511016462847   T   T   T
  0.3206970904655813  0.1018737005385031  0.2170223523285734   T   T   T
  0.6666021589577824  0.0822495481814071  0.2188944580996218   T   T   T
  0.9834155110003276  0.0832063855588186  0.2184414392054502   T   T   T
  0.2977317771018596  0.5841437149351464  0.2185153719616038   T   T   T
  0.6783106630664842  0.5824069873100530  0.2187607719251026   T   T   T
  0.9846733556499631  0.5808371592698059  0.2181694694517163   T   T   T
  0.5661401630947613  0.5558538412394550  0.2902035025457797   T   T   T
  0.3804697729492627  0.3505807879198639  0.2977409444282296   T   T   T
  0.5771273122772769  0.7554173725507218  0.3219433509738386   T   T   T
  0.5084706851643354  0.6754589986449244  0.2511214168581899   T   T   T
  0.4931122982114194  0.2430639130563667  0.0598933989987343   T   T   T
  0.8262600739913294  0.2429843193047186  0.0598882620073249   T   T   T
  0.1597940740004742  0.7429711356546771  0.0598891521275356   T   T   T
  0.4931452332559826  0.7429992410139512  0.0599615203529536   T   T   T
  0.8262360753637070  0.7430877419949355  0.0598930137395720   T   T   T
  0.1597860083725993  0.2430726304585821  0.0598337374784484   T   T   T
  0.9934920612290576  0.9956828099354019  0.1397359476733639   T   T   T
  0.3273117860395714  0.9965886427418970  0.1397283746539795   T   T   T
  0.6595953001230112  0.9964958988893630  0.1399657716255340   T   T   T
  0.9937390315388547  0.4964249965128054  0.1397179791888830   T   T   T
  0.3272785883358160  0.4964613468269373  0.1400500035624347   T   T   T
  0.6596767981308169  0.4961730997420871  0.1399966795943435   T   T   T
  0.1603900847565008  0.2453431045862131  0.1658977428333586   T   T   T
  0.4937342187678294  0.2485995022953146  0.1669257851257670   T   T   T
  0.8270729701981572  0.2445505165148673  0.1659571401451891   T   T   T
  0.1611277545837718  0.7465587344262056  0.1663311222856801   T   T   T
  0.4938303191522095  0.7456284077133435  0.1664963650898690   T   T   T
  0.8270899655250966  0.7453399659154160  0.1661366992750716   T   T   T
  0.3275914580360211  0.9975248040242183  0.1925591259355498   T   T   T
  0.6622755206470055  0.9940917932934007  0.1931078759673203   T   T   T
  0.9944511883190918  0.9930098522614232  0.1926686453561969   T   T   T
  0.3261204233499576  0.4913497000695876  0.1934307940152938   T   T   T
  0.9933085907418757  0.4913417149239673  0.1923002757166519   T   T   T
  0.6597579208719376  0.4876968057453174  0.1930670587179201   T   T   T
  0.9929519404070484  0.9957637056719268  0.0865222925531752   T   T   T
  0.3263496157271577  0.9957716122154688  0.0865025493048969   T   T   T
  0.6595118911239947  0.9957690980497872  0.0866122912952642   T   T   T
  0.9929384365571777  0.4958358597632203  0.0865103445271690   T   T   T
  0.3263575889001711  0.4957490821425710  0.0866245731134753   T   T   T
  0.6594962238233122  0.4957152455745332  0.0866129413138053   T   T   T
  0.1598573311700494  0.2462839120284506  0.1128519735605997   T   T   T
  0.4930366617032724  0.2463427643862397  0.1129868061126619   T   T   T
  0.8262814245206649  0.2462747986285377  0.1128990591876904   T   T   T
  0.1598999508985388  0.7462103379442181  0.1129476264783905   T   T   T
  0.4930675085327489  0.7460802688291007  0.1130223134668433   T   T   T
  0.8261615751442416  0.7462851797914957  0.1129134973339080   T   T   T
 
  0.00000000E+00  0.00000000E+00  0.00000000E+00
  0.00000000E+00  0.00000000E+00  0.00000000E+00
  0.00000000E+00  0.00000000E+00  0.00000000E+00
  0.00000000E+00  0.00000000E+00  0.00000000E+00
  0.00000000E+00  0.00000000E+00  0.00000000E+00
  0.00000000E+00  0.00000000E+00  0.00000000E+00
  0.00000000E+00  0.00000000E+00  0.00000000E+00
  0.00000000E+00  0.00000000E+00  0.00000000E+00
  0.00000000E+00  0.00000000E+00  0.00000000E+00
  0.00000000E+00  0.00000000E+00  0.00000000E+00
  0.00000000E+00  0.00000000E+00  0.00000000E+00
  0.00000000E+00  0.00000000E+00  0.00000000E+00
  0.00000000E+00  0.00000000E+00  0.00000000E+00
  0.00000000E+00  0.00000000E+00  0.00000000E+00
  0.00000000E+00  0.00000000E+00  0.00000000E+00
  0.00000000E+00  0.00000000E+00  0.00000000E+00
  0.00000000E+00  0.00000000E+00  0.00000000E+00
  0.00000000E+00  0.00000000E+00  0.00000000E+00
  0.00000000E+00  0.00000000E+00  0.00000000E+00
  0.00000000E+00  0.00000000E+00  0.00000000E+00
  0.00000000E+00  0.00000000E+00  0.00000000E+00
  0.00000000E+00  0.00000000E+00  0.00000000E+00
  0.00000000E+00  0.00000000E+00  0.00000000E+00
  0.00000000E+00  0.00000000E+00  0.00000000E+00
  0.00000000E+00  0.00000000E+00  0.00000000E+00
  0.00000000E+00  0.00000000E+00  0.00000000E+00
  0.00000000E+00  0.00000000E+00  0.00000000E+00
  0.00000000E+00  0.00000000E+00  0.00000000E+00
  0.00000000E+00  0.00000000E+00  0.00000000E+00
  0.00000000E+00  0.00000000E+00  0.00000000E+00
  0.00000000E+00  0.00000000E+00  0.00000000E+00
  0.00000000E+00  0.00000000E+00  0.00000000E+00
  0.00000000E+00  0.00000000E+00  0.00000000E+00
  0.00000000E+00  0.00000000E+00  0.00000000E+00
  0.00000000E+00  0.00000000E+00  0.00000000E+00
  0.00000000E+00  0.00000000E+00  0.00000000E+00
  0.00000000E+00  0.00000000E+00  0.00000000E+00
  0.00000000E+00  0.00000000E+00  0.00000000E+00
  0.00000000E+00  0.00000000E+00  0.00000000E+00
  0.00000000E+00  0.00000000E+00  0.00000000E+00
  0.00000000E+00  0.00000000E+00  0.00000000E+00
  0.00000000E+00  0.00000000E+00  0.00000000E+00
  0.00000000E+00  0.00000000E+00  0.00000000E+00
  0.00000000E+00  0.00000000E+00  0.00000000E+00
  0.00000000E+00  0.00000000E+00  0.00000000E+00
  0.00000000E+00  0.00000000E+00  0.00000000E+00
  0.00000000E+00  0.00000000E+00  0.00000000E+00
  0.00000000E+00  0.00000000E+00  0.00000000E+00
  0.00000000E+00  0.00000000E+00  0.00000000E+00
  0.00000000E+00  0.00000000E+00  0.00000000E+00
  0.00000000E+00  0.00000000E+00  0.00000000E+00
  0.00000000E+00  0.00000000E+00  0.00000000E+00
  0.00000000E+00  0.00000000E+00  0.00000000E+00
  0.00000000E+00  0.00000000E+00  0.00000000E+00
  0.00000000E+00  0.00000000E+00  0.00000000E+00
  0.00000000E+00  0.00000000E+00  0.00000000E+00
  0.00000000E+00  0.00000000E+00  0.00000000E+00
  0.00000000E+00  0.00000000E+00  0.00000000E+00
  0.00000000E+00  0.00000000E+00  0.00000000E+00
  0.00000000E+00  0.00000000E+00  0.00000000E+00
  0.00000000E+00  0.00000000E+00  0.00000000E+00
  0.00000000E+00  0.00000000E+00  0.00000000E+00
  0.00000000E+00  0.00000000E+00  0.00000000E+00
  0.00000000E+00  0.00000000E+00  0.00000000E+00
  0.00000000E+00  0.00000000E+00  0.00000000E+00
  0.00000000E+00  0.00000000E+00  0.00000000E+00
  0.00000000E+00  0.00000000E+00  0.00000000E+00
  0.00000000E+00  0.00000000E+00  0.00000000E+00
  0.00000000E+00  0.00000000E+00  0.00000000E+00
  0.00000000E+00  0.00000000E+00  0.00000000E+00
  0.00000000E+00  0.00000000E+00  0.00000000E+00
  0.00000000E+00  0.00000000E+00  0.00000000E+00
  0.00000000E+00  0.00000000E+00  0.00000000E+00
  0.00000000E+00  0.00000000E+00  0.00000000E+00
  0.00000000E+00  0.00000000E+00  0.00000000E+00
  0.00000000E+00  0.00000000E+00  0.00000000E+00
  0.00000000E+00  0.00000000E+00  0.00000000E+00
  0.00000000E+00  0.00000000E+00  0.00000000E+00
  0.00000000E+00  0.00000000E+00  0.00000000E+00
  0.00000000E+00  0.00000000E+00  0.00000000E+00
  0.00000000E+00  0.00000000E+00  0.00000000E+00
  0.00000000E+00  0.00000000E+00  0.00000000E+00
  0.00000000E+00  0.00000000E+00  0.00000000E+00
  0.00000000E+00  0.00000000E+00  0.00000000E+00
  0.00000000E+00  0.00000000E+00  0.00000000E+00
  0.00000000E+00  0.00000000E+00  0.00000000E+00
  0.00000000E+00  0.00000000E+00  0.00000000E+00
  0.00000000E+00  0.00000000E+00  0.00000000E+00
  0.00000000E+00  0.00000000E+00  0.00000000E+00
  0.00000000E+00  0.00000000E+00  0.00000000E+00
  0.00000000E+00  0.00000000E+00  0.00000000E+00
  0.00000000E+00  0.00000000E+00  0.00000000E+00
  0.00000000E+00  0.00000000E+00  0.00000000E+00
  0.00000000E+00  0.00000000E+00  0.00000000E+00
  0.00000000E+00  0.00000000E+00  0.00000000E+00
  0.00000000E+00  0.00000000E+00  0.00000000E+00
  0.00000000E+00  0.00000000E+00  0.00000000E+00
  0.00000000E+00  0.00000000E+00  0.00000000E+00
  0.00000000E+00  0.00000000E+00  0.00000000E+00
  0.00000000E+00  0.00000000E+00  0.00000000E+00
  0.00000000E+00  0.00000000E+00  0.00000000E+00
  0.00000000E+00  0.00000000E+00  0.00000000E+00
  0.00000000E+00  0.00000000E+00  0.00000000E+00
  0.00000000E+00  0.00000000E+00  0.00000000E+00
  0.00000000E+00  0.00000000E+00  0.00000000E+00
  0.00000000E+00  0.00000000E+00  0.00000000E+00
  0.00000000E+00  0.00000000E+00  0.00000000E+00
  0.00000000E+00  0.00000000E+00  0.00000000E+00
  0.00000000E+00  0.00000000E+00  0.00000000E+00
  0.00000000E+00  0.00000000E+00  0.00000000E+00
  0.00000000E+00  0.00000000E+00  0.00000000E+00
  0.00000000E+00  0.00000000E+00  0.00000000E+00
  0.00000000E+00  0.00000000E+00  0.00000000E+00
  0.00000000E+00  0.00000000E+00  0.00000000E+00
  0.00000000E+00  0.00000000E+00  0.00000000E+00
  0.00000000E+00  0.00000000E+00  0.00000000E+00
  0.00000000E+00  0.00000000E+00  0.00000000E+00
  0.00000000E+00  0.00000000E+00  0.00000000E+00
  0.00000000E+00  0.00000000E+00  0.00000000E+00
  0.00000000E+00  0.00000000E+00  0.00000000E+00
