C H O Si                                
   1.00000000000000     
     9.2874599999999994    0.0000000000000000    0.0000000000000000
     0.0000000000000000   17.5126199999999983    0.0000000000000000
     0.0000000000000000    0.0000000000000000   58.0000000000000000
   C    H    O    Si
    72    57    28    72
Selective dynamics
Direct
  0.9934240305681649  0.0631325403467841  0.0604489546282543   T   T   T
  0.3267865371963164  0.0631349031700208  0.0605493461487386   T   T   T
  0.6600512882354680  0.0631206216451717  0.0605174096274974   T   T   T
  0.9932228750901905  0.3131749624561964  0.0604437863668315   T   T   T
  0.3265566610172141  0.3130969472258724  0.0605503628552810   T   T   T
  0.6599348546417734  0.3131288517834178  0.0605042452280430   T   T   T
  0.1600042606030280  0.1859857432182734  0.1393909997629150   T   T   T
  0.4932215892360281  0.1863004969457031  0.1396385419410131   T   T   T
  0.8266537445803582  0.1859371234425511  0.1393177662731557   T   T   T
  0.1598209329457906  0.4361092891086217  0.1394392201883337   T   T   T
  0.4931821063173423  0.4360236280448276  0.1394819979482372   T   T   T
  0.8265672199629085  0.4360984248531890  0.1394189821713796   T   T   T
  0.3273261768735888  0.0613458554363326  0.1667177147128815   T   T   T
  0.6596877054259159  0.0612937735866121  0.1666758127077595   T   T   T
  0.9937614360050282  0.0606547972833612  0.1664618750279313   T   T   T
  0.3265614933891916  0.3112040687208820  0.1667858356292031   T   T   T
  0.6604834040992195  0.3112740252301531  0.1666467322110014   T   T   T
  0.9935367909484648  0.3111695059989406  0.1665123523907946   T   T   T
  0.1604431671247556  0.1872700117064877  0.1917278816325258   T   T   T
  0.4938406934815114  0.1898621302685073  0.1927198217815098   T   T   T
  0.8277363865699294  0.1867943588364922  0.1915127513093804   T   T   T
  0.1599500136440516  0.4384207220237884  0.1919850651671094   T   T   T
  0.4934711626279619  0.4380260537635273  0.1920181865136299   T   T   T
  0.8269677282633300  0.4384730319065188  0.1919316890488168   T   T   T
  0.1597623545382429  0.1861905812726775  0.0858290052638091   T   T   T
  0.4930623557430677  0.1862154360939001  0.0859673614549682   T   T   T
  0.8263535996176908  0.1861632103081109  0.0857754999015228   T   T   T
  0.1598193301324904  0.4361773864248240  0.0858613379655737   T   T   T
  0.4930893085727229  0.4361501586931726  0.0858873577326272   T   T   T
  0.8263959631263965  0.4361648185142716  0.0858389855081394   T   T   T
  0.3264400026471545  0.0611027418224132  0.1130854744233864   T   T   T
  0.6596435990579185  0.0611053583226625  0.1130670392698546   T   T   T
  0.9930928164315991  0.0609932961782389  0.1129902901179955   T   T   T
  0.3263884236950290  0.3110745467134434  0.1131304077092039   T   T   T
  0.6598357803302921  0.3110736867116659  0.1130728069103581   T   T   T
  0.9931009086989465  0.3110601418152304  0.1129866908954418   T   T   T
  0.9934631354868692  0.5631310606072227  0.0604930202655803   T   T   T
  0.3267542405672257  0.5631229756752001  0.0605090452844094   T   T   T
  0.6601930248069517  0.5631216084286398  0.0605010131324023   T   T   T
  0.9932809871319324  0.8131676129243491  0.0604926705813155   T   T   T
  0.3265606222118759  0.8131080155058725  0.0604982099632717   T   T   T
  0.6599668816300905  0.8131355513364609  0.0604926052249992   T   T   T
  0.1598314745513754  0.6861223096353318  0.1394302439424701   T   T   T
  0.4931121769289217  0.6860900435608763  0.1394447783108791   T   T   T
  0.8264220831482267  0.6861118577470618  0.1394326187660792   T   T   T
  0.1602645641990565  0.9360531799440521  0.1394393327525506   T   T   T
  0.4931499193902062  0.9360191408246425  0.1394428842453584   T   T   T
  0.8263364541329073  0.9360875857250437  0.1394337299272231   T   T   T
  0.3266261429786624  0.5612160269621862  0.1666109335793660   T   T   T
  0.6598406251196445  0.5612131992995162  0.1666093863497568   T   T   T
  0.9932797363553350  0.5613976760480666  0.1665818635485675   T   T   T
  0.3266702583083250  0.8111687429604317  0.1666260172477117   T   T   T
  0.6600433505092823  0.8111837371944881  0.1666212691826175   T   T   T
  0.9933727682747242  0.8112412192328896  0.1666081528127729   T   T   T
  0.1602881468359337  0.6881621405865531  0.1919893199769242   T   T   T
  0.4935449411958618  0.6881629555150507  0.1920094536051600   T   T   T
  0.8267778537453668  0.6881880373867328  0.1919812038124828   T   T   T
  0.1605090077394613  0.9381356655001094  0.1920006730234862   T   T   T
  0.4937413236372882  0.9380735773107032  0.1920203681227078   T   T   T
  0.8269362635235515  0.9381098858242239  0.1919696368951032   T   T   T
  0.1597563940750587  0.6862084077247307  0.0858618289831624   T   T   T
  0.4930998099461341  0.6861512598630354  0.0858695875146543   T   T   T
  0.8263847392054307  0.6862061786572492  0.0858630570984244   T   T   T
  0.1598483643333033  0.9361897942159961  0.0858519833637624   T   T   T
  0.4930575590372479  0.9361620596232784  0.0858685593846358   T   T   T
  0.8263295836794345  0.9361928990479501  0.0858437433560991   T   T   T
  0.3264007561970545  0.5610748783883641  0.1130539857221953   T   T   T
  0.6597367059540904  0.5610737349001030  0.1130488553310759   T   T   T
  0.9930487609234164  0.5610886920691264  0.1130368988439822   T   T   T
  0.3264706268212209  0.8110612227185019  0.1130373464714973   T   T   T
  0.6597428616840471  0.8110840735060293  0.1130393778785898   T   T   T
  0.9930920965126494  0.8111554089299151  0.1130498276152212   T   T   T
  0.0741080700337115  0.1776243602482612  0.0274500478317265   T   T   T
  0.4064456112861701  0.1776382594105640  0.0276273820783333   T   T   T
  0.7394810180737045  0.1775605043600508  0.0274758517178211   T   T   T
  0.0737968724012895  0.4276688412113143  0.0274722853006572   T   T   T
  0.4059146411155997  0.4275159806708007  0.0275598240508782   T   T   T
  0.7389072480333539  0.4275459751752118  0.0275183779506873   T   T   T
  0.3244013918403308  0.0266292127078438  0.0450958870428648   T   T   T
  0.6568910064502729  0.0266209796115744  0.0450711227861036   T   T   T
  0.9908780140948704  0.0266530136368030  0.0449977056249289   T   T   T
  0.3238684437504268  0.2765191984854882  0.0451134568217878   T   T   T
  0.6571017824386417  0.2766026274220501  0.0450603748038117   T   T   T
  0.9905616917909565  0.2767265480887236  0.0449809140114282   T   T   T
  0.8286319185206480  0.4022972708285204  0.2074350079256673   T   T   T
  0.8303030199718243  0.1505740153586999  0.2070178530834565   T   T   T
  0.1618539897050073  0.1510665974780317  0.2072456277476970   T   T   T
  0.4968280736182104  0.1528154777606154  0.2080586737771113   T   T   T
  0.1618949127525295  0.4018066747264917  0.2074133948794537   T   T   T
  0.4940346480926230  0.4016375688331332  0.2075062009470386   T   T   T
  0.0809175991069793  0.0524730661096197  0.2249507471149592   T   T   T
  0.4150265947634300  0.0520129177045628  0.2250878742862048   T   T   T
  0.7484984836452566  0.0522201761326500  0.2250000627417931   T   T   T
  0.0789479068381779  0.3010215532336054  0.2245925150114893   T   T   T
  0.3781825225765250  0.3102596691047561  0.2284788416264006   T   T   T
  0.7820578693532581  0.2952031679221865  0.2229138000269322   T   T   T
  0.5473239455164632  0.3056502046507933  0.2739230376933167   T   T   T
  0.4931853497719075  0.2380078944317567  0.2933351740043386   T   T   T
  0.5721704591539203  0.3199309456370988  0.3030419485612397   T   T   T
  0.3149195495502623  0.1945421262880878  0.3097515743561332   T   T   T
  0.4220343349065397  0.1302716201949055  0.3022421916515253   T   T   T
  0.6503660822100124  0.3661480783719140  0.3335423231810195   T   T   T
  0.4844962057254927  0.3773328611311183  0.3308443400324573   T   T   T
  0.5186073711608845  0.3954435404045238  0.2521811424036035   T   T   T
  0.5859861712400385  0.3232811257818087  0.2387153014792202   T   T   T
  0.0736895499399476  0.6776798100503685  0.0275126252837173   T   T   T
  0.4066090486333754  0.6776050268512644  0.0275452809000039   T   T   T
  0.7397313639127721  0.6775898141299248  0.0275452962187200   T   T   T
  0.0732674075007073  0.9276356446733960  0.0275046158253122   T   T   T
  0.4060124043368957  0.9275367803436624  0.0275424866709009   T   T   T
  0.7393423030002384  0.9276088893418046  0.0275197342178591   T   T   T
  0.3240644666436873  0.5266241941129483  0.0450573663296834   T   T   T
  0.6574620974343012  0.5266314433593747  0.0450497628672005   T   T   T
  0.9907181550032010  0.5266435962503964  0.0450391201179234   T   T   T
  0.3239210157698383  0.7765939884246610  0.0450509072733775   T   T   T
  0.6571277513899574  0.7766077370971474  0.0450485497072113   T   T   T
  0.9905330130098009  0.7766231040837858  0.0450530458547162   T   T   T
  0.8293189344232264  0.9015962515417785  0.2074281620652769   T   T   T
  0.8291170817148816  0.6516571112024393  0.2074314342526853   T   T   T
  0.1624142237714235  0.6516392858121690  0.2074418950685722   T   T   T
  0.4959167529141454  0.6517265942888002  0.2074720369017775   T   T   T
  0.1625482199437450  0.9015949340666100  0.2074477111987384   T   T   T
  0.4960709104874980  0.9015106550941241  0.2074613003242252   T   T   T
  0.0802843892460197  0.5534813606851532  0.2249525494941453   T   T   T
  0.4143931066666880  0.5538938027511705  0.2247852767104890   T   T   T
  0.7476670541928071  0.5533218178427116  0.2248766456276708   T   T   T
  0.0811953480074249  0.8025081350243058  0.2249695807981931   T   T   T
  0.4138622125550072  0.8028100650612692  0.2250411544688719   T   T   T
  0.7488227944262335  0.8022926879990400  0.2249192685799210   T   T   T
  0.1688503186418342  0.1660944349616925  0.0339035303614144   T   T   T
  0.5015033453664127  0.1663936056254300  0.0340197786464077   T   T   T
  0.8344974387649323  0.1658756680600402  0.0337996544258731   T   T   T
  0.1685525406753995  0.4162475401509254  0.0339366601722612   T   T   T
  0.5010066850371879  0.4161757002933027  0.0339206503495223   T   T   T
  0.8340324202525522  0.4162000103858103  0.0338662678225884   T   T   T
  0.3198849033276385  0.0412623545297209  0.2186585992989042   T   T   T
  0.6532476763876774  0.0413075784054400  0.2186246696987223   T   T   T
  0.9860240374871094  0.0413596899666242  0.2184977175430093   T   T   T
  0.2995592588682857  0.2913832417461801  0.2186769697232365   T   T   T
  0.6793392696875449  0.2913533695222524  0.2186055202151973   T   T   T
  0.9833019120164351  0.2892041370367770  0.2183487565314390   T   T   T
  0.5709087003145922  0.2797156500367569  0.2897732533568134   T   T   T
  0.3810974188606447  0.1791795969475689  0.2975396861862691   T   T   T
  0.5750318886114264  0.3774888429333785  0.3223104573373829   T   T   T
  0.5132040328515605  0.3399176856111600  0.2509443340974709   T   T   T
  0.1685158875389084  0.6662722716731851  0.0339431739346272   T   T   T
  0.5016116314876639  0.6662889774208166  0.0339428158090770   T   T   T
  0.8347634975211828  0.6663531127679323  0.0339424529390408   T   T   T
  0.1681678625355458  0.9163511797959809  0.0339389146779584   T   T   T
  0.5010945653522738  0.9162202063338994  0.0339072278870713   T   T   T
  0.8343970359040729  0.9162060205518935  0.0338859646900250   T   T   T
  0.3194673876451062  0.5413160584504404  0.2185948303433321   T   T   T
  0.6526922653612137  0.5413908918172928  0.2185688913925967   T   T   T
  0.9855115223880212  0.5415227165470308  0.2185912586222313   T   T   T
  0.3190748749467115  0.7912108369079965  0.2186333005270222   T   T   T
  0.6533786335883742  0.7913271472650527  0.2186205734946834   T   T   T
  0.9861198109730153  0.7912708983071463  0.2185940311421299   T   T   T
  0.4935837251092490  0.1217697898965898  0.0600142071551556   T   T   T
  0.8268354055107487  0.1216852299810444  0.0598569842520637   T   T   T
  0.1601431842551742  0.3717188661323974  0.0599404134407376   T   T   T
  0.4933663259921334  0.3716923385459744  0.0599411033994549   T   T   T
  0.8266529857358655  0.3717551773829556  0.0599006995678266   T   T   T
  0.1603130100860771  0.1216966551494545  0.0599235661505116   T   T   T
  0.9931835090983521  0.4985226576531798  0.1396375326110708   T   T   T
  0.3264967451510823  0.4984474179894850  0.1396538764911144   T   T   T
  0.6597938890460303  0.4984315436656357  0.1396512471578195   T   T   T
  0.9932713025632600  0.2483306384529444  0.1395343098794485   T   T   T
  0.3264076359175359  0.2484829015469711  0.1397637009007579   T   T   T
  0.6600444959904107  0.2483777970579001  0.1396432072227832   T   T   T
  0.1601659641776649  0.1228025934892499  0.1657984235721312   T   T   T
  0.4934402143172278  0.1239770350369660  0.1662878431388206   T   T   T
  0.8270568458857733  0.1224561177355341  0.1656435392356392   T   T   T
  0.1599781265793551  0.3733749254193398  0.1659505539948320   T   T   T
  0.4932528498753191  0.3731229623891719  0.1659760161593815   T   T   T
  0.8270657010777617  0.3733887417153893  0.1659159427880798   T   T   T
  0.3264332166862635  0.4969128037221158  0.1925464157101232   T   T   T
  0.6600231377559602  0.4969164690159214  0.1925435527522711   T   T   T
  0.9932718063830639  0.4971116888249852  0.1925247908222751   T   T   T
  0.3247017528758789  0.2474959249307955  0.1929433509774795   T   T   T
  0.9936530395988904  0.2456069074322663  0.1921171552394619   T   T   T
  0.6629248033716240  0.2464416822963795  0.1923509463198828   T   T   T
  0.9931208593391108  0.4982121404222620  0.0865285065716419   T   T   T
  0.3264674376423712  0.4982093820974245  0.0865490874508742   T   T   T
  0.6597613812503075  0.4982096776675982  0.0865431278595385   T   T   T
  0.9930169312927173  0.2482104472762774  0.0864659016670840   T   T   T
  0.3264053385257744  0.2482118386354125  0.0865976344102469   T   T   T
  0.6597561987053122  0.2482184319718566  0.0865483577414397   T   T   T
  0.1597724826646301  0.1234089288111024  0.1127839603519028   T   T   T
  0.4930627642740568  0.1235047619328205  0.1129411707806809   T   T   T
  0.8264510443751709  0.1233525845308928  0.1127222523078332   T   T   T
  0.1597797986915331  0.3734547567983914  0.1128327576522392   T   T   T
  0.4931087560710830  0.3734041269750940  0.1128506771503352   T   T   T
  0.8265218949529229  0.3734443914558775  0.1128058691703117   T   T   T
  0.4936219924679996  0.6217104316566401  0.0599397750442223   T   T   T
  0.8269135997884679  0.6217586379874491  0.0599402930306014   T   T   T
  0.1601378689609426  0.8717468939662272  0.0599331119709456   T   T   T
  0.4934076626570457  0.8717173008542737  0.0599260023313048   T   T   T
  0.8266893078215234  0.8717385433905115  0.0599178092455949   T   T   T
  0.1602656196831393  0.6217301115353777  0.0599440784052255   T   T   T
  0.9933041971789537  0.9981740703532906  0.1395589571299590   T   T   T
  0.3268979386991456  0.9985424889935267  0.1396964353181157   T   T   T
  0.6595136080620954  0.9984822140489087  0.1396724505975250   T   T   T
  0.9931230014189539  0.7484734212141335  0.1396430564896315   T   T   T
  0.3264546059113175  0.7484701199861877  0.1396491330600793   T   T   T
  0.6597540720295600  0.7484686854493520  0.1396508232911856   T   T   T
  0.1599281004775713  0.6233112894063481  0.1659277115449828   T   T   T
  0.4932496663936489  0.6232929749382010  0.1659470077584488   T   T   T
  0.8265240785017149  0.6233111894835873  0.1659296655422880   T   T   T
  0.1601003883834736  0.8732189642181829  0.1659419306809000   T   T   T
  0.4933568127643257  0.8732071655998617  0.1659616528574374   T   T   T
  0.8266412882564583  0.8732072228312608  0.1659307414130036   T   T   T
  0.3269062532110150  0.9967450833889104  0.1926226732010786   T   T   T
  0.6601558770805853  0.9967328619697756  0.1925944230358503   T   T   T
  0.9935120684718689  0.9966688739775877  0.1925028199214772   T   T   T
  0.3266628522380518  0.7468021019246633  0.1925771694834569   T   T   T
  0.9933224513050599  0.7468026327179044  0.1925566494857707   T   T   T
  0.6599778647313302  0.7468271993603226  0.1925702661083617   T   T   T
  0.9931078363922804  0.9981928514770955  0.0864821988094769   T   T   T
  0.3264992362845281  0.9982115853543798  0.0865696468376668   T   T   T
  0.6596974832791662  0.9982181343898766  0.0865507563212628   T   T   T
  0.9930904248356021  0.7482627671226798  0.0865374105154216   T   T   T
  0.3264267031029258  0.7482106426443708  0.0865384542995541   T   T   T
  0.6597204700625897  0.7482266022419412  0.0865387160913851   T   T   T
  0.1597558091376151  0.6234623999836783  0.1128282168880461   T   T   T
  0.4930925304200487  0.6234365335383020  0.1128376730362382   T   T   T
  0.8264137005684626  0.6234556738036937  0.1128262454497989   T   T   T
  0.1599350498343435  0.8734438720226902  0.1128224511292972   T   T   T
  0.4931237507714948  0.8734137588286500  0.1128253139055716   T   T   T
  0.8263454133222244  0.8734684462561066  0.1128170708665057   T   T   T
 
  0.00000000E+00  0.00000000E+00  0.00000000E+00
  0.00000000E+00  0.00000000E+00  0.00000000E+00
  0.00000000E+00  0.00000000E+00  0.00000000E+00
  0.00000000E+00  0.00000000E+00  0.00000000E+00
  0.00000000E+00  0.00000000E+00  0.00000000E+00
  0.00000000E+00  0.00000000E+00  0.00000000E+00
  0.00000000E+00  0.00000000E+00  0.00000000E+00
  0.00000000E+00  0.00000000E+00  0.00000000E+00
  0.00000000E+00  0.00000000E+00  0.00000000E+00
  0.00000000E+00  0.00000000E+00  0.00000000E+00
  0.00000000E+00  0.00000000E+00  0.00000000E+00
  0.00000000E+00  0.00000000E+00  0.00000000E+00
  0.00000000E+00  0.00000000E+00  0.00000000E+00
  0.00000000E+00  0.00000000E+00  0.00000000E+00
  0.00000000E+00  0.00000000E+00  0.00000000E+00
  0.00000000E+00  0.00000000E+00  0.00000000E+00
  0.00000000E+00  0.00000000E+00  0.00000000E+00
  0.00000000E+00  0.00000000E+00  0.00000000E+00
  0.00000000E+00  0.00000000E+00  0.00000000E+00
  0.00000000E+00  0.00000000E+00  0.00000000E+00
  0.00000000E+00  0.00000000E+00  0.00000000E+00
  0.00000000E+00  0.00000000E+00  0.00000000E+00
  0.00000000E+00  0.00000000E+00  0.00000000E+00
  0.00000000E+00  0.00000000E+00  0.00000000E+00
  0.00000000E+00  0.00000000E+00  0.00000000E+00
  0.00000000E+00  0.00000000E+00  0.00000000E+00
  0.00000000E+00  0.00000000E+00  0.00000000E+00
  0.00000000E+00  0.00000000E+00  0.00000000E+00
  0.00000000E+00  0.00000000E+00  0.00000000E+00
  0.00000000E+00  0.00000000E+00  0.00000000E+00
  0.00000000E+00  0.00000000E+00  0.00000000E+00
  0.00000000E+00  0.00000000E+00  0.00000000E+00
  0.00000000E+00  0.00000000E+00  0.00000000E+00
  0.00000000E+00  0.00000000E+00  0.00000000E+00
  0.00000000E+00  0.00000000E+00  0.00000000E+00
  0.00000000E+00  0.00000000E+00  0.00000000E+00
  0.00000000E+00  0.00000000E+00  0.00000000E+00
  0.00000000E+00  0.00000000E+00  0.00000000E+00
  0.00000000E+00  0.00000000E+00  0.00000000E+00
  0.00000000E+00  0.00000000E+00  0.00000000E+00
  0.00000000E+00  0.00000000E+00  0.00000000E+00
  0.00000000E+00  0.00000000E+00  0.00000000E+00
  0.00000000E+00  0.00000000E+00  0.00000000E+00
  0.00000000E+00  0.00000000E+00  0.00000000E+00
  0.00000000E+00  0.00000000E+00  0.00000000E+00
  0.00000000E+00  0.00000000E+00  0.00000000E+00
  0.00000000E+00  0.00000000E+00  0.00000000E+00
  0.00000000E+00  0.00000000E+00  0.00000000E+00
  0.00000000E+00  0.00000000E+00  0.00000000E+00
  0.00000000E+00  0.00000000E+00  0.00000000E+00
  0.00000000E+00  0.00000000E+00  0.00000000E+00
  0.00000000E+00  0.00000000E+00  0.00000000E+00
  0.00000000E+00  0.00000000E+00  0.00000000E+00
  0.00000000E+00  0.00000000E+00  0.00000000E+00
  0.00000000E+00  0.00000000E+00  0.00000000E+00
  0.00000000E+00  0.00000000E+00  0.00000000E+00
  0.00000000E+00  0.00000000E+00  0.00000000E+00
  0.00000000E+00  0.00000000E+00  0.00000000E+00
  0.00000000E+00  0.00000000E+00  0.00000000E+00
  0.00000000E+00  0.00000000E+00  0.00000000E+00
  0.00000000E+00  0.00000000E+00  0.00000000E+00
  0.00000000E+00  0.00000000E+00  0.00000000E+00
  0.00000000E+00  0.00000000E+00  0.00000000E+00
  0.00000000E+00  0.00000000E+00  0.00000000E+00
  0.00000000E+00  0.00000000E+00  0.00000000E+00
  0.00000000E+00  0.00000000E+00  0.00000000E+00
  0.00000000E+00  0.00000000E+00  0.00000000E+00
  0.00000000E+00  0.00000000E+00  0.00000000E+00
  0.00000000E+00  0.00000000E+00  0.00000000E+00
  0.00000000E+00  0.00000000E+00  0.00000000E+00
  0.00000000E+00  0.00000000E+00  0.00000000E+00
  0.00000000E+00  0.00000000E+00  0.00000000E+00
  0.00000000E+00  0.00000000E+00  0.00000000E+00
  0.00000000E+00  0.00000000E+00  0.00000000E+00
  0.00000000E+00  0.00000000E+00  0.00000000E+00
  0.00000000E+00  0.00000000E+00  0.00000000E+00
  0.00000000E+00  0.00000000E+00  0.00000000E+00
  0.00000000E+00  0.00000000E+00  0.00000000E+00
  0.00000000E+00  0.00000000E+00  0.00000000E+00
  0.00000000E+00  0.00000000E+00  0.00000000E+00
  0.00000000E+00  0.00000000E+00  0.00000000E+00
  0.00000000E+00  0.00000000E+00  0.00000000E+00
  0.00000000E+00  0.00000000E+00  0.00000000E+00
  0.00000000E+00  0.00000000E+00  0.00000000E+00
  0.00000000E+00  0.00000000E+00  0.00000000E+00
  0.00000000E+00  0.00000000E+00  0.00000000E+00
  0.00000000E+00  0.00000000E+00  0.00000000E+00
  0.00000000E+00  0.00000000E+00  0.00000000E+00
  0.00000000E+00  0.00000000E+00  0.00000000E+00
  0.00000000E+00  0.00000000E+00  0.00000000E+00
  0.00000000E+00  0.00000000E+00  0.00000000E+00
  0.00000000E+00  0.00000000E+00  0.00000000E+00
  0.00000000E+00  0.00000000E+00  0.00000000E+00
  0.00000000E+00  0.00000000E+00  0.00000000E+00
  0.00000000E+00  0.00000000E+00  0.00000000E+00
  0.00000000E+00  0.00000000E+00  0.00000000E+00
  0.00000000E+00  0.00000000E+00  0.00000000E+00
  0.00000000E+00  0.00000000E+00  0.00000000E+00
  0.00000000E+00  0.00000000E+00  0.00000000E+00
  0.00000000E+00  0.00000000E+00  0.00000000E+00
  0.00000000E+00  0.00000000E+00  0.00000000E+00
  0.00000000E+00  0.00000000E+00  0.00000000E+00
  0.00000000E+00  0.00000000E+00  0.00000000E+00
  0.00000000E+00  0.00000000E+00  0.00000000E+00
  0.00000000E+00  0.00000000E+00  0.00000000E+00
  0.00000000E+00  0.00000000E+00  0.00000000E+00
  0.00000000E+00  0.00000000E+00  0.00000000E+00
  0.00000000E+00  0.00000000E+00  0.00000000E+00
  0.00000000E+00  0.00000000E+00  0.00000000E+00
  0.00000000E+00  0.00000000E+00  0.00000000E+00
  0.00000000E+00  0.00000000E+00  0.00000000E+00
  0.00000000E+00  0.00000000E+00  0.00000000E+00
  0.00000000E+00  0.00000000E+00  0.00000000E+00
  0.00000000E+00  0.00000000E+00  0.00000000E+00
  0.00000000E+00  0.00000000E+00  0.00000000E+00
  0.00000000E+00  0.00000000E+00  0.00000000E+00
  0.00000000E+00  0.00000000E+00  0.00000000E+00
  0.00000000E+00  0.00000000E+00  0.00000000E+00
  0.00000000E+00  0.00000000E+00  0.00000000E+00
  0.00000000E+00  0.00000000E+00  0.00000000E+00
  0.00000000E+00  0.00000000E+00  0.00000000E+00
  0.00000000E+00  0.00000000E+00  0.00000000E+00
  0.00000000E+00  0.00000000E+00  0.00000000E+00
  0.00000000E+00  0.00000000E+00  0.00000000E+00
  0.00000000E+00  0.00000000E+00  0.00000000E+00
  0.00000000E+00  0.00000000E+00  0.00000000E+00
  0.00000000E+00  0.00000000E+00  0.00000000E+00
  0.00000000E+00  0.00000000E+00  0.00000000E+00
  0.00000000E+00  0.00000000E+00  0.00000000E+00
  0.00000000E+00  0.00000000E+00  0.00000000E+00
  0.00000000E+00  0.00000000E+00  0.00000000E+00
  0.00000000E+00  0.00000000E+00  0.00000000E+00
  0.00000000E+00  0.00000000E+00  0.00000000E+00
  0.00000000E+00  0.00000000E+00  0.00000000E+00
  0.00000000E+00  0.00000000E+00  0.00000000E+00
  0.00000000E+00  0.00000000E+00  0.00000000E+00
  0.00000000E+00  0.00000000E+00  0.00000000E+00
  0.00000000E+00  0.00000000E+00  0.00000000E+00
  0.00000000E+00  0.00000000E+00  0.00000000E+00
  0.00000000E+00  0.00000000E+00  0.00000000E+00
  0.00000000E+00  0.00000000E+00  0.00000000E+00
  0.00000000E+00  0.00000000E+00  0.00000000E+00
  0.00000000E+00  0.00000000E+00  0.00000000E+00
  0.00000000E+00  0.00000000E+00  0.00000000E+00
  0.00000000E+00  0.00000000E+00  0.00000000E+00
  0.00000000E+00  0.00000000E+00  0.00000000E+00
  0.00000000E+00  0.00000000E+00  0.00000000E+00
  0.00000000E+00  0.00000000E+00  0.00000000E+00
  0.00000000E+00  0.00000000E+00  0.00000000E+00
  0.00000000E+00  0.00000000E+00  0.00000000E+00
  0.00000000E+00  0.00000000E+00  0.00000000E+00
  0.00000000E+00  0.00000000E+00  0.00000000E+00
  0.00000000E+00  0.00000000E+00  0.00000000E+00
  0.00000000E+00  0.00000000E+00  0.00000000E+00
  0.00000000E+00  0.00000000E+00  0.00000000E+00
  0.00000000E+00  0.00000000E+00  0.00000000E+00
  0.00000000E+00  0.00000000E+00  0.00000000E+00
  0.00000000E+00  0.00000000E+00  0.00000000E+00
  0.00000000E+00  0.00000000E+00  0.00000000E+00
  0.00000000E+00  0.00000000E+00  0.00000000E+00
  0.00000000E+00  0.00000000E+00  0.00000000E+00
  0.00000000E+00  0.00000000E+00  0.00000000E+00
  0.00000000E+00  0.00000000E+00  0.00000000E+00
  0.00000000E+00  0.00000000E+00  0.00000000E+00
  0.00000000E+00  0.00000000E+00  0.00000000E+00
  0.00000000E+00  0.00000000E+00  0.00000000E+00
  0.00000000E+00  0.00000000E+00  0.00000000E+00
  0.00000000E+00  0.00000000E+00  0.00000000E+00
  0.00000000E+00  0.00000000E+00  0.00000000E+00
  0.00000000E+00  0.00000000E+00  0.00000000E+00
  0.00000000E+00  0.00000000E+00  0.00000000E+00
  0.00000000E+00  0.00000000E+00  0.00000000E+00
  0.00000000E+00  0.00000000E+00  0.00000000E+00
  0.00000000E+00  0.00000000E+00  0.00000000E+00
  0.00000000E+00  0.00000000E+00  0.00000000E+00
  0.00000000E+00  0.00000000E+00  0.00000000E+00
  0.00000000E+00  0.00000000E+00  0.00000000E+00
  0.00000000E+00  0.00000000E+00  0.00000000E+00
  0.00000000E+00  0.00000000E+00  0.00000000E+00
  0.00000000E+00  0.00000000E+00  0.00000000E+00
  0.00000000E+00  0.00000000E+00  0.00000000E+00
  0.00000000E+00  0.00000000E+00  0.00000000E+00
  0.00000000E+00  0.00000000E+00  0.00000000E+00
  0.00000000E+00  0.00000000E+00  0.00000000E+00
  0.00000000E+00  0.00000000E+00  0.00000000E+00
  0.00000000E+00  0.00000000E+00  0.00000000E+00
  0.00000000E+00  0.00000000E+00  0.00000000E+00
  0.00000000E+00  0.00000000E+00  0.00000000E+00
  0.00000000E+00  0.00000000E+00  0.00000000E+00
  0.00000000E+00  0.00000000E+00  0.00000000E+00
  0.00000000E+00  0.00000000E+00  0.00000000E+00
  0.00000000E+00  0.00000000E+00  0.00000000E+00
  0.00000000E+00  0.00000000E+00  0.00000000E+00
  0.00000000E+00  0.00000000E+00  0.00000000E+00
  0.00000000E+00  0.00000000E+00  0.00000000E+00
  0.00000000E+00  0.00000000E+00  0.00000000E+00
  0.00000000E+00  0.00000000E+00  0.00000000E+00
  0.00000000E+00  0.00000000E+00  0.00000000E+00
  0.00000000E+00  0.00000000E+00  0.00000000E+00
  0.00000000E+00  0.00000000E+00  0.00000000E+00
  0.00000000E+00  0.00000000E+00  0.00000000E+00
  0.00000000E+00  0.00000000E+00  0.00000000E+00
  0.00000000E+00  0.00000000E+00  0.00000000E+00
  0.00000000E+00  0.00000000E+00  0.00000000E+00
  0.00000000E+00  0.00000000E+00  0.00000000E+00
  0.00000000E+00  0.00000000E+00  0.00000000E+00
  0.00000000E+00  0.00000000E+00  0.00000000E+00
  0.00000000E+00  0.00000000E+00  0.00000000E+00
  0.00000000E+00  0.00000000E+00  0.00000000E+00
  0.00000000E+00  0.00000000E+00  0.00000000E+00
  0.00000000E+00  0.00000000E+00  0.00000000E+00
  0.00000000E+00  0.00000000E+00  0.00000000E+00
  0.00000000E+00  0.00000000E+00  0.00000000E+00
  0.00000000E+00  0.00000000E+00  0.00000000E+00
  0.00000000E+00  0.00000000E+00  0.00000000E+00
  0.00000000E+00  0.00000000E+00  0.00000000E+00
  0.00000000E+00  0.00000000E+00  0.00000000E+00
  0.00000000E+00  0.00000000E+00  0.00000000E+00
  0.00000000E+00  0.00000000E+00  0.00000000E+00
  0.00000000E+00  0.00000000E+00  0.00000000E+00
  0.00000000E+00  0.00000000E+00  0.00000000E+00
  0.00000000E+00  0.00000000E+00  0.00000000E+00
  0.00000000E+00  0.00000000E+00  0.00000000E+00
  0.00000000E+00  0.00000000E+00  0.00000000E+00
  0.00000000E+00  0.00000000E+00  0.00000000E+00
  0.00000000E+00  0.00000000E+00  0.00000000E+00
  0.00000000E+00  0.00000000E+00  0.00000000E+00
  0.00000000E+00  0.00000000E+00  0.00000000E+00
  0.00000000E+00  0.00000000E+00  0.00000000E+00
