C H O Si                                
   1.00000000000000     
     9.2874599999999994    0.0000000000000000    0.0000000000000000
     0.0000000000000000   17.5126199999999983    0.0000000000000000
     0.0000000000000000    0.0000000000000000   58.0000000000000000
   C    H    O    Si
    72    57    28    72
Selective dynamics
Direct
  0.9933703983620634  0.0631346558796964  0.0604671020438463   T   T   T
  0.3267545927328428  0.0631231239955958  0.0605551274349650   T   T   T
  0.6599353413073985  0.0631225738655638  0.0605264296463789   T   T   T
  0.9931783140460977  0.3131774511043519  0.0604600786664046   T   T   T
  0.3265767370538276  0.3130679584546166  0.0605595436730467   T   T   T
  0.6598410598535532  0.3131088865960492  0.0605175233825548   T   T   T
  0.1599372013481164  0.1859924504486985  0.1393898239257253   T   T   T
  0.4932091202414016  0.1861995160854936  0.1396205720172527   T   T   T
  0.8266469191335639  0.1859326711142482  0.1393116673354816   T   T   T
  0.1598319349456444  0.4361655969347275  0.1394308144514445   T   T   T
  0.4932130740285414  0.4360095210531063  0.1394737775970284   T   T   T
  0.8265686215898888  0.4361396113224560  0.1394140143691434   T   T   T
  0.3273260282521132  0.0613761218133145  0.1667342464415794   T   T   T
  0.6595394009975291  0.0613447995099289  0.1666929398557257   T   T   T
  0.9936369694540024  0.0606843973593436  0.1664629935251640   T   T   T
  0.3264862196805127  0.3112834207653781  0.1667903181617431   T   T   T
  0.6603238179033281  0.3112529362897567  0.1666619216392293   T   T   T
  0.9934059839986044  0.3111338262095427  0.1664944417744144   T   T   T
  0.1602982307756778  0.1872697792631448  0.1917357896701510   T   T   T
  0.4937018640459601  0.1898723146226033  0.1927279515989114   T   T   T
  0.8276336560073332  0.1868497505187403  0.1915141265797652   T   T   T
  0.1597097915777127  0.4383628689457394  0.1919748236596565   T   T   T
  0.4933342047219602  0.4380061159745657  0.1920180159563772   T   T   T
  0.8269061795636403  0.4383980243819036  0.1919144077418467   T   T   T
  0.1597081529580055  0.1861843923292469  0.0858385994393227   T   T   T
  0.4930430269760517  0.1862056040350534  0.0859636007077807   T   T   T
  0.8263243522711846  0.1861565696225923  0.0857841504025932   T   T   T
  0.1597732345775592  0.4361561455623641  0.0858615561815486   T   T   T
  0.4930917234936461  0.4361212292987910  0.0858774612115080   T   T   T
  0.8264099519133181  0.4361744068927252  0.0858398112447852   T   T   T
  0.3263733316405953  0.0611040708908532  0.1130779346223920   T   T   T
  0.6595698596179917  0.0610811036103151  0.1130637977317602   T   T   T
  0.9930434895253178  0.0609934036316463  0.1129849276932746   T   T   T
  0.3263570069335834  0.3110445707503064  0.1131216172881240   T   T   T
  0.6597701629109453  0.3110542506746589  0.1130680663451854   T   T   T
  0.9930974425889680  0.3110429575137772  0.1129833724358978   T   T   T
  0.9933897036411906  0.5631362657655132  0.0605057335081113   T   T   T
  0.3267333142706003  0.5631047219943750  0.0605205773284523   T   T   T
  0.6600475162308170  0.5631085399992865  0.0605154146199843   T   T   T
  0.9932350270960986  0.8131753420994943  0.0605027472134104   T   T   T
  0.3266039582935555  0.8130805242522749  0.0605117303494058   T   T   T
  0.6598805516398811  0.8131075590777116  0.0605048024892312   T   T   T
  0.1597999897060484  0.6861650069784404  0.1394291282347958   T   T   T
  0.4930816595409122  0.6861516406011609  0.1394352564784316   T   T   T
  0.8263925578318942  0.6861554873326755  0.1394243613752778   T   T   T
  0.1602314382495171  0.9361076108376899  0.1394269603706365   T   T   T
  0.4931911535751921  0.9360651559283143  0.1394312784325994   T   T   T
  0.8262975647429163  0.9361491802149553  0.1394224876809370   T   T   T
  0.3265245435353589  0.5612608822303455  0.1666143603760732   T   T   T
  0.6596523754506378  0.5612364657360218  0.1666018276821498   T   T   T
  0.9930984438731371  0.5614000545038754  0.1665864139601557   T   T   T
  0.3266083955044134  0.8111886456651346  0.1666363364222223   T   T   T
  0.6598659138688220  0.8111948320093315  0.1666309601860141   T   T   T
  0.9932387284129104  0.8112268291296633  0.1666174379446807   T   T   T
  0.1600388435330305  0.6880941856611420  0.1919823774541972   T   T   T
  0.4934131234662577  0.6881525462102277  0.1920072655553179   T   T   T
  0.8266373712126808  0.6881201505445657  0.1919760661805499   T   T   T
  0.1603005032719400  0.9380629058799123  0.1919864548191714   T   T   T
  0.4935571281993425  0.9380461810452343  0.1920104228658834   T   T   T
  0.8268521733915709  0.9380367702090636  0.1919646934284291   T   T   T
  0.1597100687429313  0.6861800534550833  0.0858611092741641   T   T   T
  0.4930709164377186  0.6861336061178870  0.0858667639303972   T   T   T
  0.8263996409770743  0.6861867376953896  0.0858626046956117   T   T   T
  0.1598094371403210  0.9361742098925726  0.0858573472596313   T   T   T
  0.4930723547027279  0.9361561967470833  0.0858639370965760   T   T   T
  0.8263327379782801  0.9361922881817748  0.0858427240209093   T   T   T
  0.3263609191641618  0.5610392086960664  0.1130493954853416   T   T   T
  0.6596579815361751  0.5610329704337599  0.1130464965346955   T   T   T
  0.9930235401879681  0.5610816142992519  0.1130287582540622   T   T   T
  0.3264324131541818  0.8110078164322067  0.1130362239060460   T   T   T
  0.6596957786799864  0.8110358970916370  0.1130413887765390   T   T   T
  0.9930736764933957  0.8111485325436004  0.1130512198196115   T   T   T
  0.0740839358260280  0.1775030590832404  0.0274803284451107   T   T   T
  0.4064232940929596  0.1775374532712574  0.0276457764680896   T   T   T
  0.7393899216190359  0.1774845987854940  0.0274895133517252   T   T   T
  0.0737511065885963  0.4275652235630171  0.0274929214469629   T   T   T
  0.4058299689592047  0.4274486487990512  0.0275653463075033   T   T   T
  0.7387895225479744  0.4274922013213129  0.0275200204259810   T   T   T
  0.3243582478132877  0.0266076884167214  0.0450973722541593   T   T   T
  0.6568610136940447  0.0265929505433691  0.0450699989117120   T   T   T
  0.9908260991863508  0.0266419235946479  0.0450029135661720   T   T   T
  0.3237926667452178  0.2765117417413140  0.0451117974622692   T   T   T
  0.6570242002634229  0.2765954483601260  0.0450579169855408   T   T   T
  0.9904817534133215  0.2767298971939771  0.0449870054489507   T   T   T
  0.8286027759032979  0.4023070222981698  0.2074406265344950   T   T   T
  0.8303633903562170  0.1505574099611279  0.2070162247959239   T   T   T
  0.1618910586762882  0.1510353944772837  0.2072517733727257   T   T   T
  0.4969526899212284  0.1528100168489905  0.2080676147466400   T   T   T
  0.1619215957087534  0.4018026650402557  0.2074203974046997   T   T   T
  0.4940473562514962  0.4016456963902723  0.2075156472625903   T   T   T
  0.0810512715251332  0.0524962410978495  0.2249927182105282   T   T   T
  0.4151626307262942  0.0520278966728785  0.2251293575905587   T   T   T
  0.7486783803700180  0.0522511296030145  0.2250423415842216   T   T   T
  0.0789122485258268  0.3010328893336793  0.2246007645171729   T   T   T
  0.3783905888833342  0.3103390094497026  0.2285106780852664   T   T   T
  0.7820717720898541  0.2951948170576966  0.2228944510383759   T   T   T
  0.5473791919715776  0.3056470963994614  0.2739135326432490   T   T   T
  0.4932734741909663  0.2379932563309127  0.2933463734121529   T   T   T
  0.5721928998802257  0.3198729145135675  0.3030562535560906   T   T   T
  0.3150006329882800  0.1946522830365724  0.3097596904797871   T   T   T
  0.4220891113912051  0.1302984991350120  0.3022354502786956   T   T   T
  0.6503553113985442  0.3660769786001095  0.3335551290247914   T   T   T
  0.4843514338893561  0.3771998764997657  0.3308487200554622   T   T   T
  0.5186153019308091  0.3953905323813949  0.2521809864330866   T   T   T
  0.5859883064399503  0.3232372167740357  0.2387040462713561   T   T   T
  0.0736859744557873  0.6775592711294615  0.0275396493510136   T   T   T
  0.4065606874665968  0.6775007351437135  0.0275654372818657   T   T   T
  0.7396975284325907  0.6774880714905404  0.0275628214196861   T   T   T
  0.0731964433184600  0.9275450402246510  0.0275184487543870   T   T   T
  0.4059275243446011  0.9274638614379348  0.0275513933787299   T   T   T
  0.7392600913633237  0.9275348754594664  0.0275304210426550   T   T   T
  0.3240233703273525  0.5266073086806727  0.0450588241404045   T   T   T
  0.6574136646869871  0.5266137645543439  0.0450518799981937   T   T   T
  0.9906709588813298  0.5266316808517838  0.0450453756016745   T   T   T
  0.3238456395016711  0.7765730664822764  0.0450522959767022   T   T   T
  0.6570438787692032  0.7765863152805242  0.0450485344344979   T   T   T
  0.9904492008742395  0.7766024711864880  0.0450560999001330   T   T   T
  0.8293401904567038  0.9015881597455443  0.2074336863389301   T   T   T
  0.8291094065842231  0.6516280860655472  0.2074378404621666   T   T   T
  0.1624090652162249  0.6516206809995023  0.2074487769948529   T   T   T
  0.4959139599487519  0.6517102570215720  0.2074797740463193   T   T   T
  0.1625574085243511  0.9015908152655366  0.2074542630109472   T   T   T
  0.4960860140793091  0.9015138978085270  0.2074629481766113   T   T   T
  0.0803784678220554  0.5535463111746652  0.2249993591236518   T   T   T
  0.4145150141311955  0.5539553356550849  0.2248245189333387   T   T   T
  0.7478070533214914  0.5533797104618501  0.2249245413105981   T   T   T
  0.0813343943018734  0.8025421652634728  0.2250153637712854   T   T   T
  0.4139433100723923  0.8028563563416579  0.2250903751879001   T   T   T
  0.7490099487346699  0.8022992615254093  0.2249481984914447   T   T   T
  0.1691932945155930  0.1661831980330059  0.0338522035485808   T   T   T
  0.5017073945152000  0.1664478265918648  0.0339948558858731   T   T   T
  0.8347260496278173  0.1659167249677165  0.0337257998601177   T   T   T
  0.1688044854596012  0.4163570887934116  0.0338960111683326   T   T   T
  0.5011262655016143  0.4162343711141102  0.0338812710246396   T   T   T
  0.8341176185783068  0.4162698687560824  0.0338163794093138   T   T   T
  0.3201511702136699  0.0412793107812628  0.2186585309840394   T   T   T
  0.6535428031327684  0.0413108811648752  0.2186284144714670   T   T   T
  0.9862789867975511  0.0413223623572586  0.2185054106460097   T   T   T
  0.3001843023272151  0.2913174361830251  0.2186757232593009   T   T   T
  0.6792482043960199  0.2913932003983943  0.2186337472608510   T   T   T
  0.9834264231684950  0.2889998190313902  0.2183492813509639   T   T   T
  0.5711921243987670  0.2797070260253213  0.2897448579782862   T   T   T
  0.3810408725036893  0.1791960839510188  0.2975248794829731   T   T   T
  0.5750662641007560  0.3777853616316522  0.3223425557379954   T   T   T
  0.5131653200080749  0.3399022084819900  0.2509085156876344   T   T   T
  0.1688270892604717  0.6664047072137224  0.0339014264190186   T   T   T
  0.5018415012416467  0.6663992968270460  0.0339108584674642   T   T   T
  0.8349791741777611  0.6664868073870021  0.0339156866722213   T   T   T
  0.1683839536690613  0.9164947056820869  0.0338983947305346   T   T   T
  0.5012052481997491  0.9162753232713993  0.0338709362471077   T   T   T
  0.8345324482581025  0.9162801032278339  0.0338443150060226   T   T   T
  0.3197581889706688  0.5413101910125335  0.2186000563569817   T   T   T
  0.6529717322862969  0.5414251621703414  0.2185726418737864   T   T   T
  0.9858859736635869  0.5414506435848526  0.2185866874878783   T   T   T
  0.3194232228307163  0.7911641850455625  0.2186210285316390   T   T   T
  0.6536392385566372  0.7913418022253673  0.2186333320271379   T   T   T
  0.9864179998913019  0.7912459646668030  0.2185965098865913   T   T   T
  0.4935697992673080  0.1217978611721225  0.0599971416340113   T   T   T
  0.8268357115111904  0.1217469343049556  0.0598218095162601   T   T   T
  0.1602119418217785  0.3717541876632948  0.0599112726935768   T   T   T
  0.4934069320250469  0.3717348679856160  0.0599179678845985   T   T   T
  0.8266640350664711  0.3718232525802143  0.0598615307931855   T   T   T
  0.1603652892530961  0.1217480421065779  0.0598921901536500   T   T   T
  0.9932068635134172  0.4985586642250388  0.1396444371924421   T   T   T
  0.3265636636105205  0.4984620961876710  0.1396607325131934   T   T   T
  0.6598261192836836  0.4984515049666516  0.1396520435993227   T   T   T
  0.9933464425465162  0.2483169004559627  0.1395335799875233   T   T   T
  0.3264274904780471  0.2484918987680818  0.1397681091109705   T   T   T
  0.6601482625282421  0.2483601095695582  0.1396478002578222   T   T   T
  0.1601140012090336  0.1227984495432305  0.1658112470521637   T   T   T
  0.4933587698584866  0.1240008760521296  0.1662841242771650   T   T   T
  0.8270601069209388  0.1224493266228766  0.1656525656244285   T   T   T
  0.1598554657504528  0.3734309252261379  0.1659435516771487   T   T   T
  0.4931866282562420  0.3731454859683220  0.1659749399328925   T   T   T
  0.8269505366984452  0.3734144428030345  0.1659108673842474   T   T   T
  0.3264032351755385  0.4968800672568818  0.1925577958882536   T   T   T
  0.6600587704119014  0.4968680450705508  0.1925490975068231   T   T   T
  0.9932499737296369  0.4971100555943874  0.1925395793350161   T   T   T
  0.3246451640795652  0.2475534777110138  0.1929651015348142   T   T   T
  0.9937133852016423  0.2455772700464363  0.1921089393444062   T   T   T
  0.6629062618931821  0.2463792887005013  0.1923656864387222   T   T   T
  0.9931677257546884  0.4981635005786457  0.0865309726713919   T   T   T
  0.3265127201232185  0.4981538350090499  0.0865444772423184   T   T   T
  0.6597955868436699  0.4981549410040470  0.0865395070061238   T   T   T
  0.9930693881755532  0.2481589388985415  0.0864843419882321   T   T   T
  0.3263899692628118  0.2481950687079648  0.0866023900493067   T   T   T
  0.6597325765156324  0.2481875642238558  0.0865520375852056   T   T   T
  0.1596258603228409  0.1234610278682449  0.1127854093400288   T   T   T
  0.4929286000366812  0.1235130307148812  0.1129327378455930   T   T   T
  0.8263027467326444  0.1233976674163608  0.1127264675144197   T   T   T
  0.1597082643609810  0.3734943807646255  0.1128276440544956   T   T   T
  0.4929950146318174  0.3734422569107354  0.1128510517803483   T   T   T
  0.8264102450158691  0.3734866365516325  0.1128057662581141   T   T   T
  0.4936269072374585  0.6217499826673213  0.0599148544498998   T   T   T
  0.8269356223099956  0.6217881194232243  0.0599123206033821   T   T   T
  0.1602298259135105  0.8717795657883810  0.0599010386087632   T   T   T
  0.4934468702680566  0.8717570165503652  0.0599040140413255   T   T   T
  0.8267302344277722  0.8717957845641963  0.0598777572854451   T   T   T
  0.1603376675113295  0.6217729293106053  0.0599136661400697   T   T   T
  0.9933959674265397  0.9981923831252825  0.1395575456720770   T   T   T
  0.3269396294598522  0.9985739764990308  0.1396951900781052   T   T   T
  0.6595274192083720  0.9985389992287248  0.1396784413339033   T   T   T
  0.9931417577923916  0.7485162655728704  0.1396550481336040   T   T   T
  0.3264898301853220  0.7485050433561601  0.1396614954382004   T   T   T
  0.6597814463492949  0.7484952916853809  0.1396599732589318   T   T   T
  0.1597760730503058  0.6233427896628420  0.1659242665479274   T   T   T
  0.4930908096870234  0.6233594841440609  0.1659411597733721   T   T   T
  0.8263408239241782  0.6233407804164623  0.1659218175585821   T   T   T
  0.1599729521448803  0.8732460888001736  0.1659342346198568   T   T   T
  0.4932290695351552  0.8732515455414617  0.1659455411174903   T   T   T
  0.8264888557855238  0.8732396933356666  0.1659193368999610   T   T   T
  0.3268952014408820  0.9967095372895292  0.1926393112699478   T   T   T
  0.6601821925413172  0.9966820427871695  0.1926068461216740   T   T   T
  0.9934959413354612  0.9965849798432099  0.1924966774923775   T   T   T
  0.3266343351639849  0.7467254447093054  0.1925845892322736   T   T   T
  0.9933086377510771  0.7467213455119084  0.1925617432764871   T   T   T
  0.6600049684029029  0.7468168157221486  0.1926014821894095   T   T   T
  0.9931513240582536  0.9981417719308919  0.0864959930867299   T   T   T
  0.3265229996168603  0.9981903481012182  0.0865692013751156   T   T   T
  0.6597078139793436  0.9981937904283800  0.0865502912406882   T   T   T
  0.9930847141043078  0.7482363702285012  0.0865435952737821   T   T   T
  0.3264778725384285  0.7481326739288212  0.0865364929346906   T   T   T
  0.6597498828930939  0.7481661485085267  0.0865362587032190   T   T   T
  0.1596462393032769  0.6235016816394739  0.1128238373171344   T   T   T
  0.4929554279576395  0.6234818598216466  0.1128309079885055   T   T   T
  0.8262817630835149  0.6234945982864206  0.1128212582307638   T   T   T
  0.1598915826377219  0.8734892599417410  0.1128147465803134   T   T   T
  0.4930066082093974  0.8734524289499686  0.1128192542468309   T   T   T
  0.8262229588569644  0.8735116877130780  0.1128108140145644   T   T   T
 
  0.00000000E+00  0.00000000E+00  0.00000000E+00
  0.00000000E+00  0.00000000E+00  0.00000000E+00
  0.00000000E+00  0.00000000E+00  0.00000000E+00
  0.00000000E+00  0.00000000E+00  0.00000000E+00
  0.00000000E+00  0.00000000E+00  0.00000000E+00
  0.00000000E+00  0.00000000E+00  0.00000000E+00
  0.00000000E+00  0.00000000E+00  0.00000000E+00
  0.00000000E+00  0.00000000E+00  0.00000000E+00
  0.00000000E+00  0.00000000E+00  0.00000000E+00
  0.00000000E+00  0.00000000E+00  0.00000000E+00
  0.00000000E+00  0.00000000E+00  0.00000000E+00
  0.00000000E+00  0.00000000E+00  0.00000000E+00
  0.00000000E+00  0.00000000E+00  0.00000000E+00
  0.00000000E+00  0.00000000E+00  0.00000000E+00
  0.00000000E+00  0.00000000E+00  0.00000000E+00
  0.00000000E+00  0.00000000E+00  0.00000000E+00
  0.00000000E+00  0.00000000E+00  0.00000000E+00
  0.00000000E+00  0.00000000E+00  0.00000000E+00
  0.00000000E+00  0.00000000E+00  0.00000000E+00
  0.00000000E+00  0.00000000E+00  0.00000000E+00
  0.00000000E+00  0.00000000E+00  0.00000000E+00
  0.00000000E+00  0.00000000E+00  0.00000000E+00
  0.00000000E+00  0.00000000E+00  0.00000000E+00
  0.00000000E+00  0.00000000E+00  0.00000000E+00
  0.00000000E+00  0.00000000E+00  0.00000000E+00
  0.00000000E+00  0.00000000E+00  0.00000000E+00
  0.00000000E+00  0.00000000E+00  0.00000000E+00
  0.00000000E+00  0.00000000E+00  0.00000000E+00
  0.00000000E+00  0.00000000E+00  0.00000000E+00
  0.00000000E+00  0.00000000E+00  0.00000000E+00
  0.00000000E+00  0.00000000E+00  0.00000000E+00
  0.00000000E+00  0.00000000E+00  0.00000000E+00
  0.00000000E+00  0.00000000E+00  0.00000000E+00
  0.00000000E+00  0.00000000E+00  0.00000000E+00
  0.00000000E+00  0.00000000E+00  0.00000000E+00
  0.00000000E+00  0.00000000E+00  0.00000000E+00
  0.00000000E+00  0.00000000E+00  0.00000000E+00
  0.00000000E+00  0.00000000E+00  0.00000000E+00
  0.00000000E+00  0.00000000E+00  0.00000000E+00
  0.00000000E+00  0.00000000E+00  0.00000000E+00
  0.00000000E+00  0.00000000E+00  0.00000000E+00
  0.00000000E+00  0.00000000E+00  0.00000000E+00
  0.00000000E+00  0.00000000E+00  0.00000000E+00
  0.00000000E+00  0.00000000E+00  0.00000000E+00
  0.00000000E+00  0.00000000E+00  0.00000000E+00
  0.00000000E+00  0.00000000E+00  0.00000000E+00
  0.00000000E+00  0.00000000E+00  0.00000000E+00
  0.00000000E+00  0.00000000E+00  0.00000000E+00
  0.00000000E+00  0.00000000E+00  0.00000000E+00
  0.00000000E+00  0.00000000E+00  0.00000000E+00
  0.00000000E+00  0.00000000E+00  0.00000000E+00
  0.00000000E+00  0.00000000E+00  0.00000000E+00
  0.00000000E+00  0.00000000E+00  0.00000000E+00
  0.00000000E+00  0.00000000E+00  0.00000000E+00
  0.00000000E+00  0.00000000E+00  0.00000000E+00
  0.00000000E+00  0.00000000E+00  0.00000000E+00
  0.00000000E+00  0.00000000E+00  0.00000000E+00
  0.00000000E+00  0.00000000E+00  0.00000000E+00
  0.00000000E+00  0.00000000E+00  0.00000000E+00
  0.00000000E+00  0.00000000E+00  0.00000000E+00
  0.00000000E+00  0.00000000E+00  0.00000000E+00
  0.00000000E+00  0.00000000E+00  0.00000000E+00
  0.00000000E+00  0.00000000E+00  0.00000000E+00
  0.00000000E+00  0.00000000E+00  0.00000000E+00
  0.00000000E+00  0.00000000E+00  0.00000000E+00
  0.00000000E+00  0.00000000E+00  0.00000000E+00
  0.00000000E+00  0.00000000E+00  0.00000000E+00
  0.00000000E+00  0.00000000E+00  0.00000000E+00
  0.00000000E+00  0.00000000E+00  0.00000000E+00
  0.00000000E+00  0.00000000E+00  0.00000000E+00
  0.00000000E+00  0.00000000E+00  0.00000000E+00
  0.00000000E+00  0.00000000E+00  0.00000000E+00
  0.00000000E+00  0.00000000E+00  0.00000000E+00
  0.00000000E+00  0.00000000E+00  0.00000000E+00
  0.00000000E+00  0.00000000E+00  0.00000000E+00
  0.00000000E+00  0.00000000E+00  0.00000000E+00
  0.00000000E+00  0.00000000E+00  0.00000000E+00
  0.00000000E+00  0.00000000E+00  0.00000000E+00
  0.00000000E+00  0.00000000E+00  0.00000000E+00
  0.00000000E+00  0.00000000E+00  0.00000000E+00
  0.00000000E+00  0.00000000E+00  0.00000000E+00
  0.00000000E+00  0.00000000E+00  0.00000000E+00
  0.00000000E+00  0.00000000E+00  0.00000000E+00
  0.00000000E+00  0.00000000E+00  0.00000000E+00
  0.00000000E+00  0.00000000E+00  0.00000000E+00
  0.00000000E+00  0.00000000E+00  0.00000000E+00
  0.00000000E+00  0.00000000E+00  0.00000000E+00
  0.00000000E+00  0.00000000E+00  0.00000000E+00
  0.00000000E+00  0.00000000E+00  0.00000000E+00
  0.00000000E+00  0.00000000E+00  0.00000000E+00
  0.00000000E+00  0.00000000E+00  0.00000000E+00
  0.00000000E+00  0.00000000E+00  0.00000000E+00
  0.00000000E+00  0.00000000E+00  0.00000000E+00
  0.00000000E+00  0.00000000E+00  0.00000000E+00
  0.00000000E+00  0.00000000E+00  0.00000000E+00
  0.00000000E+00  0.00000000E+00  0.00000000E+00
  0.00000000E+00  0.00000000E+00  0.00000000E+00
  0.00000000E+00  0.00000000E+00  0.00000000E+00
  0.00000000E+00  0.00000000E+00  0.00000000E+00
  0.00000000E+00  0.00000000E+00  0.00000000E+00
  0.00000000E+00  0.00000000E+00  0.00000000E+00
  0.00000000E+00  0.00000000E+00  0.00000000E+00
  0.00000000E+00  0.00000000E+00  0.00000000E+00
  0.00000000E+00  0.00000000E+00  0.00000000E+00
  0.00000000E+00  0.00000000E+00  0.00000000E+00
  0.00000000E+00  0.00000000E+00  0.00000000E+00
  0.00000000E+00  0.00000000E+00  0.00000000E+00
  0.00000000E+00  0.00000000E+00  0.00000000E+00
  0.00000000E+00  0.00000000E+00  0.00000000E+00
  0.00000000E+00  0.00000000E+00  0.00000000E+00
  0.00000000E+00  0.00000000E+00  0.00000000E+00
  0.00000000E+00  0.00000000E+00  0.00000000E+00
  0.00000000E+00  0.00000000E+00  0.00000000E+00
  0.00000000E+00  0.00000000E+00  0.00000000E+00
  0.00000000E+00  0.00000000E+00  0.00000000E+00
  0.00000000E+00  0.00000000E+00  0.00000000E+00
  0.00000000E+00  0.00000000E+00  0.00000000E+00
  0.00000000E+00  0.00000000E+00  0.00000000E+00
  0.00000000E+00  0.00000000E+00  0.00000000E+00
  0.00000000E+00  0.00000000E+00  0.00000000E+00
  0.00000000E+00  0.00000000E+00  0.00000000E+00
  0.00000000E+00  0.00000000E+00  0.00000000E+00
  0.00000000E+00  0.00000000E+00  0.00000000E+00
  0.00000000E+00  0.00000000E+00  0.00000000E+00
  0.00000000E+00  0.00000000E+00  0.00000000E+00
  0.00000000E+00  0.00000000E+00  0.00000000E+00
  0.00000000E+00  0.00000000E+00  0.00000000E+00
  0.00000000E+00  0.00000000E+00  0.00000000E+00
  0.00000000E+00  0.00000000E+00  0.00000000E+00
  0.00000000E+00  0.00000000E+00  0.00000000E+00
  0.00000000E+00  0.00000000E+00  0.00000000E+00
  0.00000000E+00  0.00000000E+00  0.00000000E+00
  0.00000000E+00  0.00000000E+00  0.00000000E+00
  0.00000000E+00  0.00000000E+00  0.00000000E+00
  0.00000000E+00  0.00000000E+00  0.00000000E+00
  0.00000000E+00  0.00000000E+00  0.00000000E+00
  0.00000000E+00  0.00000000E+00  0.00000000E+00
  0.00000000E+00  0.00000000E+00  0.00000000E+00
  0.00000000E+00  0.00000000E+00  0.00000000E+00
  0.00000000E+00  0.00000000E+00  0.00000000E+00
  0.00000000E+00  0.00000000E+00  0.00000000E+00
  0.00000000E+00  0.00000000E+00  0.00000000E+00
  0.00000000E+00  0.00000000E+00  0.00000000E+00
  0.00000000E+00  0.00000000E+00  0.00000000E+00
  0.00000000E+00  0.00000000E+00  0.00000000E+00
  0.00000000E+00  0.00000000E+00  0.00000000E+00
  0.00000000E+00  0.00000000E+00  0.00000000E+00
  0.00000000E+00  0.00000000E+00  0.00000000E+00
  0.00000000E+00  0.00000000E+00  0.00000000E+00
  0.00000000E+00  0.00000000E+00  0.00000000E+00
  0.00000000E+00  0.00000000E+00  0.00000000E+00
  0.00000000E+00  0.00000000E+00  0.00000000E+00
  0.00000000E+00  0.00000000E+00  0.00000000E+00
  0.00000000E+00  0.00000000E+00  0.00000000E+00
  0.00000000E+00  0.00000000E+00  0.00000000E+00
  0.00000000E+00  0.00000000E+00  0.00000000E+00
  0.00000000E+00  0.00000000E+00  0.00000000E+00
  0.00000000E+00  0.00000000E+00  0.00000000E+00
  0.00000000E+00  0.00000000E+00  0.00000000E+00
  0.00000000E+00  0.00000000E+00  0.00000000E+00
  0.00000000E+00  0.00000000E+00  0.00000000E+00
  0.00000000E+00  0.00000000E+00  0.00000000E+00
  0.00000000E+00  0.00000000E+00  0.00000000E+00
  0.00000000E+00  0.00000000E+00  0.00000000E+00
  0.00000000E+00  0.00000000E+00  0.00000000E+00
  0.00000000E+00  0.00000000E+00  0.00000000E+00
  0.00000000E+00  0.00000000E+00  0.00000000E+00
  0.00000000E+00  0.00000000E+00  0.00000000E+00
  0.00000000E+00  0.00000000E+00  0.00000000E+00
  0.00000000E+00  0.00000000E+00  0.00000000E+00
  0.00000000E+00  0.00000000E+00  0.00000000E+00
  0.00000000E+00  0.00000000E+00  0.00000000E+00
  0.00000000E+00  0.00000000E+00  0.00000000E+00
  0.00000000E+00  0.00000000E+00  0.00000000E+00
  0.00000000E+00  0.00000000E+00  0.00000000E+00
  0.00000000E+00  0.00000000E+00  0.00000000E+00
  0.00000000E+00  0.00000000E+00  0.00000000E+00
  0.00000000E+00  0.00000000E+00  0.00000000E+00
  0.00000000E+00  0.00000000E+00  0.00000000E+00
  0.00000000E+00  0.00000000E+00  0.00000000E+00
  0.00000000E+00  0.00000000E+00  0.00000000E+00
  0.00000000E+00  0.00000000E+00  0.00000000E+00
  0.00000000E+00  0.00000000E+00  0.00000000E+00
  0.00000000E+00  0.00000000E+00  0.00000000E+00
  0.00000000E+00  0.00000000E+00  0.00000000E+00
  0.00000000E+00  0.00000000E+00  0.00000000E+00
  0.00000000E+00  0.00000000E+00  0.00000000E+00
  0.00000000E+00  0.00000000E+00  0.00000000E+00
  0.00000000E+00  0.00000000E+00  0.00000000E+00
  0.00000000E+00  0.00000000E+00  0.00000000E+00
  0.00000000E+00  0.00000000E+00  0.00000000E+00
  0.00000000E+00  0.00000000E+00  0.00000000E+00
  0.00000000E+00  0.00000000E+00  0.00000000E+00
  0.00000000E+00  0.00000000E+00  0.00000000E+00
  0.00000000E+00  0.00000000E+00  0.00000000E+00
  0.00000000E+00  0.00000000E+00  0.00000000E+00
  0.00000000E+00  0.00000000E+00  0.00000000E+00
  0.00000000E+00  0.00000000E+00  0.00000000E+00
  0.00000000E+00  0.00000000E+00  0.00000000E+00
  0.00000000E+00  0.00000000E+00  0.00000000E+00
  0.00000000E+00  0.00000000E+00  0.00000000E+00
  0.00000000E+00  0.00000000E+00  0.00000000E+00
  0.00000000E+00  0.00000000E+00  0.00000000E+00
  0.00000000E+00  0.00000000E+00  0.00000000E+00
  0.00000000E+00  0.00000000E+00  0.00000000E+00
  0.00000000E+00  0.00000000E+00  0.00000000E+00
  0.00000000E+00  0.00000000E+00  0.00000000E+00
  0.00000000E+00  0.00000000E+00  0.00000000E+00
  0.00000000E+00  0.00000000E+00  0.00000000E+00
  0.00000000E+00  0.00000000E+00  0.00000000E+00
  0.00000000E+00  0.00000000E+00  0.00000000E+00
  0.00000000E+00  0.00000000E+00  0.00000000E+00
  0.00000000E+00  0.00000000E+00  0.00000000E+00
  0.00000000E+00  0.00000000E+00  0.00000000E+00
  0.00000000E+00  0.00000000E+00  0.00000000E+00
  0.00000000E+00  0.00000000E+00  0.00000000E+00
  0.00000000E+00  0.00000000E+00  0.00000000E+00
  0.00000000E+00  0.00000000E+00  0.00000000E+00
  0.00000000E+00  0.00000000E+00  0.00000000E+00
  0.00000000E+00  0.00000000E+00  0.00000000E+00
  0.00000000E+00  0.00000000E+00  0.00000000E+00
  0.00000000E+00  0.00000000E+00  0.00000000E+00
  0.00000000E+00  0.00000000E+00  0.00000000E+00
  0.00000000E+00  0.00000000E+00  0.00000000E+00
  0.00000000E+00  0.00000000E+00  0.00000000E+00
  0.00000000E+00  0.00000000E+00  0.00000000E+00
  0.00000000E+00  0.00000000E+00  0.00000000E+00
  0.00000000E+00  0.00000000E+00  0.00000000E+00
  0.00000000E+00  0.00000000E+00  0.00000000E+00
