C H O Si                                
   1.00000000000000     
     9.2874599999999994    0.0000000000000000    0.0000000000000000
     0.0000000000000000    8.7563099999999991    0.0000000000000000
     0.0000000000000000    0.0000000000000000   58.0000000000000000
   C    H    O    Si
    36    33    16    36
Selective dynamics
Direct
  0.9962090860331014  0.1302377951882896  0.0595604366655578   T   T   T
  0.3296701371432474  0.1302727084253825  0.0596314460406192   T   T   T
  0.6629165646174958  0.1302192759715474  0.0596557107027987   T   T   T
  0.9961867675026977  0.6304834865638712  0.0595772486560697   T   T   T
  0.3295705323513902  0.6300627239892967  0.0595996017442712   T   T   T
  0.6629475827657136  0.6300599298278668  0.0596230039441563   T   T   T
  0.1621423833707840  0.3760154413723909  0.1384048422193226   T   T   T
  0.4954291412706784  0.3762612262227443  0.1387175250972395   T   T   T
  0.8289580177212578  0.3761280096455035  0.1384158864922299   T   T   T
  0.1624542459889083  0.8762385530662095  0.1384834658974624   T   T   T
  0.4954521811823424  0.8753287296079167  0.1383139132033614   T   T   T
  0.8286230521849418  0.8761650912505243  0.1385339520033042   T   T   T
  0.3289483476156012  0.1269764893746229  0.1657542206106694   T   T   T
  0.6623295204136095  0.1270151572565510  0.1658269035968693   T   T   T
  0.9955677004299724  0.1257379771892790  0.1655326392296108   T   T   T
  0.3283761880881748  0.6265318579863072  0.1656696610558195   T   T   T
  0.6628029958955575  0.6262738659187704  0.1657274961292320   T   T   T
  0.9956184626127159  0.6263392423744648  0.1655756085751179   T   T   T
  0.1624534826175975  0.3788671550554570  0.1906739931935926   T   T   T
  0.4953216147016432  0.3844207765838277  0.1917336135711721   T   T   T
  0.8297450666526145  0.3790666721149001  0.1907595519067561   T   T   T
  0.1618087723735803  0.8807651132068479  0.1910225668833383   T   T   T
  0.4954707348611343  0.8865472248142899  0.1894529728978070   T   T   T
  0.8295289418520063  0.8805874720996227  0.1911076861832554   T   T   T
  0.1625345026044538  0.3761184247012332  0.0849114448584982   T   T   T
  0.4957636949288947  0.3761420338460769  0.0850588630964271   T   T   T
  0.8292476569992775  0.3761631033140904  0.0849260078771959   T   T   T
  0.1626609813419909  0.8762294582068827  0.0849508550220966   T   T   T
  0.4958208865044053  0.8760627993818145  0.0848727621275002   T   T   T
  0.8291176556756300  0.8762349081289680  0.0849671371732812   T   T   T
  0.3291424018995251  0.1259451804256488  0.1121633803333715   T   T   T
  0.6624151510713369  0.1258918235521767  0.1121838255212641   T   T   T
  0.9955416916324468  0.1258841820365535  0.1120949990189625   T   T   T
  0.3289818691779818  0.6257383122350483  0.1121186608400073   T   T   T
  0.6625137660729247  0.6257559792882842  0.1121411580371764   T   T   T
  0.9955965191930934  0.6261650858558536  0.1120964075945978   T   T   T
  0.0799523494133154  0.3588470825114097  0.0259147514685769   T   T   T
  0.4125668177857146  0.3589615451262904  0.0261197294820326   T   T   T
  0.7451891274056621  0.3583627396053144  0.0260269766009010   T   T   T
  0.0801296532110189  0.8591530133619867  0.0259447044437256   T   T   T
  0.4125759921975642  0.8583541553924408  0.0259134106180384   T   T   T
  0.7447714833253321  0.8584075628507348  0.0260931216506060   T   T   T
  0.3276134543695400  0.0577719188631898  0.0441161084604572   T   T   T
  0.6602223778246478  0.0577537950458068  0.0441378595863710   T   T   T
  0.9938217672660881  0.0576026819068815  0.0440597722754046   T   T   T
  0.3268944678507704  0.5575500237480545  0.0440868774336446   T   T   T
  0.6608596538601341  0.5575232614992865  0.0441102205280006   T   T   T
  0.9937668986863442  0.5579663758677788  0.0440625992252371   T   T   T
  0.8324999855990085  0.8082022418935265  0.2066112187793203   T   T   T
  0.8321102081302463  0.3065345573291225  0.2062765779149024   T   T   T
  0.1650334193333620  0.3072359385458093  0.2062806075933632   T   T   T
  0.4975662939897738  0.3106956068780231  0.2071253249529607   T   T   T
  0.1644413464919081  0.8078564694357154  0.2064719893805828   T   T   T
  0.5385151812777079  0.9269621748881117  0.2604146343812065   T   T   T
  0.0821926500090398  0.1088383608491787  0.2243538687773441   T   T   T
  0.4170527201916790  0.1047623106682450  0.2244340610963390   T   T   T
  0.7476653252742945  0.1075491523715433  0.2247208236195544   T   T   T
  0.0868886720971121  0.6079786693533500  0.2231173358629248   T   T   T
  0.3676164539713375  0.5700901733921804  0.2302012097423329   T   T   T
  0.7768426416371277  0.5988404530169175  0.2227716917451953   T   T   T
  0.4947262028475032  0.5429323982050557  0.2659433354552205   T   T   T
  0.4700443775728303  0.4570859562499261  0.3004612991570419   T   T   T
  0.5184491171042387  0.6259109497426946  0.3082043352995003   T   T   T
  0.2900537693404360  0.2729157595960410  0.2959214422001255   T   T   T
  0.4393452889515008  0.2164654100429339  0.2878111584729018   T   T   T
  0.6387657334448443  0.7702409937384831  0.3348915103364251   T   T   T
  0.5029769020769165  0.8623229548356862  0.3279221978298241   T   T   T
  0.5027044916664162  0.8760208849847611  0.2691149649308516   T   T   T
  0.5652040641165264  0.5379535351117464  0.2406705225136851   T   T   T
  0.1728532967504654  0.3375229377293361  0.0331146575874873   T   T   T
  0.5057885726904894  0.3380386214261096  0.0332531680327392   T   T   T
  0.8385971194064088  0.3375565491632503  0.0331130174471278   T   T   T
  0.1729870402486147  0.8377817992309862  0.0331603130790711   T   T   T
  0.5057380853162022  0.8371924587470738  0.0330582460036715   T   T   T
  0.8382663422163364  0.8378043743743835  0.0331620225291466   T   T   T
  0.3221513003629332  0.0883833867691195  0.2175735951962294   T   T   T
  0.6538569306122138  0.0881258959932411  0.2176947278476505   T   T   T
  0.9880655576386113  0.0884637553090558  0.2174860226562937   T   T   T
  0.3063770683255725  0.6001057657580885  0.2166338187232304   T   T   T
  0.6762647362696378  0.5891164391826964  0.2177075932139784   T   T   T
  0.9895803478569049  0.5860719868365578  0.2172766236854985   T   T   T
  0.5218163913645611  0.5502167282246175  0.2954868439062443   T   T   T
  0.3903108423557280  0.2651162911465855  0.3007426195524016   T   T   T
  0.5369000887924763  0.7592203797153279  0.3312017289361507   T   T   T
  0.4798029104018101  0.5070235334719106  0.2498482463283546   T   T   T
  0.4964406851651205  0.2476504948960045  0.0589400507350311   T   T   T
  0.8296688981025730  0.2476033882354254  0.0588319510985686   T   T   T
  0.1631512862094053  0.7476576712475375  0.0588545627586403   T   T   T
  0.4963837175762598  0.7474517305441163  0.0587973654612507   T   T   T
  0.8295533851273170  0.7477018914155978  0.0588657827697752   T   T   T
  0.1630932659632409  0.2475505940176104  0.0588241439255511   T   T   T
  0.9955062011104915  0.0007158522303726  0.1387582116543939   T   T   T
  0.3295410179307736  0.0010517791972739  0.1389047760924210   T   T   T
  0.6614724797736836  0.0010659695634531  0.1389471415878691   T   T   T
  0.9955771292678920  0.5010552957104037  0.1387233008431344   T   T   T
  0.3286807255652451  0.5011859881591771  0.1388730839479217   T   T   T
  0.6622458860131980  0.5010921100142390  0.1388604636360403   T   T   T
  0.1621048887294715  0.2498867237137560  0.1649998960801433   T   T   T
  0.4954435096618980  0.2518490734967835  0.1655965854586081   T   T   T
  0.8291878982313377  0.2498587450426844  0.1650076867492408   T   T   T
  0.1622779697135792  0.7509959300963889  0.1651303805585231   T   T   T
  0.4953796914775478  0.7504875023067753  0.1654516254438738   T   T   T
  0.8288923730314174  0.7508390116524113  0.1651917846331908   T   T   T
  0.3296050799174799  0.9958600480750415  0.1920067634011644   T   T   T
  0.6612458028422450  0.9956035716905585  0.1921377788790766   T   T   T
  0.9956664340178139  0.9981126274130524  0.1917488849889086   T   T   T
  0.3265175969207754  0.5012538637472770  0.1921150204303043   T   T   T
  0.9961538535805960  0.4960640254599221  0.1914691888286277   T   T   T
  0.6644016038502405  0.4986683943746419  0.1918791953151170   T   T   T
  0.9958860432376131  0.0004514763377448  0.0855099434351903   T   T   T
  0.3293472220572516  0.0004517553739733  0.0855535304568034   T   T   T
  0.6624491684695647  0.0004327039179986  0.0855720084149525   T   T   T
  0.9958742128004643  0.5005400491605428  0.0855020275774399   T   T   T
  0.3291602831601708  0.5003782523917555  0.0855443254373200   T   T   T
  0.6625837249369120  0.5003596437468320  0.0855564318722121   T   T   T
  0.1623193421667818  0.2508312378050591  0.1118477340041856   T   T   T
  0.4956632121802632  0.2509958110008389  0.1120316368879025   T   T   T
  0.8289136678999252  0.2508942380502180  0.1118597064592932   T   T   T
  0.1624971096922384  0.7509893424202656  0.1118901529727044   T   T   T
  0.4956386691468987  0.7506429693465778  0.1118108268736465   T   T   T
  0.8287867509586057  0.7510475012859993  0.1119127941119677   T   T   T
 
  0.00000000E+00  0.00000000E+00  0.00000000E+00
  0.00000000E+00  0.00000000E+00  0.00000000E+00
  0.00000000E+00  0.00000000E+00  0.00000000E+00
  0.00000000E+00  0.00000000E+00  0.00000000E+00
  0.00000000E+00  0.00000000E+00  0.00000000E+00
  0.00000000E+00  0.00000000E+00  0.00000000E+00
  0.00000000E+00  0.00000000E+00  0.00000000E+00
  0.00000000E+00  0.00000000E+00  0.00000000E+00
  0.00000000E+00  0.00000000E+00  0.00000000E+00
  0.00000000E+00  0.00000000E+00  0.00000000E+00
  0.00000000E+00  0.00000000E+00  0.00000000E+00
  0.00000000E+00  0.00000000E+00  0.00000000E+00
  0.00000000E+00  0.00000000E+00  0.00000000E+00
  0.00000000E+00  0.00000000E+00  0.00000000E+00
  0.00000000E+00  0.00000000E+00  0.00000000E+00
  0.00000000E+00  0.00000000E+00  0.00000000E+00
  0.00000000E+00  0.00000000E+00  0.00000000E+00
  0.00000000E+00  0.00000000E+00  0.00000000E+00
  0.00000000E+00  0.00000000E+00  0.00000000E+00
  0.00000000E+00  0.00000000E+00  0.00000000E+00
  0.00000000E+00  0.00000000E+00  0.00000000E+00
  0.00000000E+00  0.00000000E+00  0.00000000E+00
  0.00000000E+00  0.00000000E+00  0.00000000E+00
  0.00000000E+00  0.00000000E+00  0.00000000E+00
  0.00000000E+00  0.00000000E+00  0.00000000E+00
  0.00000000E+00  0.00000000E+00  0.00000000E+00
  0.00000000E+00  0.00000000E+00  0.00000000E+00
  0.00000000E+00  0.00000000E+00  0.00000000E+00
  0.00000000E+00  0.00000000E+00  0.00000000E+00
  0.00000000E+00  0.00000000E+00  0.00000000E+00
  0.00000000E+00  0.00000000E+00  0.00000000E+00
  0.00000000E+00  0.00000000E+00  0.00000000E+00
  0.00000000E+00  0.00000000E+00  0.00000000E+00
  0.00000000E+00  0.00000000E+00  0.00000000E+00
  0.00000000E+00  0.00000000E+00  0.00000000E+00
  0.00000000E+00  0.00000000E+00  0.00000000E+00
  0.00000000E+00  0.00000000E+00  0.00000000E+00
  0.00000000E+00  0.00000000E+00  0.00000000E+00
  0.00000000E+00  0.00000000E+00  0.00000000E+00
  0.00000000E+00  0.00000000E+00  0.00000000E+00
  0.00000000E+00  0.00000000E+00  0.00000000E+00
  0.00000000E+00  0.00000000E+00  0.00000000E+00
  0.00000000E+00  0.00000000E+00  0.00000000E+00
  0.00000000E+00  0.00000000E+00  0.00000000E+00
  0.00000000E+00  0.00000000E+00  0.00000000E+00
  0.00000000E+00  0.00000000E+00  0.00000000E+00
  0.00000000E+00  0.00000000E+00  0.00000000E+00
  0.00000000E+00  0.00000000E+00  0.00000000E+00
  0.00000000E+00  0.00000000E+00  0.00000000E+00
  0.00000000E+00  0.00000000E+00  0.00000000E+00
  0.00000000E+00  0.00000000E+00  0.00000000E+00
  0.00000000E+00  0.00000000E+00  0.00000000E+00
  0.00000000E+00  0.00000000E+00  0.00000000E+00
  0.00000000E+00  0.00000000E+00  0.00000000E+00
  0.00000000E+00  0.00000000E+00  0.00000000E+00
  0.00000000E+00  0.00000000E+00  0.00000000E+00
  0.00000000E+00  0.00000000E+00  0.00000000E+00
  0.00000000E+00  0.00000000E+00  0.00000000E+00
  0.00000000E+00  0.00000000E+00  0.00000000E+00
  0.00000000E+00  0.00000000E+00  0.00000000E+00
  0.00000000E+00  0.00000000E+00  0.00000000E+00
  0.00000000E+00  0.00000000E+00  0.00000000E+00
  0.00000000E+00  0.00000000E+00  0.00000000E+00
  0.00000000E+00  0.00000000E+00  0.00000000E+00
  0.00000000E+00  0.00000000E+00  0.00000000E+00
  0.00000000E+00  0.00000000E+00  0.00000000E+00
  0.00000000E+00  0.00000000E+00  0.00000000E+00
  0.00000000E+00  0.00000000E+00  0.00000000E+00
  0.00000000E+00  0.00000000E+00  0.00000000E+00
  0.00000000E+00  0.00000000E+00  0.00000000E+00
  0.00000000E+00  0.00000000E+00  0.00000000E+00
  0.00000000E+00  0.00000000E+00  0.00000000E+00
  0.00000000E+00  0.00000000E+00  0.00000000E+00
  0.00000000E+00  0.00000000E+00  0.00000000E+00
  0.00000000E+00  0.00000000E+00  0.00000000E+00
  0.00000000E+00  0.00000000E+00  0.00000000E+00
  0.00000000E+00  0.00000000E+00  0.00000000E+00
  0.00000000E+00  0.00000000E+00  0.00000000E+00
  0.00000000E+00  0.00000000E+00  0.00000000E+00
  0.00000000E+00  0.00000000E+00  0.00000000E+00
  0.00000000E+00  0.00000000E+00  0.00000000E+00
  0.00000000E+00  0.00000000E+00  0.00000000E+00
  0.00000000E+00  0.00000000E+00  0.00000000E+00
  0.00000000E+00  0.00000000E+00  0.00000000E+00
  0.00000000E+00  0.00000000E+00  0.00000000E+00
  0.00000000E+00  0.00000000E+00  0.00000000E+00
  0.00000000E+00  0.00000000E+00  0.00000000E+00
  0.00000000E+00  0.00000000E+00  0.00000000E+00
  0.00000000E+00  0.00000000E+00  0.00000000E+00
  0.00000000E+00  0.00000000E+00  0.00000000E+00
  0.00000000E+00  0.00000000E+00  0.00000000E+00
  0.00000000E+00  0.00000000E+00  0.00000000E+00
  0.00000000E+00  0.00000000E+00  0.00000000E+00
  0.00000000E+00  0.00000000E+00  0.00000000E+00
  0.00000000E+00  0.00000000E+00  0.00000000E+00
  0.00000000E+00  0.00000000E+00  0.00000000E+00
  0.00000000E+00  0.00000000E+00  0.00000000E+00
  0.00000000E+00  0.00000000E+00  0.00000000E+00
  0.00000000E+00  0.00000000E+00  0.00000000E+00
  0.00000000E+00  0.00000000E+00  0.00000000E+00
  0.00000000E+00  0.00000000E+00  0.00000000E+00
  0.00000000E+00  0.00000000E+00  0.00000000E+00
  0.00000000E+00  0.00000000E+00  0.00000000E+00
  0.00000000E+00  0.00000000E+00  0.00000000E+00
  0.00000000E+00  0.00000000E+00  0.00000000E+00
  0.00000000E+00  0.00000000E+00  0.00000000E+00
  0.00000000E+00  0.00000000E+00  0.00000000E+00
  0.00000000E+00  0.00000000E+00  0.00000000E+00
  0.00000000E+00  0.00000000E+00  0.00000000E+00
  0.00000000E+00  0.00000000E+00  0.00000000E+00
  0.00000000E+00  0.00000000E+00  0.00000000E+00
  0.00000000E+00  0.00000000E+00  0.00000000E+00
  0.00000000E+00  0.00000000E+00  0.00000000E+00
  0.00000000E+00  0.00000000E+00  0.00000000E+00
  0.00000000E+00  0.00000000E+00  0.00000000E+00
  0.00000000E+00  0.00000000E+00  0.00000000E+00
  0.00000000E+00  0.00000000E+00  0.00000000E+00
  0.00000000E+00  0.00000000E+00  0.00000000E+00
  0.00000000E+00  0.00000000E+00  0.00000000E+00
  0.00000000E+00  0.00000000E+00  0.00000000E+00
  0.00000000E+00  0.00000000E+00  0.00000000E+00
