C H O Si                                
   1.00000000000000     
     9.2874599999999994    0.0000000000000000    0.0000000000000000
     0.0000000000000000    8.7563099999999991    0.0000000000000000
     0.0000000000000000    0.0000000000000000   58.0000000000000000
   C    H    O    Si
    36    33    16    36
Selective dynamics
Direct
  0.9962839880899571  0.1302344030269615  0.0595638131128487   T   T   T
  0.3297092948543691  0.1303737057687814  0.0596169592550917   T   T   T
  0.6629411031066621  0.1303484689521462  0.0596301528662471   T   T   T
  0.9962289557259172  0.6304886932240618  0.0595792643068198   T   T   T
  0.3296272476131175  0.6301686769424530  0.0595791595659994   T   T   T
  0.6629479347116058  0.6302071219209529  0.0595948674535323   T   T   T
  0.1621651039658204  0.3760458507997434  0.1384192956370027   T   T   T
  0.4955626639577535  0.3762794082157722  0.1387281170317520   T   T   T
  0.8288890419595121  0.3761176190500736  0.1384405095348697   T   T   T
  0.1624032135395106  0.8763583794329636  0.1385125890223581   T   T   T
  0.4955945759584189  0.8754219747330773  0.1383494075366799   T   T   T
  0.8286617463755457  0.8761975495393918  0.1385619732851662   T   T   T
  0.3287829316885491  0.1268431099818342  0.1657435149053996   T   T   T
  0.6620179810153882  0.1267623598719285  0.1658325571978402   T   T   T
  0.9953020344099708  0.1257471157889059  0.1655410309148383   T   T   T
  0.3281029641659940  0.6264041776313961  0.1656722166842744   T   T   T
  0.6623529220115015  0.6263168288478832  0.1657403130093875   T   T   T
  0.9954234286126944  0.6264482655836967  0.1655856143643625   T   T   T
  0.1624940772808691  0.3790187677044450  0.1906754036679955   T   T   T
  0.4952911489260312  0.3844173529443622  0.1916855344817547   T   T   T
  0.8296205290523037  0.3792328490886481  0.1907594419475474   T   T   T
  0.1616655888994763  0.8808916848584865  0.1910213627218877   T   T   T
  0.4955302783944426  0.8863466197565194  0.1895503752056894   T   T   T
  0.8296025216741778  0.8806956866540530  0.1911130642224078   T   T   T
  0.1623962516166181  0.3760725407952930  0.0849203721937914   T   T   T
  0.4958088352501101  0.3761401445200859  0.0850592064501798   T   T   T
  0.8291305424294344  0.3760747645193003  0.0849221075927840   T   T   T
  0.1625077376904460  0.8761894556987506  0.0849657374759216   T   T   T
  0.4957735515545838  0.8759767121430964  0.0848727886993532   T   T   T
  0.8290392879980558  0.8761980422381989  0.0849845457369193   T   T   T
  0.3289173654220185  0.1259292944879219  0.1121801754134732   T   T   T
  0.6620273532188522  0.1258990570430595  0.1122140375268958   T   T   T
  0.9954820380695087  0.1259272188592117  0.1121102998833667   T   T   T
  0.3288153324142901  0.6257910526199851  0.1121392845692464   T   T   T
  0.6622227463129462  0.6257845913470460  0.1121521569629521   T   T   T
  0.9955060972526983  0.6262471308436750  0.1121073983910213   T   T   T
  0.0800308547754804  0.3587194489269258  0.0259268027010626   T   T   T
  0.4126308969372252  0.3588421137477320  0.0261391282920739   T   T   T
  0.7451892758317534  0.3582464500210521  0.0260394777559979   T   T   T
  0.0801833833715671  0.8590368945496559  0.0259568123225311   T   T   T
  0.4125580997610417  0.8582567243481544  0.0259155921795263   T   T   T
  0.7447713145709711  0.8582878145162757  0.0261126172911061   T   T   T
  0.3276854827555690  0.0577857145503286  0.0441114755564476   T   T   T
  0.6602816356676798  0.0577514856885488  0.0441270074059597   T   T   T
  0.9938944676808287  0.0576208622702153  0.0440654816732176   T   T   T
  0.3269622911032379  0.5575401771180422  0.0440809309016914   T   T   T
  0.6609316517820460  0.5575041094709561  0.0441028630399232   T   T   T
  0.9938286765809555  0.5579893507330523  0.0440653535579769   T   T   T
  0.8326005742786612  0.8082806149526600  0.2066092284813575   T   T   T
  0.8321928466278155  0.3065587214359074  0.2062598019909478   T   T   T
  0.1652536517053680  0.3073241222571468  0.2062724952000028   T   T   T
  0.4976670094311848  0.3108390379208330  0.2070856433415505   T   T   T
  0.1646161224256767  0.8079198107510833  0.2064590377161219   T   T   T
  0.5384910149655888  0.9269593910583018  0.2603899491754366   T   T   T
  0.0823413285278467  0.1088013071648921  0.2243480650853454   T   T   T
  0.4173473812805071  0.1048281663441710  0.2244350298554730   T   T   T
  0.7478215252822368  0.1074684753245401  0.2247209658322694   T   T   T
  0.0868617261719173  0.6081257672728281  0.2231071313929236   T   T   T
  0.3677348339488647  0.5702362876108589  0.2301955422049904   T   T   T
  0.7769289471547021  0.5989734946492359  0.2227687224360217   T   T   T
  0.4947571605186900  0.5428123278074407  0.2659211914863142   T   T   T
  0.4699888429964597  0.4572142298550544  0.3004461057500235   T   T   T
  0.5184220443183618  0.6260425009912391  0.3081953659148536   T   T   T
  0.2900070058928271  0.2729745055369888  0.2958704104502046   T   T   T
  0.4394745506750962  0.2166892917903395  0.2877509168464791   T   T   T
  0.6389359104592175  0.7701698817453589  0.3348864143619927   T   T   T
  0.5030897125128698  0.8624401347428945  0.3279528344565024   T   T   T
  0.5025926022380129  0.8758683757532675  0.2690607711824063   T   T   T
  0.5652157714712256  0.5378315452562970  0.2406585493696072   T   T   T
  0.1729930395778260  0.3374198121292787  0.0331043914266150   T   T   T
  0.5059284400495598  0.3378517922810190  0.0332397951291969   T   T   T
  0.8387464183740758  0.3374205324436879  0.0330948047107394   T   T   T
  0.1731651586795193  0.8376340421431409  0.0331482511103962   T   T   T
  0.5059100917534901  0.8371466931103516  0.0330138675171338   T   T   T
  0.8384236905434098  0.8375617229376544  0.0331327657728283   T   T   T
  0.3223553880959641  0.0884910600659228  0.2176035116017833   T   T   T
  0.6540265995231719  0.0880557176080955  0.2177050275903237   T   T   T
  0.9882378246788407  0.0880422822245900  0.2175123595651387   T   T   T
  0.3063989322303700  0.5997415436576908  0.2166172024185590   T   T   T
  0.6763066666760292  0.5889075995066611  0.2177363319478204   T   T   T
  0.9895214926649832  0.5862373645331388  0.2172745144178703   T   T   T
  0.5216211858977553  0.5503812754876870  0.2954670779659747   T   T   T
  0.3902505497837914  0.2645268649514776  0.3007183881720507   T   T   T
  0.5370026618970800  0.7593333074992822  0.3312024662357024   T   T   T
  0.4795856560105969  0.5073005028214120  0.2498142261180686   T   T   T
  0.4964809786188789  0.2476630940739147  0.0589366613421654   T   T   T
  0.8297363961982605  0.2475356471288629  0.0588132123329761   T   T   T
  0.1632135058571074  0.7476263105172325  0.0588499036222628   T   T   T
  0.4964376252262900  0.7474719541741883  0.0587672953144583   T   T   T
  0.8296269383836213  0.7476792841173573  0.0588598804229671   T   T   T
  0.1631411613645519  0.2474987907818478  0.0588213254307658   T   T   T
  0.9955676489413896  0.0007779145589139  0.1387687585753377   T   T   T
  0.3295997060726536  0.0010609772865428  0.1389137032208536   T   T   T
  0.6616210075844144  0.0010395566605328  0.1389572027341682   T   T   T
  0.9956267696168820  0.5010999185118139  0.1387426314864333   T   T   T
  0.3288169680192138  0.5012083990716257  0.1388832489249628   T   T   T
  0.6622429820146604  0.5011373005833883  0.1388791575025042   T   T   T
  0.1620774034482367  0.2498584040471276  0.1649950697673369   T   T   T
  0.4952668109472678  0.2517614986543429  0.1655924767463524   T   T   T
  0.8290022796968243  0.2498705751885432  0.1650070941857057   T   T   T
  0.1622390244008242  0.7511080406538333  0.1651339498058149   T   T   T
  0.4951646155566674  0.7503966475652620  0.1654551809561697   T   T   T
  0.8287174766376011  0.7509058331344800  0.1651968729510823   T   T   T
  0.3295765965326257  0.9957826402968375  0.1920307143847557   T   T   T
  0.6614668603575489  0.9956114388558308  0.1921451722881165   T   T   T
  0.9956324628540552  0.9981375149136278  0.1917437748387204   T   T   T
  0.3266404443713235  0.5012165444161825  0.1920998148867907   T   T   T
  0.9962018919877669  0.4960972722387607  0.1914755665034835   T   T   T
  0.6643429595718128  0.4986591173294160  0.1918817660125065   T   T   T
  0.9958550550324431  0.0004755190043592  0.0855208101615114   T   T   T
  0.3293349649608702  0.0005110385313232  0.0855555475123277   T   T   T
  0.6624051602020280  0.0005108366306790  0.0855744656548489   T   T   T
  0.9958668605362176  0.5005566752949251  0.0855138449516970   T   T   T
  0.3291819308382900  0.5004403268517227  0.0855475516820428   T   T   T
  0.6625705170940301  0.5004363120218915  0.0855538070661034   T   T   T
  0.1622832120217862  0.2509042818256053  0.1118524081930623   T   T   T
  0.4955454751622858  0.2510679986660916  0.1120440923172557   T   T   T
  0.8287884205851069  0.2509062869027731  0.1118533717860817   T   T   T
  0.1624401511173321  0.7511600796585752  0.1119028192962179   T   T   T
  0.4955673614728444  0.7507132877941426  0.1118228997340238   T   T   T
  0.8287241741231486  0.7511252962639093  0.1119262799928468   T   T   T
 
  0.00000000E+00  0.00000000E+00  0.00000000E+00
  0.00000000E+00  0.00000000E+00  0.00000000E+00
  0.00000000E+00  0.00000000E+00  0.00000000E+00
  0.00000000E+00  0.00000000E+00  0.00000000E+00
  0.00000000E+00  0.00000000E+00  0.00000000E+00
  0.00000000E+00  0.00000000E+00  0.00000000E+00
  0.00000000E+00  0.00000000E+00  0.00000000E+00
  0.00000000E+00  0.00000000E+00  0.00000000E+00
  0.00000000E+00  0.00000000E+00  0.00000000E+00
  0.00000000E+00  0.00000000E+00  0.00000000E+00
  0.00000000E+00  0.00000000E+00  0.00000000E+00
  0.00000000E+00  0.00000000E+00  0.00000000E+00
  0.00000000E+00  0.00000000E+00  0.00000000E+00
  0.00000000E+00  0.00000000E+00  0.00000000E+00
  0.00000000E+00  0.00000000E+00  0.00000000E+00
  0.00000000E+00  0.00000000E+00  0.00000000E+00
  0.00000000E+00  0.00000000E+00  0.00000000E+00
  0.00000000E+00  0.00000000E+00  0.00000000E+00
  0.00000000E+00  0.00000000E+00  0.00000000E+00
  0.00000000E+00  0.00000000E+00  0.00000000E+00
  0.00000000E+00  0.00000000E+00  0.00000000E+00
  0.00000000E+00  0.00000000E+00  0.00000000E+00
  0.00000000E+00  0.00000000E+00  0.00000000E+00
  0.00000000E+00  0.00000000E+00  0.00000000E+00
  0.00000000E+00  0.00000000E+00  0.00000000E+00
  0.00000000E+00  0.00000000E+00  0.00000000E+00
  0.00000000E+00  0.00000000E+00  0.00000000E+00
  0.00000000E+00  0.00000000E+00  0.00000000E+00
  0.00000000E+00  0.00000000E+00  0.00000000E+00
  0.00000000E+00  0.00000000E+00  0.00000000E+00
  0.00000000E+00  0.00000000E+00  0.00000000E+00
  0.00000000E+00  0.00000000E+00  0.00000000E+00
  0.00000000E+00  0.00000000E+00  0.00000000E+00
  0.00000000E+00  0.00000000E+00  0.00000000E+00
  0.00000000E+00  0.00000000E+00  0.00000000E+00
  0.00000000E+00  0.00000000E+00  0.00000000E+00
  0.00000000E+00  0.00000000E+00  0.00000000E+00
  0.00000000E+00  0.00000000E+00  0.00000000E+00
  0.00000000E+00  0.00000000E+00  0.00000000E+00
  0.00000000E+00  0.00000000E+00  0.00000000E+00
  0.00000000E+00  0.00000000E+00  0.00000000E+00
  0.00000000E+00  0.00000000E+00  0.00000000E+00
  0.00000000E+00  0.00000000E+00  0.00000000E+00
  0.00000000E+00  0.00000000E+00  0.00000000E+00
  0.00000000E+00  0.00000000E+00  0.00000000E+00
  0.00000000E+00  0.00000000E+00  0.00000000E+00
  0.00000000E+00  0.00000000E+00  0.00000000E+00
  0.00000000E+00  0.00000000E+00  0.00000000E+00
  0.00000000E+00  0.00000000E+00  0.00000000E+00
  0.00000000E+00  0.00000000E+00  0.00000000E+00
  0.00000000E+00  0.00000000E+00  0.00000000E+00
  0.00000000E+00  0.00000000E+00  0.00000000E+00
  0.00000000E+00  0.00000000E+00  0.00000000E+00
  0.00000000E+00  0.00000000E+00  0.00000000E+00
  0.00000000E+00  0.00000000E+00  0.00000000E+00
  0.00000000E+00  0.00000000E+00  0.00000000E+00
  0.00000000E+00  0.00000000E+00  0.00000000E+00
  0.00000000E+00  0.00000000E+00  0.00000000E+00
  0.00000000E+00  0.00000000E+00  0.00000000E+00
  0.00000000E+00  0.00000000E+00  0.00000000E+00
  0.00000000E+00  0.00000000E+00  0.00000000E+00
  0.00000000E+00  0.00000000E+00  0.00000000E+00
  0.00000000E+00  0.00000000E+00  0.00000000E+00
  0.00000000E+00  0.00000000E+00  0.00000000E+00
  0.00000000E+00  0.00000000E+00  0.00000000E+00
  0.00000000E+00  0.00000000E+00  0.00000000E+00
  0.00000000E+00  0.00000000E+00  0.00000000E+00
  0.00000000E+00  0.00000000E+00  0.00000000E+00
  0.00000000E+00  0.00000000E+00  0.00000000E+00
  0.00000000E+00  0.00000000E+00  0.00000000E+00
  0.00000000E+00  0.00000000E+00  0.00000000E+00
  0.00000000E+00  0.00000000E+00  0.00000000E+00
  0.00000000E+00  0.00000000E+00  0.00000000E+00
  0.00000000E+00  0.00000000E+00  0.00000000E+00
  0.00000000E+00  0.00000000E+00  0.00000000E+00
  0.00000000E+00  0.00000000E+00  0.00000000E+00
  0.00000000E+00  0.00000000E+00  0.00000000E+00
  0.00000000E+00  0.00000000E+00  0.00000000E+00
  0.00000000E+00  0.00000000E+00  0.00000000E+00
  0.00000000E+00  0.00000000E+00  0.00000000E+00
  0.00000000E+00  0.00000000E+00  0.00000000E+00
  0.00000000E+00  0.00000000E+00  0.00000000E+00
  0.00000000E+00  0.00000000E+00  0.00000000E+00
  0.00000000E+00  0.00000000E+00  0.00000000E+00
  0.00000000E+00  0.00000000E+00  0.00000000E+00
  0.00000000E+00  0.00000000E+00  0.00000000E+00
  0.00000000E+00  0.00000000E+00  0.00000000E+00
  0.00000000E+00  0.00000000E+00  0.00000000E+00
  0.00000000E+00  0.00000000E+00  0.00000000E+00
  0.00000000E+00  0.00000000E+00  0.00000000E+00
  0.00000000E+00  0.00000000E+00  0.00000000E+00
  0.00000000E+00  0.00000000E+00  0.00000000E+00
  0.00000000E+00  0.00000000E+00  0.00000000E+00
  0.00000000E+00  0.00000000E+00  0.00000000E+00
  0.00000000E+00  0.00000000E+00  0.00000000E+00
  0.00000000E+00  0.00000000E+00  0.00000000E+00
  0.00000000E+00  0.00000000E+00  0.00000000E+00
  0.00000000E+00  0.00000000E+00  0.00000000E+00
  0.00000000E+00  0.00000000E+00  0.00000000E+00
  0.00000000E+00  0.00000000E+00  0.00000000E+00
  0.00000000E+00  0.00000000E+00  0.00000000E+00
  0.00000000E+00  0.00000000E+00  0.00000000E+00
  0.00000000E+00  0.00000000E+00  0.00000000E+00
  0.00000000E+00  0.00000000E+00  0.00000000E+00
  0.00000000E+00  0.00000000E+00  0.00000000E+00
  0.00000000E+00  0.00000000E+00  0.00000000E+00
  0.00000000E+00  0.00000000E+00  0.00000000E+00
  0.00000000E+00  0.00000000E+00  0.00000000E+00
  0.00000000E+00  0.00000000E+00  0.00000000E+00
  0.00000000E+00  0.00000000E+00  0.00000000E+00
  0.00000000E+00  0.00000000E+00  0.00000000E+00
  0.00000000E+00  0.00000000E+00  0.00000000E+00
  0.00000000E+00  0.00000000E+00  0.00000000E+00
  0.00000000E+00  0.00000000E+00  0.00000000E+00
  0.00000000E+00  0.00000000E+00  0.00000000E+00
  0.00000000E+00  0.00000000E+00  0.00000000E+00
  0.00000000E+00  0.00000000E+00  0.00000000E+00
  0.00000000E+00  0.00000000E+00  0.00000000E+00
  0.00000000E+00  0.00000000E+00  0.00000000E+00
  0.00000000E+00  0.00000000E+00  0.00000000E+00
  0.00000000E+00  0.00000000E+00  0.00000000E+00
