C H O Si                                
   1.00000000000000     
     9.2874599999999994    0.0000000000000000    0.0000000000000000
     0.0000000000000000    8.7563099999999991    0.0000000000000000
     0.0000000000000000    0.0000000000000000   58.0000000000000000
   C    H    O    Si
    36    32    16    36
Selective dynamics
Direct
  0.9935427701209856  0.1263358854284060  0.0604366337554618   T   T   T
  0.3269149507926771  0.1262442798024919  0.0605360137799650   T   T   T
  0.6602076923225524  0.1262935142313399  0.0604996253867401   T   T   T
  0.9935643824240215  0.6263890544458123  0.0604531391813376   T   T   T
  0.3269880713088555  0.6261599329685296  0.0605750373757804   T   T   T
  0.6602523871215162  0.6262772895006619  0.0604863533134450   T   T   T
  0.1601590068982278  0.3718124654494767  0.1393206944832788   T   T   T
  0.4933006450677226  0.3723279534754259  0.1395809127199895   T   T   T
  0.8266774276316652  0.3717285266496700  0.1392657376211410   T   T   T
  0.1603425406859236  0.8718931979746697  0.1393820688172734   T   T   T
  0.4933658312391603  0.8716168056264366  0.1394563775228833   T   T   T
  0.8265425132110250  0.8719733603616812  0.1393525489339035   T   T   T
  0.3277244694763773  0.1225383083395168  0.1666145952779046   T   T   T
  0.6598656740227962  0.1225040668093250  0.1666281047506809   T   T   T
  0.9939233229678323  0.1214549409910369  0.1663294593333607   T   T   T
  0.3268615513207180  0.6220688786511478  0.1667957483385875   T   T   T
  0.6606863471208736  0.6222972707206607  0.1665163159101823   T   T   T
  0.9939081499671313  0.6221225208972677  0.1664353766799647   T   T   T
  0.1611149911721175  0.3745769751264548  0.1916216013135200   T   T   T
  0.4943605547916137  0.3800158157519555  0.1926544275105971   T   T   T
  0.8284113341738427  0.3742055680849748  0.1914697119679188   T   T   T
  0.1606810766037118  0.8770921354299481  0.1918833024057725   T   T   T
  0.4941975626094641  0.8760890226301147  0.1920263315205114   T   T   T
  0.8276309682615343  0.8770376474799527  0.1918193376199843   T   T   T
  0.1599186343893675  0.3721334278260044  0.0858368115127119   T   T   T
  0.4932142411597062  0.3720312828355156  0.0859624398861860   T   T   T
  0.8264689357906541  0.3720337818877756  0.0858067224943821   T   T   T
  0.1599674576057752  0.8721061285046389  0.0858641976578702   T   T   T
  0.4932278243733384  0.8720401752977688  0.0858983041603450   T   T   T
  0.8264309942527736  0.8721495043858349  0.0858423005880755   T   T   T
  0.3265601954704860  0.1219629960719611  0.1130323015725353   T   T   T
  0.6598058703178777  0.1219178547378880  0.1130276646842527   T   T   T
  0.9931775032572602  0.1218738496718718  0.1129276525213022   T   T   T
  0.3265273483165111  0.6217935649071540  0.1130824428145177   T   T   T
  0.6598410369106773  0.6218890551073508  0.1129864891977507   T   T   T
  0.9931382993824271  0.6220324174368258  0.1129442693606496   T   T   T
  0.0787769840666833  0.3547301401118873  0.0266615255731896   T   T   T
  0.4106397736167453  0.3546328023001634  0.0268462127464341   T   T   T
  0.7437469224743229  0.3544122244829478  0.0267319886221497   T   T   T
  0.0792417161832537  0.8547761138222305  0.0266796090149478   T   T   T
  0.4105343545214334  0.8544230965329345  0.0268333053881409   T   T   T
  0.7439191829037828  0.8545406114388731  0.0267580837703438   T   T   T
  0.3243073183019600  0.0539649663073347  0.0449885925653235   T   T   T
  0.6570153631563845  0.0539174622388811  0.0449661506930106   T   T   T
  0.9908178233937204  0.0541044625260279  0.0448882751658783   T   T   T
  0.3241715892805277  0.5537255824906040  0.0450464729029343   T   T   T
  0.6572882595387990  0.5539932501731351  0.0449439006387007   T   T   T
  0.9907704722794495  0.5541829817425939  0.0449019957733235   T   T   T
  0.8293529883492635  0.8050884790697773  0.2073726270303713   T   T   T
  0.8303005551408197  0.3020781448506520  0.2070289886427768   T   T   T
  0.1618888088520445  0.3024075291136392  0.2071734407477555   T   T   T
  0.4976386968246836  0.3064233957296221  0.2080534908666359   T   T   T
  0.1626202006502029  0.8041321414861063  0.2073519171404310   T   T   T
  0.4942445430341123  0.8042300227495170  0.2076238511082276   T   T   T
  0.0776541047561262  0.1047911532884237  0.2255307833919235   T   T   T
  0.4120975218552239  0.1027712978887390  0.2257737533777329   T   T   T
  0.7462009579256152  0.1043297959699149  0.2255921397285010   T   T   T
  0.0828944251170498  0.5996830543405629  0.2245709432829043   T   T   T
  0.3735821983683992  0.6166938665787352  0.2302781312332864   T   T   T
  0.7790628790384726  0.5924492188017416  0.2232770580129072   T   T   T
  0.5134391216444294  0.6371967245952944  0.2646699232550013   T   T   T
  0.5058844526871561  0.4778848663219400  0.2936370939558691   T   T   T
  0.5778805879064770  0.6312922265247006  0.3025598339438381   T   T   T
  0.3051236672457258  0.3744117628419149  0.3100958467818155   T   T   T
  0.4091212204579235  0.2427856430615615  0.3034514034293027   T   T   T
  0.6494840234087854  0.7421875681077629  0.3369897421308565   T   T   T
  0.4857717194361421  0.7654228292224974  0.3330041228089869   T   T   T
  0.5697906950392431  0.6561104923117722  0.2391838783437766   T   T   T
  0.1710620026682725  0.3339311873438652  0.0340947897652784   T   T   T
  0.5033435903312977  0.3344261209232441  0.0341980654684591   T   T   T
  0.8364636988641340  0.3341484638623566  0.0340693190499431   T   T   T
  0.1714342605206008  0.8340684751344918  0.0341467696608295   T   T   T
  0.5032773716716655  0.8341851709041960  0.0341646217989100   T   T   T
  0.8365899536256373  0.8341875616897081  0.0341031143499596   T   T   T
  0.3192571080290251  0.0852782066225629  0.2183162891635196   T   T   T
  0.6530143416482737  0.0849075553369113  0.2183452428856600   T   T   T
  0.9849008175936349  0.0855652961214293  0.2181443554484052   T   T   T
  0.2996285269637791  0.5854582923442732  0.2184774396899273   T   T   T
  0.6783558203795784  0.5867617212452474  0.2180352112452197   T   T   T
  0.9866173575017084  0.5815354970639489  0.2180869869235199   T   T   T
  0.5766764990718373  0.5583710916391994  0.2894095883918839   T   T   T
  0.3706159557947768  0.3399641864637623  0.2980388361035358   T   T   T
  0.5785094765966398  0.7660151781392669  0.3251394975157280   T   T   T
  0.4886261800420666  0.6851232443072467  0.2494476167417218   T   T   T
  0.4936658324763664  0.2436657544701541  0.0597694147440641   T   T   T
  0.8269531465056753  0.2435984420729713  0.0596634458451184   T   T   T
  0.1605220636668890  0.7435020145121958  0.0597352721296702   T   T   T
  0.4937045299352883  0.7436115136770753  0.0597408385188403   T   T   T
  0.8269769299602400  0.7436495541322671  0.0596911354678185   T   T   T
  0.1604154268465759  0.2435759155072758  0.0597047321281960   T   T   T
  0.9935136576398614  0.9965326170936267  0.1395501031326003   T   T   T
  0.3270566218310280  0.9971062543723520  0.1397087917235109   T   T   T
  0.6595752854051330  0.9970821426460604  0.1397095699869979   T   T   T
  0.9934184977184050  0.4968532025884253  0.1395552764192216   T   T   T
  0.3265833429467451  0.4972004584440242  0.1398345702393363   T   T   T
  0.6600714605383616  0.4969088403945262  0.1396306553873516   T   T   T
  0.1604980538595263  0.2458502138081273  0.1658688490648865   T   T   T
  0.4936637907832360  0.2483593526959319  0.1664110139012731   T   T   T
  0.8273448389537089  0.2452704100286286  0.1657597285674996   T   T   T
  0.1605119718919672  0.7466939945185542  0.1660484559333983   T   T   T
  0.4934651144087522  0.7462147784453004  0.1661277692505639   T   T   T
  0.8272391213131922  0.7466675673130215  0.1659812992266960   T   T   T
  0.3273707808201213  0.9939596821497168  0.1927641772223708   T   T   T
  0.6606998687769454  0.9938491794662135  0.1927839063801921   T   T   T
  0.9939617261651125  0.9942134638248618  0.1925798172216083   T   T   T
  0.3252018651704238  0.4957083480524794  0.1933998903518546   T   T   T
  0.9946514898767098  0.4916782084821843  0.1923303159556120   T   T   T
  0.6635956629176738  0.4936772295230091  0.1925386157133928   T   T   T
  0.9932296195061094  0.9963430833035490  0.0863321138825520   T   T   T
  0.3266254846045292  0.9963627483758341  0.0864194235969677   T   T   T
  0.6597590871033605  0.9964394028915501  0.0864052003211606   T   T   T
  0.9932066592858284  0.4963674530290638  0.0863379249758982   T   T   T
  0.3266064156475375  0.4963264430410608  0.0864629970521291   T   T   T
  0.6598164150108164  0.4964043775458858  0.0863807046569959   T   T   T
  0.1599045768570531  0.2468403725020197  0.1127035407476388   T   T   T
  0.4931761082173257  0.2470174234668011  0.1128664459407641   T   T   T
  0.8265084287072819  0.2468076573635785  0.1126602326700422   T   T   T
  0.1600114331392507  0.7468794860960245  0.1127473766502001   T   T   T
  0.4932276874821647  0.7468083132482594  0.1127858757057604   T   T   T
  0.8264083942497730  0.7469537837746785  0.1127142856456091   T   T   T
 
  0.00000000E+00  0.00000000E+00  0.00000000E+00
  0.00000000E+00  0.00000000E+00  0.00000000E+00
  0.00000000E+00  0.00000000E+00  0.00000000E+00
  0.00000000E+00  0.00000000E+00  0.00000000E+00
  0.00000000E+00  0.00000000E+00  0.00000000E+00
  0.00000000E+00  0.00000000E+00  0.00000000E+00
  0.00000000E+00  0.00000000E+00  0.00000000E+00
  0.00000000E+00  0.00000000E+00  0.00000000E+00
  0.00000000E+00  0.00000000E+00  0.00000000E+00
  0.00000000E+00  0.00000000E+00  0.00000000E+00
  0.00000000E+00  0.00000000E+00  0.00000000E+00
  0.00000000E+00  0.00000000E+00  0.00000000E+00
  0.00000000E+00  0.00000000E+00  0.00000000E+00
  0.00000000E+00  0.00000000E+00  0.00000000E+00
  0.00000000E+00  0.00000000E+00  0.00000000E+00
  0.00000000E+00  0.00000000E+00  0.00000000E+00
  0.00000000E+00  0.00000000E+00  0.00000000E+00
  0.00000000E+00  0.00000000E+00  0.00000000E+00
  0.00000000E+00  0.00000000E+00  0.00000000E+00
  0.00000000E+00  0.00000000E+00  0.00000000E+00
  0.00000000E+00  0.00000000E+00  0.00000000E+00
  0.00000000E+00  0.00000000E+00  0.00000000E+00
  0.00000000E+00  0.00000000E+00  0.00000000E+00
  0.00000000E+00  0.00000000E+00  0.00000000E+00
  0.00000000E+00  0.00000000E+00  0.00000000E+00
  0.00000000E+00  0.00000000E+00  0.00000000E+00
  0.00000000E+00  0.00000000E+00  0.00000000E+00
  0.00000000E+00  0.00000000E+00  0.00000000E+00
  0.00000000E+00  0.00000000E+00  0.00000000E+00
  0.00000000E+00  0.00000000E+00  0.00000000E+00
  0.00000000E+00  0.00000000E+00  0.00000000E+00
  0.00000000E+00  0.00000000E+00  0.00000000E+00
  0.00000000E+00  0.00000000E+00  0.00000000E+00
  0.00000000E+00  0.00000000E+00  0.00000000E+00
  0.00000000E+00  0.00000000E+00  0.00000000E+00
  0.00000000E+00  0.00000000E+00  0.00000000E+00
  0.00000000E+00  0.00000000E+00  0.00000000E+00
  0.00000000E+00  0.00000000E+00  0.00000000E+00
  0.00000000E+00  0.00000000E+00  0.00000000E+00
  0.00000000E+00  0.00000000E+00  0.00000000E+00
  0.00000000E+00  0.00000000E+00  0.00000000E+00
  0.00000000E+00  0.00000000E+00  0.00000000E+00
  0.00000000E+00  0.00000000E+00  0.00000000E+00
  0.00000000E+00  0.00000000E+00  0.00000000E+00
  0.00000000E+00  0.00000000E+00  0.00000000E+00
  0.00000000E+00  0.00000000E+00  0.00000000E+00
  0.00000000E+00  0.00000000E+00  0.00000000E+00
  0.00000000E+00  0.00000000E+00  0.00000000E+00
  0.00000000E+00  0.00000000E+00  0.00000000E+00
  0.00000000E+00  0.00000000E+00  0.00000000E+00
  0.00000000E+00  0.00000000E+00  0.00000000E+00
  0.00000000E+00  0.00000000E+00  0.00000000E+00
  0.00000000E+00  0.00000000E+00  0.00000000E+00
  0.00000000E+00  0.00000000E+00  0.00000000E+00
  0.00000000E+00  0.00000000E+00  0.00000000E+00
  0.00000000E+00  0.00000000E+00  0.00000000E+00
  0.00000000E+00  0.00000000E+00  0.00000000E+00
  0.00000000E+00  0.00000000E+00  0.00000000E+00
  0.00000000E+00  0.00000000E+00  0.00000000E+00
  0.00000000E+00  0.00000000E+00  0.00000000E+00
  0.00000000E+00  0.00000000E+00  0.00000000E+00
  0.00000000E+00  0.00000000E+00  0.00000000E+00
  0.00000000E+00  0.00000000E+00  0.00000000E+00
  0.00000000E+00  0.00000000E+00  0.00000000E+00
  0.00000000E+00  0.00000000E+00  0.00000000E+00
  0.00000000E+00  0.00000000E+00  0.00000000E+00
  0.00000000E+00  0.00000000E+00  0.00000000E+00
  0.00000000E+00  0.00000000E+00  0.00000000E+00
  0.00000000E+00  0.00000000E+00  0.00000000E+00
  0.00000000E+00  0.00000000E+00  0.00000000E+00
  0.00000000E+00  0.00000000E+00  0.00000000E+00
  0.00000000E+00  0.00000000E+00  0.00000000E+00
  0.00000000E+00  0.00000000E+00  0.00000000E+00
  0.00000000E+00  0.00000000E+00  0.00000000E+00
  0.00000000E+00  0.00000000E+00  0.00000000E+00
  0.00000000E+00  0.00000000E+00  0.00000000E+00
  0.00000000E+00  0.00000000E+00  0.00000000E+00
  0.00000000E+00  0.00000000E+00  0.00000000E+00
  0.00000000E+00  0.00000000E+00  0.00000000E+00
  0.00000000E+00  0.00000000E+00  0.00000000E+00
  0.00000000E+00  0.00000000E+00  0.00000000E+00
  0.00000000E+00  0.00000000E+00  0.00000000E+00
  0.00000000E+00  0.00000000E+00  0.00000000E+00
  0.00000000E+00  0.00000000E+00  0.00000000E+00
  0.00000000E+00  0.00000000E+00  0.00000000E+00
  0.00000000E+00  0.00000000E+00  0.00000000E+00
  0.00000000E+00  0.00000000E+00  0.00000000E+00
  0.00000000E+00  0.00000000E+00  0.00000000E+00
  0.00000000E+00  0.00000000E+00  0.00000000E+00
  0.00000000E+00  0.00000000E+00  0.00000000E+00
  0.00000000E+00  0.00000000E+00  0.00000000E+00
  0.00000000E+00  0.00000000E+00  0.00000000E+00
  0.00000000E+00  0.00000000E+00  0.00000000E+00
  0.00000000E+00  0.00000000E+00  0.00000000E+00
  0.00000000E+00  0.00000000E+00  0.00000000E+00
  0.00000000E+00  0.00000000E+00  0.00000000E+00
  0.00000000E+00  0.00000000E+00  0.00000000E+00
  0.00000000E+00  0.00000000E+00  0.00000000E+00
  0.00000000E+00  0.00000000E+00  0.00000000E+00
  0.00000000E+00  0.00000000E+00  0.00000000E+00
  0.00000000E+00  0.00000000E+00  0.00000000E+00
  0.00000000E+00  0.00000000E+00  0.00000000E+00
  0.00000000E+00  0.00000000E+00  0.00000000E+00
  0.00000000E+00  0.00000000E+00  0.00000000E+00
  0.00000000E+00  0.00000000E+00  0.00000000E+00
  0.00000000E+00  0.00000000E+00  0.00000000E+00
  0.00000000E+00  0.00000000E+00  0.00000000E+00
  0.00000000E+00  0.00000000E+00  0.00000000E+00
  0.00000000E+00  0.00000000E+00  0.00000000E+00
  0.00000000E+00  0.00000000E+00  0.00000000E+00
  0.00000000E+00  0.00000000E+00  0.00000000E+00
  0.00000000E+00  0.00000000E+00  0.00000000E+00
  0.00000000E+00  0.00000000E+00  0.00000000E+00
  0.00000000E+00  0.00000000E+00  0.00000000E+00
  0.00000000E+00  0.00000000E+00  0.00000000E+00
  0.00000000E+00  0.00000000E+00  0.00000000E+00
  0.00000000E+00  0.00000000E+00  0.00000000E+00
  0.00000000E+00  0.00000000E+00  0.00000000E+00
  0.00000000E+00  0.00000000E+00  0.00000000E+00
  0.00000000E+00  0.00000000E+00  0.00000000E+00
