C H O Si                                
   1.00000000000000     
     9.2874599999999994    0.0000000000000000    0.0000000000000000
     0.0000000000000000    8.7563099999999991    0.0000000000000000
     0.0000000000000000    0.0000000000000000   58.0000000000000000
   C    H    O    Si
    36    32    16    36
Selective dynamics
Direct
  0.9934015968595726  0.1263772835228819  0.0604495983371425   T   T   T
  0.3268669330714085  0.1263040554662026  0.0605174436352020   T   T   T
  0.6599828749498046  0.1262589397899786  0.0604883570324778   T   T   T
  0.9934406317063744  0.6263633377201818  0.0604517622721227   T   T   T
  0.3269088321437499  0.6261398344522396  0.0605632340773560   T   T   T
  0.6600659346591067  0.6262552069740037  0.0604854807751730   T   T   T
  0.1601523898514767  0.3719284686727021  0.1393138683230432   T   T   T
  0.4932774006211482  0.3722825914682184  0.1395599950659502   T   T   T
  0.8266665709543829  0.3718623404806799  0.1392603960155979   T   T   T
  0.1602643922424377  0.8720882993647801  0.1393594619555158   T   T   T
  0.4933094178746589  0.8717731116134644  0.1394253787087179   T   T   T
  0.8263893453070873  0.8721889424686016  0.1393664057849802   T   T   T
  0.3275767639901941  0.1224600620938816  0.1666140386096698   T   T   T
  0.6596351682068773  0.1226253370155426  0.1666295678711241   T   T   T
  0.9939318626497305  0.1215177830492270  0.1662993187304270   T   T   T
  0.3268187677446635  0.6220527178235911  0.1667825727047371   T   T   T
  0.6604450119604104  0.6221046421954126  0.1664922838888237   T   T   T
  0.9936054473819557  0.6220094487261434  0.1664124384055063   T   T   T
  0.1607969475792506  0.3743981507447148  0.1916317182455524   T   T   T
  0.4942799963496839  0.3799072617099628  0.1926634494153285   T   T   T
  0.8282091325945001  0.3740953230769815  0.1914842632654422   T   T   T
  0.1605078836742792  0.8769554266639641  0.1918670827796239   T   T   T
  0.4939616056531695  0.8760434914084106  0.1920257816878365   T   T   T
  0.8274895005803874  0.8767887305398463  0.1918133597168033   T   T   T
  0.1597132427789149  0.3721544894651253  0.0858237537793105   T   T   T
  0.4930594753276711  0.3720641225878861  0.0859275989326655   T   T   T
  0.8263226040317017  0.3721318376683907  0.0857806672815148   T   T   T
  0.1597543869608843  0.8721881120003799  0.0858469728000487   T   T   T
  0.4930263506143127  0.8720627407203996  0.0858807697469719   T   T   T
  0.8263307243409796  0.8721247989119717  0.0858277812839100   T   T   T
  0.3264898939747014  0.1218775495440727  0.1130189773846018   T   T   T
  0.6595215099089963  0.1219467194774639  0.1130223616825289   T   T   T
  0.9930541175865756  0.1218989532695242  0.1129207853533240   T   T   T
  0.3263570138184170  0.6219026082703428  0.1130866202636672   T   T   T
  0.6597041210987266  0.6218712164857315  0.1129825217339716   T   T   T
  0.9930647190036453  0.6220694722424782  0.1129497552198727   T   T   T
  0.0790269229821426  0.3544445818936308  0.0267211288684531   T   T   T
  0.4107319284857255  0.3544385299388569  0.0268828322535668   T   T   T
  0.7438870537244846  0.3541938684306258  0.0267736558949463   T   T   T
  0.0795287324844159  0.8544786773057118  0.0267393379865556   T   T   T
  0.4106477264541667  0.8542110229170141  0.0268722864667975   T   T   T
  0.7440704758393676  0.8543325528910056  0.0267972973448900   T   T   T
  0.3242440920515951  0.0539876109046952  0.0449803652895268   T   T   T
  0.6569063320121497  0.0539239120668013  0.0449509340943454   T   T   T
  0.9907391918624252  0.0542171398010069  0.0448921224091534   T   T   T
  0.3241085842631753  0.5537880113603177  0.0450334527383891   T   T   T
  0.6571868395804579  0.5540617904189562  0.0449370375525030   T   T   T
  0.9906634700948661  0.5542248957294929  0.0448882093598609   T   T   T
  0.8292630723044360  0.8050354960076757  0.2073843821433234   T   T   T
  0.8302861473637669  0.3019879674576112  0.2070450609451705   T   T   T
  0.1619178459969595  0.3023142701375864  0.2071939555403712   T   T   T
  0.4976432871054158  0.3064242652130427  0.2080807805970701   T   T   T
  0.1625461552624609  0.8041390413154489  0.2073525665267637   T   T   T
  0.4942087613419774  0.8042318717721143  0.2076340928391419   T   T   T
  0.0777731872556438  0.1049450227225718  0.2255606453389322   T   T   T
  0.4123634609845825  0.1030542221168634  0.2258399763952409   T   T   T
  0.7464933944015422  0.1046384405104756  0.2256565593322225   T   T   T
  0.0830613229899599  0.5998331097959886  0.2246179929428525   T   T   T
  0.3739294247670525  0.6169632110251781  0.2303348966082889   T   T   T
  0.7789696447565683  0.5924869716340284  0.2232504661089345   T   T   T
  0.5138036779657705  0.6371232894115129  0.2646689010955106   T   T   T
  0.5064496325567456  0.4780699852775327  0.2936389552684248   T   T   T
  0.5782791316440061  0.6313173865953177  0.3025580599293003   T   T   T
  0.3053027841753517  0.3745475591923665  0.3101025187887863   T   T   T
  0.4090251129915560  0.2430302938783672  0.3034439188762240   T   T   T
  0.6494419551237960  0.7422620226301477  0.3369848141951808   T   T   T
  0.4856955904039477  0.7653148185333697  0.3329983035774459   T   T   T
  0.5697532349869251  0.6560822447443355  0.2391835699330711   T   T   T
  0.1714718334216152  0.3336425058071450  0.0341136421105406   T   T   T
  0.5037552409872273  0.3343876444428348  0.0341717726240717   T   T   T
  0.8368004808786097  0.3341862689147535  0.0340718038496899   T   T   T
  0.1718348794197304  0.8338083997394939  0.0341867957609026   T   T   T
  0.5037376557795266  0.8342391209403339  0.0341388717633026   T   T   T
  0.8369454774929433  0.8341309494070387  0.0341050917973870   T   T   T
  0.3198224181254307  0.0851491004391565  0.2183245293353033   T   T   T
  0.6534255760025153  0.0848167636544849  0.2183918618190555   T   T   T
  0.9853159084075913  0.0853499972227668  0.2181139831440300   T   T   T
  0.3005432282363193  0.5851624294113781  0.2184935495560976   T   T   T
  0.6781792284681969  0.5866487285557396  0.2180597310273418   T   T   T
  0.9869654722943697  0.5815306853520857  0.2180851885152591   T   T   T
  0.5769156805388251  0.5587224387724867  0.2893718241866740   T   T   T
  0.3705040371018697  0.3400476785123075  0.2979971555903565   T   T   T
  0.5784762094615824  0.7657840384578967  0.3251306362612323   T   T   T
  0.4885804944445862  0.6848124467314427  0.2494546879957014   T   T   T
  0.4936162205358446  0.2436620713275993  0.0597738923455572   T   T   T
  0.8268484388064959  0.2436327911690320  0.0596587823605169   T   T   T
  0.1605484405787396  0.7434468409316171  0.0597635820561828   T   T   T
  0.4936454483778651  0.7435262124398005  0.0597517534977739   T   T   T
  0.8268742537769033  0.7436336916605779  0.0596989337696624   T   T   T
  0.1604685986064551  0.2435247933884105  0.0597166535960138   T   T   T
  0.9934087529912619  0.9966594493715346  0.1395453729539447   T   T   T
  0.3270960221880027  0.9971575879570376  0.1397023622547585   T   T   T
  0.6596185935486177  0.9972128777413068  0.1397199893922344   T   T   T
  0.9934856132750212  0.4967755388798056  0.1395619920843557   T   T   T
  0.3265937786668761  0.4972422555558314  0.1398266176569777   T   T   T
  0.6601026821210786  0.4970302414504222  0.1396401231655485   T   T   T
  0.1605436887745107  0.2457665014461142  0.1658636426609739   T   T   T
  0.4934302473434965  0.2483256813317937  0.1664007406136552   T   T   T
  0.8273032990379492  0.2452665677546456  0.1657573526468357   T   T   T
  0.1603521740482087  0.7466474994213735  0.1660254730641700   T   T   T
  0.4934088414976281  0.7462397633072437  0.1661069052488917   T   T   T
  0.8270417684878067  0.7466645274985453  0.1659813631753823   T   T   T
  0.3274228626729714  0.9939474148532000  0.1927729756544461   T   T   T
  0.6608094247582782  0.9938574111565064  0.1927906885002592   T   T   T
  0.9940992404221998  0.9941098178500104  0.1925566219131594   T   T   T
  0.3251555425642515  0.4957788571540797  0.1934237619481395   T   T   T
  0.9945682553391717  0.4916064234369046  0.1923137776838741   T   T   T
  0.6635165197888628  0.4936215193514141  0.1925548734417507   T   T   T
  0.9930804469890845  0.9964623711506093  0.0863113816760569   T   T   T
  0.3265902338924996  0.9964570968583538  0.0863733265086247   T   T   T
  0.6597136025446104  0.9964295761248204  0.0863719152915381   T   T   T
  0.9930743473534925  0.4965085220799277  0.0863207334781306   T   T   T
  0.3265348293447293  0.4964060462569908  0.0864420274117405   T   T   T
  0.6597767997288704  0.4963849646804230  0.0863587506789537   T   T   T
  0.1597410529538040  0.2470457657971529  0.1126894714346172   T   T   T
  0.4929358497715345  0.2470607918369541  0.1128501941030826   T   T   T
  0.8262995131139488  0.2469062042101189  0.1126491461207062   T   T   T
  0.1598324432547261  0.7471171468618312  0.1127355115800238   T   T   T
  0.4929055008860151  0.7469209729745906  0.1127642197813926   T   T   T
  0.8262321501480431  0.7470678115760707  0.1127267095036496   T   T   T
 
  0.00000000E+00  0.00000000E+00  0.00000000E+00
  0.00000000E+00  0.00000000E+00  0.00000000E+00
  0.00000000E+00  0.00000000E+00  0.00000000E+00
  0.00000000E+00  0.00000000E+00  0.00000000E+00
  0.00000000E+00  0.00000000E+00  0.00000000E+00
  0.00000000E+00  0.00000000E+00  0.00000000E+00
  0.00000000E+00  0.00000000E+00  0.00000000E+00
  0.00000000E+00  0.00000000E+00  0.00000000E+00
  0.00000000E+00  0.00000000E+00  0.00000000E+00
  0.00000000E+00  0.00000000E+00  0.00000000E+00
  0.00000000E+00  0.00000000E+00  0.00000000E+00
  0.00000000E+00  0.00000000E+00  0.00000000E+00
  0.00000000E+00  0.00000000E+00  0.00000000E+00
  0.00000000E+00  0.00000000E+00  0.00000000E+00
  0.00000000E+00  0.00000000E+00  0.00000000E+00
  0.00000000E+00  0.00000000E+00  0.00000000E+00
  0.00000000E+00  0.00000000E+00  0.00000000E+00
  0.00000000E+00  0.00000000E+00  0.00000000E+00
  0.00000000E+00  0.00000000E+00  0.00000000E+00
  0.00000000E+00  0.00000000E+00  0.00000000E+00
  0.00000000E+00  0.00000000E+00  0.00000000E+00
  0.00000000E+00  0.00000000E+00  0.00000000E+00
  0.00000000E+00  0.00000000E+00  0.00000000E+00
  0.00000000E+00  0.00000000E+00  0.00000000E+00
  0.00000000E+00  0.00000000E+00  0.00000000E+00
  0.00000000E+00  0.00000000E+00  0.00000000E+00
  0.00000000E+00  0.00000000E+00  0.00000000E+00
  0.00000000E+00  0.00000000E+00  0.00000000E+00
  0.00000000E+00  0.00000000E+00  0.00000000E+00
  0.00000000E+00  0.00000000E+00  0.00000000E+00
  0.00000000E+00  0.00000000E+00  0.00000000E+00
  0.00000000E+00  0.00000000E+00  0.00000000E+00
  0.00000000E+00  0.00000000E+00  0.00000000E+00
  0.00000000E+00  0.00000000E+00  0.00000000E+00
  0.00000000E+00  0.00000000E+00  0.00000000E+00
  0.00000000E+00  0.00000000E+00  0.00000000E+00
  0.00000000E+00  0.00000000E+00  0.00000000E+00
  0.00000000E+00  0.00000000E+00  0.00000000E+00
  0.00000000E+00  0.00000000E+00  0.00000000E+00
  0.00000000E+00  0.00000000E+00  0.00000000E+00
  0.00000000E+00  0.00000000E+00  0.00000000E+00
  0.00000000E+00  0.00000000E+00  0.00000000E+00
  0.00000000E+00  0.00000000E+00  0.00000000E+00
  0.00000000E+00  0.00000000E+00  0.00000000E+00
  0.00000000E+00  0.00000000E+00  0.00000000E+00
  0.00000000E+00  0.00000000E+00  0.00000000E+00
  0.00000000E+00  0.00000000E+00  0.00000000E+00
  0.00000000E+00  0.00000000E+00  0.00000000E+00
  0.00000000E+00  0.00000000E+00  0.00000000E+00
  0.00000000E+00  0.00000000E+00  0.00000000E+00
  0.00000000E+00  0.00000000E+00  0.00000000E+00
  0.00000000E+00  0.00000000E+00  0.00000000E+00
  0.00000000E+00  0.00000000E+00  0.00000000E+00
  0.00000000E+00  0.00000000E+00  0.00000000E+00
  0.00000000E+00  0.00000000E+00  0.00000000E+00
  0.00000000E+00  0.00000000E+00  0.00000000E+00
  0.00000000E+00  0.00000000E+00  0.00000000E+00
  0.00000000E+00  0.00000000E+00  0.00000000E+00
  0.00000000E+00  0.00000000E+00  0.00000000E+00
  0.00000000E+00  0.00000000E+00  0.00000000E+00
  0.00000000E+00  0.00000000E+00  0.00000000E+00
  0.00000000E+00  0.00000000E+00  0.00000000E+00
  0.00000000E+00  0.00000000E+00  0.00000000E+00
  0.00000000E+00  0.00000000E+00  0.00000000E+00
  0.00000000E+00  0.00000000E+00  0.00000000E+00
  0.00000000E+00  0.00000000E+00  0.00000000E+00
  0.00000000E+00  0.00000000E+00  0.00000000E+00
  0.00000000E+00  0.00000000E+00  0.00000000E+00
  0.00000000E+00  0.00000000E+00  0.00000000E+00
  0.00000000E+00  0.00000000E+00  0.00000000E+00
  0.00000000E+00  0.00000000E+00  0.00000000E+00
  0.00000000E+00  0.00000000E+00  0.00000000E+00
  0.00000000E+00  0.00000000E+00  0.00000000E+00
  0.00000000E+00  0.00000000E+00  0.00000000E+00
  0.00000000E+00  0.00000000E+00  0.00000000E+00
  0.00000000E+00  0.00000000E+00  0.00000000E+00
  0.00000000E+00  0.00000000E+00  0.00000000E+00
  0.00000000E+00  0.00000000E+00  0.00000000E+00
  0.00000000E+00  0.00000000E+00  0.00000000E+00
  0.00000000E+00  0.00000000E+00  0.00000000E+00
  0.00000000E+00  0.00000000E+00  0.00000000E+00
  0.00000000E+00  0.00000000E+00  0.00000000E+00
  0.00000000E+00  0.00000000E+00  0.00000000E+00
  0.00000000E+00  0.00000000E+00  0.00000000E+00
  0.00000000E+00  0.00000000E+00  0.00000000E+00
  0.00000000E+00  0.00000000E+00  0.00000000E+00
  0.00000000E+00  0.00000000E+00  0.00000000E+00
  0.00000000E+00  0.00000000E+00  0.00000000E+00
  0.00000000E+00  0.00000000E+00  0.00000000E+00
  0.00000000E+00  0.00000000E+00  0.00000000E+00
  0.00000000E+00  0.00000000E+00  0.00000000E+00
  0.00000000E+00  0.00000000E+00  0.00000000E+00
  0.00000000E+00  0.00000000E+00  0.00000000E+00
  0.00000000E+00  0.00000000E+00  0.00000000E+00
  0.00000000E+00  0.00000000E+00  0.00000000E+00
  0.00000000E+00  0.00000000E+00  0.00000000E+00
  0.00000000E+00  0.00000000E+00  0.00000000E+00
  0.00000000E+00  0.00000000E+00  0.00000000E+00
  0.00000000E+00  0.00000000E+00  0.00000000E+00
  0.00000000E+00  0.00000000E+00  0.00000000E+00
  0.00000000E+00  0.00000000E+00  0.00000000E+00
  0.00000000E+00  0.00000000E+00  0.00000000E+00
  0.00000000E+00  0.00000000E+00  0.00000000E+00
  0.00000000E+00  0.00000000E+00  0.00000000E+00
  0.00000000E+00  0.00000000E+00  0.00000000E+00
  0.00000000E+00  0.00000000E+00  0.00000000E+00
  0.00000000E+00  0.00000000E+00  0.00000000E+00
  0.00000000E+00  0.00000000E+00  0.00000000E+00
  0.00000000E+00  0.00000000E+00  0.00000000E+00
  0.00000000E+00  0.00000000E+00  0.00000000E+00
  0.00000000E+00  0.00000000E+00  0.00000000E+00
  0.00000000E+00  0.00000000E+00  0.00000000E+00
  0.00000000E+00  0.00000000E+00  0.00000000E+00
  0.00000000E+00  0.00000000E+00  0.00000000E+00
  0.00000000E+00  0.00000000E+00  0.00000000E+00
  0.00000000E+00  0.00000000E+00  0.00000000E+00
  0.00000000E+00  0.00000000E+00  0.00000000E+00
  0.00000000E+00  0.00000000E+00  0.00000000E+00
  0.00000000E+00  0.00000000E+00  0.00000000E+00
  0.00000000E+00  0.00000000E+00  0.00000000E+00
