C H O Si
1.0
  9.287460000000   0.000000000000   0.000000000000
  0.000000000000   8.756300000000   0.000000000000
  0.000000000000   0.000000000000  58.000000000000
C H O Si
 36  24  12  36
Selective dynamics
Direct
  0.000000000000   0.125000084405   0.433279705938  T T T
  0.000000000000   0.625000084405   0.433279705938  T T T
  0.333333333333   0.125000084405   0.433279705938  T T T
  0.333333333333   0.625000084405   0.433279705938  T T T
  0.666666666667   0.125000084405   0.433279705938  T T T
  0.666666666667   0.625000084405   0.433279705938  T T T
  0.166666755198   0.375000253214   0.459967823563  T T T
  0.166666755198   0.875000253214   0.459967823563  T T T
  0.500000088532   0.375000253214   0.459967823563  T T T
  0.500000088532   0.875000253214   0.459967823563  T T T
  0.833333421865   0.375000253214   0.459967823563  T T T
  0.833333421865   0.875000253214   0.459967823563  T T T
  0.000000000000   0.125000084405   0.486655941188  T T T
  0.000000000000   0.625000084405   0.486655941188  T T T
  0.333333333333   0.125000084405   0.486655941188  T T T
  0.333333333333   0.625000084405   0.486655941188  T T T
  0.666666666667   0.125000084405   0.486655941188  T T T
  0.666666666667   0.625000084405   0.486655941188  T T T
  0.166666755198   0.375000253214   0.513344058812  T T T
  0.166666755198   0.875000253214   0.513344058812  T T T
  0.500000088532   0.375000253214   0.513344058812  T T T
  0.500000088532   0.875000253214   0.513344058812  T T T
  0.833333421865   0.375000253214   0.513344058812  T T T
  0.833333421865   0.875000253214   0.513344058812  T T T
  0.000000000000   0.125000084405   0.540032176437  T T T
  0.000000000000   0.625000084405   0.540032176437  T T T
  0.333333333333   0.125000084405   0.540032176437  T T T
  0.333333333333   0.625000084405   0.540032176437  T T T
  0.666666666667   0.125000084405   0.540032176437  T T T
  0.666666666667   0.625000084405   0.540032176437  T T T
  0.166666755198   0.375000253214   0.566720294062  T T T
  0.166666755198   0.875000253214   0.566720294062  T T T
  0.500000088532   0.375000253214   0.566720294062  T T T
  0.500000088532   0.875000253214   0.566720294062  T T T
  0.833333421865   0.375000253214   0.566720294062  T T T
  0.833333421865   0.875000253214   0.566720294062  T T T
 -0.000000033935   0.053130487855   0.417935202328  T T T
 -0.000000033935   0.553130487855   0.417935202328  T T T
  0.333333299399   0.053130487855   0.417935202328  T T T
  0.333333299399   0.553130487855   0.417935202328  T T T
  0.666666632732   0.053130487855   0.417935202328  T T T
  0.666666632732   0.553130487855   0.417935202328  T T T
  0.166666884609   0.303130656664   0.582064797672  T T T
  0.166666884609   0.803130656664   0.582064797672  T T T
  0.500000217943   0.303130656664   0.582064797672  T T T
  0.500000217943   0.803130656664   0.582064797672  T T T
  0.833333551276   0.303130656664   0.582064797672  T T T
  0.833333551276   0.803130656664   0.582064797672  T T T
  0.092309679338   0.163519740376   0.586851156596  T T T
  0.092309679338   0.663519740376   0.586851156596  T T T
  0.425643012671   0.163519740376   0.586851156596  T T T
  0.425643012671   0.663519740376   0.586851156596  T T T
  0.758976346004   0.163519740376   0.586851156596  T T T
  0.758976346004   0.663519740376   0.586851156596  T T T
  0.258976315452   0.413519984813   0.413148843404  T T T
  0.258976315452   0.913519984813   0.413148843404  T T T
  0.592309648785   0.413519984813   0.413148843404  T T T
  0.592309648785   0.913519984813   0.413148843404  T T T
  0.925642982118   0.413519984813   0.413148843404  T T T
  0.925642982118   0.913519984813   0.413148843404  T T T
  0.166666755198   0.344287804650   0.413148843404  T T T
  0.166666755198   0.844287804650   0.413148843404  T T T
  0.500000088532   0.344287804650   0.413148843404  T T T
  0.500000088532   0.844287804650   0.413148843404  T T T
  0.833333421865   0.344287804650   0.413148843404  T T T
  0.833333421865   0.844287804650   0.413148843404  T T T
  0.000000068665   0.094287635841   0.586851156596  T T T
  0.000000068665   0.594287635841   0.586851156596  T T T
  0.333333401999   0.094287635841   0.586851156596  T T T
  0.333333401999   0.594287635841   0.586851156596  T T T
  0.666666735332   0.094287635841   0.586851156596  T T T
  0.666666735332   0.594287635841   0.586851156596  T T T
  0.166666755198   0.250000168810   0.433279705938  T T T
  0.166666755198   0.750000168810   0.433279705938  T T T
  0.500000088532   0.250000168810   0.433279705938  T T T
  0.500000088532   0.750000168810   0.433279705938  T T T
  0.833333421865   0.250000168810   0.433279705938  T T T
  0.833333421865   0.750000168810   0.433279705938  T T T
  0.000000000000   0.000000000000   0.459967823563  T T T
  0.000000000000   0.500000000000   0.459967823563  T T T
  0.333333333333   0.000000000000   0.459967823563  T T T
  0.333333333333   0.500000000000   0.459967823563  T T T
  0.666666666667   0.000000000000   0.459967823563  T T T
  0.666666666667   0.500000000000   0.459967823563  T T T
  0.166666755198   0.250000168810   0.486655941188  T T T
  0.166666755198   0.750000168810   0.486655941188  T T T
  0.500000088532   0.250000168810   0.486655941188  T T T
  0.500000088532   0.750000168810   0.486655941188  T T T
  0.833333421865   0.250000168810   0.486655941188  T T T
  0.833333421865   0.750000168810   0.486655941188  T T T
  0.000000000000   0.000000000000   0.513344058812  T T T
  0.000000000000   0.500000000000   0.513344058812  T T T
  0.333333333333   0.000000000000   0.513344058812  T T T
  0.333333333333   0.500000000000   0.513344058812  T T T
  0.666666666667   0.000000000000   0.513344058812  T T T
  0.666666666667   0.500000000000   0.513344058812  T T T
  0.166666755198   0.250000168810   0.540032176437  T T T
  0.166666755198   0.750000168810   0.540032176437  T T T
  0.500000088532   0.250000168810   0.540032176437  T T T
  0.500000088532   0.750000168810   0.540032176437  T T T
  0.833333421865   0.250000168810   0.540032176437  T T T
  0.833333421865   0.750000168810   0.540032176437  T T T
  0.000000000000   0.000000000000   0.566720294062  T T T
  0.000000000000   0.500000000000   0.566720294062  T T T
  0.333333333333   0.000000000000   0.566720294062  T T T
  0.333333333333   0.500000000000   0.566720294062  T T T
  0.666666666667   0.000000000000   0.566720294062  T T T
  0.666666666667   0.500000000000   0.566720294062  T T T
