C H O Si                                
   1.00000000000000     
     9.2874599999999994    0.0000000000000000    0.0000000000000000
     0.0000000000000000    8.7563099999999991    0.0000000000000000
     0.0000000000000000    0.0000000000000000   58.0000000000000000
   C    H    O    Si
    36    33    16    36
Selective dynamics
Direct
  0.9931256410483400  0.1262493703673126  0.0604159382827013   T   T   T
  0.3265748081181101  0.1262207069897110  0.0605583783622620   T   T   T
  0.6596956916743435  0.1263928649358278  0.0605118805719310   T   T   T
  0.9931512242418499  0.6263756649846761  0.0604346379019641   T   T   T
  0.3265384961087661  0.6259957938248334  0.0605939597148539   T   T   T
  0.6598343329435222  0.6262256608363678  0.0605251491766979   T   T   T
  0.1598129140267159  0.3716599193339933  0.1394073761627916   T   T   T
  0.4930312863448040  0.3721685583176685  0.1396362611110257   T   T   T
  0.8263932858910779  0.3715416564819374  0.1392986520264424   T   T   T
  0.1600451935210842  0.8717413831470538  0.1394523408740224   T   T   T
  0.4930351603702533  0.8714842037790310  0.1394934704164370   T   T   T
  0.8262805908388905  0.8717664279527706  0.1394141802697792   T   T   T
  0.3272561578754896  0.1224003805570442  0.1667250115219706   T   T   T
  0.6595306829586303  0.1222386876066237  0.1666598639503811   T   T   T
  0.9937739476944011  0.1213740738786018  0.1663499374802993   T   T   T
  0.3266661172596718  0.6220437084055789  0.1667818442397311   T   T   T
  0.6603850610995388  0.6221062299451549  0.1666390781424365   T   T   T
  0.9935416849565221  0.6220158061871158  0.1664420680747050   T   T   T
  0.1605903202297828  0.3748870518689793  0.1917779131847275   T   T   T
  0.4940274521263250  0.3793574574283492  0.1926783822099691   T   T   T
  0.8280102024280808  0.3737330951194781  0.1914672967415373   T   T   T
  0.1602833227435482  0.8768377911932542  0.1920074546713722   T   T   T
  0.4939558828553398  0.8758278358574887  0.1920451920618536   T   T   T
  0.8274079720065534  0.8765901221416519  0.1918581141785729   T   T   T
  0.1595379088527370  0.3719817410269656  0.0858463061155728   T   T   T
  0.4929230674709800  0.3719289367764803  0.0860003782522517   T   T   T
  0.8261607038136157  0.3720099193907898  0.0857904674801631   T   T   T
  0.1596333867315894  0.8720671815966601  0.0858715499980853   T   T   T
  0.4928888282806312  0.8719211245677960  0.0859246388859906   T   T   T
  0.8261078872270480  0.8721397533683415  0.0858457720235680   T   T   T
  0.3262802184251088  0.1217046859606953  0.1130923501998339   T   T   T
  0.6594773587305827  0.1216883707313614  0.1130633569551882   T   T   T
  0.9929477789046610  0.1215889539106445  0.1129525847527306   T   T   T
  0.3261903412838573  0.6216214746307028  0.1131101878228789   T   T   T
  0.6595882498438672  0.6216976378817579  0.1130536002817988   T   T   T
  0.9929349539209090  0.6218382691471508  0.1129604375344084   T   T   T
  0.0805950833594342  0.3552942957056047  0.0264163523162920   T   T   T
  0.4110932782701692  0.3549553483104800  0.0267157877849633   T   T   T
  0.7433949118782215  0.3545223072121082  0.0266171455525756   T   T   T
  0.0812211480770078  0.8554782817548491  0.0264258239139676   T   T   T
  0.4110242937028296  0.8544956403764191  0.0266933779604642   T   T   T
  0.7433154384468046  0.8544714636681359  0.0266602565876692   T   T   T
  0.3239368480110757  0.0537818019837578  0.0450291644302792   T   T   T
  0.6563824357742621  0.0539329119777091  0.0449893757023140   T   T   T
  0.9901271847816026  0.0540154753189290  0.0448678655336878   T   T   T
  0.3237401103700557  0.5534811800345366  0.0450774825345107   T   T   T
  0.6567099030757192  0.5537615909055360  0.0450033086399066   T   T   T
  0.9901458132269887  0.5541945026265772  0.0448810748888529   T   T   T
  0.8296944950426345  0.8049725025271367  0.2074536063084716   T   T   T
  0.8305506998517468  0.3016839268353658  0.2070324849275927   T   T   T
  0.1617013689236004  0.3028152916672740  0.2073466925883488   T   T   T
  0.4968038034473249  0.3058056946984677  0.2080842911625358   T   T   T
  0.1620807334582942  0.8039471436256892  0.2074874571218775   T   T   T
  0.4945277841421112  0.8032329047779919  0.2075606406259762   T   T   T
  0.0747280612367837  0.1051974705213738  0.2258465747306210   T   T   T
  0.4121098013824022  0.1048496586205416  0.2257610433722431   T   T   T
  0.7455409240973987  0.1040936612599085  0.2257002054350458   T   T   T
  0.0740005780592327  0.6017859188520704  0.2254453346652668   T   T   T
  0.3775230929103433  0.6190252112841828  0.2290699416132181   T   T   T
  0.7796743385855470  0.5902979523967902  0.2233786951539490   T   T   T
  0.5433619108632628  0.6113752344164897  0.2747705502162341   T   T   T
  0.4899481937464433  0.4745364939872093  0.2937856783917471   T   T   T
  0.5703241813453561  0.6389834370779229  0.3037686748547088   T   T   T
  0.3119719419397220  0.3858423487070590  0.3094135605610808   T   T   T
  0.4221935817068286  0.2588218516790872  0.3023003387051197   T   T   T
  0.6512504502570086  0.7313892999907301  0.3341566320081110   T   T   T
  0.4859181415463935  0.7582472275604911  0.3312851340625562   T   T   T
  0.5120953798392239  0.7925927856322474  0.2525203903203642   T   T   T
  0.5826116102421136  0.6503736542537523  0.2393961313023246   T   T   T
  0.1718626853918915  0.3340497061189007  0.0341155840797355   T   T   T
  0.5031210629027011  0.3356497866997043  0.0343255676363016   T   T   T
  0.8357475087306898  0.3348539050555134  0.0341070964069520   T   T   T
  0.1723574528541811  0.8340534766260872  0.0341461909298683   T   T   T
  0.5032498920390878  0.8342251252771076  0.0341937291991304   T   T   T
  0.8356892318320399  0.8350688068151049  0.0341600499094670   T   T   T
  0.3193122188774569  0.0842226248439531  0.2184778460596631   T   T   T
  0.6524980836887133  0.0839199246278619  0.2184461839690094   T   T   T
  0.9830713818210342  0.0864751679885819  0.2180995158793657   T   T   T
  0.3009813787065020  0.5857364004713120  0.2184147252287698   T   T   T
  0.6779126378185634  0.5840774950148647  0.2184722727196000   T   T   T
  0.9811230687100803  0.5819962304523261  0.2180068715730664   T   T   T
  0.5676451068177542  0.5591312459927230  0.2902967864585352   T   T   T
  0.3806217079667344  0.3561099491921231  0.2974827003486177   T   T   T
  0.5764694652333698  0.7528567720314702  0.3227905385010178   T   T   T
  0.5074329234617400  0.6815687813103913  0.2510621101968253   T   T   T
  0.4931901783168938  0.2437895189569378  0.0597680874261375   T   T   T
  0.8264704062239838  0.2436769041851698  0.0596079507742624   T   T   T
  0.1601742071588165  0.7434845556257733  0.0596946724890638   T   T   T
  0.4932100485930545  0.7434261578107458  0.0597207823163211   T   T   T
  0.8264665482181439  0.7437376037646910  0.0596506474858530   T   T   T
  0.1600898104851211  0.2434880574607082  0.0596672230734871   T   T   T
  0.9932165342327069  0.9963637160110992  0.1395730906269467   T   T   T
  0.3266935116057694  0.9969757242393181  0.1397778711298936   T   T   T
  0.6593765084679353  0.9967509892567693  0.1397353961680004   T   T   T
  0.9931053182523892  0.4966297681813482  0.1395643449298549   T   T   T
  0.3263008574676271  0.4969437608057670  0.1398215795384962   T   T   T
  0.6598307504270631  0.4967514201383392  0.1396953207704099   T   T   T
  0.1601736469956539  0.2458148592741566  0.1659448974113699   T   T   T
  0.4933460736516339  0.2478617282892992  0.1664005141752180   T   T   T
  0.8270140529499899  0.2449134405218304  0.1657380525560782   T   T   T
  0.1601265731869317  0.7466583050736469  0.1660994355490910   T   T   T
  0.4932920158544435  0.7461275057154206  0.1661190359402741   T   T   T
  0.8269732073836948  0.7465320159520176  0.1660135090267887   T   T   T
  0.3269777577745128  0.9937928412570352  0.1928860910019779   T   T   T
  0.6606174246307054  0.9936392303253597  0.1928299770768658   T   T   T
  0.9935263503037560  0.9943026230751496  0.1926429730532289   T   T   T
  0.3251466105735604  0.4951981962457916  0.1932247171441510   T   T   T
  0.9937679202765771  0.4917544342152081  0.1923169973366376   T   T   T
  0.6631226883717981  0.4929100858733308  0.1926248653990780   T   T   T
  0.9928915411580785  0.9962959276306692  0.0862962996268327   T   T   T
  0.3263762027553234  0.9962592658058803  0.0864170398904566   T   T   T
  0.6594141591825834  0.9964285816350283  0.0863881022483572   T   T   T
  0.9928602879260072  0.4963345916334313  0.0863005762948584   T   T   T
  0.3263159494124572  0.4961989421286069  0.0864485844390728   T   T   T
  0.6595381015041893  0.4963032103079493  0.0863929984292518   T   T   T
  0.1595971204086384  0.2467114774570493  0.1127159833285922   T   T   T
  0.4928952075358202  0.2468190544282261  0.1128761779539523   T   T   T
  0.8262965862404211  0.2466676101890241  0.1126406084021517   T   T   T
  0.1597338187928611  0.7468124780718263  0.1127517783558323   T   T   T
  0.4928759625060006  0.7466423287997846  0.1127880723627679   T   T   T
  0.8261749753952427  0.7468571062633115  0.1127128035274788   T   T   T
 
  0.00000000E+00  0.00000000E+00  0.00000000E+00
  0.00000000E+00  0.00000000E+00  0.00000000E+00
  0.00000000E+00  0.00000000E+00  0.00000000E+00
  0.00000000E+00  0.00000000E+00  0.00000000E+00
  0.00000000E+00  0.00000000E+00  0.00000000E+00
  0.00000000E+00  0.00000000E+00  0.00000000E+00
  0.00000000E+00  0.00000000E+00  0.00000000E+00
  0.00000000E+00  0.00000000E+00  0.00000000E+00
  0.00000000E+00  0.00000000E+00  0.00000000E+00
  0.00000000E+00  0.00000000E+00  0.00000000E+00
  0.00000000E+00  0.00000000E+00  0.00000000E+00
  0.00000000E+00  0.00000000E+00  0.00000000E+00
  0.00000000E+00  0.00000000E+00  0.00000000E+00
  0.00000000E+00  0.00000000E+00  0.00000000E+00
  0.00000000E+00  0.00000000E+00  0.00000000E+00
  0.00000000E+00  0.00000000E+00  0.00000000E+00
  0.00000000E+00  0.00000000E+00  0.00000000E+00
  0.00000000E+00  0.00000000E+00  0.00000000E+00
  0.00000000E+00  0.00000000E+00  0.00000000E+00
  0.00000000E+00  0.00000000E+00  0.00000000E+00
  0.00000000E+00  0.00000000E+00  0.00000000E+00
  0.00000000E+00  0.00000000E+00  0.00000000E+00
  0.00000000E+00  0.00000000E+00  0.00000000E+00
  0.00000000E+00  0.00000000E+00  0.00000000E+00
  0.00000000E+00  0.00000000E+00  0.00000000E+00
  0.00000000E+00  0.00000000E+00  0.00000000E+00
  0.00000000E+00  0.00000000E+00  0.00000000E+00
  0.00000000E+00  0.00000000E+00  0.00000000E+00
  0.00000000E+00  0.00000000E+00  0.00000000E+00
  0.00000000E+00  0.00000000E+00  0.00000000E+00
  0.00000000E+00  0.00000000E+00  0.00000000E+00
  0.00000000E+00  0.00000000E+00  0.00000000E+00
  0.00000000E+00  0.00000000E+00  0.00000000E+00
  0.00000000E+00  0.00000000E+00  0.00000000E+00
  0.00000000E+00  0.00000000E+00  0.00000000E+00
  0.00000000E+00  0.00000000E+00  0.00000000E+00
  0.00000000E+00  0.00000000E+00  0.00000000E+00
  0.00000000E+00  0.00000000E+00  0.00000000E+00
  0.00000000E+00  0.00000000E+00  0.00000000E+00
  0.00000000E+00  0.00000000E+00  0.00000000E+00
  0.00000000E+00  0.00000000E+00  0.00000000E+00
  0.00000000E+00  0.00000000E+00  0.00000000E+00
  0.00000000E+00  0.00000000E+00  0.00000000E+00
  0.00000000E+00  0.00000000E+00  0.00000000E+00
  0.00000000E+00  0.00000000E+00  0.00000000E+00
  0.00000000E+00  0.00000000E+00  0.00000000E+00
  0.00000000E+00  0.00000000E+00  0.00000000E+00
  0.00000000E+00  0.00000000E+00  0.00000000E+00
  0.00000000E+00  0.00000000E+00  0.00000000E+00
  0.00000000E+00  0.00000000E+00  0.00000000E+00
  0.00000000E+00  0.00000000E+00  0.00000000E+00
  0.00000000E+00  0.00000000E+00  0.00000000E+00
  0.00000000E+00  0.00000000E+00  0.00000000E+00
  0.00000000E+00  0.00000000E+00  0.00000000E+00
  0.00000000E+00  0.00000000E+00  0.00000000E+00
  0.00000000E+00  0.00000000E+00  0.00000000E+00
  0.00000000E+00  0.00000000E+00  0.00000000E+00
  0.00000000E+00  0.00000000E+00  0.00000000E+00
  0.00000000E+00  0.00000000E+00  0.00000000E+00
  0.00000000E+00  0.00000000E+00  0.00000000E+00
  0.00000000E+00  0.00000000E+00  0.00000000E+00
  0.00000000E+00  0.00000000E+00  0.00000000E+00
  0.00000000E+00  0.00000000E+00  0.00000000E+00
  0.00000000E+00  0.00000000E+00  0.00000000E+00
  0.00000000E+00  0.00000000E+00  0.00000000E+00
  0.00000000E+00  0.00000000E+00  0.00000000E+00
  0.00000000E+00  0.00000000E+00  0.00000000E+00
  0.00000000E+00  0.00000000E+00  0.00000000E+00
  0.00000000E+00  0.00000000E+00  0.00000000E+00
  0.00000000E+00  0.00000000E+00  0.00000000E+00
  0.00000000E+00  0.00000000E+00  0.00000000E+00
  0.00000000E+00  0.00000000E+00  0.00000000E+00
  0.00000000E+00  0.00000000E+00  0.00000000E+00
  0.00000000E+00  0.00000000E+00  0.00000000E+00
  0.00000000E+00  0.00000000E+00  0.00000000E+00
  0.00000000E+00  0.00000000E+00  0.00000000E+00
  0.00000000E+00  0.00000000E+00  0.00000000E+00
  0.00000000E+00  0.00000000E+00  0.00000000E+00
  0.00000000E+00  0.00000000E+00  0.00000000E+00
  0.00000000E+00  0.00000000E+00  0.00000000E+00
  0.00000000E+00  0.00000000E+00  0.00000000E+00
  0.00000000E+00  0.00000000E+00  0.00000000E+00
  0.00000000E+00  0.00000000E+00  0.00000000E+00
  0.00000000E+00  0.00000000E+00  0.00000000E+00
  0.00000000E+00  0.00000000E+00  0.00000000E+00
  0.00000000E+00  0.00000000E+00  0.00000000E+00
  0.00000000E+00  0.00000000E+00  0.00000000E+00
  0.00000000E+00  0.00000000E+00  0.00000000E+00
  0.00000000E+00  0.00000000E+00  0.00000000E+00
  0.00000000E+00  0.00000000E+00  0.00000000E+00
  0.00000000E+00  0.00000000E+00  0.00000000E+00
  0.00000000E+00  0.00000000E+00  0.00000000E+00
  0.00000000E+00  0.00000000E+00  0.00000000E+00
  0.00000000E+00  0.00000000E+00  0.00000000E+00
  0.00000000E+00  0.00000000E+00  0.00000000E+00
  0.00000000E+00  0.00000000E+00  0.00000000E+00
  0.00000000E+00  0.00000000E+00  0.00000000E+00
  0.00000000E+00  0.00000000E+00  0.00000000E+00
  0.00000000E+00  0.00000000E+00  0.00000000E+00
  0.00000000E+00  0.00000000E+00  0.00000000E+00
  0.00000000E+00  0.00000000E+00  0.00000000E+00
  0.00000000E+00  0.00000000E+00  0.00000000E+00
  0.00000000E+00  0.00000000E+00  0.00000000E+00
  0.00000000E+00  0.00000000E+00  0.00000000E+00
  0.00000000E+00  0.00000000E+00  0.00000000E+00
  0.00000000E+00  0.00000000E+00  0.00000000E+00
  0.00000000E+00  0.00000000E+00  0.00000000E+00
  0.00000000E+00  0.00000000E+00  0.00000000E+00
  0.00000000E+00  0.00000000E+00  0.00000000E+00
  0.00000000E+00  0.00000000E+00  0.00000000E+00
  0.00000000E+00  0.00000000E+00  0.00000000E+00
  0.00000000E+00  0.00000000E+00  0.00000000E+00
  0.00000000E+00  0.00000000E+00  0.00000000E+00
  0.00000000E+00  0.00000000E+00  0.00000000E+00
  0.00000000E+00  0.00000000E+00  0.00000000E+00
  0.00000000E+00  0.00000000E+00  0.00000000E+00
  0.00000000E+00  0.00000000E+00  0.00000000E+00
  0.00000000E+00  0.00000000E+00  0.00000000E+00
  0.00000000E+00  0.00000000E+00  0.00000000E+00
  0.00000000E+00  0.00000000E+00  0.00000000E+00
  0.00000000E+00  0.00000000E+00  0.00000000E+00
