C H O Si                                
   1.00000000000000     
     9.2874599999999994    0.0000000000000000    0.0000000000000000
     0.0000000000000000    8.7563099999999991    0.0000000000000000
     0.0000000000000000    0.0000000000000000   58.0000000000000000
   C    H    O    Si
    36    33    16    36
Selective dynamics
Direct
  0.9928560366754861  0.1263134960068185  0.0603973286398688   T   T   T
  0.3265982702618152  0.1260921902634123  0.0605504549395777   T   T   T
  0.6594573444207055  0.1262961624635504  0.0604958949730106   T   T   T
  0.9929117666014367  0.6264730977490596  0.0604136761636076   T   T   T
  0.3266087736498540  0.6257623386541064  0.0605893300166368   T   T   T
  0.6596153368827974  0.6261441719385178  0.0605132892625073   T   T   T
  0.1597336754630348  0.3717600602338546  0.1393523958518621   T   T   T
  0.4929307842929883  0.3720852645739969  0.1396120903969496   T   T   T
  0.8262637400663541  0.3716384732626082  0.1392654007879197   T   T   T
  0.1598725685014170  0.8718098390671783  0.1394218713156182   T   T   T
  0.4929556919794602  0.8716130458739765  0.1394793644107297   T   T   T
  0.8260727219735671  0.8719122910356556  0.1393914274996615   T   T   T
  0.3271986966840713  0.1223406795845502  0.1667313320953958   T   T   T
  0.6593595574775826  0.1220351663327800  0.1666922289096479   T   T   T
  0.9935402991469388  0.1212287566697206  0.1663649195500246   T   T   T
  0.3264869615656775  0.6219943345792001  0.1667971200132781   T   T   T
  0.6601367809361359  0.6218328885695504  0.1666403026053674   T   T   T
  0.9934262166003081  0.6218158994029586  0.1664372245314105   T   T   T
  0.1604430795713960  0.3748686976700762  0.1918155795935292   T   T   T
  0.4939742966175652  0.3792871055619400  0.1927017519732663   T   T   T
  0.8277611546635637  0.3735126510850123  0.1914585322473368   T   T   T
  0.1601685775156574  0.8767863920982879  0.1920376219436583   T   T   T
  0.4938000414133788  0.8759261198643717  0.1920732883746960   T   T   T
  0.8272120463408553  0.8765370437684042  0.1918823510880279   T   T   T
  0.1594236091244219  0.3719052175814430  0.0858480645543942   T   T   T
  0.4928557157787949  0.3718356477323810  0.0860037594888201   T   T   T
  0.8260622478319618  0.3719993356267891  0.0858061537895732   T   T   T
  0.1595467646481256  0.8719355023539535  0.0858665491023142   T   T   T
  0.4928350556642234  0.8717989000632019  0.0859109203677819   T   T   T
  0.8259827449781573  0.8720219733988505  0.0858559336634469   T   T   T
  0.3262356436080865  0.1218164035514801  0.1130773403944200   T   T   T
  0.6594102484501483  0.1218165174965576  0.1130634728846002   T   T   T
  0.9927987202319308  0.1217879340382204  0.1129353203116126   T   T   T
  0.3261840924564221  0.6217683621757425  0.1131101453242903   T   T   T
  0.6594551148972311  0.6218361019548458  0.1130490549032375   T   T   T
  0.9927792709470304  0.6220225905888919  0.1129382610755928   T   T   T
  0.0810151866841591  0.3551248662858331  0.0264425292619930   T   T   T
  0.4112662155334286  0.3548907024890555  0.0267036455346684   T   T   T
  0.7435074604820947  0.3544629046724506  0.0266092226616736   T   T   T
  0.0816677311167783  0.8553528705287355  0.0264382726954894   T   T   T
  0.4112119769932023  0.8544317539951948  0.0266878609931430   T   T   T
  0.7434781698503269  0.8544349071771007  0.0266485522321596   T   T   T
  0.3237107254522665  0.0538261271786089  0.0450043004100197   T   T   T
  0.6561806292198407  0.0539021199244716  0.0449652832009312   T   T   T
  0.9899541751283100  0.0540372003667647  0.0448511292479374   T   T   T
  0.3235233677903579  0.5535538004433781  0.0450366835462715   T   T   T
  0.6564598978798604  0.5537551249120071  0.0449847590609972   T   T   T
  0.9899778661084073  0.5541865471259337  0.0448672559610125   T   T   T
  0.8297471756970535  0.8049793020457446  0.2074734527487932   T   T   T
  0.8305820228652939  0.3017536799007069  0.2070484411332721   T   T   T
  0.1617543344585196  0.3027142929815584  0.2073745480210359   T   T   T
  0.4967886542458705  0.3056131179967362  0.2080960344847100   T   T   T
  0.1621539548940328  0.8037498463060488  0.2074996713544749   T   T   T
  0.4946461714220791  0.8032375626268808  0.2075684430167845   T   T   T
  0.0747383264768759  0.1052929558416668  0.2258501451753131   T   T   T
  0.4125472435240723  0.1052000326024505  0.2258235000335158   T   T   T
  0.7459765377844835  0.1043986907531066  0.2257660477884061   T   T   T
  0.0739012848463894  0.6016753705027541  0.2254322022024949   T   T   T
  0.3780639843154754  0.6191717631581066  0.2291089722728581   T   T   T
  0.7795984898042487  0.5906434086807307  0.2234435600320868   T   T   T
  0.5436605322760538  0.6112028920002546  0.2747596809263843   T   T   T
  0.4898879279037484  0.4743783575578214  0.2937853045109607   T   T   T
  0.5705671576821166  0.6389813126485780  0.3037735934912434   T   T   T
  0.3122878683407529  0.3860972888900452  0.3093992107537740   T   T   T
  0.4220826485529157  0.2589164505080961  0.3022808574017702   T   T   T
  0.6513485531909678  0.7315758224316802  0.3341948679532229   T   T   T
  0.4856979874021025  0.7581329387347286  0.3312707136738565   T   T   T
  0.5122021651175405  0.7928575512754942  0.2525217151316669   T   T   T
  0.5824572369753029  0.6500699830049552  0.2393654458959827   T   T   T
  0.1721963510892966  0.3336036852739089  0.0341426142515187   T   T   T
  0.5035284658809347  0.3360976814016142  0.0342912577375739   T   T   T
  0.8359737883191124  0.3350666187950215  0.0340896156228857   T   T   T
  0.1725530228669482  0.8335713848435810  0.0341936963049156   T   T   T
  0.5036535233953834  0.8342425948037461  0.0341528587421809   T   T   T
  0.8359002539729820  0.8352029343112128  0.0341497114529609   T   T   T
  0.3197978302913002  0.0839850357204701  0.2185666415829980   T   T   T
  0.6529803908401611  0.0836477050909404  0.2185447157617222   T   T   T
  0.9833658220958638  0.0864970737197168  0.2180299466627755   T   T   T
  0.3018974978114143  0.5855599490172934  0.2184227417800302   T   T   T
  0.6780364523532217  0.5836586145925983  0.2184669031793386   T   T   T
  0.9812855378860684  0.5820558362623242  0.2179112469334696   T   T   T
  0.5675791779636278  0.5592450797936254  0.2902968841872874   T   T   T
  0.3809395838097985  0.3564357946163617  0.2974678588369025   T   T   T
  0.5764701146998505  0.7528412691801032  0.3228378488276846   T   T   T
  0.5076489474775552  0.6818788010283460  0.2510425943541856   T   T   T
  0.4931560053195490  0.2439720857559841  0.0597444517014678   T   T   T
  0.8262638196596357  0.2437930891265245  0.0595951612195622   T   T   T
  0.1602868813402198  0.7431647227464818  0.0597237132305082   T   T   T
  0.4932167072825054  0.7434827940781973  0.0597098630852971   T   T   T
  0.8262651730274058  0.7438430984714479  0.0596441178056270   T   T   T
  0.1600877363037949  0.2432777142100403  0.0596803798551346   T   T   T
  0.9931143567111907  0.9965208455063241  0.1395511261320967   T   T   T
  0.3266048949613419  0.9970455818805678  0.1397444185041083   T   T   T
  0.6592607916612233  0.9969887233215267  0.1397233624251825   T   T   T
  0.9930665974197610  0.4967822559725517  0.1395214631541670   T   T   T
  0.3261741065945660  0.4971157566701762  0.1398131840520438   T   T   T
  0.6597396715137281  0.4967750242150420  0.1396679532952944   T   T   T
  0.1599774418840915  0.2458364408604806  0.1659552300092431   T   T   T
  0.4932882137355980  0.2478476968023433  0.1664104677426756   T   T   T
  0.8268408454882362  0.2448352959672702  0.1657413272417722   T   T   T
  0.1599433965584711  0.7467143749788273  0.1661121171084831   T   T   T
  0.4931354044657535  0.7461820946688486  0.1661336717264321   T   T   T
  0.8267986256843055  0.7465070377691575  0.1660308599853931   T   T   T
  0.3270454593178660  0.9938979044095620  0.1929234235751900   T   T   T
  0.6606932429638207  0.9936455110063351  0.1928837562297742   T   T   T
  0.9935870897359539  0.9940522021997632  0.1926322041367023   T   T   T
  0.3252727891844258  0.4952367673284848  0.1932507065844354   T   T   T
  0.9937521776574617  0.4914412326219057  0.1922966847353854   T   T   T
  0.6632201317954080  0.4926641280989094  0.1926121050212879   T   T   T
  0.9928349930821799  0.9963162690603070  0.0862972238679890   T   T   T
  0.3263870341637570  0.9962670591813155  0.0864109634077508   T   T   T
  0.6594182229242330  0.9963828147214421  0.0863770595515772   T   T   T
  0.9928194043163108  0.4964111088370968  0.0862907816745999   T   T   T
  0.3263078784938803  0.4961047737489996  0.0864678540809587   T   T   T
  0.6594981233385155  0.4963465743576864  0.0863882267220710   T   T   T
  0.1594904347262043  0.2468200453462232  0.1127053434414439   T   T   T
  0.4928059051418792  0.2468965318208871  0.1128827822944876   T   T   T
  0.8260679081149355  0.2467904848805406  0.1126345177055982   T   T   T
  0.1596093120479307  0.7469191331432579  0.1127463122482225   T   T   T
  0.4927683225019812  0.7468376011930528  0.1127864419891173   T   T   T
  0.8259871877129464  0.7470093536719379  0.1127198643467411   T   T   T
 
  0.00000000E+00  0.00000000E+00  0.00000000E+00
  0.00000000E+00  0.00000000E+00  0.00000000E+00
  0.00000000E+00  0.00000000E+00  0.00000000E+00
  0.00000000E+00  0.00000000E+00  0.00000000E+00
  0.00000000E+00  0.00000000E+00  0.00000000E+00
  0.00000000E+00  0.00000000E+00  0.00000000E+00
  0.00000000E+00  0.00000000E+00  0.00000000E+00
  0.00000000E+00  0.00000000E+00  0.00000000E+00
  0.00000000E+00  0.00000000E+00  0.00000000E+00
  0.00000000E+00  0.00000000E+00  0.00000000E+00
  0.00000000E+00  0.00000000E+00  0.00000000E+00
  0.00000000E+00  0.00000000E+00  0.00000000E+00
  0.00000000E+00  0.00000000E+00  0.00000000E+00
  0.00000000E+00  0.00000000E+00  0.00000000E+00
  0.00000000E+00  0.00000000E+00  0.00000000E+00
  0.00000000E+00  0.00000000E+00  0.00000000E+00
  0.00000000E+00  0.00000000E+00  0.00000000E+00
  0.00000000E+00  0.00000000E+00  0.00000000E+00
  0.00000000E+00  0.00000000E+00  0.00000000E+00
  0.00000000E+00  0.00000000E+00  0.00000000E+00
  0.00000000E+00  0.00000000E+00  0.00000000E+00
  0.00000000E+00  0.00000000E+00  0.00000000E+00
  0.00000000E+00  0.00000000E+00  0.00000000E+00
  0.00000000E+00  0.00000000E+00  0.00000000E+00
  0.00000000E+00  0.00000000E+00  0.00000000E+00
  0.00000000E+00  0.00000000E+00  0.00000000E+00
  0.00000000E+00  0.00000000E+00  0.00000000E+00
  0.00000000E+00  0.00000000E+00  0.00000000E+00
  0.00000000E+00  0.00000000E+00  0.00000000E+00
  0.00000000E+00  0.00000000E+00  0.00000000E+00
  0.00000000E+00  0.00000000E+00  0.00000000E+00
  0.00000000E+00  0.00000000E+00  0.00000000E+00
  0.00000000E+00  0.00000000E+00  0.00000000E+00
  0.00000000E+00  0.00000000E+00  0.00000000E+00
  0.00000000E+00  0.00000000E+00  0.00000000E+00
  0.00000000E+00  0.00000000E+00  0.00000000E+00
  0.00000000E+00  0.00000000E+00  0.00000000E+00
  0.00000000E+00  0.00000000E+00  0.00000000E+00
  0.00000000E+00  0.00000000E+00  0.00000000E+00
  0.00000000E+00  0.00000000E+00  0.00000000E+00
  0.00000000E+00  0.00000000E+00  0.00000000E+00
  0.00000000E+00  0.00000000E+00  0.00000000E+00
  0.00000000E+00  0.00000000E+00  0.00000000E+00
  0.00000000E+00  0.00000000E+00  0.00000000E+00
  0.00000000E+00  0.00000000E+00  0.00000000E+00
  0.00000000E+00  0.00000000E+00  0.00000000E+00
  0.00000000E+00  0.00000000E+00  0.00000000E+00
  0.00000000E+00  0.00000000E+00  0.00000000E+00
  0.00000000E+00  0.00000000E+00  0.00000000E+00
  0.00000000E+00  0.00000000E+00  0.00000000E+00
  0.00000000E+00  0.00000000E+00  0.00000000E+00
  0.00000000E+00  0.00000000E+00  0.00000000E+00
  0.00000000E+00  0.00000000E+00  0.00000000E+00
  0.00000000E+00  0.00000000E+00  0.00000000E+00
  0.00000000E+00  0.00000000E+00  0.00000000E+00
  0.00000000E+00  0.00000000E+00  0.00000000E+00
  0.00000000E+00  0.00000000E+00  0.00000000E+00
  0.00000000E+00  0.00000000E+00  0.00000000E+00
  0.00000000E+00  0.00000000E+00  0.00000000E+00
  0.00000000E+00  0.00000000E+00  0.00000000E+00
  0.00000000E+00  0.00000000E+00  0.00000000E+00
  0.00000000E+00  0.00000000E+00  0.00000000E+00
  0.00000000E+00  0.00000000E+00  0.00000000E+00
  0.00000000E+00  0.00000000E+00  0.00000000E+00
  0.00000000E+00  0.00000000E+00  0.00000000E+00
  0.00000000E+00  0.00000000E+00  0.00000000E+00
  0.00000000E+00  0.00000000E+00  0.00000000E+00
  0.00000000E+00  0.00000000E+00  0.00000000E+00
  0.00000000E+00  0.00000000E+00  0.00000000E+00
  0.00000000E+00  0.00000000E+00  0.00000000E+00
  0.00000000E+00  0.00000000E+00  0.00000000E+00
  0.00000000E+00  0.00000000E+00  0.00000000E+00
  0.00000000E+00  0.00000000E+00  0.00000000E+00
  0.00000000E+00  0.00000000E+00  0.00000000E+00
  0.00000000E+00  0.00000000E+00  0.00000000E+00
  0.00000000E+00  0.00000000E+00  0.00000000E+00
  0.00000000E+00  0.00000000E+00  0.00000000E+00
  0.00000000E+00  0.00000000E+00  0.00000000E+00
  0.00000000E+00  0.00000000E+00  0.00000000E+00
  0.00000000E+00  0.00000000E+00  0.00000000E+00
  0.00000000E+00  0.00000000E+00  0.00000000E+00
  0.00000000E+00  0.00000000E+00  0.00000000E+00
  0.00000000E+00  0.00000000E+00  0.00000000E+00
  0.00000000E+00  0.00000000E+00  0.00000000E+00
  0.00000000E+00  0.00000000E+00  0.00000000E+00
  0.00000000E+00  0.00000000E+00  0.00000000E+00
  0.00000000E+00  0.00000000E+00  0.00000000E+00
  0.00000000E+00  0.00000000E+00  0.00000000E+00
  0.00000000E+00  0.00000000E+00  0.00000000E+00
  0.00000000E+00  0.00000000E+00  0.00000000E+00
  0.00000000E+00  0.00000000E+00  0.00000000E+00
  0.00000000E+00  0.00000000E+00  0.00000000E+00
  0.00000000E+00  0.00000000E+00  0.00000000E+00
  0.00000000E+00  0.00000000E+00  0.00000000E+00
  0.00000000E+00  0.00000000E+00  0.00000000E+00
  0.00000000E+00  0.00000000E+00  0.00000000E+00
  0.00000000E+00  0.00000000E+00  0.00000000E+00
  0.00000000E+00  0.00000000E+00  0.00000000E+00
  0.00000000E+00  0.00000000E+00  0.00000000E+00
  0.00000000E+00  0.00000000E+00  0.00000000E+00
  0.00000000E+00  0.00000000E+00  0.00000000E+00
  0.00000000E+00  0.00000000E+00  0.00000000E+00
  0.00000000E+00  0.00000000E+00  0.00000000E+00
  0.00000000E+00  0.00000000E+00  0.00000000E+00
  0.00000000E+00  0.00000000E+00  0.00000000E+00
  0.00000000E+00  0.00000000E+00  0.00000000E+00
  0.00000000E+00  0.00000000E+00  0.00000000E+00
  0.00000000E+00  0.00000000E+00  0.00000000E+00
  0.00000000E+00  0.00000000E+00  0.00000000E+00
  0.00000000E+00  0.00000000E+00  0.00000000E+00
  0.00000000E+00  0.00000000E+00  0.00000000E+00
  0.00000000E+00  0.00000000E+00  0.00000000E+00
  0.00000000E+00  0.00000000E+00  0.00000000E+00
  0.00000000E+00  0.00000000E+00  0.00000000E+00
  0.00000000E+00  0.00000000E+00  0.00000000E+00
  0.00000000E+00  0.00000000E+00  0.00000000E+00
  0.00000000E+00  0.00000000E+00  0.00000000E+00
  0.00000000E+00  0.00000000E+00  0.00000000E+00
  0.00000000E+00  0.00000000E+00  0.00000000E+00
  0.00000000E+00  0.00000000E+00  0.00000000E+00
  0.00000000E+00  0.00000000E+00  0.00000000E+00
