C H O Si                                
   1.00000000000000     
     9.2874599999999994    0.0000000000000000    0.0000000000000000
     0.0000000000000000    8.7562999999999995    0.0000000000000000
     0.0000000000000000    0.0000000000000000   58.0000000000000000
   C    H    O    Si
    36    56    28    36
Selective dynamics
Direct
  0.0065751579482250  0.1578037090715335  0.4334606925222889   T   T   T
  0.0051230347547369  0.6525965564470390  0.4341533698808960   T   T   T
  0.3397648320209883  0.1571962504768833  0.4330562067179733   T   T   T
  0.3384597197639041  0.6593044136065896  0.4326488477284552   T   T   T
  0.6737040123765757  0.1538809695584215  0.4339935167412575   T   T   T
  0.6730451668686247  0.6560866377047588  0.4336188825045442   T   T   T
  0.1733083886478704  0.4026054544489532  0.4588993767006841   T   T   T
  0.1725712930880187  0.9022200019777800  0.4587378804230354   T   T   T
  0.5054968888243095  0.4026067121655887  0.4586758441074830   T   T   T
  0.5057802605029735  0.9014659072330009  0.4586864957654904   T   T   T
  0.8388812855060302  0.4014799278818604  0.4589709043502059   T   T   T
  0.8399526446554656  0.9015244009238305  0.4591972391277189   T   T   T
  0.0062442526726824  0.1518153226717250  0.4860198531088817   T   T   T
  0.0062688349830919  0.6516078932918583  0.4862947608344150   T   T   T
  0.3393616482553019  0.1514783176954826  0.4858221146688879   T   T   T
  0.3391380760413584  0.6519964644494115  0.4857965846498960   T   T   T
  0.6723758257977103  0.1516052417104221  0.4860954237735754   T   T   T
  0.6727485373556614  0.6517975268655868  0.4860217087553999   T   T   T
  0.1728878688305110  0.4015525256540574  0.5123611714170409   T   T   T
  0.1728524282289722  0.9019560214654394  0.5124579153819441   T   T   T
  0.5061390137767937  0.4019850088249208  0.5123067693867043   T   T   T
  0.5060822507725536  0.9014804482157684  0.5122026159837744   T   T   T
  0.8397436621519212  0.4015011293439351  0.5123979277843624   T   T   T
  0.8395096637814982  0.9019977964087608  0.5125971564579459   T   T   T
  0.0065280405307229  0.1522588025016240  0.5396134796629429   T   T   T
  0.0064301236711348  0.6523045491466400  0.5398203747244557   T   T   T
  0.3398993527274058  0.1524821955393180  0.5393879147182551   T   T   T
  0.3390628710973806  0.6515367507669748  0.5392869609043918   T   T   T
  0.6725902254129151  0.1521203414051017  0.5395389744089414   T   T   T
  0.6734359942614283  0.6512806564025149  0.5394324986926302   T   T   T
  0.1732250581546154  0.4056060781068287  0.5649705154153166   T   T   T
  0.1735402842054175  0.9075808866720273  0.5650957314984698   T   T   T
  0.5060927909587354  0.4083670479474554  0.5650177382017835   T   T   T
  0.5067646244036474  0.9039729576611736  0.5643102826766221   T   T   T
  0.8394752842665757  0.4040170150921983  0.5648822540747633   T   T   T
  0.8397033159862793  0.9074615116433393  0.5651498833523538   T   T   T
  0.0095671634167813  0.0855808682741271  0.4179455722846772   T   T   T
  0.0054937179514821  0.5775711727211164  0.4188507168171295   T   T   T
  0.3400491514065840  0.0847023328897720  0.4175106129061807   T   T   T
  0.3370278113278988  0.5829915875666474  0.4175084557816956   T   T   T
  0.6746266820974228  0.0824718185844747  0.4183594215459401   T   T   T
  0.6760633169302853  0.5839240214858495  0.4181005979163159   T   T   T
  0.1735521823870619  0.3308165703835543  0.5802915647161979   T   T   T
  0.1803892387626745  0.8375281559946259  0.5808525796722744   T   T   T
  0.5073198817556994  0.3355949143298975  0.5804666489696564   T   T   T
  0.5081996080203097  0.8326676541567808  0.5799646819307865   T   T   T
  0.8407663436922521  0.3296440887889651  0.5802421283074768   T   T   T
  0.8409135943715896  0.8366281812004677  0.5808315113573427   T   T   T
  0.0305713640399459  0.0597265763008013  0.6039925810172213   T   T   T
  0.0697612893295437  0.6762860675450619  0.5962188911394974   T   T   T
  0.4568199574681182  0.1241743400750131  0.5949244998693094   T   T   T
  0.4172189664250858  0.6360561450044638  0.5988251100416777   T   T   T
  0.7118865193702724  0.1326736300266413  0.6035092940468533   T   T   T
  0.7789662145421232  0.6323991473151479  0.5956600989909738   T   T   T
  0.1926678548007441  0.3244721917216578  0.3941242214767599   T   T   T
  0.2099246130956738  0.8946074700484961  0.3955732701297601   T   T   T
  0.6274325533820553  0.3731060043685281  0.4034611335136696   T   T   T
  0.6158434061110345  0.8703180118325674  0.4012203662455628   T   T   T
  0.8700156984221914  0.3260269903119427  0.3938072003492382   T   T   T
  0.9495578516351499  0.8782979977340334  0.4039502416820440   T   T   T
  0.8839251148352369  0.1466094530829340  0.3639723605762979   T   T   T
  0.2984793928603570  0.8510435281998554  0.3631058115958674   T   T   T
  0.3017137022593626  0.3017995204659557  0.3617913774469914   T   T   T
  0.3779777109424849  0.5365053750895966  0.3597245148454796   T   T   T
  0.6622298365065487  0.4738131615362574  0.3499838343496230   T   T   T
  0.8113974108485920  0.3855068088023145  0.3517879088019802   T   T   T
  0.9503402633103621  0.6787273474508729  0.3743869846899438   T   T   T
  0.2511323428790225  0.6925129683404894  0.3314644647115668   T   T   T
  0.8011237194394181  0.9420414404406527  0.3787549367333661   T   T   T
  0.4044078782847716  0.9102638590997789  0.3831233077146480   T   T   T
  0.4564333074840566  0.4356298221164480  0.3788211699606246   T   T   T
  0.0255074683269120  0.2506553457438935  0.3647132191422369   T   T   T
  0.8767306710879331  0.6096439435161889  0.3522949803588571   T   T   T
  0.1318907803177272  0.6777169796248264  0.3507017093450679   T   T   T
  0.8580492023947940  0.8853493058544668  0.3555524372073491   T   T   T
  0.2621038098659094  0.1303150864750177  0.3682390982852158   T   T   T
  0.1350776140163388  0.0221823107384581  0.6342370963045670   T   T   T
  0.7432235736789827  0.2714575810331100  0.6449020876690565   T   T   T
  0.7540071487251648  0.8205556588489341  0.6449781774134311   T   T   T
  0.6859234984998919  0.5795046787737269  0.6466727804967669   T   T   T
  0.3368153851512915  0.6941257676568428  0.6467661906320747   T   T   T
  0.1910242235736482  0.7832787985832381  0.6411963627405435   T   T   T
  0.0486091241452853  0.4840972865060388  0.6198158072120722   T   T   T
  0.8354131902862526  0.4320571990126130  0.6729550235115721   T   T   T
  0.2748175308708071  0.1718422246504373  0.6185136305107100   T   T   T
  0.5944792714011952  0.1897799408825827  0.6407883412672367   T   T   T
  0.6323755914410013  0.6380210543700153  0.6228896049744597   T   T   T
 -0.0109962150866560  0.9194730106160943  0.6364517528785836   T   T   T
  0.1400130360174912  0.5427832994087063  0.6410217760299962   T   T   T
  0.9213131410837717  0.4466880469740784  0.6493852590824262   T   T   T
  0.1879204782268624  0.2787043779899957  0.6353018582363923   T   T   T
  0.7721336165195678  0.9997539334272167  0.6457190307374527   T   T   T
  0.1738722680900751  0.3823471439881300  0.4085858726896373   T   T   T
  0.1376669198505930  0.8663605739744752  0.4077256514126176   T   T   T
  0.5228651789980164  0.3664509206380976  0.4070259871117236   T   T   T
  0.5162760871014641  0.8649778956864607  0.4066245119381960   T   T   T
  0.8242800275553270  0.3719555871778590  0.4078390950540186   T   T   T
  0.8453018604970165  0.8625755793747434  0.4075392428809178   T   T   T
  0.0044954407856355  0.1254520727798544  0.5906121722414303   T   T   T
  0.9906804365764503  0.6089628218719196  0.5917390070701379   T   T   T
  0.3531174216614128  0.1174122948486106  0.5908508051809569   T   T   T
  0.3270639907256044  0.6196008513017855  0.5906855245913148   T   T   T
  0.6474235145712933  0.1211345561516090  0.5902563713586184   T   T   T
  0.6777589143950417  0.6163697997647942  0.5911868771503510   T   T   T
  0.8066060761674562  0.9726847346007007  0.3624560100030733   T   T   T
  0.3171426889846625  0.9365306179431898  0.3740351437620269   T   T   T
  0.2217564104608607  0.2348670389459626  0.3670891488127597   T   T   T
  0.4420721669626990  0.4481298942835500  0.3619970596815503   T   T   T
  0.7636457752986198  0.4775266094452930  0.3452541799338670   T   T   T
  0.9198570829202047  0.2528915414068419  0.3670556310421011   T   T   T
  0.9524782443102972  0.6863858540225929  0.3576060554120422   T   T   T
  0.2387514787224067  0.6874590769873489  0.3480985527272841   T   T   T
  0.2450165453885427  0.1834418320494721  0.6347714425735438   T   T   T
  0.6967153577133911  0.1819499283014791  0.6372331110141534   T   T   T
  0.8242849901540267  0.9028223428450425  0.6481924891518077   T   T   T
  0.6268166784802458  0.6604971104443793  0.6394816235307219   T   T   T
  0.2327255897818861  0.6911895423745210  0.6488573454334778   T   T   T
  0.0837211090603815  0.9299466683833855  0.6281379405734258   T   T   T
  0.0750997224651909  0.4562519436141959  0.6356767907918266   T   T   T
  0.8215455333345353  0.4336161348765025  0.6563420289724318   T   T   T
  0.1730846195958307  0.2774687243282161  0.4325001143082904   T   T   T
  0.1688967918102599  0.7735187721842604  0.4325637560560571   T   T   T
  0.5078428712585649  0.2734183979985331  0.4325036636109895   T   T   T
  0.5069315914417145  0.7733181846020316  0.4325913685200166   T   T   T
  0.8391923120946536  0.2740676339663639  0.4327380790980892   T   T   T
  0.8401977538433187  0.7710611305231622  0.4334593975811959   T   T   T
  0.0062452490056935  0.0270603800118820  0.4593120952774524   T   T   T
  0.0058839740667219  0.5249100281301725  0.4597855159450973   T   T   T
  0.3394016404554286  0.0267148997385179  0.4590505418445335   T   T   T
  0.3389997529531967  0.5281374533508960  0.4589858189529614   T   T   T
  0.6729136664878996  0.0251047936237216  0.4596048339555647   T   T   T
  0.6726585342048162  0.5259597129365712  0.4594697590431924   T   T   T
  0.1730761673205062  0.2768432921526075  0.4856834268857282   T   T   T
  0.1726776343952885  0.7772218293757893  0.4857314570682209   T   T   T
  0.5056606258119392  0.2768877139065393  0.4856403350672234   T   T   T
  0.5057666702823621  0.7765445123773187  0.4856058308173212   T   T   T
  0.8392645840625207  0.2761917483959440  0.4857698293030955   T   T   T
  0.8397927488711120  0.7765040908229965  0.4860151146348061   T   T   T
  0.0063026253946845  0.0269699319212251  0.5127444791509291   T   T   T
  0.0064431963189773  0.5266552525646041  0.5128257968453904   T   T   T
  0.3396496351865791  0.0269028344301894  0.5125433459888084   T   T   T
  0.3391955173774844  0.5267090475248827  0.5124656730956214   T   T   T
  0.6724145004535980  0.0267455944949535  0.5127161308652634   T   T   T
  0.6731667867381838  0.5263858268429242  0.5125913655791690   T   T   T
  0.1731873903007084  0.2763991081811493  0.5390070874989383   T   T   T
  0.1733682628556807  0.7769296815578399  0.5391679819468789   T   T   T
  0.5062154126124321  0.2772087949438486  0.5390276825911469   T   T   T
  0.5062248332693353  0.7749362529618239  0.5387131550983055   T   T   T
  0.8395781215023114  0.2754984941747637  0.5389568583809193   T   T   T
  0.8394301174446916  0.7767202356040903  0.5392650839766608   T   T   T
  0.0065783959446655  0.0266615791347554  0.5660081417657623   T   T   T
  0.0058443643622905  0.5209455545947882  0.5655582042288037   T   T   T
  0.3411830918094750  0.0239382133452655  0.5655304625435209   T   T   T
  0.3387975938440083  0.5243483551993461  0.5655471759633280   T   T   T
  0.6721539262171797  0.0236837453914200  0.5656682578254145   T   T   T
  0.6736543469481640  0.5228726781377793  0.5655021171957610   T   T   T
 
  0.00000000E+00  0.00000000E+00  0.00000000E+00
  0.00000000E+00  0.00000000E+00  0.00000000E+00
  0.00000000E+00  0.00000000E+00  0.00000000E+00
  0.00000000E+00  0.00000000E+00  0.00000000E+00
  0.00000000E+00  0.00000000E+00  0.00000000E+00
  0.00000000E+00  0.00000000E+00  0.00000000E+00
  0.00000000E+00  0.00000000E+00  0.00000000E+00
  0.00000000E+00  0.00000000E+00  0.00000000E+00
  0.00000000E+00  0.00000000E+00  0.00000000E+00
  0.00000000E+00  0.00000000E+00  0.00000000E+00
  0.00000000E+00  0.00000000E+00  0.00000000E+00
  0.00000000E+00  0.00000000E+00  0.00000000E+00
  0.00000000E+00  0.00000000E+00  0.00000000E+00
  0.00000000E+00  0.00000000E+00  0.00000000E+00
  0.00000000E+00  0.00000000E+00  0.00000000E+00
  0.00000000E+00  0.00000000E+00  0.00000000E+00
  0.00000000E+00  0.00000000E+00  0.00000000E+00
  0.00000000E+00  0.00000000E+00  0.00000000E+00
  0.00000000E+00  0.00000000E+00  0.00000000E+00
  0.00000000E+00  0.00000000E+00  0.00000000E+00
  0.00000000E+00  0.00000000E+00  0.00000000E+00
  0.00000000E+00  0.00000000E+00  0.00000000E+00
  0.00000000E+00  0.00000000E+00  0.00000000E+00
  0.00000000E+00  0.00000000E+00  0.00000000E+00
  0.00000000E+00  0.00000000E+00  0.00000000E+00
  0.00000000E+00  0.00000000E+00  0.00000000E+00
  0.00000000E+00  0.00000000E+00  0.00000000E+00
  0.00000000E+00  0.00000000E+00  0.00000000E+00
  0.00000000E+00  0.00000000E+00  0.00000000E+00
  0.00000000E+00  0.00000000E+00  0.00000000E+00
  0.00000000E+00  0.00000000E+00  0.00000000E+00
  0.00000000E+00  0.00000000E+00  0.00000000E+00
  0.00000000E+00  0.00000000E+00  0.00000000E+00
  0.00000000E+00  0.00000000E+00  0.00000000E+00
  0.00000000E+00  0.00000000E+00  0.00000000E+00
  0.00000000E+00  0.00000000E+00  0.00000000E+00
  0.00000000E+00  0.00000000E+00  0.00000000E+00
  0.00000000E+00  0.00000000E+00  0.00000000E+00
  0.00000000E+00  0.00000000E+00  0.00000000E+00
  0.00000000E+00  0.00000000E+00  0.00000000E+00
  0.00000000E+00  0.00000000E+00  0.00000000E+00
  0.00000000E+00  0.00000000E+00  0.00000000E+00
  0.00000000E+00  0.00000000E+00  0.00000000E+00
  0.00000000E+00  0.00000000E+00  0.00000000E+00
  0.00000000E+00  0.00000000E+00  0.00000000E+00
  0.00000000E+00  0.00000000E+00  0.00000000E+00
  0.00000000E+00  0.00000000E+00  0.00000000E+00
  0.00000000E+00  0.00000000E+00  0.00000000E+00
  0.00000000E+00  0.00000000E+00  0.00000000E+00
  0.00000000E+00  0.00000000E+00  0.00000000E+00
  0.00000000E+00  0.00000000E+00  0.00000000E+00
  0.00000000E+00  0.00000000E+00  0.00000000E+00
  0.00000000E+00  0.00000000E+00  0.00000000E+00
  0.00000000E+00  0.00000000E+00  0.00000000E+00
  0.00000000E+00  0.00000000E+00  0.00000000E+00
  0.00000000E+00  0.00000000E+00  0.00000000E+00
  0.00000000E+00  0.00000000E+00  0.00000000E+00
  0.00000000E+00  0.00000000E+00  0.00000000E+00
  0.00000000E+00  0.00000000E+00  0.00000000E+00
  0.00000000E+00  0.00000000E+00  0.00000000E+00
  0.00000000E+00  0.00000000E+00  0.00000000E+00
  0.00000000E+00  0.00000000E+00  0.00000000E+00
  0.00000000E+00  0.00000000E+00  0.00000000E+00
  0.00000000E+00  0.00000000E+00  0.00000000E+00
  0.00000000E+00  0.00000000E+00  0.00000000E+00
  0.00000000E+00  0.00000000E+00  0.00000000E+00
  0.00000000E+00  0.00000000E+00  0.00000000E+00
  0.00000000E+00  0.00000000E+00  0.00000000E+00
  0.00000000E+00  0.00000000E+00  0.00000000E+00
  0.00000000E+00  0.00000000E+00  0.00000000E+00
  0.00000000E+00  0.00000000E+00  0.00000000E+00
  0.00000000E+00  0.00000000E+00  0.00000000E+00
  0.00000000E+00  0.00000000E+00  0.00000000E+00
  0.00000000E+00  0.00000000E+00  0.00000000E+00
  0.00000000E+00  0.00000000E+00  0.00000000E+00
  0.00000000E+00  0.00000000E+00  0.00000000E+00
  0.00000000E+00  0.00000000E+00  0.00000000E+00
  0.00000000E+00  0.00000000E+00  0.00000000E+00
  0.00000000E+00  0.00000000E+00  0.00000000E+00
  0.00000000E+00  0.00000000E+00  0.00000000E+00
  0.00000000E+00  0.00000000E+00  0.00000000E+00
  0.00000000E+00  0.00000000E+00  0.00000000E+00
  0.00000000E+00  0.00000000E+00  0.00000000E+00
  0.00000000E+00  0.00000000E+00  0.00000000E+00
  0.00000000E+00  0.00000000E+00  0.00000000E+00
  0.00000000E+00  0.00000000E+00  0.00000000E+00
  0.00000000E+00  0.00000000E+00  0.00000000E+00
  0.00000000E+00  0.00000000E+00  0.00000000E+00
  0.00000000E+00  0.00000000E+00  0.00000000E+00
  0.00000000E+00  0.00000000E+00  0.00000000E+00
  0.00000000E+00  0.00000000E+00  0.00000000E+00
  0.00000000E+00  0.00000000E+00  0.00000000E+00
  0.00000000E+00  0.00000000E+00  0.00000000E+00
  0.00000000E+00  0.00000000E+00  0.00000000E+00
  0.00000000E+00  0.00000000E+00  0.00000000E+00
  0.00000000E+00  0.00000000E+00  0.00000000E+00
  0.00000000E+00  0.00000000E+00  0.00000000E+00
  0.00000000E+00  0.00000000E+00  0.00000000E+00
  0.00000000E+00  0.00000000E+00  0.00000000E+00
  0.00000000E+00  0.00000000E+00  0.00000000E+00
  0.00000000E+00  0.00000000E+00  0.00000000E+00
  0.00000000E+00  0.00000000E+00  0.00000000E+00
  0.00000000E+00  0.00000000E+00  0.00000000E+00
  0.00000000E+00  0.00000000E+00  0.00000000E+00
  0.00000000E+00  0.00000000E+00  0.00000000E+00
  0.00000000E+00  0.00000000E+00  0.00000000E+00
  0.00000000E+00  0.00000000E+00  0.00000000E+00
  0.00000000E+00  0.00000000E+00  0.00000000E+00
  0.00000000E+00  0.00000000E+00  0.00000000E+00
  0.00000000E+00  0.00000000E+00  0.00000000E+00
  0.00000000E+00  0.00000000E+00  0.00000000E+00
  0.00000000E+00  0.00000000E+00  0.00000000E+00
  0.00000000E+00  0.00000000E+00  0.00000000E+00
  0.00000000E+00  0.00000000E+00  0.00000000E+00
  0.00000000E+00  0.00000000E+00  0.00000000E+00
  0.00000000E+00  0.00000000E+00  0.00000000E+00
  0.00000000E+00  0.00000000E+00  0.00000000E+00
  0.00000000E+00  0.00000000E+00  0.00000000E+00
  0.00000000E+00  0.00000000E+00  0.00000000E+00
  0.00000000E+00  0.00000000E+00  0.00000000E+00
  0.00000000E+00  0.00000000E+00  0.00000000E+00
  0.00000000E+00  0.00000000E+00  0.00000000E+00
  0.00000000E+00  0.00000000E+00  0.00000000E+00
  0.00000000E+00  0.00000000E+00  0.00000000E+00
  0.00000000E+00  0.00000000E+00  0.00000000E+00
  0.00000000E+00  0.00000000E+00  0.00000000E+00
  0.00000000E+00  0.00000000E+00  0.00000000E+00
  0.00000000E+00  0.00000000E+00  0.00000000E+00
  0.00000000E+00  0.00000000E+00  0.00000000E+00
  0.00000000E+00  0.00000000E+00  0.00000000E+00
  0.00000000E+00  0.00000000E+00  0.00000000E+00
  0.00000000E+00  0.00000000E+00  0.00000000E+00
  0.00000000E+00  0.00000000E+00  0.00000000E+00
  0.00000000E+00  0.00000000E+00  0.00000000E+00
  0.00000000E+00  0.00000000E+00  0.00000000E+00
  0.00000000E+00  0.00000000E+00  0.00000000E+00
  0.00000000E+00  0.00000000E+00  0.00000000E+00
  0.00000000E+00  0.00000000E+00  0.00000000E+00
  0.00000000E+00  0.00000000E+00  0.00000000E+00
  0.00000000E+00  0.00000000E+00  0.00000000E+00
  0.00000000E+00  0.00000000E+00  0.00000000E+00
  0.00000000E+00  0.00000000E+00  0.00000000E+00
  0.00000000E+00  0.00000000E+00  0.00000000E+00
  0.00000000E+00  0.00000000E+00  0.00000000E+00
  0.00000000E+00  0.00000000E+00  0.00000000E+00
  0.00000000E+00  0.00000000E+00  0.00000000E+00
  0.00000000E+00  0.00000000E+00  0.00000000E+00
  0.00000000E+00  0.00000000E+00  0.00000000E+00
  0.00000000E+00  0.00000000E+00  0.00000000E+00
  0.00000000E+00  0.00000000E+00  0.00000000E+00
  0.00000000E+00  0.00000000E+00  0.00000000E+00
  0.00000000E+00  0.00000000E+00  0.00000000E+00
  0.00000000E+00  0.00000000E+00  0.00000000E+00
  0.00000000E+00  0.00000000E+00  0.00000000E+00
  0.00000000E+00  0.00000000E+00  0.00000000E+00
  0.00000000E+00  0.00000000E+00  0.00000000E+00
