C H O Si                                
   1.00000000000000     
     9.2874599999999994    0.0000000000000000    0.0000000000000000
     0.0000000000000000    8.7562999999999995    0.0000000000000000
     0.0000000000000000    0.0000000000000000   58.0000000000000000
   C    H    O    Si
    36    56    28    36
Selective dynamics
Direct
  0.0044271108249243  0.1580931977948288  0.4335571379638463   T   T   T
  0.0030316026824303  0.6525339485165724  0.4342308412893363   T   T   T
  0.3373758357031874  0.1571424204502640  0.4331789045957312   T   T   T
  0.3362196250299772  0.6594955041972348  0.4327643432840453   T   T   T
  0.6714655151096010  0.1541307066402001  0.4340953729755081   T   T   T
  0.6707858284055386  0.6563295202285704  0.4336968164751733   T   T   T
  0.1712027409074592  0.4028033005774346  0.4590157960411276   T   T   T
  0.1704808829437967  0.9024336204594725  0.4588565760802316   T   T   T
  0.5034019377814102  0.4028605707781432  0.4587798704515783   T   T   T
  0.5037190938913071  0.9016027589153960  0.4588177799534205   T   T   T
  0.8368158255637462  0.4017409302450865  0.4590697017906902   T   T   T
  0.8379080144181329  0.9017779397632060  0.4592781840208702   T   T   T
  0.0042548977819198  0.1520962619070020  0.4861104246712238   T   T   T
  0.0043151044262596  0.6518499722987443  0.4863827445515496   T   T   T
  0.3374795924059167  0.1516389802564552  0.4859107414326211   T   T   T
  0.3372587202346454  0.6522178958006808  0.4859114608138069   T   T   T
  0.6704714300626889  0.1517221994480815  0.4861823681853008   T   T   T
  0.6708519123287745  0.6519630338745204  0.4861316580314889   T   T   T
  0.1710606030825147  0.4016985991491605  0.5124817343117974   T   T   T
  0.1709970814703510  0.9020435076524135  0.5125617728639779   T   T   T
  0.5043386787698545  0.4021017346638949  0.5124225298201954   T   T   T
  0.5042514685585320  0.9015399776191313  0.5123383807029009   T   T   T
  0.8379446074417523  0.4016779584576908  0.5125005461023304   T   T   T
  0.8377128825122309  0.9021338954464231  0.5126829946970132   T   T   T
  0.0048666562791027  0.1523785341443575  0.5396924147731804   T   T   T
  0.0048687908535610  0.6526133514080252  0.5399423811277542   T   T   T
  0.3382788442368361  0.1526925848340950  0.5394701838967834   T   T   T
  0.3374430096129383  0.6516994599575007  0.5394226391065414   T   T   T
  0.6709661042590710  0.1523473223699943  0.5396516985992457   T   T   T
  0.6718095097917456  0.6514061691461351  0.5395976239414234   T   T   T
  0.1715927513990264  0.4058904055645798  0.5650670992246672   T   T   T
  0.1721458064578197  0.9079273405106779  0.5652045078640336   T   T   T
  0.5045908697067999  0.4083362290061514  0.5651364817350928   T   T   T
  0.5054117834112201  0.9040677218426235  0.5644370486532676   T   T   T
  0.8381417206768561  0.4039468067192524  0.5649857569586905   T   T   T
  0.8382360132825123  0.9076680712981140  0.5652547400689603   T   T   T
  0.0075811068917475  0.0857593114916207  0.4180534296187979   T   T   T
  0.0033350159518203  0.5772181236208700  0.4189605270328477   T   T   T
  0.3375771307345839  0.0845815056715016  0.4176391077964710   T   T   T
  0.3344302221882728  0.5828827724119591  0.4176626426450323   T   T   T
  0.6727585233743697  0.0828498678570332  0.4184445465754205   T   T   T
  0.6739556281339932  0.5840365288063645  0.4181938489470163   T   T   T
  0.1712163114885558  0.3314140014683917  0.5804145137654957   T   T   T
  0.1784909003937833  0.8381664356240123  0.5809952158761461   T   T   T
  0.5053222439848538  0.3353369966344664  0.5805631471261616   T   T   T
  0.5066899200666334  0.8330378823961154  0.5801218575454332   T   T   T
  0.8398336961699906  0.3304158543680076  0.5804403260677337   T   T   T
  0.8390731117256630  0.8367757756026925  0.5809318188588787   T   T   T
  0.0358452268195856  0.0604652914285540  0.6038344795575155   T   T   T
  0.0662605149302568  0.6772726139710711  0.5963948662664246   T   T   T
  0.4572838182760691  0.1239456351982158  0.5948158123700760   T   T   T
  0.4158406829858549  0.6374777307740649  0.5988344303745976   T   T   T
  0.7128843136270644  0.1352956971064136  0.6033974363290737   T   T   T
  0.7776093823252938  0.6322751887624628  0.5959269469332287   T   T   T
  0.1891481794586835  0.3245516105682198  0.3942273498836280   T   T   T
  0.2071426374875789  0.8947683520226103  0.3956388046708023   T   T   T
  0.6247624388935985  0.3736359928646237  0.4035632379518115   T   T   T
  0.6123767933766496  0.8719635764523395  0.4012993156571630   T   T   T
  0.8665795374754361  0.3266028604003531  0.3938815085735147   T   T   T
  0.9471924858235951  0.8786980219660350  0.4040449356200518   T   T   T
  0.8779629678976927  0.1474872415512943  0.3640703874848510   T   T   T
  0.2943253082122741  0.8508857811177807  0.3630727310051780   T   T   T
  0.2967963656750828  0.3017337090692608  0.3617955071130935   T   T   T
  0.3737865358249930  0.5365055365050889  0.3598153637068452   T   T   T
  0.6564098009435740  0.4747157312312264  0.3499602927586608   T   T   T
  0.8056167891783741  0.3865937021202724  0.3518156753630456   T   T   T
  0.9452727041858360  0.6805541837427581  0.3741130849808167   T   T   T
  0.2471285877847034  0.6927965492429580  0.3314002085990642   T   T   T
  0.7971143093464036  0.9420067408433016  0.3789361034424236   T   T   T
  0.4007973766364857  0.9104581496869645  0.3829942400417894   T   T   T
  0.4527130098371939  0.4354867238206767  0.3788465827486132   T   T   T
  0.0198007056888070  0.2512675583776757  0.3646910766354272   T   T   T
  0.8716323018825159  0.6106215868720396  0.3520922319502979   T   T   T
  0.1271977201074231  0.6781718515611258  0.3505311404143535   T   T   T
  0.8510177175558328  0.8870448034766151  0.3554470617180396   T   T   T
  0.2569481022603469  0.1303997490530474  0.3682183079760450   T   T   T
  0.1485126507965602  0.0181363770846271  0.6336104151695511   T   T   T
  0.7580280909075514  0.2732685272420951  0.6438215325648051   T   T   T
  0.7594958080409785  0.8210656791005770  0.6439551458475391   T   T   T
  0.6828914473835099  0.5802372736681003  0.6471837770737546   T   T   T
  0.3674130700560622  0.6900381034205816  0.6454240764025928   T   T   T
  0.2214333192172455  0.7803095469673456  0.6399335607100400   T   T   T
  0.0641508664582659  0.4821473185976935  0.6203962605709537   T   T   T
  0.8456979539879556  0.4239304658568142  0.6727786645919414   T   T   T
  0.2839458400867467  0.1703743926137032  0.6186595833865702   T   T   T
  0.6088596849489092  0.1912711419202571  0.6402302812588261   T   T   T
  0.6297110219015262  0.6331851993865230  0.6231222776051174   T   T   T
  0.0036620802403888  0.9146317127377728  0.6353218700216101   T   T   T
  0.1605711233945102  0.5426712435020501  0.6408802296957617   T   T   T
  0.9338438832318594  0.4501492684434740  0.6497704358060696   T   T   T
  0.2023464985231857  0.2760189606236613  0.6362254355726489   T   T   T
  0.7840201382295323 -0.0005806848174120  0.6439810561103774   T   T   T
  0.1717237966987584  0.3826010338650505  0.4087136735982624   T   T   T
  0.1352771246789380  0.8668625908207588  0.4078575674953145   T   T   T
  0.5201772615125543  0.3665453090248602  0.4070907353084693   T   T   T
  0.5129237076527597  0.8651392463125677  0.4067073338259988   T   T   T
  0.8218824080141268  0.3728212481375821  0.4079783233656787   T   T   T
  0.8429394064341367  0.8625286621444279  0.4075852518641253   T   T   T
  0.0041073324713332  0.1255967630747133  0.5906996541216465   T   T   T
 -0.0114781076986179  0.6083029558111377  0.5919021288892455   T   T   T
  0.3532490131228165  0.1185101479170222  0.5908283832211019   T   T   T
  0.3255394655182098  0.6194617896695134  0.5908126242749872   T   T   T
  0.6462394398251597  0.1200277634158937  0.5904700880488684   T   T   T
  0.6762464738687181  0.6152324887826808  0.5915187196786482   T   T   T
  0.8001538648959194  0.9735893143360840  0.3626541856827668   T   T   T
  0.3132750511260464  0.9365049847769716  0.3739691811419054   T   T   T
  0.2167608698683071  0.2350241514513434  0.3671100499156101   T   T   T
  0.4378412040794334  0.4480962338078879  0.3620345983847202   T   T   T
  0.7578807423555128  0.4784801740764422  0.3452404645618041   T   T   T
  0.9142091769486784  0.2537597086717593  0.3670719639536055   T   T   T
  0.9476644739376634  0.6874084189387633  0.3573243594538621   T   T   T
  0.2342355552095773  0.6876793445394354  0.3480261138371296   T   T   T
  0.2579731274387865  0.1801310470833322  0.6351327068047143   T   T   T
  0.7105856281249658  0.1837999907709849  0.6362857785702269   T   T   T
  0.8333043543392558  0.9005843684029290  0.6462865272044581   T   T   T
  0.6222867107448397  0.6580060318874181  0.6396306004439325   T   T   T
  0.2631170909922306  0.6887839231727173  0.6475433894692462   T   T   T
  0.0977863989271356  0.9270023081989031  0.6270701039743350   T   T   T
  0.0914499802280310  0.4582050236835317  0.6363358412220470   T   T   T
  0.8334042063202848  0.4346355674417006  0.6562057547165512   T   T   T
  0.1708478582409697  0.2776574516124842  0.4326260625230789   T   T   T
  0.1666840878310854  0.7737155144092263  0.4326742193114030   T   T   T
  0.5053412968595257  0.2735256794521162  0.4325908521686215   T   T   T
  0.5045644723680074  0.7735224709970731  0.4326822113327508   T   T   T
  0.8369878564825023  0.2744133043170704  0.4328307072160106   T   T   T
  0.8380440163510652  0.7711449929551840  0.4335283987103742   T   T   T
  0.0041367986876389  0.0272905327744440  0.4594141837039446   T   T   T
  0.0037736113985292  0.5251500440532696  0.4599023560970871   T   T   T
  0.3372906769941183  0.0267535591925441  0.4591763352820666   T   T   T
  0.3369194959609061  0.5283514373601289  0.4591104575550787   T   T   T
  0.6708455790828255  0.0252303188273345  0.4597022351274942   T   T   T
  0.6705679735895202  0.5261450616241219  0.4595620520638086   T   T   T
  0.1711587088710278  0.2769914761037517  0.4857839948414937   T   T   T
  0.1707411621504808  0.7773547044330789  0.4858317866364727   T   T   T
  0.5037549969354280  0.2771489179193322  0.4857302948624748   T   T   T
  0.5038879367008723  0.7767119971789735  0.4857280553830822   T   T   T
  0.8372451476697635  0.2764822138410102  0.4858632715544856   T   T   T
  0.8377609824387749  0.7766209999188857  0.4860885813939564   T   T   T
  0.0044644231907165  0.0270806133339036  0.5128361875228102   T   T   T
  0.0046265294688832  0.5269153045865904  0.5129410992721843   T   T   T
  0.3378964912810006  0.0270374552054193  0.5126359643952059   T   T   T
  0.3373785959911676  0.5268794392090389  0.5125858696732686   T   T   T
  0.6705972031312952  0.0268708020104214  0.5128081224936935   T   T   T
  0.6713700379277768  0.5265673377579079  0.5127335556442462   T   T   T
  0.1715100644167311  0.2765947250339215  0.5391157541891641   T   T   T
  0.1718543680390684  0.7771493084463309  0.5392892821108892   T   T   T
  0.5046300025439172  0.2773496637138300  0.5391328046790183   T   T   T
  0.5046474769702977  0.7749177479107235  0.5388644246183304   T   T   T
  0.8378787888733399  0.2755975864313296  0.5390592889875997   T   T   T
  0.8378144062878645  0.7769431524527126  0.5393656469565334   T   T   T
  0.0051937063471060  0.0268061991995522  0.5660808856240396   T   T   T
  0.0042835088714526  0.5213082781070451  0.5656782735844269   T   T   T
  0.3398419825498500  0.0241873317350639  0.5656060923317162   T   T   T
  0.3372539529763997  0.5244815122183122  0.5656797219974424   T   T   T
  0.6707387776711120  0.0238934492177927  0.5657629878166487   T   T   T
  0.6721981436767105  0.5227485746786609  0.5657056917654176   T   T   T
 
  0.00000000E+00  0.00000000E+00  0.00000000E+00
  0.00000000E+00  0.00000000E+00  0.00000000E+00
  0.00000000E+00  0.00000000E+00  0.00000000E+00
  0.00000000E+00  0.00000000E+00  0.00000000E+00
  0.00000000E+00  0.00000000E+00  0.00000000E+00
  0.00000000E+00  0.00000000E+00  0.00000000E+00
  0.00000000E+00  0.00000000E+00  0.00000000E+00
  0.00000000E+00  0.00000000E+00  0.00000000E+00
  0.00000000E+00  0.00000000E+00  0.00000000E+00
  0.00000000E+00  0.00000000E+00  0.00000000E+00
  0.00000000E+00  0.00000000E+00  0.00000000E+00
  0.00000000E+00  0.00000000E+00  0.00000000E+00
  0.00000000E+00  0.00000000E+00  0.00000000E+00
  0.00000000E+00  0.00000000E+00  0.00000000E+00
  0.00000000E+00  0.00000000E+00  0.00000000E+00
  0.00000000E+00  0.00000000E+00  0.00000000E+00
  0.00000000E+00  0.00000000E+00  0.00000000E+00
  0.00000000E+00  0.00000000E+00  0.00000000E+00
  0.00000000E+00  0.00000000E+00  0.00000000E+00
  0.00000000E+00  0.00000000E+00  0.00000000E+00
  0.00000000E+00  0.00000000E+00  0.00000000E+00
  0.00000000E+00  0.00000000E+00  0.00000000E+00
  0.00000000E+00  0.00000000E+00  0.00000000E+00
  0.00000000E+00  0.00000000E+00  0.00000000E+00
  0.00000000E+00  0.00000000E+00  0.00000000E+00
  0.00000000E+00  0.00000000E+00  0.00000000E+00
  0.00000000E+00  0.00000000E+00  0.00000000E+00
  0.00000000E+00  0.00000000E+00  0.00000000E+00
  0.00000000E+00  0.00000000E+00  0.00000000E+00
  0.00000000E+00  0.00000000E+00  0.00000000E+00
  0.00000000E+00  0.00000000E+00  0.00000000E+00
  0.00000000E+00  0.00000000E+00  0.00000000E+00
  0.00000000E+00  0.00000000E+00  0.00000000E+00
  0.00000000E+00  0.00000000E+00  0.00000000E+00
  0.00000000E+00  0.00000000E+00  0.00000000E+00
  0.00000000E+00  0.00000000E+00  0.00000000E+00
  0.00000000E+00  0.00000000E+00  0.00000000E+00
  0.00000000E+00  0.00000000E+00  0.00000000E+00
  0.00000000E+00  0.00000000E+00  0.00000000E+00
  0.00000000E+00  0.00000000E+00  0.00000000E+00
  0.00000000E+00  0.00000000E+00  0.00000000E+00
  0.00000000E+00  0.00000000E+00  0.00000000E+00
  0.00000000E+00  0.00000000E+00  0.00000000E+00
  0.00000000E+00  0.00000000E+00  0.00000000E+00
  0.00000000E+00  0.00000000E+00  0.00000000E+00
  0.00000000E+00  0.00000000E+00  0.00000000E+00
  0.00000000E+00  0.00000000E+00  0.00000000E+00
  0.00000000E+00  0.00000000E+00  0.00000000E+00
  0.00000000E+00  0.00000000E+00  0.00000000E+00
  0.00000000E+00  0.00000000E+00  0.00000000E+00
  0.00000000E+00  0.00000000E+00  0.00000000E+00
  0.00000000E+00  0.00000000E+00  0.00000000E+00
  0.00000000E+00  0.00000000E+00  0.00000000E+00
  0.00000000E+00  0.00000000E+00  0.00000000E+00
  0.00000000E+00  0.00000000E+00  0.00000000E+00
  0.00000000E+00  0.00000000E+00  0.00000000E+00
  0.00000000E+00  0.00000000E+00  0.00000000E+00
  0.00000000E+00  0.00000000E+00  0.00000000E+00
  0.00000000E+00  0.00000000E+00  0.00000000E+00
  0.00000000E+00  0.00000000E+00  0.00000000E+00
  0.00000000E+00  0.00000000E+00  0.00000000E+00
  0.00000000E+00  0.00000000E+00  0.00000000E+00
  0.00000000E+00  0.00000000E+00  0.00000000E+00
  0.00000000E+00  0.00000000E+00  0.00000000E+00
  0.00000000E+00  0.00000000E+00  0.00000000E+00
  0.00000000E+00  0.00000000E+00  0.00000000E+00
  0.00000000E+00  0.00000000E+00  0.00000000E+00
  0.00000000E+00  0.00000000E+00  0.00000000E+00
  0.00000000E+00  0.00000000E+00  0.00000000E+00
  0.00000000E+00  0.00000000E+00  0.00000000E+00
  0.00000000E+00  0.00000000E+00  0.00000000E+00
  0.00000000E+00  0.00000000E+00  0.00000000E+00
  0.00000000E+00  0.00000000E+00  0.00000000E+00
  0.00000000E+00  0.00000000E+00  0.00000000E+00
  0.00000000E+00  0.00000000E+00  0.00000000E+00
  0.00000000E+00  0.00000000E+00  0.00000000E+00
  0.00000000E+00  0.00000000E+00  0.00000000E+00
  0.00000000E+00  0.00000000E+00  0.00000000E+00
  0.00000000E+00  0.00000000E+00  0.00000000E+00
  0.00000000E+00  0.00000000E+00  0.00000000E+00
  0.00000000E+00  0.00000000E+00  0.00000000E+00
  0.00000000E+00  0.00000000E+00  0.00000000E+00
  0.00000000E+00  0.00000000E+00  0.00000000E+00
  0.00000000E+00  0.00000000E+00  0.00000000E+00
  0.00000000E+00  0.00000000E+00  0.00000000E+00
  0.00000000E+00  0.00000000E+00  0.00000000E+00
  0.00000000E+00  0.00000000E+00  0.00000000E+00
  0.00000000E+00  0.00000000E+00  0.00000000E+00
  0.00000000E+00  0.00000000E+00  0.00000000E+00
  0.00000000E+00  0.00000000E+00  0.00000000E+00
  0.00000000E+00  0.00000000E+00  0.00000000E+00
  0.00000000E+00  0.00000000E+00  0.00000000E+00
  0.00000000E+00  0.00000000E+00  0.00000000E+00
  0.00000000E+00  0.00000000E+00  0.00000000E+00
  0.00000000E+00  0.00000000E+00  0.00000000E+00
  0.00000000E+00  0.00000000E+00  0.00000000E+00
  0.00000000E+00  0.00000000E+00  0.00000000E+00
  0.00000000E+00  0.00000000E+00  0.00000000E+00
  0.00000000E+00  0.00000000E+00  0.00000000E+00
  0.00000000E+00  0.00000000E+00  0.00000000E+00
  0.00000000E+00  0.00000000E+00  0.00000000E+00
  0.00000000E+00  0.00000000E+00  0.00000000E+00
  0.00000000E+00  0.00000000E+00  0.00000000E+00
  0.00000000E+00  0.00000000E+00  0.00000000E+00
  0.00000000E+00  0.00000000E+00  0.00000000E+00
  0.00000000E+00  0.00000000E+00  0.00000000E+00
  0.00000000E+00  0.00000000E+00  0.00000000E+00
  0.00000000E+00  0.00000000E+00  0.00000000E+00
  0.00000000E+00  0.00000000E+00  0.00000000E+00
  0.00000000E+00  0.00000000E+00  0.00000000E+00
  0.00000000E+00  0.00000000E+00  0.00000000E+00
  0.00000000E+00  0.00000000E+00  0.00000000E+00
  0.00000000E+00  0.00000000E+00  0.00000000E+00
  0.00000000E+00  0.00000000E+00  0.00000000E+00
  0.00000000E+00  0.00000000E+00  0.00000000E+00
  0.00000000E+00  0.00000000E+00  0.00000000E+00
  0.00000000E+00  0.00000000E+00  0.00000000E+00
  0.00000000E+00  0.00000000E+00  0.00000000E+00
  0.00000000E+00  0.00000000E+00  0.00000000E+00
  0.00000000E+00  0.00000000E+00  0.00000000E+00
  0.00000000E+00  0.00000000E+00  0.00000000E+00
  0.00000000E+00  0.00000000E+00  0.00000000E+00
  0.00000000E+00  0.00000000E+00  0.00000000E+00
  0.00000000E+00  0.00000000E+00  0.00000000E+00
  0.00000000E+00  0.00000000E+00  0.00000000E+00
  0.00000000E+00  0.00000000E+00  0.00000000E+00
  0.00000000E+00  0.00000000E+00  0.00000000E+00
  0.00000000E+00  0.00000000E+00  0.00000000E+00
  0.00000000E+00  0.00000000E+00  0.00000000E+00
  0.00000000E+00  0.00000000E+00  0.00000000E+00
  0.00000000E+00  0.00000000E+00  0.00000000E+00
  0.00000000E+00  0.00000000E+00  0.00000000E+00
  0.00000000E+00  0.00000000E+00  0.00000000E+00
  0.00000000E+00  0.00000000E+00  0.00000000E+00
  0.00000000E+00  0.00000000E+00  0.00000000E+00
  0.00000000E+00  0.00000000E+00  0.00000000E+00
  0.00000000E+00  0.00000000E+00  0.00000000E+00
  0.00000000E+00  0.00000000E+00  0.00000000E+00
  0.00000000E+00  0.00000000E+00  0.00000000E+00
  0.00000000E+00  0.00000000E+00  0.00000000E+00
  0.00000000E+00  0.00000000E+00  0.00000000E+00
  0.00000000E+00  0.00000000E+00  0.00000000E+00
  0.00000000E+00  0.00000000E+00  0.00000000E+00
  0.00000000E+00  0.00000000E+00  0.00000000E+00
  0.00000000E+00  0.00000000E+00  0.00000000E+00
  0.00000000E+00  0.00000000E+00  0.00000000E+00
  0.00000000E+00  0.00000000E+00  0.00000000E+00
  0.00000000E+00  0.00000000E+00  0.00000000E+00
  0.00000000E+00  0.00000000E+00  0.00000000E+00
  0.00000000E+00  0.00000000E+00  0.00000000E+00
  0.00000000E+00  0.00000000E+00  0.00000000E+00
  0.00000000E+00  0.00000000E+00  0.00000000E+00
  0.00000000E+00  0.00000000E+00  0.00000000E+00
  0.00000000E+00  0.00000000E+00  0.00000000E+00
  0.00000000E+00  0.00000000E+00  0.00000000E+00
  0.00000000E+00  0.00000000E+00  0.00000000E+00
