C H O Si                                
   1.00000000000000     
     9.2874599999999994    0.0000000000000000    0.0000000000000000
     0.0000000000000000   17.5126199999999983    0.0000000000000000
     0.0000000000000000    0.0000000000000000   58.0000000000000000
   C    H    O    Si
    72    57    28    72
Selective dynamics
Direct
  0.9962704978051200  0.0651111211050949  0.0595639352728029   T   T   T
  0.3297201770008351  0.0651741036470934  0.0596324497522349   T   T   T
  0.6629842924598448  0.0651470527665428  0.0596517379092489   T   T   T
  0.9962552857585881  0.3151986404459369  0.0595684815209543   T   T   T
  0.3296200238401123  0.3150927103533034  0.0595804029268719   T   T   T
  0.6630380823696703  0.3150528812291615  0.0596123799120432   T   T   T
  0.1626061684910699  0.1879346958857834  0.1383995911040565   T   T   T
  0.4957692543985830  0.1882927656909990  0.1387083626542719   T   T   T
  0.8292047641243219  0.1880077684771986  0.1384134929013687   T   T   T
  0.1625044155665467  0.4380916858905608  0.1384723395661200   T   T   T
  0.4957209880944356  0.4375266163337427  0.1383350317311540   T   T   T
  0.8292153478885661  0.4380767767984952  0.1385303261809717   T   T   T
  0.3301545336633399  0.0633152710178522  0.1657452010627579   T   T   T
  0.6623124802133493  0.0634652056334319  0.1657735233081596   T   T   T
  0.9960698644796594  0.0626478157709184  0.1655215490463526   T   T   T
  0.3287824119230018  0.3133654493617017  0.1656983336981725   T   T   T
  0.6632092528535338  0.3132679788337854  0.1657336512727334   T   T   T
  0.9960142152452635  0.3131227567633879  0.1655318654936879   T   T   T
  0.1629857244520593  0.1892271199983385  0.1905912949207736   T   T   T
  0.4957173984312501  0.1924296030797420  0.1917434509868026   T   T   T
  0.8299973197641471  0.1895097963692411  0.1907186048299012   T   T   T
  0.1624959280436056  0.4403455755013398  0.1909786466017806   T   T   T
  0.4961113330166086  0.4418931107997211  0.1900571353175716   T   T   T
  0.8300802470305663  0.4403024205867579  0.1911079817213135   T   T   T
  0.1627000219722585  0.1880457099619089  0.0848999235520517   T   T   T
  0.4958836578708189  0.1881442613300790  0.0850537891213138   T   T   T
  0.8293600093279170  0.1880629491046144  0.0849162138908861   T   T   T
  0.1627360352810200  0.4381208731538228  0.0849308830628195   T   T   T
  0.4959262718147098  0.4380613403870061  0.0848517055913292   T   T   T
  0.8292925345301558  0.4381268536463886  0.0849572189939963   T   T   T
  0.3293727674524324  0.0630305404018312  0.1121737977890275   T   T   T
  0.6626131563513126  0.0630214609151041  0.1121795922872916   T   T   T
  0.9958115136252309  0.0629141147493444  0.1120954455651770   T   T   T
  0.3291541030188028  0.3129314516345634  0.1121207312660510   T   T   T
  0.6627643121025925  0.3129475601233602  0.1121446406051929   T   T   T
  0.9958098136639365  0.3130004890169703  0.1120798807415308   T   T   T
  0.9962599259626351  0.5652286857562058  0.0596129288902561   T   T   T
  0.3296408087150723  0.5652133829453697  0.0596018327697139   T   T   T
  0.6630411035191304  0.5651833537711917  0.0596323727919858   T   T   T
  0.9962911787491093  0.8152705529153340  0.0596215305074030   T   T   T
  0.3297136480234363  0.8151295832414845  0.0596376937216339   T   T   T
  0.6630097843749260  0.8151383647383855  0.0596381832514171   T   T   T
  0.1624608124871758  0.6881038815883370  0.1384903685758936   T   T   T
  0.4958461511606168  0.6878944761369962  0.1385551024115758   T   T   T
  0.8293626285407888  0.6881160343497928  0.1385076765850975   T   T   T
  0.1628994106753994  0.9380218068735682  0.1385177038951049   T   T   T
  0.4958618845148033  0.9379497675617585  0.1385286985728538   T   T   T
  0.8289850989496446  0.9380213745258204  0.1385244446082314   T   T   T
  0.3287485710101986  0.5633040402741539  0.1657146147280589   T   T   T
  0.6635185221576432  0.5631373416391677  0.1657738507750581   T   T   T
  0.9960476164973091  0.5633355237128601  0.1656601108962347   T   T   T
  0.3296663883794300  0.8130842561747850  0.1657048956263629   T   T   T
  0.6629845976964429  0.8130500100077672  0.1656907310264397   T   T   T
  0.9961937482156439  0.8131472258986129  0.1656981258706588   T   T   T
  0.1630863421473760  0.6902218174769424  0.1910354153637189   T   T   T
  0.4965676770371590  0.6901622873842738  0.1910827186156456   T   T   T
  0.8299231009247486  0.6902489147850138  0.1910462861699132   T   T   T
  0.1631573917864887  0.9402271522466408  0.1910319642654596   T   T   T
  0.4964906181082513  0.9402245462656875  0.1910659575145055   T   T   T
  0.8297130284649262  0.9402651093667598  0.1910476849549249   T   T   T
  0.1626783576142442  0.6881376013165494  0.0849658375510785   T   T   T
  0.4959410240471484  0.6880671868468499  0.0849836814462373   T   T   T
  0.8293745535990599  0.6881581836083612  0.0849715296354946   T   T   T
  0.1628052225623364  0.9381225393045788  0.0849725651884713   T   T   T
  0.4959233958415740  0.9381029577386947  0.0849819157936116   T   T   T
  0.8292323731310796  0.9381299166923449  0.0849713970197457   T   T   T
  0.3292604657941188  0.5629164478659227  0.1121416925243357   T   T   T
  0.6626807746961689  0.5628790965297625  0.1121721289180384   T   T   T
  0.9957769630842517  0.5630110551646784  0.1121382775417894   T   T   T
  0.3293482056042986  0.8129431701205123  0.1121571245006813   T   T   T
  0.6626764703700242  0.8129316594600376  0.1121589117164791   T   T   T
  0.9958179317917891  0.8131236505016998  0.1121506161765745   T   T   T
  0.0791843140531090  0.1791499979863756  0.0259374845484462   T   T   T
  0.4123878661994418  0.1792736465445507  0.0260930754268000   T   T   T
  0.7454294994561548  0.1791468739762476  0.0259937594010483   T   T   T
  0.0790472294697278  0.4291967952233842  0.0259697886145314   T   T   T
  0.4125884514279496  0.4289923344106738  0.0258913193449383   T   T   T
  0.7450937104422121  0.4290285759934562  0.0260367907389599   T   T   T
  0.3278102862342553  0.0288793708646686  0.0441281630573975   T   T   T
  0.6603623688100086  0.0288851045854219  0.0441424955051543   T   T   T
  0.9939692217499098  0.0288140848112505  0.0440603409672113   T   T   T
  0.3270875611433541  0.2787630837267322  0.0440834295881332   T   T   T
  0.6610621944859177  0.2787689771556762  0.0441099450535107   T   T   T
  0.9939662667828267  0.2789430505952292  0.0440538091709858   T   T   T
  0.8328241722965056  0.4038669422554934  0.2065746581002468   T   T   T
  0.8326936296375210  0.1534231904779179  0.2062720648271689   T   T   T
  0.1650354648437799  0.1535828461519883  0.2062350867974753   T   T   T
  0.4983642083765962  0.1557082952571062  0.2071593742834094   T   T   T
  0.1649488802479967  0.4038123922920435  0.2064171866403773   T   T   T
  0.5398462146829595  0.4644076123165917  0.2613054708463262   T   T   T
  0.0818027859239845  0.0549055044600969  0.2243525917509460   T   T   T
  0.4151115728396371  0.0548286191192882  0.2244721451777344   T   T   T
  0.7476864942765772  0.0549594686974670  0.2245660606716684   T   T   T
  0.0894084297628925  0.3028850391776567  0.2229085955991747   T   T   T
  0.3670549734841442  0.2843851730998276  0.2303263230055956   T   T   T
  0.7784201378919929  0.2983848803615085  0.2228926694845851   T   T   T
  0.4954929658430909  0.2708341372459963  0.2660250310095803   T   T   T
  0.4706166093036382  0.2279267420393722  0.3004581323693201   T   T   T
  0.5188884023278116  0.3123934302496933  0.3081717672643699   T   T   T
  0.2892453818849547  0.1364753879608843  0.2959913265598373   T   T   T
  0.4375389030986556  0.1078479208739188  0.2875305696093583   T   T   T
  0.6376453740013781  0.3857579261604838  0.3348396116892939   T   T   T
  0.5034034463962876  0.4319297825498954  0.3272218135271088   T   T   T
  0.5043388998958801  0.4388500813668873  0.2700136667917455   T   T   T
  0.5654838960282743  0.2685189566473527  0.2407298931063253   T   T   T
  0.0789252202680358  0.6792462266341047  0.0260055493869717   T   T   T
  0.4122773643309183  0.6792219001731216  0.0260281730810362   T   T   T
  0.7455172192147866  0.6791924482556259  0.0260198361497686   T   T   T
  0.0797402302393859  0.9291995379592244  0.0259492767886761   T   T   T
  0.4121307393652037  0.9290590262641352  0.0260181450738566   T   T   T
  0.7452551192477579  0.9290678094314275  0.0260206805262337   T   T   T
  0.3274237575684801  0.5290044398086512  0.0440771892820066   T   T   T
  0.6607796349605591  0.5290114744969070  0.0441012608206975   T   T   T
  0.9940447354854697  0.5289963141109912  0.0440939779949165   T   T   T
  0.3274609015998015  0.7789088740692670  0.0441184867163901   T   T   T
  0.6606690323631437  0.7789211306938927  0.0441182601913791   T   T   T
  0.9940635266097054  0.7789861074794294  0.0441074811277226   T   T   T
  0.8321043636862401  0.9040677204458529  0.2065745414814144   T   T   T
  0.8320124773369300  0.6537960633900228  0.2065240642990907   T   T   T
  0.1658796420666722  0.6537606395571335  0.2065075576171107   T   T   T
  0.4986161043231511  0.6536994202904675  0.2065716078750190   T   T   T
  0.1654788908390098  0.9040333033334668  0.2065637245823798   T   T   T
  0.4989473553873371  0.9039569293891815  0.2065828583335128   T   T   T
  0.0847603756974950  0.5535813485997139  0.2242884502521858   T   T   T
  0.4164575442478088  0.5508613935138811  0.2246382698590154   T   T   T
  0.7518136940861359  0.5535401716277593  0.2242372474944649   T   T   T
  0.0820558656163136  0.8039512186607376  0.2245614703198199   T   T   T
  0.4145447237580853  0.8041184544965304  0.2246289676304334   T   T   T
  0.7498733212973585  0.8035959322364438  0.2244836486568714   T   T   T
  0.1723127912467037  0.1687390324075294  0.0331017979973882   T   T   T
  0.5056273323434703  0.1690817839862290  0.0332611947873770   T   T   T
  0.8387166727989989  0.1687388541734077  0.0331134883529546   T   T   T
  0.1722342501817053  0.4188179804098687  0.0331169910512180   T   T   T
  0.5057586268888802  0.4186587457846799  0.0330532575610730   T   T   T
  0.8384910354982045  0.4188783147911248  0.0331459497942017   T   T   T
  0.3214086260212969  0.0439097718365037  0.2175509145811702   T   T   T
  0.6542821306524097  0.0438905835086010  0.2175706654137674   T   T   T
  0.9881408212183065  0.0439406271695243  0.2174340933345573   T   T   T
  0.3047052241803962  0.2988753279038034  0.2168341591296342   T   T   T
  0.6777568016165845  0.2938506838029331  0.2178596978304653   T   T   T
  0.9912648361956008  0.2925310024664238  0.2172666490226141   T   T   T
  0.5245188466963923  0.2739862030686354  0.2956306593089922   T   T   T
  0.3899508410153564  0.1324089238493252  0.3005477188892106   T   T   T
  0.5359224275924847  0.3804995714703535  0.3309887370886520   T   T   T
  0.4801275417249804  0.2531374308687322  0.2499220079515446   T   T   T
  0.1721725319942233  0.6688788612844662  0.0331386341971439   T   T   T
  0.5055597841820739  0.6689238009037394  0.0331637765516699   T   T   T
  0.8388143173835747  0.6689192961221661  0.0331522802595519   T   T   T
  0.1727373725099553  0.9188926794403011  0.0331748636070161   T   T   T
  0.5054157328713416  0.9188990474225215  0.0331716832119491   T   T   T
  0.8385579921917368  0.9189255857323625  0.0331671811229126   T   T   T
  0.3221348046574266  0.5446274334688747  0.2174303459007222   T   T   T
  0.6566232125042751  0.5445383078787560  0.2176015448221376   T   T   T
  0.9899380198609636  0.5444451953110251  0.2175199901360019   T   T   T
  0.3211054472331445  0.7940049492374002  0.2175165596875759   T   T   T
  0.6557803984891136  0.7942126094743366  0.2174983782208464   T   T   T
  0.9883133266393163  0.7939969055602937  0.2175296002431232   T   T   T
  0.4964889120951467  0.1238952997198574  0.0589420445840161   T   T   T
  0.8297525084545700  0.1238117953544648  0.0588316843192784   T   T   T
  0.1631251014170206  0.3738460780538759  0.0588381001708285   T   T   T
  0.4964792651233313  0.3737797230296254  0.0587998764305107   T   T   T
  0.8296834873863007  0.3738623875317722  0.0588660691903983   T   T   T
  0.1630896624426270  0.1237974807953331  0.0588166245778231   T   T   T
  0.9959351801586721  0.0002764203299751  0.1387298060072142   T   T   T
  0.3296607358965600  0.0006269041876265  0.1388420454185578   T   T   T
  0.6622448013551592  0.0006610485038019  0.1388573005793313   T   T   T
  0.9959183389237151  0.2505516087600252  0.1387282877393015   T   T   T
  0.3290198984347874  0.2509101513122723  0.1389185534127567   T   T   T
  0.6626079480937253  0.2508333211147427  0.1389043118643325   T   T   T
  0.1627408591565375  0.1248866633390410  0.1649478378715303   T   T   T
  0.4959030253787848  0.1264869561842511  0.1655606932049002   T   T   T
  0.8295893718470896  0.1250139136736939  0.1649697597547128   T   T   T
  0.1627058869551591  0.3755072892894010  0.1651419918801073   T   T   T
  0.4958036951395745  0.3759836390782073  0.1657721226452164   T   T   T
  0.8293212805269002  0.3754978834494522  0.1652215731311742   T   T   T
  0.3318486913613782  0.4970702355009559  0.1919780462421172   T   T   T
  0.6602317134748040  0.4970364195042887  0.1921362452129564   T   T   T
  0.9963454934433902  0.4989478440945396  0.1917866591487937   T   T   T
  0.3266955330553327  0.2508143623708776  0.1921261451329813   T   T   T
  0.9966814475399651  0.2479743277486109  0.1913896075346944   T   T   T
  0.6648975383804921  0.2497098786215862  0.1918858906335321   T   T   T
  0.9960226888707288  0.0002338080776846  0.0854995802133931   T   T   T
  0.3294099591537999  0.0002961600903582  0.0855589570297355   T   T   T
  0.6626437033519406  0.0002764511367090  0.0855670986991411   T   T   T
  0.9960388706124718  0.2502880372806257  0.0854945864727390   T   T   T
  0.3292539473169342  0.2503171478969751  0.0855503764490379   T   T   T
  0.6627458964067159  0.2502876814222194  0.0855671727044996   T   T   T
  0.1625157349397429  0.1255153496369693  0.1118329878392077   T   T   T
  0.4958705507416823  0.1256868775956828  0.1120280847345752   T   T   T
  0.8291921783239935  0.1255328525078496  0.1118450861243168   T   T   T
  0.1625919663512485  0.3755332210711873  0.1118909713094813   T   T   T
  0.4958354835226452  0.3754849147426798  0.1118577827981151   T   T   T
  0.8291224656712008  0.3755650426738030  0.1119255269687510   T   T   T
  0.4964741920766399  0.6238177359946813  0.0588709892846530   T   T   T
  0.8297477599337774  0.6238739720814918  0.0588668760001385   T   T   T
  0.1632300012669821  0.8738307493991557  0.0588672279496032   T   T   T
  0.4964678311047061  0.8738100545205691  0.0588717105208429   T   T   T
  0.8296860657692119  0.8738629121445061  0.0588640209122365   T   T   T
  0.1631011141704543  0.6238549576800034  0.0588538131214242   T   T   T
  0.9958736343053364  0.5005129807224437  0.1388374246433171   T   T   T
  0.3297595377294761  0.5003491843074824  0.1389176382590845   T   T   T
  0.6619133708677677  0.5003091665133104  0.1389569967842498   T   T   T
  0.9959249713084036  0.7504542218378206  0.1387959748721707   T   T   T
  0.3293111475727429  0.7502842682060872  0.1388166916448620   T   T   T
  0.6625862401873878  0.7502837168137293  0.1388147925367748   T   T   T
  0.1628284051054284  0.6251045215231730  0.1651397313790126   T   T   T
  0.4961572868048151  0.6245948178517357  0.1652304067873574   T   T   T
  0.8292247613213483  0.6250838586603721  0.1651653800676416   T   T   T
  0.1629021449307590  0.8751946367902118  0.1651404559476854   T   T   T
  0.4962079062009969  0.8751827596009429  0.1651643043584481   T   T   T
  0.8293953221138848  0.8752071982033514  0.1651547838211000   T   T   T
  0.3296713377202743  0.9989558515779435  0.1918235875456089   T   T   T
  0.6629684066624255  0.9989962696837958  0.1918409451884526   T   T   T
  0.9963292360934405  0.9988681110807668  0.1917275660439587   T   T   T
  0.3297633434714953  0.7486380439312789  0.1918252833933104   T   T   T
  0.9964060457234991  0.7487279610937343  0.1918232115569886   T   T   T
  0.6630710151686543  0.7486916644044644  0.1918262965924558   T   T   T
  0.9960247074390296  0.5002524337291161  0.0855391698897173   T   T   T
  0.3294337579629360  0.5002281305747526  0.0855305006742567   T   T   T
  0.6625959405623896  0.5002086056603420  0.0855555299231838   T   T   T
  0.9960375814237500  0.7502686644778944  0.0855417300798317   T   T   T
  0.3293900769680823  0.7501578953940667  0.0855499879122122   T   T   T
  0.6626853037469115  0.7501665985805067  0.0855480865587954   T   T   T
  0.1625818202964198  0.6253667100371113  0.1118990936443553   T   T   T
  0.4958877710809353  0.6252948128167416  0.1119267865573566   T   T   T
  0.8290646799231216  0.6254062146364301  0.1119127003283430   T   T   T
  0.1627091579549634  0.8754376239030488  0.1118850139548207   T   T   T
  0.4959145985951853  0.8753978544395875  0.1118931857648824   T   T   T
  0.8290187372494018  0.8754754960282800  0.1118909708476184   T   T   T
 
  0.00000000E+00  0.00000000E+00  0.00000000E+00
  0.00000000E+00  0.00000000E+00  0.00000000E+00
  0.00000000E+00  0.00000000E+00  0.00000000E+00
  0.00000000E+00  0.00000000E+00  0.00000000E+00
  0.00000000E+00  0.00000000E+00  0.00000000E+00
  0.00000000E+00  0.00000000E+00  0.00000000E+00
  0.00000000E+00  0.00000000E+00  0.00000000E+00
  0.00000000E+00  0.00000000E+00  0.00000000E+00
  0.00000000E+00  0.00000000E+00  0.00000000E+00
  0.00000000E+00  0.00000000E+00  0.00000000E+00
  0.00000000E+00  0.00000000E+00  0.00000000E+00
  0.00000000E+00  0.00000000E+00  0.00000000E+00
  0.00000000E+00  0.00000000E+00  0.00000000E+00
  0.00000000E+00  0.00000000E+00  0.00000000E+00
  0.00000000E+00  0.00000000E+00  0.00000000E+00
  0.00000000E+00  0.00000000E+00  0.00000000E+00
  0.00000000E+00  0.00000000E+00  0.00000000E+00
  0.00000000E+00  0.00000000E+00  0.00000000E+00
  0.00000000E+00  0.00000000E+00  0.00000000E+00
  0.00000000E+00  0.00000000E+00  0.00000000E+00
  0.00000000E+00  0.00000000E+00  0.00000000E+00
  0.00000000E+00  0.00000000E+00  0.00000000E+00
  0.00000000E+00  0.00000000E+00  0.00000000E+00
  0.00000000E+00  0.00000000E+00  0.00000000E+00
  0.00000000E+00  0.00000000E+00  0.00000000E+00
  0.00000000E+00  0.00000000E+00  0.00000000E+00
  0.00000000E+00  0.00000000E+00  0.00000000E+00
  0.00000000E+00  0.00000000E+00  0.00000000E+00
  0.00000000E+00  0.00000000E+00  0.00000000E+00
  0.00000000E+00  0.00000000E+00  0.00000000E+00
  0.00000000E+00  0.00000000E+00  0.00000000E+00
  0.00000000E+00  0.00000000E+00  0.00000000E+00
  0.00000000E+00  0.00000000E+00  0.00000000E+00
  0.00000000E+00  0.00000000E+00  0.00000000E+00
  0.00000000E+00  0.00000000E+00  0.00000000E+00
  0.00000000E+00  0.00000000E+00  0.00000000E+00
  0.00000000E+00  0.00000000E+00  0.00000000E+00
  0.00000000E+00  0.00000000E+00  0.00000000E+00
  0.00000000E+00  0.00000000E+00  0.00000000E+00
  0.00000000E+00  0.00000000E+00  0.00000000E+00
  0.00000000E+00  0.00000000E+00  0.00000000E+00
  0.00000000E+00  0.00000000E+00  0.00000000E+00
  0.00000000E+00  0.00000000E+00  0.00000000E+00
  0.00000000E+00  0.00000000E+00  0.00000000E+00
  0.00000000E+00  0.00000000E+00  0.00000000E+00
  0.00000000E+00  0.00000000E+00  0.00000000E+00
  0.00000000E+00  0.00000000E+00  0.00000000E+00
  0.00000000E+00  0.00000000E+00  0.00000000E+00
  0.00000000E+00  0.00000000E+00  0.00000000E+00
  0.00000000E+00  0.00000000E+00  0.00000000E+00
  0.00000000E+00  0.00000000E+00  0.00000000E+00
  0.00000000E+00  0.00000000E+00  0.00000000E+00
  0.00000000E+00  0.00000000E+00  0.00000000E+00
  0.00000000E+00  0.00000000E+00  0.00000000E+00
  0.00000000E+00  0.00000000E+00  0.00000000E+00
  0.00000000E+00  0.00000000E+00  0.00000000E+00
  0.00000000E+00  0.00000000E+00  0.00000000E+00
  0.00000000E+00  0.00000000E+00  0.00000000E+00
  0.00000000E+00  0.00000000E+00  0.00000000E+00
  0.00000000E+00  0.00000000E+00  0.00000000E+00
  0.00000000E+00  0.00000000E+00  0.00000000E+00
  0.00000000E+00  0.00000000E+00  0.00000000E+00
  0.00000000E+00  0.00000000E+00  0.00000000E+00
  0.00000000E+00  0.00000000E+00  0.00000000E+00
  0.00000000E+00  0.00000000E+00  0.00000000E+00
  0.00000000E+00  0.00000000E+00  0.00000000E+00
  0.00000000E+00  0.00000000E+00  0.00000000E+00
  0.00000000E+00  0.00000000E+00  0.00000000E+00
  0.00000000E+00  0.00000000E+00  0.00000000E+00
  0.00000000E+00  0.00000000E+00  0.00000000E+00
  0.00000000E+00  0.00000000E+00  0.00000000E+00
  0.00000000E+00  0.00000000E+00  0.00000000E+00
  0.00000000E+00  0.00000000E+00  0.00000000E+00
  0.00000000E+00  0.00000000E+00  0.00000000E+00
  0.00000000E+00  0.00000000E+00  0.00000000E+00
  0.00000000E+00  0.00000000E+00  0.00000000E+00
  0.00000000E+00  0.00000000E+00  0.00000000E+00
  0.00000000E+00  0.00000000E+00  0.00000000E+00
  0.00000000E+00  0.00000000E+00  0.00000000E+00
  0.00000000E+00  0.00000000E+00  0.00000000E+00
  0.00000000E+00  0.00000000E+00  0.00000000E+00
  0.00000000E+00  0.00000000E+00  0.00000000E+00
  0.00000000E+00  0.00000000E+00  0.00000000E+00
  0.00000000E+00  0.00000000E+00  0.00000000E+00
  0.00000000E+00  0.00000000E+00  0.00000000E+00
  0.00000000E+00  0.00000000E+00  0.00000000E+00
  0.00000000E+00  0.00000000E+00  0.00000000E+00
  0.00000000E+00  0.00000000E+00  0.00000000E+00
  0.00000000E+00  0.00000000E+00  0.00000000E+00
  0.00000000E+00  0.00000000E+00  0.00000000E+00
  0.00000000E+00  0.00000000E+00  0.00000000E+00
  0.00000000E+00  0.00000000E+00  0.00000000E+00
  0.00000000E+00  0.00000000E+00  0.00000000E+00
  0.00000000E+00  0.00000000E+00  0.00000000E+00
  0.00000000E+00  0.00000000E+00  0.00000000E+00
  0.00000000E+00  0.00000000E+00  0.00000000E+00
  0.00000000E+00  0.00000000E+00  0.00000000E+00
  0.00000000E+00  0.00000000E+00  0.00000000E+00
  0.00000000E+00  0.00000000E+00  0.00000000E+00
  0.00000000E+00  0.00000000E+00  0.00000000E+00
  0.00000000E+00  0.00000000E+00  0.00000000E+00
  0.00000000E+00  0.00000000E+00  0.00000000E+00
  0.00000000E+00  0.00000000E+00  0.00000000E+00
  0.00000000E+00  0.00000000E+00  0.00000000E+00
  0.00000000E+00  0.00000000E+00  0.00000000E+00
  0.00000000E+00  0.00000000E+00  0.00000000E+00
  0.00000000E+00  0.00000000E+00  0.00000000E+00
  0.00000000E+00  0.00000000E+00  0.00000000E+00
  0.00000000E+00  0.00000000E+00  0.00000000E+00
  0.00000000E+00  0.00000000E+00  0.00000000E+00
  0.00000000E+00  0.00000000E+00  0.00000000E+00
  0.00000000E+00  0.00000000E+00  0.00000000E+00
  0.00000000E+00  0.00000000E+00  0.00000000E+00
  0.00000000E+00  0.00000000E+00  0.00000000E+00
  0.00000000E+00  0.00000000E+00  0.00000000E+00
  0.00000000E+00  0.00000000E+00  0.00000000E+00
  0.00000000E+00  0.00000000E+00  0.00000000E+00
  0.00000000E+00  0.00000000E+00  0.00000000E+00
  0.00000000E+00  0.00000000E+00  0.00000000E+00
  0.00000000E+00  0.00000000E+00  0.00000000E+00
  0.00000000E+00  0.00000000E+00  0.00000000E+00
  0.00000000E+00  0.00000000E+00  0.00000000E+00
  0.00000000E+00  0.00000000E+00  0.00000000E+00
  0.00000000E+00  0.00000000E+00  0.00000000E+00
  0.00000000E+00  0.00000000E+00  0.00000000E+00
  0.00000000E+00  0.00000000E+00  0.00000000E+00
  0.00000000E+00  0.00000000E+00  0.00000000E+00
  0.00000000E+00  0.00000000E+00  0.00000000E+00
  0.00000000E+00  0.00000000E+00  0.00000000E+00
  0.00000000E+00  0.00000000E+00  0.00000000E+00
  0.00000000E+00  0.00000000E+00  0.00000000E+00
  0.00000000E+00  0.00000000E+00  0.00000000E+00
  0.00000000E+00  0.00000000E+00  0.00000000E+00
  0.00000000E+00  0.00000000E+00  0.00000000E+00
  0.00000000E+00  0.00000000E+00  0.00000000E+00
  0.00000000E+00  0.00000000E+00  0.00000000E+00
  0.00000000E+00  0.00000000E+00  0.00000000E+00
  0.00000000E+00  0.00000000E+00  0.00000000E+00
  0.00000000E+00  0.00000000E+00  0.00000000E+00
  0.00000000E+00  0.00000000E+00  0.00000000E+00
  0.00000000E+00  0.00000000E+00  0.00000000E+00
  0.00000000E+00  0.00000000E+00  0.00000000E+00
  0.00000000E+00  0.00000000E+00  0.00000000E+00
  0.00000000E+00  0.00000000E+00  0.00000000E+00
  0.00000000E+00  0.00000000E+00  0.00000000E+00
  0.00000000E+00  0.00000000E+00  0.00000000E+00
  0.00000000E+00  0.00000000E+00  0.00000000E+00
  0.00000000E+00  0.00000000E+00  0.00000000E+00
  0.00000000E+00  0.00000000E+00  0.00000000E+00
  0.00000000E+00  0.00000000E+00  0.00000000E+00
  0.00000000E+00  0.00000000E+00  0.00000000E+00
  0.00000000E+00  0.00000000E+00  0.00000000E+00
  0.00000000E+00  0.00000000E+00  0.00000000E+00
  0.00000000E+00  0.00000000E+00  0.00000000E+00
  0.00000000E+00  0.00000000E+00  0.00000000E+00
  0.00000000E+00  0.00000000E+00  0.00000000E+00
  0.00000000E+00  0.00000000E+00  0.00000000E+00
  0.00000000E+00  0.00000000E+00  0.00000000E+00
  0.00000000E+00  0.00000000E+00  0.00000000E+00
  0.00000000E+00  0.00000000E+00  0.00000000E+00
  0.00000000E+00  0.00000000E+00  0.00000000E+00
  0.00000000E+00  0.00000000E+00  0.00000000E+00
  0.00000000E+00  0.00000000E+00  0.00000000E+00
  0.00000000E+00  0.00000000E+00  0.00000000E+00
  0.00000000E+00  0.00000000E+00  0.00000000E+00
  0.00000000E+00  0.00000000E+00  0.00000000E+00
  0.00000000E+00  0.00000000E+00  0.00000000E+00
  0.00000000E+00  0.00000000E+00  0.00000000E+00
  0.00000000E+00  0.00000000E+00  0.00000000E+00
  0.00000000E+00  0.00000000E+00  0.00000000E+00
  0.00000000E+00  0.00000000E+00  0.00000000E+00
  0.00000000E+00  0.00000000E+00  0.00000000E+00
  0.00000000E+00  0.00000000E+00  0.00000000E+00
  0.00000000E+00  0.00000000E+00  0.00000000E+00
  0.00000000E+00  0.00000000E+00  0.00000000E+00
  0.00000000E+00  0.00000000E+00  0.00000000E+00
  0.00000000E+00  0.00000000E+00  0.00000000E+00
  0.00000000E+00  0.00000000E+00  0.00000000E+00
  0.00000000E+00  0.00000000E+00  0.00000000E+00
  0.00000000E+00  0.00000000E+00  0.00000000E+00
  0.00000000E+00  0.00000000E+00  0.00000000E+00
  0.00000000E+00  0.00000000E+00  0.00000000E+00
  0.00000000E+00  0.00000000E+00  0.00000000E+00
  0.00000000E+00  0.00000000E+00  0.00000000E+00
  0.00000000E+00  0.00000000E+00  0.00000000E+00
  0.00000000E+00  0.00000000E+00  0.00000000E+00
  0.00000000E+00  0.00000000E+00  0.00000000E+00
  0.00000000E+00  0.00000000E+00  0.00000000E+00
  0.00000000E+00  0.00000000E+00  0.00000000E+00
  0.00000000E+00  0.00000000E+00  0.00000000E+00
  0.00000000E+00  0.00000000E+00  0.00000000E+00
  0.00000000E+00  0.00000000E+00  0.00000000E+00
  0.00000000E+00  0.00000000E+00  0.00000000E+00
  0.00000000E+00  0.00000000E+00  0.00000000E+00
  0.00000000E+00  0.00000000E+00  0.00000000E+00
  0.00000000E+00  0.00000000E+00  0.00000000E+00
  0.00000000E+00  0.00000000E+00  0.00000000E+00
  0.00000000E+00  0.00000000E+00  0.00000000E+00
  0.00000000E+00  0.00000000E+00  0.00000000E+00
  0.00000000E+00  0.00000000E+00  0.00000000E+00
  0.00000000E+00  0.00000000E+00  0.00000000E+00
  0.00000000E+00  0.00000000E+00  0.00000000E+00
  0.00000000E+00  0.00000000E+00  0.00000000E+00
  0.00000000E+00  0.00000000E+00  0.00000000E+00
  0.00000000E+00  0.00000000E+00  0.00000000E+00
  0.00000000E+00  0.00000000E+00  0.00000000E+00
  0.00000000E+00  0.00000000E+00  0.00000000E+00
  0.00000000E+00  0.00000000E+00  0.00000000E+00
  0.00000000E+00  0.00000000E+00  0.00000000E+00
  0.00000000E+00  0.00000000E+00  0.00000000E+00
  0.00000000E+00  0.00000000E+00  0.00000000E+00
  0.00000000E+00  0.00000000E+00  0.00000000E+00
  0.00000000E+00  0.00000000E+00  0.00000000E+00
  0.00000000E+00  0.00000000E+00  0.00000000E+00
  0.00000000E+00  0.00000000E+00  0.00000000E+00
  0.00000000E+00  0.00000000E+00  0.00000000E+00
  0.00000000E+00  0.00000000E+00  0.00000000E+00
  0.00000000E+00  0.00000000E+00  0.00000000E+00
  0.00000000E+00  0.00000000E+00  0.00000000E+00
  0.00000000E+00  0.00000000E+00  0.00000000E+00
  0.00000000E+00  0.00000000E+00  0.00000000E+00
  0.00000000E+00  0.00000000E+00  0.00000000E+00
  0.00000000E+00  0.00000000E+00  0.00000000E+00
  0.00000000E+00  0.00000000E+00  0.00000000E+00
  0.00000000E+00  0.00000000E+00  0.00000000E+00
  0.00000000E+00  0.00000000E+00  0.00000000E+00
  0.00000000E+00  0.00000000E+00  0.00000000E+00
  0.00000000E+00  0.00000000E+00  0.00000000E+00
  0.00000000E+00  0.00000000E+00  0.00000000E+00
