C H O Si                                
   1.00000000000000     
     9.2874599999999994    0.0000000000000000    0.0000000000000000
     0.0000000000000000   17.5126199999999983    0.0000000000000000
     0.0000000000000000    0.0000000000000000   58.0000000000000000
   C    H    O    Si
    72    57    28    72
Selective dynamics
Direct
  0.9963515722740747  0.0651012511470675  0.0595708393573886   T   T   T
  0.3297710760231109  0.0652236583100065  0.0596232742580973   T   T   T
  0.6629630175606039  0.0651990180377114  0.0596338450885561   T   T   T
  0.9963203750706139  0.3151948095137876  0.0595756310980547   T   T   T
  0.3296578829915943  0.3151139278451641  0.0595754173945326   T   T   T
  0.6630677635301474  0.3150993472123941  0.0595923390686125   T   T   T
  0.1625980701438909  0.1879698475230422  0.1384211132846180   T   T   T
  0.4959091725265094  0.1882952094553072  0.1387094888056504   T   T   T
  0.8291456928664978  0.1880052494196212  0.1384350419271731   T   T   T
  0.1625421040997691  0.4381260029189504  0.1384984752672515   T   T   T
  0.4959089323326383  0.4375797030689766  0.1383697038684390   T   T   T
  0.8292275555792576  0.4380629823330163  0.1385548084875280   T   T   T
  0.3298257877739298  0.0633071723169929  0.1657381710392756   T   T   T
  0.6620438532102040  0.0634090012651900  0.1657776506598865   T   T   T
  0.9957543907956782  0.0626860753439320  0.1655104073154064   T   T   T
  0.3285916801188304  0.3132992052871068  0.1657002979265635   T   T   T
  0.6627593574873897  0.3132928776165536  0.1657457273075943   T   T   T
  0.9957641542940551  0.3131462097158235  0.1655549996940142   T   T   T
  0.1629380564382629  0.1892771246569191  0.1905946330234833   T   T   T
  0.4958388746937574  0.1924353798148636  0.1917088143894574   T   T   T
  0.8299282307473161  0.1895647831438191  0.1907046044837085   T   T   T
  0.1622977124950851  0.4404543312469029  0.1909677493764033   T   T   T
  0.4962701828785581  0.4418183107387648  0.1901295177487311   T   T   T
  0.8302938506337922  0.4404018111888114  0.1911055336695727   T   T   T
  0.1625308476361657  0.1880361304775382  0.0849062410333617   T   T   T
  0.4959221672076274  0.1880904118883950  0.0850592677395399   T   T   T
  0.8292785913667355  0.1880340338535368  0.0849216868989907   T   T   T
  0.1625401543379738  0.4380810302369907  0.0849435866111928   T   T   T
  0.4958762139787077  0.4380103482044554  0.0848484897613798   T   T   T
  0.8292291792031818  0.4381040970713770  0.0849683600207189   T   T   T
  0.3290989346961378  0.0630478163872647  0.1121819621750583   T   T   T
  0.6622238094453936  0.0630410413978598  0.1121933189166617   T   T   T
  0.9956832595637444  0.0629126859683568  0.1121124628057493   T   T   T
  0.3289657718200865  0.3129298560009825  0.1121372388035761   T   T   T
  0.6624155745375211  0.3129448970466273  0.1121427715275119   T   T   T
  0.9957252537786363  0.3130108594771471  0.1120892698087934   T   T   T
  0.9963878885533708  0.5652714835445283  0.0596074505585840   T   T   T
  0.3296709737181636  0.5652700671860754  0.0595972036432920   T   T   T
  0.6630862783253418  0.5652754448831683  0.0596073152159325   T   T   T
  0.9964078614876387  0.8152959512795687  0.0596139345620068   T   T   T
  0.3297752043380870  0.8151838654609472  0.0596264824612363   T   T   T
  0.6629998740932227  0.8151995210014304  0.0596181219326987   T   T   T
  0.1624895203430375  0.6881231374417665  0.1385194410190471   T   T   T
  0.4960007363968783  0.6878512433411068  0.1385792493503774   T   T   T
  0.8293263531908551  0.6880815245064983  0.1385279034832840   T   T   T
  0.1629695194326792  0.9380033190540839  0.1385393133034489   T   T   T
  0.4960426097884729  0.9379379951860414  0.1385455563562707   T   T   T
  0.8290311777099961  0.9380042512281318  0.1385458954395337   T   T   T
  0.3286768161494233  0.5631937749654534  0.1657035477783963   T   T   T
  0.6629645000955310  0.5630547671719613  0.1657896065139806   T   T   T
  0.9957329357165892  0.5632775955125261  0.1656803970035568   T   T   T
  0.3293197545562109  0.8130838829443527  0.1656950335879857   T   T   T
  0.6625664056343664  0.8130909567974705  0.1656998194379366   T   T   T
  0.9959167537445344  0.8131706050957558  0.1656986864481658   T   T   T
  0.1631944844287039  0.6902989964023131  0.1910314767710669   T   T   T
  0.4965650784585013  0.6902403405261023  0.1910736240953856   T   T   T
  0.8299825708821112  0.6903205675839985  0.1910445274900122   T   T   T
  0.1632591731604259  0.9403029625845405  0.1910304355563940   T   T   T
  0.4965091012955042  0.9402980297204950  0.1910670716788161   T   T   T
  0.8297478676083485  0.9403034202906794  0.1910514662882991   T   T   T
  0.1625632324951724  0.6881153455724723  0.0849765113438698   T   T   T
  0.4959473642402709  0.6880651865014129  0.0849913324510704   T   T   T
  0.8292782930871510  0.6881235311943286  0.0849851265684598   T   T   T
  0.1626263910193550  0.9381174568043439  0.0849832368968759   T   T   T
  0.4959060252945692  0.9380969240861639  0.0849920934870027   T   T   T
  0.8291651086730750  0.9381078001904635  0.0849877793288751   T   T   T
  0.3290034629358813  0.5629037112406893  0.1121508608379869   T   T   T
  0.6623114450636071  0.5628673217213818  0.1121824174687958   T   T   T
  0.9956234075936607  0.5629879152717027  0.1121524676823333   T   T   T
  0.3291057641330024  0.8129273166268554  0.1121638364348634   T   T   T
  0.6623082379637741  0.8129208024611099  0.1121597468862268   T   T   T
  0.9957085608874195  0.8131265730087832  0.1121598859246567   T   T   T
  0.0791379920390479  0.1791002897882589  0.0259443456745303   T   T   T
  0.4124091273804272  0.1792031854244188  0.0261105441889873   T   T   T
  0.7454091251776742  0.1790850975177478  0.0260071921109243   T   T   T
  0.0790053657026136  0.4291504329226909  0.0259715884237223   T   T   T
  0.4125828498863590  0.4289194407934010  0.0259001049813494   T   T   T
  0.7450876834139293  0.4289617293294718  0.0260470745603947   T   T   T
  0.3279062366128162  0.0288877614300297  0.0441269469977963   T   T   T
  0.6604682813124843  0.0288878207467375  0.0441340101178306   T   T   T
  0.9940700212948171  0.0288345229866558  0.0440622002424011   T   T   T
  0.3271797394876562  0.2787678468978539  0.0440837379621206   T   T   T
  0.6611954190215467  0.2787598104090419  0.0441008367979235   T   T   T
  0.9940774142720021  0.2789584112579711  0.0440599046505773   T   T   T
  0.8328098421619927  0.4039250751079803  0.2065525090560673   T   T   T
  0.8327458278277697  0.1534853177776426  0.2062503038688181   T   T   T
  0.1651413865346764  0.1536187251503002  0.2062301099024139   T   T   T
  0.4984258735883800  0.1558088004123500  0.2071396304150495   T   T   T
  0.1650635057849497  0.4038879322437716  0.2063910443468569   T   T   T
  0.5398495274988189  0.4643608313844690  0.2612705154073960   T   T   T
  0.0819417481890582  0.0549008041164132  0.2243528088284139   T   T   T
  0.4152720654794330  0.0548463895146528  0.2244763109511361   T   T   T
  0.7478570504686022  0.0549729798814758  0.2245784747489474   T   T   T
  0.0893850404541268  0.3029297108164875  0.2228917622708065   T   T   T
  0.3670356084406215  0.2843310245639483  0.2303306286457095   T   T   T
  0.7784796320173469  0.2984004648265366  0.2228840729025008   T   T   T
  0.4954173776418473  0.2707853885036523  0.2660007385318591   T   T   T
  0.4703648315608924  0.2280259227403317  0.3004475682400530   T   T   T
  0.5187154316719494  0.3124677688732817  0.3081523439823320   T   T   T
  0.2892369255010511  0.1365058937704796  0.2959496150951289   T   T   T
  0.4377079694905074  0.1079796065979478  0.2874611388694884   T   T   T
  0.6377809794008653  0.3857717050667402  0.3348342009457935   T   T   T
  0.5035659387184417  0.4319938842831317  0.3272480837587160   T   T   T
  0.5042443005310400  0.4387555933753040  0.2699553388718515   T   T   T
  0.5655320413415225  0.2683900826765576  0.2407155219369229   T   T   T
  0.0788950980990117  0.6791955004081132  0.0260165603891963   T   T   T
  0.4122631346533948  0.6791719716568052  0.0260405841877154   T   T   T
  0.7454969811643527  0.6791382874379920  0.0260318312711255   T   T   T
  0.0797367145328105  0.9291248563108792  0.0259648064566781   T   T   T
  0.4120964202355908  0.9290115682432633  0.0260237610618768   T   T   T
  0.7452490050727666  0.9290039167283841  0.0260337037267823   T   T   T
  0.3275231982256299  0.5290415000656122  0.0440752911289129   T   T   T
  0.6608668870754129  0.5290310567561823  0.0440905302617369   T   T   T
  0.9941463368694949  0.5290271598192106  0.0440925816656638   T   T   T
  0.3275680999239439  0.7789173909325432  0.0441153766424021   T   T   T
  0.6607664935168344  0.7789190800989756  0.0441100941867724   T   T   T
  0.9941679182361816  0.7789935834696493  0.0441049206593732   T   T   T
  0.8321808835504724  0.9040796488537680  0.2065716649362488   T   T   T
  0.8320852563751324  0.6538043159527194  0.2065053995903475   T   T   T
  0.1659612023505927  0.6537872792755334  0.2064899568688700   T   T   T
  0.4986864673997428  0.6537494835638670  0.2065473729952528   T   T   T
  0.1655488386565907  0.9040623957780539  0.2065505064681998   T   T   T
  0.4990280984635034  0.9039791439150024  0.2065693019292618   T   T   T
  0.0849600689107847  0.5535874859009772  0.2242862131662890   T   T   T
  0.4167798768486468  0.5508521445188421  0.2246378197860256   T   T   T
  0.7520204214280286  0.5535042559435897  0.2242258293399141   T   T   T
  0.0822089758015740  0.8039408876868297  0.2245601908156287   T   T   T
  0.4146611608802027  0.8041297829067383  0.2246367601503420   T   T   T
  0.7501261372951116  0.8035771905436674  0.2244876094631103   T   T   T
  0.1724036765967326  0.1687313414910487  0.0330742268806939   T   T   T
  0.5057281008874792  0.1690198619498963  0.0332500789319019   T   T   T
  0.8388735433800031  0.1687127834173239  0.0330791937924958   T   T   T
  0.1723319000324115  0.4187745979010860  0.0330801836997954   T   T   T
  0.5059112002216553  0.4186780748155528  0.0330257770765913   T   T   T
  0.8386279422757036  0.4188009816409200  0.0331135460590949   T   T   T
  0.3215955924781227  0.0438864569811665  0.2175545575957548   T   T   T
  0.6545638318151298  0.0438226773994880  0.2175622306766346   T   T   T
  0.9883020777075150  0.0438320847407052  0.2174425419965324   T   T   T
  0.3050537439280240  0.2989919141959393  0.2168044108708905   T   T   T
  0.6776776311176455  0.2939639105044160  0.2178987408410179   T   T   T
  0.9913033019121190  0.2925444211672275  0.2172393771172117   T   T   T
  0.5246027787684753  0.2739846407257192  0.2956356560897746   T   T   T
  0.3899103227723251  0.1321604970083095  0.3005243008346694   T   T   T
  0.5360756227790832  0.3805322209041814  0.3310075394786757   T   T   T
  0.4798496030030954  0.2533216836317813  0.2498832974675967   T   T   T
  0.1722817757209328  0.6687815730005930  0.0331017380566933   T   T   T
  0.5056454032795932  0.6687879644111568  0.0331307010092695   T   T   T
  0.8389224886639347  0.6688149131737015  0.0331181963409932   T   T   T
  0.1728808209773473  0.9188260273012453  0.0331458860379655   T   T   T
  0.5054821466219755  0.9187883371503315  0.0331357570717785   T   T   T
  0.8386631111414614  0.9188323903442678  0.0331423646828150   T   T   T
  0.3223607879782203  0.5444533256309733  0.2174618984321194   T   T   T
  0.6566917631469281  0.5444660801202602  0.2176434340010047   T   T   T
  0.9900399356796807  0.5443487964124528  0.2175569827699571   T   T   T
  0.3213306457268477  0.7938628623391920  0.2175129830770502   T   T   T
  0.6560192471598195  0.7941687709704169  0.2175068132594182   T   T   T
  0.9884360655588222  0.7938833455604248  0.2175517456945643   T   T   T
  0.4965133048082695  0.1238966517573608  0.0589342205400338   T   T   T
  0.8298262593221696  0.1238110729265319  0.0588143741658483   T   T   T
  0.1631634291241104  0.3738527630557699  0.0588214880571845   T   T   T
  0.4965150509382741  0.3737724723119994  0.0587789114334309   T   T   T
  0.8297743892779518  0.3738443807300849  0.0588494884803215   T   T   T
  0.1631372716070814  0.1238084127532425  0.0588027681165154   T   T   T
  0.9959478814676340  0.0002696001701719  0.1387383294240115   T   T   T
  0.3297525879010507  0.0006318624973472  0.1388541535511086   T   T   T
  0.6622989395117286  0.0006616999442638  0.1388662015866380   T   T   T
  0.9959444373741736  0.2505460669744874  0.1387369392447557   T   T   T
  0.3291626911957451  0.2509110158680473  0.1389259894014108   T   T   T
  0.6626037460473924  0.2508984878394022  0.1389089166207738   T   T   T
  0.1625860014105873  0.1249142427487893  0.1649451357730219   T   T   T
  0.4957931384327275  0.1265030209745679  0.1655488219332711   T   T   T
  0.8294093314159888  0.1250010445118096  0.1649664436595868   T   T   T
  0.1626871389118491  0.3755614963605579  0.1651485556521514   T   T   T
  0.4956836600531618  0.3759549044446016  0.1657889654882146   T   T   T
  0.8291398992216025  0.3755298439747065  0.1652234566895350   T   T   T
  0.3318714959252385  0.4970573044072671  0.1919733618479535   T   T   T
  0.6605050969681745  0.4969920273951820  0.1921596578726162   T   T   T
  0.9963568351888370  0.4989860762835794  0.1918001898660339   T   T   T
  0.3267917800959678  0.2508126216943704  0.1921281275068230   T   T   T
  0.9966900158077221  0.2479327895829562  0.1913859106921916   T   T   T
  0.6649491886259191  0.2497637002333947  0.1919075842993157   T   T   T
  0.9959608585928632  0.0002494728718833  0.0855188074494724   T   T   T
  0.3293685149554676  0.0003301363257860  0.0855650547299092   T   T   T
  0.6625766927331808  0.0003127498874080  0.0855717110873071   T   T   T
  0.9959934948820118  0.2502976154945112  0.0855084646781706   T   T   T
  0.3292809594122412  0.2503217635167297  0.0855570768101781   T   T   T
  0.6627171504903866  0.2503130484587369  0.0855680584324940   T   T   T
  0.1624334722529021  0.1255597368653941  0.1118429795521250   T   T   T
  0.4957452717052160  0.1257127322473762  0.1120375656132155   T   T   T
  0.8290737972774402  0.1255523302848536  0.1118515754990954   T   T   T
  0.1625442574178445  0.3755886986351518  0.1119077724041756   T   T   T
  0.4957420150268249  0.3755402013888051  0.1118734801737851   T   T   T
  0.8290407124707253  0.3755922267798484  0.1119332050524500   T   T   T
  0.4965140665934372  0.6238382570617856  0.0588607265071263   T   T   T
  0.8298483389249443  0.6238794612104592  0.0588536002879872   T   T   T
  0.1633001986745592  0.8738443776268694  0.0588550262026136   T   T   T
  0.4965014781052349  0.8738435311123527  0.0588553945025395   T   T   T
  0.8297535569079616  0.8738471906228317  0.0588547167599250   T   T   T
  0.1631798716996183  0.6238737068994598  0.0588432627241557   T   T   T
  0.9958850484344750  0.5004875641549654  0.1388504323475083   T   T   T
  0.3298321330826991  0.5003417620375409  0.1389141831561859   T   T   T
  0.6619755613409610  0.5003134881704552  0.1389682152925543   T   T   T
  0.9959241094971294  0.7504621415405427  0.1388020297640782   T   T   T
  0.3294516904224906  0.7502740333097214  0.1388238273593422   T   T   T
  0.6625117209579655  0.7502963814621941  0.1388232316202694   T   T   T
  0.1628207410780080  0.6250710946700876  0.1651428496351829   T   T   T
  0.4960021551031674  0.6245775137792614  0.1652379551116121   T   T   T
  0.8289571498931890  0.6250331675814705  0.1651737323287927   T   T   T
  0.1628228559268528  0.8752049245754481  0.1651492921544981   T   T   T
  0.4960562078198645  0.8752086679967817  0.1651692393299897   T   T   T
  0.8292542552432104  0.8752259252418872  0.1651601026116910   T   T   T
  0.3297811689939764  0.9989789314036737  0.1918297354617797   T   T   T
  0.6630465555804061  0.9989813692227182  0.1918409853098744   T   T   T
  0.9963876678318859  0.9988877531717445  0.1917194687151573   T   T   T
  0.3298948466886728  0.7486604229885853  0.1918104702900008   T   T   T
  0.9965133286598821  0.7487483583447868  0.1918234081655764   T   T   T
  0.6631247630203818  0.7486991801575743  0.1918287227048167   T   T   T
  0.9959650356463441  0.5002703645427543  0.0855493401425847   T   T   T
  0.3293737393670464  0.5002507589725279  0.0855391565069852   T   T   T
  0.6625221538325248  0.5002485222844978  0.0855550760205021   T   T   T
  0.9960317464757915  0.7502869011959601  0.0855535918167587   T   T   T
  0.3293898038956853  0.7502004569664302  0.0855548649761795   T   T   T
  0.6626446766908477  0.7502049535173173  0.0855518032929638   T   T   T
  0.1625044438316456  0.6253959181950020  0.1119097529223659   T   T   T
  0.4957844869306557  0.6253212603591372  0.1119327712583401   T   T   T
  0.8289725988438343  0.6253788593212720  0.1119193499471450   T   T   T
  0.1626520726932838  0.8754853902406242  0.1118968800548082   T   T   T
  0.4958280284422690  0.8754233934124599  0.1118972664127449   T   T   T
  0.8289426531450522  0.8754799171081614  0.1118966657769740   T   T   T
 
  0.00000000E+00  0.00000000E+00  0.00000000E+00
  0.00000000E+00  0.00000000E+00  0.00000000E+00
  0.00000000E+00  0.00000000E+00  0.00000000E+00
  0.00000000E+00  0.00000000E+00  0.00000000E+00
  0.00000000E+00  0.00000000E+00  0.00000000E+00
  0.00000000E+00  0.00000000E+00  0.00000000E+00
  0.00000000E+00  0.00000000E+00  0.00000000E+00
  0.00000000E+00  0.00000000E+00  0.00000000E+00
  0.00000000E+00  0.00000000E+00  0.00000000E+00
  0.00000000E+00  0.00000000E+00  0.00000000E+00
  0.00000000E+00  0.00000000E+00  0.00000000E+00
  0.00000000E+00  0.00000000E+00  0.00000000E+00
  0.00000000E+00  0.00000000E+00  0.00000000E+00
  0.00000000E+00  0.00000000E+00  0.00000000E+00
  0.00000000E+00  0.00000000E+00  0.00000000E+00
  0.00000000E+00  0.00000000E+00  0.00000000E+00
  0.00000000E+00  0.00000000E+00  0.00000000E+00
  0.00000000E+00  0.00000000E+00  0.00000000E+00
  0.00000000E+00  0.00000000E+00  0.00000000E+00
  0.00000000E+00  0.00000000E+00  0.00000000E+00
  0.00000000E+00  0.00000000E+00  0.00000000E+00
  0.00000000E+00  0.00000000E+00  0.00000000E+00
  0.00000000E+00  0.00000000E+00  0.00000000E+00
  0.00000000E+00  0.00000000E+00  0.00000000E+00
  0.00000000E+00  0.00000000E+00  0.00000000E+00
  0.00000000E+00  0.00000000E+00  0.00000000E+00
  0.00000000E+00  0.00000000E+00  0.00000000E+00
  0.00000000E+00  0.00000000E+00  0.00000000E+00
  0.00000000E+00  0.00000000E+00  0.00000000E+00
  0.00000000E+00  0.00000000E+00  0.00000000E+00
  0.00000000E+00  0.00000000E+00  0.00000000E+00
  0.00000000E+00  0.00000000E+00  0.00000000E+00
  0.00000000E+00  0.00000000E+00  0.00000000E+00
  0.00000000E+00  0.00000000E+00  0.00000000E+00
  0.00000000E+00  0.00000000E+00  0.00000000E+00
  0.00000000E+00  0.00000000E+00  0.00000000E+00
  0.00000000E+00  0.00000000E+00  0.00000000E+00
  0.00000000E+00  0.00000000E+00  0.00000000E+00
  0.00000000E+00  0.00000000E+00  0.00000000E+00
  0.00000000E+00  0.00000000E+00  0.00000000E+00
  0.00000000E+00  0.00000000E+00  0.00000000E+00
  0.00000000E+00  0.00000000E+00  0.00000000E+00
  0.00000000E+00  0.00000000E+00  0.00000000E+00
  0.00000000E+00  0.00000000E+00  0.00000000E+00
  0.00000000E+00  0.00000000E+00  0.00000000E+00
  0.00000000E+00  0.00000000E+00  0.00000000E+00
  0.00000000E+00  0.00000000E+00  0.00000000E+00
  0.00000000E+00  0.00000000E+00  0.00000000E+00
  0.00000000E+00  0.00000000E+00  0.00000000E+00
  0.00000000E+00  0.00000000E+00  0.00000000E+00
  0.00000000E+00  0.00000000E+00  0.00000000E+00
  0.00000000E+00  0.00000000E+00  0.00000000E+00
  0.00000000E+00  0.00000000E+00  0.00000000E+00
  0.00000000E+00  0.00000000E+00  0.00000000E+00
  0.00000000E+00  0.00000000E+00  0.00000000E+00
  0.00000000E+00  0.00000000E+00  0.00000000E+00
  0.00000000E+00  0.00000000E+00  0.00000000E+00
  0.00000000E+00  0.00000000E+00  0.00000000E+00
  0.00000000E+00  0.00000000E+00  0.00000000E+00
  0.00000000E+00  0.00000000E+00  0.00000000E+00
  0.00000000E+00  0.00000000E+00  0.00000000E+00
  0.00000000E+00  0.00000000E+00  0.00000000E+00
  0.00000000E+00  0.00000000E+00  0.00000000E+00
  0.00000000E+00  0.00000000E+00  0.00000000E+00
  0.00000000E+00  0.00000000E+00  0.00000000E+00
  0.00000000E+00  0.00000000E+00  0.00000000E+00
  0.00000000E+00  0.00000000E+00  0.00000000E+00
  0.00000000E+00  0.00000000E+00  0.00000000E+00
  0.00000000E+00  0.00000000E+00  0.00000000E+00
  0.00000000E+00  0.00000000E+00  0.00000000E+00
  0.00000000E+00  0.00000000E+00  0.00000000E+00
  0.00000000E+00  0.00000000E+00  0.00000000E+00
  0.00000000E+00  0.00000000E+00  0.00000000E+00
  0.00000000E+00  0.00000000E+00  0.00000000E+00
  0.00000000E+00  0.00000000E+00  0.00000000E+00
  0.00000000E+00  0.00000000E+00  0.00000000E+00
  0.00000000E+00  0.00000000E+00  0.00000000E+00
  0.00000000E+00  0.00000000E+00  0.00000000E+00
  0.00000000E+00  0.00000000E+00  0.00000000E+00
  0.00000000E+00  0.00000000E+00  0.00000000E+00
  0.00000000E+00  0.00000000E+00  0.00000000E+00
  0.00000000E+00  0.00000000E+00  0.00000000E+00
  0.00000000E+00  0.00000000E+00  0.00000000E+00
  0.00000000E+00  0.00000000E+00  0.00000000E+00
  0.00000000E+00  0.00000000E+00  0.00000000E+00
  0.00000000E+00  0.00000000E+00  0.00000000E+00
  0.00000000E+00  0.00000000E+00  0.00000000E+00
  0.00000000E+00  0.00000000E+00  0.00000000E+00
  0.00000000E+00  0.00000000E+00  0.00000000E+00
  0.00000000E+00  0.00000000E+00  0.00000000E+00
  0.00000000E+00  0.00000000E+00  0.00000000E+00
  0.00000000E+00  0.00000000E+00  0.00000000E+00
  0.00000000E+00  0.00000000E+00  0.00000000E+00
  0.00000000E+00  0.00000000E+00  0.00000000E+00
  0.00000000E+00  0.00000000E+00  0.00000000E+00
  0.00000000E+00  0.00000000E+00  0.00000000E+00
  0.00000000E+00  0.00000000E+00  0.00000000E+00
  0.00000000E+00  0.00000000E+00  0.00000000E+00
  0.00000000E+00  0.00000000E+00  0.00000000E+00
  0.00000000E+00  0.00000000E+00  0.00000000E+00
  0.00000000E+00  0.00000000E+00  0.00000000E+00
  0.00000000E+00  0.00000000E+00  0.00000000E+00
  0.00000000E+00  0.00000000E+00  0.00000000E+00
  0.00000000E+00  0.00000000E+00  0.00000000E+00
  0.00000000E+00  0.00000000E+00  0.00000000E+00
  0.00000000E+00  0.00000000E+00  0.00000000E+00
  0.00000000E+00  0.00000000E+00  0.00000000E+00
  0.00000000E+00  0.00000000E+00  0.00000000E+00
  0.00000000E+00  0.00000000E+00  0.00000000E+00
  0.00000000E+00  0.00000000E+00  0.00000000E+00
  0.00000000E+00  0.00000000E+00  0.00000000E+00
  0.00000000E+00  0.00000000E+00  0.00000000E+00
  0.00000000E+00  0.00000000E+00  0.00000000E+00
  0.00000000E+00  0.00000000E+00  0.00000000E+00
  0.00000000E+00  0.00000000E+00  0.00000000E+00
  0.00000000E+00  0.00000000E+00  0.00000000E+00
  0.00000000E+00  0.00000000E+00  0.00000000E+00
  0.00000000E+00  0.00000000E+00  0.00000000E+00
  0.00000000E+00  0.00000000E+00  0.00000000E+00
  0.00000000E+00  0.00000000E+00  0.00000000E+00
  0.00000000E+00  0.00000000E+00  0.00000000E+00
  0.00000000E+00  0.00000000E+00  0.00000000E+00
  0.00000000E+00  0.00000000E+00  0.00000000E+00
  0.00000000E+00  0.00000000E+00  0.00000000E+00
  0.00000000E+00  0.00000000E+00  0.00000000E+00
  0.00000000E+00  0.00000000E+00  0.00000000E+00
  0.00000000E+00  0.00000000E+00  0.00000000E+00
  0.00000000E+00  0.00000000E+00  0.00000000E+00
  0.00000000E+00  0.00000000E+00  0.00000000E+00
  0.00000000E+00  0.00000000E+00  0.00000000E+00
  0.00000000E+00  0.00000000E+00  0.00000000E+00
  0.00000000E+00  0.00000000E+00  0.00000000E+00
  0.00000000E+00  0.00000000E+00  0.00000000E+00
  0.00000000E+00  0.00000000E+00  0.00000000E+00
  0.00000000E+00  0.00000000E+00  0.00000000E+00
  0.00000000E+00  0.00000000E+00  0.00000000E+00
  0.00000000E+00  0.00000000E+00  0.00000000E+00
  0.00000000E+00  0.00000000E+00  0.00000000E+00
  0.00000000E+00  0.00000000E+00  0.00000000E+00
  0.00000000E+00  0.00000000E+00  0.00000000E+00
  0.00000000E+00  0.00000000E+00  0.00000000E+00
  0.00000000E+00  0.00000000E+00  0.00000000E+00
  0.00000000E+00  0.00000000E+00  0.00000000E+00
  0.00000000E+00  0.00000000E+00  0.00000000E+00
  0.00000000E+00  0.00000000E+00  0.00000000E+00
  0.00000000E+00  0.00000000E+00  0.00000000E+00
  0.00000000E+00  0.00000000E+00  0.00000000E+00
  0.00000000E+00  0.00000000E+00  0.00000000E+00
  0.00000000E+00  0.00000000E+00  0.00000000E+00
  0.00000000E+00  0.00000000E+00  0.00000000E+00
  0.00000000E+00  0.00000000E+00  0.00000000E+00
  0.00000000E+00  0.00000000E+00  0.00000000E+00
  0.00000000E+00  0.00000000E+00  0.00000000E+00
  0.00000000E+00  0.00000000E+00  0.00000000E+00
  0.00000000E+00  0.00000000E+00  0.00000000E+00
  0.00000000E+00  0.00000000E+00  0.00000000E+00
  0.00000000E+00  0.00000000E+00  0.00000000E+00
  0.00000000E+00  0.00000000E+00  0.00000000E+00
  0.00000000E+00  0.00000000E+00  0.00000000E+00
  0.00000000E+00  0.00000000E+00  0.00000000E+00
  0.00000000E+00  0.00000000E+00  0.00000000E+00
  0.00000000E+00  0.00000000E+00  0.00000000E+00
  0.00000000E+00  0.00000000E+00  0.00000000E+00
  0.00000000E+00  0.00000000E+00  0.00000000E+00
  0.00000000E+00  0.00000000E+00  0.00000000E+00
  0.00000000E+00  0.00000000E+00  0.00000000E+00
  0.00000000E+00  0.00000000E+00  0.00000000E+00
  0.00000000E+00  0.00000000E+00  0.00000000E+00
  0.00000000E+00  0.00000000E+00  0.00000000E+00
  0.00000000E+00  0.00000000E+00  0.00000000E+00
  0.00000000E+00  0.00000000E+00  0.00000000E+00
  0.00000000E+00  0.00000000E+00  0.00000000E+00
  0.00000000E+00  0.00000000E+00  0.00000000E+00
  0.00000000E+00  0.00000000E+00  0.00000000E+00
  0.00000000E+00  0.00000000E+00  0.00000000E+00
  0.00000000E+00  0.00000000E+00  0.00000000E+00
  0.00000000E+00  0.00000000E+00  0.00000000E+00
  0.00000000E+00  0.00000000E+00  0.00000000E+00
  0.00000000E+00  0.00000000E+00  0.00000000E+00
  0.00000000E+00  0.00000000E+00  0.00000000E+00
  0.00000000E+00  0.00000000E+00  0.00000000E+00
  0.00000000E+00  0.00000000E+00  0.00000000E+00
  0.00000000E+00  0.00000000E+00  0.00000000E+00
  0.00000000E+00  0.00000000E+00  0.00000000E+00
  0.00000000E+00  0.00000000E+00  0.00000000E+00
  0.00000000E+00  0.00000000E+00  0.00000000E+00
  0.00000000E+00  0.00000000E+00  0.00000000E+00
  0.00000000E+00  0.00000000E+00  0.00000000E+00
  0.00000000E+00  0.00000000E+00  0.00000000E+00
  0.00000000E+00  0.00000000E+00  0.00000000E+00
  0.00000000E+00  0.00000000E+00  0.00000000E+00
  0.00000000E+00  0.00000000E+00  0.00000000E+00
  0.00000000E+00  0.00000000E+00  0.00000000E+00
  0.00000000E+00  0.00000000E+00  0.00000000E+00
  0.00000000E+00  0.00000000E+00  0.00000000E+00
  0.00000000E+00  0.00000000E+00  0.00000000E+00
  0.00000000E+00  0.00000000E+00  0.00000000E+00
  0.00000000E+00  0.00000000E+00  0.00000000E+00
  0.00000000E+00  0.00000000E+00  0.00000000E+00
  0.00000000E+00  0.00000000E+00  0.00000000E+00
  0.00000000E+00  0.00000000E+00  0.00000000E+00
  0.00000000E+00  0.00000000E+00  0.00000000E+00
  0.00000000E+00  0.00000000E+00  0.00000000E+00
  0.00000000E+00  0.00000000E+00  0.00000000E+00
  0.00000000E+00  0.00000000E+00  0.00000000E+00
  0.00000000E+00  0.00000000E+00  0.00000000E+00
  0.00000000E+00  0.00000000E+00  0.00000000E+00
  0.00000000E+00  0.00000000E+00  0.00000000E+00
  0.00000000E+00  0.00000000E+00  0.00000000E+00
  0.00000000E+00  0.00000000E+00  0.00000000E+00
  0.00000000E+00  0.00000000E+00  0.00000000E+00
  0.00000000E+00  0.00000000E+00  0.00000000E+00
  0.00000000E+00  0.00000000E+00  0.00000000E+00
  0.00000000E+00  0.00000000E+00  0.00000000E+00
  0.00000000E+00  0.00000000E+00  0.00000000E+00
  0.00000000E+00  0.00000000E+00  0.00000000E+00
  0.00000000E+00  0.00000000E+00  0.00000000E+00
  0.00000000E+00  0.00000000E+00  0.00000000E+00
  0.00000000E+00  0.00000000E+00  0.00000000E+00
  0.00000000E+00  0.00000000E+00  0.00000000E+00
  0.00000000E+00  0.00000000E+00  0.00000000E+00
  0.00000000E+00  0.00000000E+00  0.00000000E+00
  0.00000000E+00  0.00000000E+00  0.00000000E+00
  0.00000000E+00  0.00000000E+00  0.00000000E+00
  0.00000000E+00  0.00000000E+00  0.00000000E+00
  0.00000000E+00  0.00000000E+00  0.00000000E+00
  0.00000000E+00  0.00000000E+00  0.00000000E+00
  0.00000000E+00  0.00000000E+00  0.00000000E+00
  0.00000000E+00  0.00000000E+00  0.00000000E+00
