C H O Si                                
   1.00000000000000     
     9.2874599999999994    0.0000000000000000    0.0000000000000000
     0.0000000000000000    8.7562999999999995    0.0000000000000000
     0.0000000000000000    0.0000000000000000   58.0000000000000000
   C    H    O    Si
    36    33    16    36
Selective dynamics
Direct
  0.0012196357591844  0.1352464472987963  0.3755401298181189   T   T   T
  0.0012136640507743  0.6353874459030519  0.3755578002694520   T   T   T
  0.3345546771483900  0.1353135386474294  0.3756483856967197   T   T   T
  0.3345382566335985  0.6351934600240572  0.3756684848408799   T   T   T
  0.6676723296925573  0.1351855524687270  0.3756502847504807   T   T   T
  0.6677471624051021  0.6350990488469710  0.3756482616053679   T   T   T
  0.1681424238863333  0.3812217255656936  0.4009667812302536   T   T   T
  0.1682012831912770  0.8812583737987426  0.4009928310741696   T   T   T
  0.5014845675911355  0.3812542286878247  0.4011091982200556   T   T   T
  0.5014398476141844  0.8811651399506150  0.4010426087877801   T   T   T
  0.8348653891683065  0.3811364259299090  0.4009179106992434   T   T   T
  0.8347742089174761  0.8811887843600466  0.4009562828435381   T   T   T
  0.0015884406600142  0.1309151808078932  0.4280805849914051   T   T   T
  0.0015833942621822  0.6311717876819453  0.4280970839623593   T   T   T
  0.3350169574077279  0.1311063455065171  0.4282060348994286   T   T   T
  0.3349402263761759  0.6309782504456045  0.4282362093476682   T   T   T
  0.6680566495803384  0.1310502300593512  0.4281835932854136   T   T   T
  0.6681562873572990  0.6310303077677732  0.4281728550220796   T   T   T
  0.1683389645036439  0.3809608247506870  0.4544833175534576   T   T   T
  0.1686433162481842  0.8810369891424235  0.4545425602837387   T   T   T
  0.5015482664962976  0.3813675943494042  0.4547456351741780   T   T   T
  0.5016573974795240  0.8807449803348282  0.4546070408616593   T   T   T
  0.8349543248495920  0.3808701638887285  0.4544013473006070   T   T   T
  0.8348136907993345  0.8810787851273479  0.4545001836036253   T   T   T
  0.0017953025845797  0.1304031591194351  0.4814874738329933   T   T   T
  0.0017154354112716  0.6311824067406987  0.4815852517798092   T   T   T
  0.3355352228959660  0.1316596232372743  0.4817894689740053   T   T   T
  0.3348288879391694  0.6312025823252770  0.4818802517293764   T   T   T
  0.6675783101522825  0.1315505634431427  0.4817548267679270   T   T   T
  0.6685113072465442  0.6314027008761560  0.4817411063950898   T   T   T
  0.1680803616435913  0.3833636711588275  0.5068047488329991   T   T   T
  0.1675864532790219  0.8856073026877496  0.5070648524314542   T   T   T
  0.5017998958006307  0.3890114612023893  0.5078735690589976   T   T   T
  0.5011973152168719  0.8850427822205125  0.5071592853912499   T   T   T
  0.8357658991136587  0.3826849136083212  0.5066018087080789   T   T   T
  0.8347889420593138  0.8855515432126133  0.5069958259737192   T   T   T
  0.0042624960919367  0.0625725030240555  0.3600413493044827   T   T   T
  0.0041902930419867  0.5627430525879578  0.3600571546046425   T   T   T
  0.3376866743953816  0.0625881486375984  0.3601699573857109   T   T   T
  0.3374706151488366  0.5623574952404505  0.3601965076392989   T   T   T
  0.6700856086316342  0.0624316914716786  0.3601574748195426   T   T   T
  0.6704368180200725  0.5624126534029508  0.3601580105394954   T   T   T
  0.1698302586667797  0.3112654880168128  0.5223536138976030   T   T   T
  0.1699360179473556  0.8126831049769581  0.5225251777470257   T   T   T
  0.5052580720223709  0.3151485621103428  0.5232367965235611   T   T   T
  0.5022484993272277  0.8124492841730691  0.5226641624065356   T   T   T
  0.8385824772083931  0.3105278041658764  0.5221440605991930   T   T   T
  0.8371885235481239  0.8134829358829109  0.5225262814612592   T   T   T
  0.0857978978646249  0.1167540100221429  0.5401014459522414   T   T   T
  0.0869032133888342  0.6107922539891862  0.5397249178403457   T   T   T
  0.4190140099775629  0.1175172524770049  0.5402014886937255   T   T   T
  0.3825511508959140  0.6338673002830634  0.5434470178059380   T   T   T
  0.7544276089801842  0.1157891107605858  0.5401078186455718   T   T   T
  0.7900466063559114  0.5991856451644436  0.5381522580143064   T   T   T
  0.2542203193799871  0.3656361978097277  0.3425504260955063   T   T   T
  0.2544099194226094  0.8655729745692923  0.3425806290657562   T   T   T
  0.5868528540445577  0.3658239059618145  0.3426229532156449   T   T   T
  0.5867068086306571  0.8656845229752107  0.3425658362205175   T   T   T
  0.9185683663232245  0.3664019850000715  0.3423809236596687   T   T   T
  0.9185319325407966  0.8665178795857666  0.3424176380717832   T   T   T
  0.5435770827466234  0.6154150790999094  0.5876948138811395   T   T   T
  0.4877253055983892  0.4759571935009537  0.6065722600902952   T   T   T
  0.5669373319854600  0.6399089468222438  0.6167556807693425   T   T   T
  0.3084144050932055  0.3826658686066743  0.6220946216761660   T   T   T
  0.4236498463132914  0.2589802815120575  0.6159201075876769   T   T   T
  0.6467316786952043  0.7349716363355926  0.6468281441295254   T   T   T
  0.4823360850946905  0.7669337887312022  0.6435109592608483   T   T   T
  0.5273412954764837  0.8040836244807334  0.5671758608994958   T   T   T
  0.5921081316673321  0.6600591979070465  0.5533137338966635   T   T   T
  0.1597312076709037  0.3423401863793021  0.3490740160704659   T   T   T
  0.1598855551466891  0.8424183709634274  0.3491046207666220   T   T   T
  0.4924943416775439  0.3427853739297578  0.3492184268566949   T   T   T
  0.4923939973928310  0.8423649846984732  0.3491551408556495   T   T   T
  0.8247483600018211  0.3418313306047514  0.3490284546638626   T   T   T
  0.8247046570232216  0.8421085694171931  0.3490749082544645   T   T   T
  0.9918003056036059  0.0930472154356309  0.5334389317270073   T   T   T
  0.9913454857942647  0.5889445575102166  0.5332942386884800   T   T   T
  0.3251808983667224  0.0923401800384253  0.5336172635215345   T   T   T
  0.3055238041519200  0.5921477679734611  0.5336570528657019   T   T   T
  0.6599040641619597  0.0926602758220446  0.5335732856270933   T   T   T
  0.6876162893987992  0.5924538554117462  0.5336348575415865   T   T   T
  0.5651202569884239  0.5602287137251331  0.6033047635743606   T   T   T
  0.3795266929099365  0.3535624277813678  0.6105065975293611   T   T   T
  0.5734911082366372  0.7577466336052570  0.6352575698938754   T   T   T
  0.5172840689966605  0.6939378596978621  0.5651141413352817   T   T   T
  0.1677489809092261  0.2526235303490305  0.3749548621444885   T   T   T
  0.1678204871735911  0.7526403504651026  0.3749812113697807   T   T   T
  0.5009702557428279  0.2526959990221722  0.3750737311862461   T   T   T
  0.5009701635225347  0.7525288479771424  0.3750320536804899   T   T   T
  0.8342232777495235  0.2524035281460569  0.3749274613964936   T   T   T
  0.8341871966628840  0.7524898388564606  0.3749593547840117   T   T   T
  0.0014673505655072  0.0052685892213937  0.4015479303373520   T   T   T
  0.0014831275015630  0.5053426466908262  0.4015546639025273   T   T   T
  0.3348290293217366  0.0053819895871259  0.4016491843634645   T   T   T
  0.3347826954258634  0.5053233178114832  0.4016790948700825   T   T   T
  0.6680081885461225  0.0052682288134897  0.4016354906862477   T   T   T
  0.6681305660163883  0.5052032245672193  0.4016350076640145   T   T   T
  0.1682668480250444  0.2558284864622714  0.4278890904869591   T   T   T
  0.1684311225224034  0.7558939640881289  0.4279306764373875   T   T   T
  0.5015216862354319  0.2559795819671469  0.4280536072929234   T   T   T
  0.5015127478666895  0.7557822558685439  0.4279644421682959   T   T   T
  0.8348867275948002  0.2556788702283960  0.4278282014777527   T   T   T
  0.8348016470078371  0.7558587249614978  0.4278921986157601   T   T   T
  0.0018046555624373  0.0053448457156456  0.4546378967913812   T   T   T
  0.0016794751803961  0.5057194991001263  0.4546371924031298   T   T   T
  0.3353624269503901  0.0059829612779000  0.4548009594490240   T   T   T
  0.3347830947600626  0.5059414556918380  0.4548677747816384   T   T   T
  0.6679076557668980  0.0058830273308261  0.4547773919021521   T   T   T
  0.6683825754307087  0.5057742806467075  0.4547455555356664   T   T   T
  0.1682421412418612  0.2545322473402045  0.4809040085218856   T   T   T
  0.1682494809850218  0.7555777725071343  0.4810801157542686   T   T   T
  0.5015358661566859  0.2570643068675785  0.4814288764061574   T   T   T
  0.5013805613294907  0.7551423040489248  0.4811364412268178   T   T   T
  0.8352285931566228  0.2538992029833282  0.4807556056644313   T   T   T
  0.8351956677807243  0.7556209854805762  0.4810227111240797   T   T   T
  0.0010114046778193  0.0029330949093843  0.5075805533992193   T   T   T
  0.0016805036930075  0.5004427967391440  0.5072467727702253   T   T   T
  0.3341116323344989  0.0027330426547032  0.5077339870242851   T   T   T
  0.3323383993803992  0.5040302919570384  0.5081049894848760   T   T   T
  0.6679612226981035  0.0026758318081793  0.5077154041969106   T   T   T
  0.6711893963856976  0.5019938579979888  0.5075036812745316   T   T   T
 
  0.00000000E+00  0.00000000E+00  0.00000000E+00
  0.00000000E+00  0.00000000E+00  0.00000000E+00
  0.00000000E+00  0.00000000E+00  0.00000000E+00
  0.00000000E+00  0.00000000E+00  0.00000000E+00
  0.00000000E+00  0.00000000E+00  0.00000000E+00
  0.00000000E+00  0.00000000E+00  0.00000000E+00
  0.00000000E+00  0.00000000E+00  0.00000000E+00
  0.00000000E+00  0.00000000E+00  0.00000000E+00
  0.00000000E+00  0.00000000E+00  0.00000000E+00
  0.00000000E+00  0.00000000E+00  0.00000000E+00
  0.00000000E+00  0.00000000E+00  0.00000000E+00
  0.00000000E+00  0.00000000E+00  0.00000000E+00
  0.00000000E+00  0.00000000E+00  0.00000000E+00
  0.00000000E+00  0.00000000E+00  0.00000000E+00
  0.00000000E+00  0.00000000E+00  0.00000000E+00
  0.00000000E+00  0.00000000E+00  0.00000000E+00
  0.00000000E+00  0.00000000E+00  0.00000000E+00
  0.00000000E+00  0.00000000E+00  0.00000000E+00
  0.00000000E+00  0.00000000E+00  0.00000000E+00
  0.00000000E+00  0.00000000E+00  0.00000000E+00
  0.00000000E+00  0.00000000E+00  0.00000000E+00
  0.00000000E+00  0.00000000E+00  0.00000000E+00
  0.00000000E+00  0.00000000E+00  0.00000000E+00
  0.00000000E+00  0.00000000E+00  0.00000000E+00
  0.00000000E+00  0.00000000E+00  0.00000000E+00
  0.00000000E+00  0.00000000E+00  0.00000000E+00
  0.00000000E+00  0.00000000E+00  0.00000000E+00
  0.00000000E+00  0.00000000E+00  0.00000000E+00
  0.00000000E+00  0.00000000E+00  0.00000000E+00
  0.00000000E+00  0.00000000E+00  0.00000000E+00
  0.00000000E+00  0.00000000E+00  0.00000000E+00
  0.00000000E+00  0.00000000E+00  0.00000000E+00
  0.00000000E+00  0.00000000E+00  0.00000000E+00
  0.00000000E+00  0.00000000E+00  0.00000000E+00
  0.00000000E+00  0.00000000E+00  0.00000000E+00
  0.00000000E+00  0.00000000E+00  0.00000000E+00
  0.00000000E+00  0.00000000E+00  0.00000000E+00
  0.00000000E+00  0.00000000E+00  0.00000000E+00
  0.00000000E+00  0.00000000E+00  0.00000000E+00
  0.00000000E+00  0.00000000E+00  0.00000000E+00
  0.00000000E+00  0.00000000E+00  0.00000000E+00
  0.00000000E+00  0.00000000E+00  0.00000000E+00
  0.00000000E+00  0.00000000E+00  0.00000000E+00
  0.00000000E+00  0.00000000E+00  0.00000000E+00
  0.00000000E+00  0.00000000E+00  0.00000000E+00
  0.00000000E+00  0.00000000E+00  0.00000000E+00
  0.00000000E+00  0.00000000E+00  0.00000000E+00
  0.00000000E+00  0.00000000E+00  0.00000000E+00
  0.00000000E+00  0.00000000E+00  0.00000000E+00
  0.00000000E+00  0.00000000E+00  0.00000000E+00
  0.00000000E+00  0.00000000E+00  0.00000000E+00
  0.00000000E+00  0.00000000E+00  0.00000000E+00
  0.00000000E+00  0.00000000E+00  0.00000000E+00
  0.00000000E+00  0.00000000E+00  0.00000000E+00
  0.00000000E+00  0.00000000E+00  0.00000000E+00
  0.00000000E+00  0.00000000E+00  0.00000000E+00
  0.00000000E+00  0.00000000E+00  0.00000000E+00
  0.00000000E+00  0.00000000E+00  0.00000000E+00
  0.00000000E+00  0.00000000E+00  0.00000000E+00
  0.00000000E+00  0.00000000E+00  0.00000000E+00
  0.00000000E+00  0.00000000E+00  0.00000000E+00
  0.00000000E+00  0.00000000E+00  0.00000000E+00
  0.00000000E+00  0.00000000E+00  0.00000000E+00
  0.00000000E+00  0.00000000E+00  0.00000000E+00
  0.00000000E+00  0.00000000E+00  0.00000000E+00
  0.00000000E+00  0.00000000E+00  0.00000000E+00
  0.00000000E+00  0.00000000E+00  0.00000000E+00
  0.00000000E+00  0.00000000E+00  0.00000000E+00
  0.00000000E+00  0.00000000E+00  0.00000000E+00
  0.00000000E+00  0.00000000E+00  0.00000000E+00
  0.00000000E+00  0.00000000E+00  0.00000000E+00
  0.00000000E+00  0.00000000E+00  0.00000000E+00
  0.00000000E+00  0.00000000E+00  0.00000000E+00
  0.00000000E+00  0.00000000E+00  0.00000000E+00
  0.00000000E+00  0.00000000E+00  0.00000000E+00
  0.00000000E+00  0.00000000E+00  0.00000000E+00
  0.00000000E+00  0.00000000E+00  0.00000000E+00
  0.00000000E+00  0.00000000E+00  0.00000000E+00
  0.00000000E+00  0.00000000E+00  0.00000000E+00
  0.00000000E+00  0.00000000E+00  0.00000000E+00
  0.00000000E+00  0.00000000E+00  0.00000000E+00
  0.00000000E+00  0.00000000E+00  0.00000000E+00
  0.00000000E+00  0.00000000E+00  0.00000000E+00
  0.00000000E+00  0.00000000E+00  0.00000000E+00
  0.00000000E+00  0.00000000E+00  0.00000000E+00
  0.00000000E+00  0.00000000E+00  0.00000000E+00
  0.00000000E+00  0.00000000E+00  0.00000000E+00
  0.00000000E+00  0.00000000E+00  0.00000000E+00
  0.00000000E+00  0.00000000E+00  0.00000000E+00
  0.00000000E+00  0.00000000E+00  0.00000000E+00
  0.00000000E+00  0.00000000E+00  0.00000000E+00
  0.00000000E+00  0.00000000E+00  0.00000000E+00
  0.00000000E+00  0.00000000E+00  0.00000000E+00
  0.00000000E+00  0.00000000E+00  0.00000000E+00
  0.00000000E+00  0.00000000E+00  0.00000000E+00
  0.00000000E+00  0.00000000E+00  0.00000000E+00
  0.00000000E+00  0.00000000E+00  0.00000000E+00
  0.00000000E+00  0.00000000E+00  0.00000000E+00
  0.00000000E+00  0.00000000E+00  0.00000000E+00
  0.00000000E+00  0.00000000E+00  0.00000000E+00
  0.00000000E+00  0.00000000E+00  0.00000000E+00
  0.00000000E+00  0.00000000E+00  0.00000000E+00
  0.00000000E+00  0.00000000E+00  0.00000000E+00
  0.00000000E+00  0.00000000E+00  0.00000000E+00
  0.00000000E+00  0.00000000E+00  0.00000000E+00
  0.00000000E+00  0.00000000E+00  0.00000000E+00
  0.00000000E+00  0.00000000E+00  0.00000000E+00
  0.00000000E+00  0.00000000E+00  0.00000000E+00
  0.00000000E+00  0.00000000E+00  0.00000000E+00
  0.00000000E+00  0.00000000E+00  0.00000000E+00
  0.00000000E+00  0.00000000E+00  0.00000000E+00
  0.00000000E+00  0.00000000E+00  0.00000000E+00
  0.00000000E+00  0.00000000E+00  0.00000000E+00
  0.00000000E+00  0.00000000E+00  0.00000000E+00
  0.00000000E+00  0.00000000E+00  0.00000000E+00
  0.00000000E+00  0.00000000E+00  0.00000000E+00
  0.00000000E+00  0.00000000E+00  0.00000000E+00
  0.00000000E+00  0.00000000E+00  0.00000000E+00
  0.00000000E+00  0.00000000E+00  0.00000000E+00
  0.00000000E+00  0.00000000E+00  0.00000000E+00
  0.00000000E+00  0.00000000E+00  0.00000000E+00
