C H O Si                                
   1.00000000000000     
     9.2874599999999994    0.0000000000000000    0.0000000000000000
     0.0000000000000000    8.7563099999999991    0.0000000000000000
     0.0000000000000000    0.0000000000000000   58.0000000000000000
   C    H    O    Si
    36    32    16    36
Selective dynamics
Direct
  0.9942592942499729  0.1257682841960980  0.0605302375903746   T   T   T
  0.3275533510767073  0.1257700151596165  0.0605442084504799   T   T   T
  0.6610311722521638  0.1257496578791431  0.0605347202208339   T   T   T
  0.9942428563766614  0.6257746780796002  0.0605400521873240   T   T   T
  0.3275867319049015  0.6258047485276865  0.0605868763061028   T   T   T
  0.6609983702490811  0.6258459117620957  0.0605526681384588   T   T   T
  0.1604718865967594  0.3720034095934364  0.1394340432384100   T   T   T
  0.4936942094166331  0.3724291463760560  0.1393505032257131   T   T   T
  0.8271028928844192  0.3718634122949774  0.1393570504615687   T   T   T
  0.1607491640011423  0.8717468468344582  0.1394980458472261   T   T   T
  0.4937367778267426  0.8713373883356709  0.1395335003556579   T   T   T
  0.8268859967979498  0.8717459929457193  0.1394512594020917   T   T   T
  0.3274634738032418  0.1226722449015895  0.1665335586439183   T   T   T
  0.6601447248869221  0.1222998125481200  0.1665373069843850   T   T   T
  0.9941264071011994  0.1214882426405243  0.1664217126711579   T   T   T
  0.3268684743882201  0.6224813880273097  0.1668318045969036   T   T   T
  0.6609892243301441  0.6222619935357888  0.1667155517579210   T   T   T
  0.9940277676324627  0.6223926572694344  0.1665547082590766   T   T   T
  0.1598805910828505  0.3747004921419124  0.1918760574920747   T   T   T
  0.4937680009087221  0.3885254298907660  0.1904446564440954   T   T   T
  0.8286473298299252  0.3731974323763618  0.1915673473527307   T   T   T
  0.1606504294160113  0.8780163236300217  0.1921754687841821   T   T   T
  0.4938117429620809  0.8777427215520007  0.1921467754428606   T   T   T
  0.8272413906841269  0.8776242611680783  0.1919590118579003   T   T   T
  0.1605948983861778  0.3716725283365502  0.0858979009974179   T   T   T
  0.4938784005549242  0.3716332174758786  0.0858905045793478   T   T   T
  0.8271959237150055  0.3716398645366628  0.0858679411814688   T   T   T
  0.1606302701993201  0.8716072255670708  0.0859158836575901   T   T   T
  0.4938632776862323  0.8715509053902144  0.0859508099693327   T   T   T
  0.8272177557658538  0.8716260744007102  0.0859093896216968   T   T   T
  0.3270519464146219  0.1215375932316583  0.1130384238351978   T   T   T
  0.6603044112528244  0.1215019479842180  0.1130342702051126   T   T   T
  0.9937038657974142  0.1215362699474087  0.1130236486607969   T   T   T
  0.3269984446716715  0.6215386403342870  0.1131181541637539   T   T   T
  0.6603938487169162  0.6216005359678748  0.1130765738219902   T   T   T
  0.9936904273128906  0.6217524239780708  0.1130318649206762   T   T   T
  0.0808720951616707  0.3523829699764782  0.0262590823829986   T   T   T
  0.4140989031576359  0.3524728783230538  0.0262647199703153   T   T   T
  0.7472574720748144  0.3523002331473901  0.0262770993850105   T   T   T
  0.0809422705420316  0.8524162925090019  0.0262685920257202   T   T   T
  0.4137209943283199  0.8524282725818869  0.0263518680116747   T   T   T
  0.7473394585720862  0.8523538947332315  0.0262925796562805   T   T   T
  0.3248128532318968  0.0535970663775076  0.0449763551955916   T   T   T
  0.6582693036073969  0.0535793430702692  0.0449678471240252   T   T   T
  0.9916531870775895  0.0536276758864681  0.0449647553176791   T   T   T
  0.3249567338526978  0.5534159405654347  0.0450341524979945   T   T   T
  0.6581869282989649  0.5536342341425705  0.0449989884310711   T   T   T
  0.9916088279990624  0.5535613225341430  0.0449783181073212   T   T   T
  0.8289644207611254  0.8060933921777178  0.2075708078397042   T   T   T
  0.8322470417493388  0.3014880540365443  0.2071626099429680   T   T   T
  0.1607291771164003  0.3023809954287024  0.2074182881556522   T   T   T
  0.1633127799841146  0.8053823998644588  0.2076904964588895   T   T   T
  0.4942266156268192  0.8061380028364863  0.2077650347836029   T   T   T
  0.0714811096473270  0.1072834080237699  0.2263267584207906   T   T   T
  0.4030527729824327  0.1401788755217248  0.2235899457489616   T   T   T
  0.7458907066384024  0.1068881548213662  0.2256287050448726   T   T   T
  0.0697327748166250  0.6023055560294421  0.2260659646062208   T   T   T
  0.3754824520725035  0.6164894470401113  0.2298153517782987   T   T   T
  0.7788686624456228  0.5897252284824381  0.2238340282899110   T   T   T
  0.5343295927951944  0.6033057646389498  0.2749849792373570   T   T   T
  0.4837469198395895  0.4675103249138641  0.2944076462450880   T   T   T
  0.5645148678336516  0.6357754319115060  0.3036995786398373   T   T   T
  0.3064831884123668  0.3726352910118953  0.3095984580565367   T   T   T
  0.4244565084999055  0.2512137243478124  0.3035704668976987   T   T   T
  0.6536426677174583  0.7314646220875317  0.3328230018829259   T   T   T
  0.4889487201542829  0.7651875310858627  0.3306069070766071   T   T   T
  0.4987616741907450  0.7848278338115954  0.2528523720109065   T   T   T
  0.5785521008666411  0.6477565874920529  0.2398071138386132   T   T   T
  0.1717951673721330  0.3346543914749865  0.0342704483003056   T   T   T
  0.5050840573228819  0.3344625776705112  0.0342432504177929   T   T   T
  0.8382949125771224  0.3345760665742758  0.0342492904540818   T   T   T
  0.1718680794407599  0.8345440423474031  0.0342719698001097   T   T   T
  0.5048305034165217  0.8349205130044035  0.0343196032504148   T   T   T
  0.8382912812557152  0.8347595050693905  0.0342902691639529   T   T   T
  0.3156163167325280  0.0908224107113850  0.2179472776486249   T   T   T
  0.6532319114735335  0.0902090654506825  0.2180177298176019   T   T   T
  0.9816105229000932  0.0891352231491819  0.2180365302373569   T   T   T
  0.3008391296013157  0.5868114617358181  0.2184404075292157   T   T   T
  0.6777136433162716  0.5851948836541799  0.2185468699049519   T   T   T
  0.9792612623495899  0.5834492783692991  0.2179167376405542   T   T   T
  0.5597302937272254  0.5533748798960639  0.2905494802711266   T   T   T
  0.3793510877471695  0.3453408490189001  0.2982047755424141   T   T   T
  0.5777042708627849  0.7548433477814457  0.3217324890713090   T   T   T
  0.4994224420952478  0.6738356897620792  0.2510006541461949   T   T   T
  0.4943161808527172  0.2431545028656799  0.0596194356357107   T   T   T
  0.8276661753424273  0.2432252464356632  0.0596079375535452   T   T   T
  0.1609961949795881  0.7432069803476516  0.0596437020108044   T   T   T
  0.4942980462190248  0.7432942398700324  0.0596589595534759   T   T   T
  0.8276805917703933  0.7433039431789973  0.0596316475688462   T   T   T
  0.1609745702801735  0.2432615541858842  0.0596306376226799   T   T   T
  0.9938645717568731  0.9969005092624409  0.1396686012846808   T   T   T
  0.3274217007948830  0.9972522365728862  0.1397168399058986   T   T   T
  0.6599968492799433  0.9970415661202702  0.1397076792676393   T   T   T
  0.9938083061080648  0.4974157303734052  0.1396623211920503   T   T   T
  0.3269443069346690  0.4975771954612046  0.1398758765633435   T   T   T
  0.6605061024620077  0.4973117584602259  0.1397624686108955   T   T   T
  0.1604340393719859  0.2463493039218097  0.1660027610717764   T   T   T
  0.4938054969422997  0.2471415554614789  0.1662458422011771   T   T   T
  0.8273349843833149  0.2453397602985530  0.1658200612704319   T   T   T
  0.1601747310455800  0.7476871137282298  0.1663207328750297   T   T   T
  0.4937402031566558  0.7467975988141120  0.1663629340346137   T   T   T
  0.8276877579133973  0.7473950914959649  0.1662117948195928   T   T   T
  0.3269580231981637  0.9961634567057337  0.1929053418472854   T   T   T
  0.6607025092925171  0.9956037835586601  0.1929358144596184   T   T   T
  0.9936285153588313  0.9952328820146983  0.1928836078835741   T   T   T
  0.3237087021256280  0.4951461244023405  0.1936212134291375   T   T   T
  0.9938090706917828  0.4922077360557444  0.1924808438365388   T   T   T
  0.6647679537828534  0.4924397396844189  0.1930308784855639   T   T   T
  0.9939729658532322  0.9962539206341191  0.0863349238855016   T   T   T
  0.3272631682423930  0.9962361110975472  0.0863520790878333   T   T   T
  0.6605953218093443  0.9962194736963852  0.0863480937469821   T   T   T
  0.9939547992607179  0.4962905723083284  0.0863389276218478   T   T   T
  0.3272740353726875  0.4963132014845905  0.0863973899253971   T   T   T
  0.6605910224970608  0.4962780291049430  0.0863641156016082   T   T   T
  0.1603539976500261  0.2471765199659054  0.1127386420524356   T   T   T
  0.4936059438106882  0.2469077658556404  0.1127072090719631   T   T   T
  0.8269307109924892  0.2471123097718353  0.1126872594248195   T   T   T
  0.1604434146636071  0.7470643443746218  0.1127771115309071   T   T   T
  0.4936126572030162  0.7469164033370616  0.1128116550908743   T   T   T
  0.8269246199565045  0.7470956678614977  0.1127499720944491   T   T   T
 
  0.00000000E+00  0.00000000E+00  0.00000000E+00
  0.00000000E+00  0.00000000E+00  0.00000000E+00
  0.00000000E+00  0.00000000E+00  0.00000000E+00
  0.00000000E+00  0.00000000E+00  0.00000000E+00
  0.00000000E+00  0.00000000E+00  0.00000000E+00
  0.00000000E+00  0.00000000E+00  0.00000000E+00
  0.00000000E+00  0.00000000E+00  0.00000000E+00
  0.00000000E+00  0.00000000E+00  0.00000000E+00
  0.00000000E+00  0.00000000E+00  0.00000000E+00
  0.00000000E+00  0.00000000E+00  0.00000000E+00
  0.00000000E+00  0.00000000E+00  0.00000000E+00
  0.00000000E+00  0.00000000E+00  0.00000000E+00
  0.00000000E+00  0.00000000E+00  0.00000000E+00
  0.00000000E+00  0.00000000E+00  0.00000000E+00
  0.00000000E+00  0.00000000E+00  0.00000000E+00
  0.00000000E+00  0.00000000E+00  0.00000000E+00
  0.00000000E+00  0.00000000E+00  0.00000000E+00
  0.00000000E+00  0.00000000E+00  0.00000000E+00
  0.00000000E+00  0.00000000E+00  0.00000000E+00
  0.00000000E+00  0.00000000E+00  0.00000000E+00
  0.00000000E+00  0.00000000E+00  0.00000000E+00
  0.00000000E+00  0.00000000E+00  0.00000000E+00
  0.00000000E+00  0.00000000E+00  0.00000000E+00
  0.00000000E+00  0.00000000E+00  0.00000000E+00
  0.00000000E+00  0.00000000E+00  0.00000000E+00
  0.00000000E+00  0.00000000E+00  0.00000000E+00
  0.00000000E+00  0.00000000E+00  0.00000000E+00
  0.00000000E+00  0.00000000E+00  0.00000000E+00
  0.00000000E+00  0.00000000E+00  0.00000000E+00
  0.00000000E+00  0.00000000E+00  0.00000000E+00
  0.00000000E+00  0.00000000E+00  0.00000000E+00
  0.00000000E+00  0.00000000E+00  0.00000000E+00
  0.00000000E+00  0.00000000E+00  0.00000000E+00
  0.00000000E+00  0.00000000E+00  0.00000000E+00
  0.00000000E+00  0.00000000E+00  0.00000000E+00
  0.00000000E+00  0.00000000E+00  0.00000000E+00
  0.00000000E+00  0.00000000E+00  0.00000000E+00
  0.00000000E+00  0.00000000E+00  0.00000000E+00
  0.00000000E+00  0.00000000E+00  0.00000000E+00
  0.00000000E+00  0.00000000E+00  0.00000000E+00
  0.00000000E+00  0.00000000E+00  0.00000000E+00
  0.00000000E+00  0.00000000E+00  0.00000000E+00
  0.00000000E+00  0.00000000E+00  0.00000000E+00
  0.00000000E+00  0.00000000E+00  0.00000000E+00
  0.00000000E+00  0.00000000E+00  0.00000000E+00
  0.00000000E+00  0.00000000E+00  0.00000000E+00
  0.00000000E+00  0.00000000E+00  0.00000000E+00
  0.00000000E+00  0.00000000E+00  0.00000000E+00
  0.00000000E+00  0.00000000E+00  0.00000000E+00
  0.00000000E+00  0.00000000E+00  0.00000000E+00
  0.00000000E+00  0.00000000E+00  0.00000000E+00
  0.00000000E+00  0.00000000E+00  0.00000000E+00
  0.00000000E+00  0.00000000E+00  0.00000000E+00
  0.00000000E+00  0.00000000E+00  0.00000000E+00
  0.00000000E+00  0.00000000E+00  0.00000000E+00
  0.00000000E+00  0.00000000E+00  0.00000000E+00
  0.00000000E+00  0.00000000E+00  0.00000000E+00
  0.00000000E+00  0.00000000E+00  0.00000000E+00
  0.00000000E+00  0.00000000E+00  0.00000000E+00
  0.00000000E+00  0.00000000E+00  0.00000000E+00
  0.00000000E+00  0.00000000E+00  0.00000000E+00
  0.00000000E+00  0.00000000E+00  0.00000000E+00
  0.00000000E+00  0.00000000E+00  0.00000000E+00
  0.00000000E+00  0.00000000E+00  0.00000000E+00
  0.00000000E+00  0.00000000E+00  0.00000000E+00
  0.00000000E+00  0.00000000E+00  0.00000000E+00
  0.00000000E+00  0.00000000E+00  0.00000000E+00
  0.00000000E+00  0.00000000E+00  0.00000000E+00
  0.00000000E+00  0.00000000E+00  0.00000000E+00
  0.00000000E+00  0.00000000E+00  0.00000000E+00
  0.00000000E+00  0.00000000E+00  0.00000000E+00
  0.00000000E+00  0.00000000E+00  0.00000000E+00
  0.00000000E+00  0.00000000E+00  0.00000000E+00
  0.00000000E+00  0.00000000E+00  0.00000000E+00
  0.00000000E+00  0.00000000E+00  0.00000000E+00
  0.00000000E+00  0.00000000E+00  0.00000000E+00
  0.00000000E+00  0.00000000E+00  0.00000000E+00
  0.00000000E+00  0.00000000E+00  0.00000000E+00
  0.00000000E+00  0.00000000E+00  0.00000000E+00
  0.00000000E+00  0.00000000E+00  0.00000000E+00
  0.00000000E+00  0.00000000E+00  0.00000000E+00
  0.00000000E+00  0.00000000E+00  0.00000000E+00
  0.00000000E+00  0.00000000E+00  0.00000000E+00
  0.00000000E+00  0.00000000E+00  0.00000000E+00
  0.00000000E+00  0.00000000E+00  0.00000000E+00
  0.00000000E+00  0.00000000E+00  0.00000000E+00
  0.00000000E+00  0.00000000E+00  0.00000000E+00
  0.00000000E+00  0.00000000E+00  0.00000000E+00
  0.00000000E+00  0.00000000E+00  0.00000000E+00
  0.00000000E+00  0.00000000E+00  0.00000000E+00
  0.00000000E+00  0.00000000E+00  0.00000000E+00
  0.00000000E+00  0.00000000E+00  0.00000000E+00
  0.00000000E+00  0.00000000E+00  0.00000000E+00
  0.00000000E+00  0.00000000E+00  0.00000000E+00
  0.00000000E+00  0.00000000E+00  0.00000000E+00
  0.00000000E+00  0.00000000E+00  0.00000000E+00
  0.00000000E+00  0.00000000E+00  0.00000000E+00
  0.00000000E+00  0.00000000E+00  0.00000000E+00
  0.00000000E+00  0.00000000E+00  0.00000000E+00
  0.00000000E+00  0.00000000E+00  0.00000000E+00
  0.00000000E+00  0.00000000E+00  0.00000000E+00
  0.00000000E+00  0.00000000E+00  0.00000000E+00
  0.00000000E+00  0.00000000E+00  0.00000000E+00
  0.00000000E+00  0.00000000E+00  0.00000000E+00
  0.00000000E+00  0.00000000E+00  0.00000000E+00
  0.00000000E+00  0.00000000E+00  0.00000000E+00
  0.00000000E+00  0.00000000E+00  0.00000000E+00
  0.00000000E+00  0.00000000E+00  0.00000000E+00
  0.00000000E+00  0.00000000E+00  0.00000000E+00
  0.00000000E+00  0.00000000E+00  0.00000000E+00
  0.00000000E+00  0.00000000E+00  0.00000000E+00
  0.00000000E+00  0.00000000E+00  0.00000000E+00
  0.00000000E+00  0.00000000E+00  0.00000000E+00
  0.00000000E+00  0.00000000E+00  0.00000000E+00
  0.00000000E+00  0.00000000E+00  0.00000000E+00
  0.00000000E+00  0.00000000E+00  0.00000000E+00
  0.00000000E+00  0.00000000E+00  0.00000000E+00
  0.00000000E+00  0.00000000E+00  0.00000000E+00
  0.00000000E+00  0.00000000E+00  0.00000000E+00
  0.00000000E+00  0.00000000E+00  0.00000000E+00
