C H O Si                                
   1.00000000000000     
     9.2874599999999994    0.0000000000000000    0.0000000000000000
     0.0000000000000000    8.7563099999999991    0.0000000000000000
     0.0000000000000000    0.0000000000000000   58.0000000000000000
   C    H    O    Si
    36    32    16    36
Selective dynamics
Direct
  0.9942000984709243  0.1257775861855210  0.0605254068396016   T   T   T
  0.3275087367995009  0.1257381470785264  0.0605348794510900   T   T   T
  0.6608539189963013  0.1257467317429700  0.0605238120332788   T   T   T
  0.9941833693907401  0.6258023099920607  0.0605333966325910   T   T   T
  0.3275711632624119  0.6258058049592649  0.0605680988646694   T   T   T
  0.6608281666707819  0.6259011736563068  0.0605505691723164   T   T   T
  0.1604498338208432  0.3720043196492773  0.1394325470088983   T   T   T
  0.4936866589220748  0.3724194195638211  0.1393756436833310   T   T   T
  0.8271114795896782  0.3718462475850959  0.1393559034681431   T   T   T
  0.1606883091548048  0.8717627867394249  0.1394938579611088   T   T   T
  0.4937281770034572  0.8713144637750022  0.1395342965798393   T   T   T
  0.8268916016674634  0.8717221042200256  0.1394484820644835   T   T   T
  0.3274145416426510  0.1226881209052213  0.1665405180629766   T   T   T
  0.6600543365196384  0.1222239073505614  0.1665408506836085   T   T   T
  0.9940321900561994  0.1215049837193026  0.1664320648506395   T   T   T
  0.3269124567231538  0.6224870453706347  0.1668454825808630   T   T   T
  0.6608463820039132  0.6221805043450203  0.1667339079396401   T   T   T
  0.9939861447298399  0.6223701859518608  0.1665674583393407   T   T   T
  0.1598685102546324  0.3746752614107683  0.1918896911924191   T   T   T
  0.4937290260214348  0.3884579427176411  0.1904651702347055   T   T   T
  0.8286953295838999  0.3731797028898769  0.1915875356653975   T   T   T
  0.1605801883276376  0.8780119033899372  0.1921814171638408   T   T   T
  0.4938268991451827  0.8778136932087507  0.1921466180937876   T   T   T
  0.8272705346647091  0.8775734836095291  0.1919646198144194   T   T   T
  0.1605851907600736  0.3716880408695609  0.0859079461778544   T   T   T
  0.4938853165748456  0.3716853402040117  0.0858934995589291   T   T   T
  0.8272014550980413  0.3716574749899427  0.0858700983703573   T   T   T
  0.1605800199733171  0.8715977189165923  0.0859133929879692   T   T   T
  0.4938960735123736  0.8715617204269694  0.0859388626984138   T   T   T
  0.8272498893271417  0.8716197305478977  0.0859021086922634   T   T   T
  0.3268543398037436  0.1216641811244958  0.1130316604386545   T   T   T
  0.6601198521089201  0.1216195622216873  0.1130313482674430   T   T   T
  0.9935332695427225  0.1216890844800504  0.1130158608159249   T   T   T
  0.3268861284756195  0.6215994683449455  0.1131108211517550   T   T   T
  0.6602121728177573  0.6216765883563427  0.1130700060348452   T   T   T
  0.9935433681939545  0.6217946109772780  0.1130208685454566   T   T   T
  0.0809566918253411  0.3523177384408807  0.0262766303824467   T   T   T
  0.4141700743693031  0.3524052408181311  0.0262833156556817   T   T   T
  0.7473178279804528  0.3522270012719425  0.0262970499838051   T   T   T
  0.0810157682404191  0.8523496938793246  0.0262869597399696   T   T   T
  0.4137814965579771  0.8523524309918092  0.0263741419179756   T   T   T
  0.7473816248827473  0.8522854054399461  0.0263096210358775   T   T   T
  0.3247907912484138  0.0536121850917229  0.0449747238943374   T   T   T
  0.6582423365880398  0.0535909771528713  0.0449651601188246   T   T   T
  0.9916365219953567  0.0536411679172351  0.0449642729205829   T   T   T
  0.3249241816143321  0.5534401780568813  0.0450364423992598   T   T   T
  0.6581618851188955  0.5536540226114205  0.0449974214739115   T   T   T
  0.9915997434420355  0.5536022432321391  0.0449848830370947   T   T   T
  0.8289314048248937  0.8060695307988441  0.2075673462669463   T   T   T
  0.8321991136682200  0.3015368792163842  0.2071648027406630   T   T   T
  0.1608127571429553  0.3024249864156736  0.2074127176875122   T   T   T
  0.1633749624318765  0.8054304614156252  0.2076842126912544   T   T   T
  0.4942647541480851  0.8061935236665164  0.2077598921193413   T   T   T
  0.0714298415308762  0.1073028495176447  0.2263304718802828   T   T   T
  0.4028837990319212  0.1403431348006932  0.2235716346483045   T   T   T
  0.7459958278324446  0.1068997703108891  0.2256340256825497   T   T   T
  0.0695934716684384  0.6022131101305366  0.2260438457322389   T   T   T
  0.3755422425252348  0.6165950159778523  0.2298193804081403   T   T   T
  0.7788608669554178  0.5896754406230502  0.2238348169951168   T   T   T
  0.5343278299648403  0.6033133512218052  0.2749928481171893   T   T   T
  0.4838046141273222  0.4674472682913020  0.2943979491927753   T   T   T
  0.5644980090846610  0.6356876000994174  0.3037023078101488   T   T   T
  0.3065059023235814  0.3726576541280426  0.3095983827203370   T   T   T
  0.4244477303596159  0.2512395657894961  0.3035638190396954   T   T   T
  0.6536463811427713  0.7314315957532667  0.3328381991563285   T   T   T
  0.4889677883571805  0.7650698497483002  0.3306022548333878   T   T   T
  0.4987534702046397  0.7847669327247004  0.2528535442167978   T   T   T
  0.5785086551445843  0.6477877095602861  0.2398015528208924   T   T   T
  0.1718880728525687  0.3344009094874372  0.0342706060726913   T   T   T
  0.5052119012277679  0.3342190355295703  0.0342462664802640   T   T   T
  0.8384415318955667  0.3343646648635894  0.0342540275107210   T   T   T
  0.1719669645800739  0.8342969422694753  0.0342739395530750   T   T   T
  0.5049831438885265  0.8347673808567443  0.0343166323038324   T   T   T
  0.8384499812918268  0.8345778707466404  0.0342936416587837   T   T   T
  0.3155850063280398  0.0906700123795432  0.2179595403008600   T   T   T
  0.6534431122316745  0.0901828764737289  0.2180378386058771   T   T   T
  0.9816553378505416  0.0893870735853628  0.2180264736706953   T   T   T
  0.3011919248028314  0.5867303041444299  0.2184313852000553   T   T   T
  0.6777132811634780  0.5853210314336837  0.2185275930358924   T   T   T
  0.9792052305643936  0.5834398582938958  0.2178709313206407   T   T   T
  0.5596523757277220  0.5535046085047224  0.2905455933581998   T   T   T
  0.3795202055607405  0.3456050280523995  0.2981967044752050   T   T   T
  0.5777553653159836  0.7550616597651439  0.3217316292725819   T   T   T
  0.4995574958601824  0.6738358168327023  0.2509876597946262   T   T   T
  0.4943610931045411  0.2431371363918592  0.0596104740433614   T   T   T
  0.8277145838910643  0.2432213674553262  0.0596199363247420   T   T   T
  0.1610398717822811  0.7431544249544212  0.0596391186285985   T   T   T
  0.4943571341292652  0.7432670004419769  0.0596638752778152   T   T   T
  0.8276985818658470  0.7431803821179930  0.0596441645041198   T   T   T
  0.1610405665230656  0.2432438668252685  0.0596413259079925   T   T   T
  0.9938902849090984  0.9969974214137535  0.1396686339158726   T   T   T
  0.3273778123193239  0.9973147931192585  0.1397105330544777   T   T   T
  0.6600930377496288  0.9971545079875422  0.1397026800820762   T   T   T
  0.9938569315057892  0.4974061940242078  0.1396581340687936   T   T   T
  0.3268748127265832  0.4976052391003118  0.1398788723801322   T   T   T
  0.6605500029657857  0.4973014405125867  0.1397617156183440   T   T   T
  0.1603962859841890  0.2463726446126077  0.1659905155077832   T   T   T
  0.4937960567456788  0.2471040750977294  0.1662371801441734   T   T   T
  0.8273622774869139  0.2452871106544913  0.1658083342793311   T   T   T
  0.1602478084877373  0.7477225301989769  0.1663166433507240   T   T   T
  0.4937570091235430  0.7468253759958501  0.1663637709528957   T   T   T
  0.8276087219455388  0.7473784008782609  0.1662123316817432   T   T   T
  0.3269708192753298  0.9961806315133115  0.1929016241311154   T   T   T
  0.6607470153935621  0.9955643297273102  0.1929353000520438   T   T   T
  0.9936355523052858  0.9952611700957640  0.1928887807036953   T   T   T
  0.3237057927460232  0.4950488058490005  0.1936409790226295   T   T   T
  0.9938544186508269  0.4921083082852217  0.1924644653296425   T   T   T
  0.6647976365628790  0.4922977071389562  0.1930503459115936   T   T   T
  0.9939834374390084  0.9963039218022227  0.0863371711980212   T   T   T
  0.3272952170221896  0.9962260565271674  0.0863523581505925   T   T   T
  0.6606195435407057  0.9962236222147391  0.0863414303772062   T   T   T
  0.9939370646330313  0.4963606526706856  0.0863424295786740   T   T   T
  0.3273052606637617  0.4962714620863222  0.0863881770472361   T   T   T
  0.6605934564369307  0.4963173303963900  0.0863515054832410   T   T   T
  0.1603115366027533  0.2472947609817199  0.1127394599734751   T   T   T
  0.4935385186353610  0.2470142518221802  0.1127100417271441   T   T   T
  0.8268564852782105  0.2471793116026610  0.1126869605809557   T   T   T
  0.1603101784375122  0.7471728408777500  0.1127715757227501   T   T   T
  0.4935569092643238  0.7470188512320199  0.1127904264273118   T   T   T
  0.8269364935153124  0.7471797162711933  0.1127433965066604   T   T   T
 
  0.00000000E+00  0.00000000E+00  0.00000000E+00
  0.00000000E+00  0.00000000E+00  0.00000000E+00
  0.00000000E+00  0.00000000E+00  0.00000000E+00
  0.00000000E+00  0.00000000E+00  0.00000000E+00
  0.00000000E+00  0.00000000E+00  0.00000000E+00
  0.00000000E+00  0.00000000E+00  0.00000000E+00
  0.00000000E+00  0.00000000E+00  0.00000000E+00
  0.00000000E+00  0.00000000E+00  0.00000000E+00
  0.00000000E+00  0.00000000E+00  0.00000000E+00
  0.00000000E+00  0.00000000E+00  0.00000000E+00
  0.00000000E+00  0.00000000E+00  0.00000000E+00
  0.00000000E+00  0.00000000E+00  0.00000000E+00
  0.00000000E+00  0.00000000E+00  0.00000000E+00
  0.00000000E+00  0.00000000E+00  0.00000000E+00
  0.00000000E+00  0.00000000E+00  0.00000000E+00
  0.00000000E+00  0.00000000E+00  0.00000000E+00
  0.00000000E+00  0.00000000E+00  0.00000000E+00
  0.00000000E+00  0.00000000E+00  0.00000000E+00
  0.00000000E+00  0.00000000E+00  0.00000000E+00
  0.00000000E+00  0.00000000E+00  0.00000000E+00
  0.00000000E+00  0.00000000E+00  0.00000000E+00
  0.00000000E+00  0.00000000E+00  0.00000000E+00
  0.00000000E+00  0.00000000E+00  0.00000000E+00
  0.00000000E+00  0.00000000E+00  0.00000000E+00
  0.00000000E+00  0.00000000E+00  0.00000000E+00
  0.00000000E+00  0.00000000E+00  0.00000000E+00
  0.00000000E+00  0.00000000E+00  0.00000000E+00
  0.00000000E+00  0.00000000E+00  0.00000000E+00
  0.00000000E+00  0.00000000E+00  0.00000000E+00
  0.00000000E+00  0.00000000E+00  0.00000000E+00
  0.00000000E+00  0.00000000E+00  0.00000000E+00
  0.00000000E+00  0.00000000E+00  0.00000000E+00
  0.00000000E+00  0.00000000E+00  0.00000000E+00
  0.00000000E+00  0.00000000E+00  0.00000000E+00
  0.00000000E+00  0.00000000E+00  0.00000000E+00
  0.00000000E+00  0.00000000E+00  0.00000000E+00
  0.00000000E+00  0.00000000E+00  0.00000000E+00
  0.00000000E+00  0.00000000E+00  0.00000000E+00
  0.00000000E+00  0.00000000E+00  0.00000000E+00
  0.00000000E+00  0.00000000E+00  0.00000000E+00
  0.00000000E+00  0.00000000E+00  0.00000000E+00
  0.00000000E+00  0.00000000E+00  0.00000000E+00
  0.00000000E+00  0.00000000E+00  0.00000000E+00
  0.00000000E+00  0.00000000E+00  0.00000000E+00
  0.00000000E+00  0.00000000E+00  0.00000000E+00
  0.00000000E+00  0.00000000E+00  0.00000000E+00
  0.00000000E+00  0.00000000E+00  0.00000000E+00
  0.00000000E+00  0.00000000E+00  0.00000000E+00
  0.00000000E+00  0.00000000E+00  0.00000000E+00
  0.00000000E+00  0.00000000E+00  0.00000000E+00
  0.00000000E+00  0.00000000E+00  0.00000000E+00
  0.00000000E+00  0.00000000E+00  0.00000000E+00
  0.00000000E+00  0.00000000E+00  0.00000000E+00
  0.00000000E+00  0.00000000E+00  0.00000000E+00
  0.00000000E+00  0.00000000E+00  0.00000000E+00
  0.00000000E+00  0.00000000E+00  0.00000000E+00
  0.00000000E+00  0.00000000E+00  0.00000000E+00
  0.00000000E+00  0.00000000E+00  0.00000000E+00
  0.00000000E+00  0.00000000E+00  0.00000000E+00
  0.00000000E+00  0.00000000E+00  0.00000000E+00
  0.00000000E+00  0.00000000E+00  0.00000000E+00
  0.00000000E+00  0.00000000E+00  0.00000000E+00
  0.00000000E+00  0.00000000E+00  0.00000000E+00
  0.00000000E+00  0.00000000E+00  0.00000000E+00
  0.00000000E+00  0.00000000E+00  0.00000000E+00
  0.00000000E+00  0.00000000E+00  0.00000000E+00
  0.00000000E+00  0.00000000E+00  0.00000000E+00
  0.00000000E+00  0.00000000E+00  0.00000000E+00
  0.00000000E+00  0.00000000E+00  0.00000000E+00
  0.00000000E+00  0.00000000E+00  0.00000000E+00
  0.00000000E+00  0.00000000E+00  0.00000000E+00
  0.00000000E+00  0.00000000E+00  0.00000000E+00
  0.00000000E+00  0.00000000E+00  0.00000000E+00
  0.00000000E+00  0.00000000E+00  0.00000000E+00
  0.00000000E+00  0.00000000E+00  0.00000000E+00
  0.00000000E+00  0.00000000E+00  0.00000000E+00
  0.00000000E+00  0.00000000E+00  0.00000000E+00
  0.00000000E+00  0.00000000E+00  0.00000000E+00
  0.00000000E+00  0.00000000E+00  0.00000000E+00
  0.00000000E+00  0.00000000E+00  0.00000000E+00
  0.00000000E+00  0.00000000E+00  0.00000000E+00
  0.00000000E+00  0.00000000E+00  0.00000000E+00
  0.00000000E+00  0.00000000E+00  0.00000000E+00
  0.00000000E+00  0.00000000E+00  0.00000000E+00
  0.00000000E+00  0.00000000E+00  0.00000000E+00
  0.00000000E+00  0.00000000E+00  0.00000000E+00
  0.00000000E+00  0.00000000E+00  0.00000000E+00
  0.00000000E+00  0.00000000E+00  0.00000000E+00
  0.00000000E+00  0.00000000E+00  0.00000000E+00
  0.00000000E+00  0.00000000E+00  0.00000000E+00
  0.00000000E+00  0.00000000E+00  0.00000000E+00
  0.00000000E+00  0.00000000E+00  0.00000000E+00
  0.00000000E+00  0.00000000E+00  0.00000000E+00
  0.00000000E+00  0.00000000E+00  0.00000000E+00
  0.00000000E+00  0.00000000E+00  0.00000000E+00
  0.00000000E+00  0.00000000E+00  0.00000000E+00
  0.00000000E+00  0.00000000E+00  0.00000000E+00
  0.00000000E+00  0.00000000E+00  0.00000000E+00
  0.00000000E+00  0.00000000E+00  0.00000000E+00
  0.00000000E+00  0.00000000E+00  0.00000000E+00
  0.00000000E+00  0.00000000E+00  0.00000000E+00
  0.00000000E+00  0.00000000E+00  0.00000000E+00
  0.00000000E+00  0.00000000E+00  0.00000000E+00
  0.00000000E+00  0.00000000E+00  0.00000000E+00
  0.00000000E+00  0.00000000E+00  0.00000000E+00
  0.00000000E+00  0.00000000E+00  0.00000000E+00
  0.00000000E+00  0.00000000E+00  0.00000000E+00
  0.00000000E+00  0.00000000E+00  0.00000000E+00
  0.00000000E+00  0.00000000E+00  0.00000000E+00
  0.00000000E+00  0.00000000E+00  0.00000000E+00
  0.00000000E+00  0.00000000E+00  0.00000000E+00
  0.00000000E+00  0.00000000E+00  0.00000000E+00
  0.00000000E+00  0.00000000E+00  0.00000000E+00
  0.00000000E+00  0.00000000E+00  0.00000000E+00
  0.00000000E+00  0.00000000E+00  0.00000000E+00
  0.00000000E+00  0.00000000E+00  0.00000000E+00
  0.00000000E+00  0.00000000E+00  0.00000000E+00
  0.00000000E+00  0.00000000E+00  0.00000000E+00
  0.00000000E+00  0.00000000E+00  0.00000000E+00
  0.00000000E+00  0.00000000E+00  0.00000000E+00
