C H O Si                                
   1.00000000000000     
     9.2874599999999994    0.0000000000000000    0.0000000000000000
     0.0000000000000000   17.5126199999999983    0.0000000000000000
     0.0000000000000000    0.0000000000000000   58.0000000000000000
   C    H    O    Si
    72    57    28    72
Selective dynamics
Direct
  0.9962930567095423  0.0651143625934207  0.0595678136630345   T   T   T
  0.3297652968758418  0.0651851191953321  0.0596356389983991   T   T   T
  0.6629656024875287  0.0651513213567089  0.0596556084520512   T   T   T
  0.9962936175998869  0.3151931810277587  0.0595731172391611   T   T   T
  0.3296626049203918  0.3150981916367125  0.0595750335314722   T   T   T
  0.6630825421220864  0.3150528476011540  0.0596149108123311   T   T   T
  0.1626796061240295  0.1879373540240179  0.1384010340408530   T   T   T
  0.4957699298029800  0.1883196952625074  0.1387116431019840   T   T   T
  0.8291651983542975  0.1880048122733660  0.1384099368356911   T   T   T
  0.1625468697134213  0.4381188509597255  0.1384736034128178   T   T   T
  0.4957587724541402  0.4375329596895201  0.1383201315557516   T   T   T
  0.8292222892494849  0.4381105588729181  0.1385285946260309   T   T   T
  0.3301817514479103  0.0633219275041995  0.1657423430640566   T   T   T
  0.6623616187947503  0.0634746703872566  0.1657734194297747   T   T   T
  0.9960571488091022  0.0626604228623786  0.1655241758323354   T   T   T
  0.3288292201721860  0.3133901522298471  0.1656885591594537   T   T   T
  0.6632026136378653  0.3132825422948783  0.1657155877831683   T   T   T
  0.9960215402681030  0.3131382695517475  0.1655337314357212   T   T   T
  0.1630325248926804  0.1892553338526528  0.1905886825331760   T   T   T
  0.4957419924982513  0.1924758533837249  0.1917459521980845   T   T   T
  0.8299949859205118  0.1895240484316124  0.1907162347085955   T   T   T
  0.1623812506129876  0.4404174244767012  0.1909675873238216   T   T   T
  0.4962066091769684  0.4414335719503653  0.1902416127716635   T   T   T
  0.8301543418507641  0.4403909613198931  0.1911037222308063   T   T   T
  0.1627198291710270  0.1880645632244417  0.0848978818583240   T   T   T
  0.4959240042185235  0.1881318310551936  0.0850526825743904   T   T   T
  0.8294017904663623  0.1880858334012770  0.0849156992558526   T   T   T
  0.1627459827504316  0.4381245385286650  0.0849308582552188   T   T   T
  0.4959199821295745  0.4380511992834479  0.0848371484550765   T   T   T
  0.8293214973858499  0.4381423375146966  0.0849564418814989   T   T   T
  0.3293864905644738  0.0630488322319726  0.1121642501308174   T   T   T
  0.6625871435722480  0.0630336065901712  0.1121741982698976   T   T   T
  0.9957805027972784  0.0629148237465600  0.1120905180673855   T   T   T
  0.3291582734126528  0.3129311690532524  0.1121131146433881   T   T   T
  0.6627539105001773  0.3129343151914681  0.1121375470364006   T   T   T
  0.9958199232681954  0.3130161383730561  0.1120694271737412   T   T   T
  0.9962815362288392  0.5652583494831122  0.0596166435712291   T   T   T
  0.3296528594644477  0.5652404767197118  0.0596007189334059   T   T   T
  0.6630644688200995  0.5652156949184202  0.0596317209674225   T   T   T
  0.9963245304896674  0.8152825724710254  0.0596227228267310   T   T   T
  0.3297502275969603  0.8151477924265624  0.0596377736703473   T   T   T
  0.6630042956860953  0.8151496590041374  0.0596428361017017   T   T   T
  0.1624899268031282  0.6881543253190286  0.1384867103580161   T   T   T
  0.4958323420646120  0.6879268220526993  0.1385524035321356   T   T   T
  0.8294137878137627  0.6881714626805783  0.1384963449941855   T   T   T
  0.1629167100448665  0.9380285455507553  0.1385183186078111   T   T   T
  0.4958785617891511  0.9379574210130643  0.1385281997512771   T   T   T
  0.8290271699382619  0.9380322436664044  0.1385208710995610   T   T   T
  0.3287722727125191  0.5633372285411422  0.1656983295043858   T   T   T
  0.6635639699253815  0.5631740301868300  0.1657687014003297   T   T   T
  0.9960727109511492  0.5633072945279869  0.1656671371462225   T   T   T
  0.3296763711347256  0.8130731070066901  0.1657014483730693   T   T   T
  0.6630173043771272  0.8130480960991655  0.1656872570697341   T   T   T
  0.9962171544881027  0.8131649392156333  0.1657017416414480   T   T   T
  0.1631060716009105  0.6902654392437390  0.1910376184962851   T   T   T
  0.4965730234578565  0.6901852999762220  0.1910863048071398   T   T   T
  0.8299528949627192  0.6903097088286186  0.1910502667298970   T   T   T
  0.1631749311179440  0.9402396522568084  0.1910339824145018   T   T   T
  0.4965240940594763  0.9402408118834943  0.1910655063185598   T   T   T
  0.8297192731320846  0.9402912716718810  0.1910530417306548   T   T   T
  0.1627181752385926  0.6881588545790527  0.0849572337062184   T   T   T
  0.4959753570051171  0.6881078278373834  0.0849749903991300   T   T   T
  0.8294090899411634  0.6881836668948516  0.0849650861239087   T   T   T
  0.1627875157600137  0.9381517662937652  0.0849665976770241   T   T   T
  0.4959527780531557  0.9381160586599592  0.0849809596446800   T   T   T
  0.8292729099241414  0.9381472163768436  0.0849688790880731   T   T   T
  0.3292451323909247  0.5629170168551332  0.1121412520930425   T   T   T
  0.6626835474362106  0.5628863859669185  0.1121778825348631   T   T   T
  0.9957626022506239  0.5630161012692843  0.1121333488941451   T   T   T
  0.3293615560471904  0.8129518510757846  0.1121546548878963   T   T   T
  0.6626939027085433  0.8129489868381258  0.1121535676907797   T   T   T
  0.9958018146207653  0.8131569545090781  0.1121446971555541   T   T   T
  0.0790416066284401  0.1790997792440346  0.0259544561614362   T   T   T
  0.4122245857274714  0.1792155216946790  0.0261136254629384   T   T   T
  0.7453071722880199  0.1790905935883818  0.0260155370355943   T   T   T
  0.0789439088931013  0.4291458748419759  0.0259871141067355   T   T   T
  0.4124520293911333  0.4289274261316298  0.0259076721095583   T   T   T
  0.7449883528980153  0.4289666023823469  0.0260577015312281   T   T   T
  0.3278280598602162  0.0288747797635602  0.0441307820991090   T   T   T
  0.6603971829756371  0.0288835214405555  0.0441432757772034   T   T   T
  0.9939950122873267  0.0288167440449338  0.0440612420146432   T   T   T
  0.3271059491881158  0.2787467418425646  0.0440786548998218   T   T   T
  0.6611114808814200  0.2787572169058125  0.0441058108911568   T   T   T
  0.9939988683015053  0.2789390698746668  0.0440543754067748   T   T   T
  0.8327319009189889  0.4038807013486247  0.2065548852206150   T   T   T
  0.8326822580685999  0.1534279244174210  0.2062660827190983   T   T   T
  0.1650742457410491  0.1535878099142435  0.2062324940321427   T   T   T
  0.4983560125014604  0.1557377021373806  0.2071617579805266   T   T   T
  0.1650273208430697  0.4038409419586880  0.2063969090877895   T   T   T
  0.5397793556936398  0.4643670595468437  0.2612813528237074   T   T   T
  0.0818824239261307  0.0549000597488682  0.2243396250158372   T   T   T
  0.4151812326413103  0.0548394957174798  0.2244594581234870   T   T   T
  0.7476668956767042  0.0549616733453888  0.2245577960757179   T   T   T
  0.0894754304390923  0.3029129520524295  0.2228799766842175   T   T   T
  0.3670877497258596  0.2843125079874196  0.2303261613347016   T   T   T
  0.7786166320310165  0.2983671747742676  0.2228736319688509   T   T   T
  0.4954597913097589  0.2708164845695176  0.2660050970789314   T   T   T
  0.4704193931291519  0.2280470909378136  0.3004444865675932   T   T   T
  0.5186860166729502  0.3125080546483223  0.3081761793053095   T   T   T
  0.2892051338727837  0.1364937108975593  0.2959630463468341   T   T   T
  0.4375634877561746  0.1079800053978545  0.2874982777860539   T   T   T
  0.6376161780836843  0.3857554301619899  0.3348317658533180   T   T   T
  0.5034395881362012  0.4320158913092957  0.3272377766750773   T   T   T
  0.5042200374321154  0.4387753233773958  0.2699754354264078   T   T   T
  0.5654370097790201  0.2684276385585290  0.2407083156351732   T   T   T
  0.0788131706069859  0.6791951885110973  0.0260260176397459   T   T   T
  0.4121322993367843  0.6791731656691884  0.0260483941045644   T   T   T
  0.7453843861664765  0.6791416976747330  0.0260394649135538   T   T   T
  0.0795469425764514  0.9291393784161658  0.0259661696320189   T   T   T
  0.4119936116642764  0.9290114931244620  0.0260331354273464   T   T   T
  0.7451451849871419  0.9290097349609424  0.0260407126712000   T   T   T
  0.3274498905644735  0.5290170966303863  0.0440737213691740   T   T   T
  0.6607880358596202  0.5290215685489917  0.0440975080584427   T   T   T
  0.9940646533899141  0.5290090390892370  0.0440963311434530   T   T   T
  0.3274879989033788  0.7789059398903543  0.0441193209707996   T   T   T
  0.6606953980148054  0.7789202310715266  0.0441205202307961   T   T   T
  0.9940861182480165  0.7789880837852472  0.0441087850269036   T   T   T
  0.8321081651342753  0.9040456602095258  0.2065727243145050   T   T   T
  0.8319971775090429  0.6537544910406961  0.2065068412820232   T   T   T
  0.1659052878347499  0.6537204468251133  0.2064938476095154   T   T   T
  0.4986347423716619  0.6536669618375170  0.2065587147869647   T   T   T
  0.1654846257481895  0.9040082810240853  0.2065600452029269   T   T   T
  0.4989573231158406  0.9039320064533274  0.2065776607231332   T   T   T
  0.0848404704574654  0.5535539985743886  0.2242505866467071   T   T   T
  0.4165420080803808  0.5507780295547718  0.2246005253766613   T   T   T
  0.7520037056288231  0.5534862714001094  0.2241824033483829   T   T   T
  0.0821537857804749  0.8039312177003873  0.2245462325548163   T   T   T
  0.4145543945913962  0.8041089299801525  0.2246178396939781   T   T   T
  0.7499733054553638  0.8035678225652360  0.2244681835824428   T   T   T
  0.1722838459420906  0.1686931638712826  0.0330820809407917   T   T   T
  0.5055721222219672  0.1690440940059977  0.0332438436556517   T   T   T
  0.8387026740036589  0.1686956263230498  0.0330931317313867   T   T   T
  0.1722450129028696  0.4188088828675111  0.0330966157607418   T   T   T
  0.5057779087838911  0.4186467059429867  0.0330299262909415   T   T   T
  0.8385129529501235  0.4188361129083238  0.0331289602767533   T   T   T
  0.3214313298304878  0.0438954093037979  0.2175695792519502   T   T   T
  0.6542395366329630  0.0438120608998204  0.2175940006693753   T   T   T
  0.9881373308853302  0.0439172144531831  0.2174492300942461   T   T   T
  0.3042512045146686  0.2986721633725097  0.2168740173352874   T   T   T
  0.6778369672411043  0.2936747053064711  0.2179039619379808   T   T   T
  0.9912426537943029  0.2925008671904567  0.2172783779237801   T   T   T
  0.5243233379556814  0.2741147568776141  0.2956301782901610   T   T   T
  0.3899031731474104  0.1324542432585827  0.3005294947859483   T   T   T
  0.5358621641957492  0.3805737481434313  0.3310032066106929   T   T   T
  0.4801149871772113  0.2530475929977368  0.2499165041748451   T   T   T
  0.1721463792628467  0.6688153533116669  0.0331283793156498   T   T   T
  0.5055099590943684  0.6689186204507672  0.0331547942022605   T   T   T
  0.8387841291912563  0.6688775222847059  0.0331387168179519   T   T   T
  0.1726666540053846  0.9188413100242693  0.0331521936436448   T   T   T
  0.5053706532683503  0.9188917131548804  0.0331566697934094   T   T   T
  0.8385524503959444  0.9188822554469327  0.0331467192551019   T   T   T
  0.3220842931100969  0.5447822792083449  0.2174048806228643   T   T   T
  0.6566460422736214  0.5445607682305653  0.2176140348611352   T   T   T
  0.9898921793825596  0.5443675507955942  0.2175291583161646   T   T   T
  0.3210786100174123  0.7939716106085331  0.2175345698442734   T   T   T
  0.6558025117071444  0.7941996139960401  0.2175106346957227   T   T   T
  0.9883264502455037  0.7939219556946484  0.2175538052638499   T   T   T
  0.4965006959258045  0.1239243280424097  0.0589454692685555   T   T   T
  0.8297598707316622  0.1238273519906646  0.0588390634458905   T   T   T
  0.1631434324178130  0.3738610562505189  0.0588409970438643   T   T   T
  0.4965153904834751  0.3737947878797995  0.0587991216052078   T   T   T
  0.8297156437369857  0.3738652094757614  0.0588704143102558   T   T   T
  0.1631115938695382  0.1238103870889798  0.0588238045036123   T   T   T
  0.9959028555238975  0.0002875618495184  0.1387278011852984   T   T   T
  0.3296437218534960  0.0006370095669223  0.1388428150324786   T   T   T
  0.6622616672469247  0.0006780587271490  0.1388559687441862   T   T   T
  0.9959294163847429  0.2505644363088396  0.1387324841703157   T   T   T
  0.3290475298499265  0.2509655339484733  0.1389236376158201   T   T   T
  0.6625523754281328  0.2508983486626697  0.1389127771064564   T   T   T
  0.1627405003485028  0.1249242368390073  0.1649507229905265   T   T   T
  0.4959264890073830  0.1265273049092719  0.1655602455879249   T   T   T
  0.8296076893836636  0.1250392404771463  0.1649703364292142   T   T   T
  0.1628347067803962  0.3755648484797044  0.1651526472859993   T   T   T
  0.4958380694983280  0.3762687095708534  0.1658619817745537   T   T   T
  0.8292758645600965  0.3755352793205197  0.1652359585398846   T   T   T
  0.3324239897682907  0.4968437851932616  0.1919508935973620   T   T   T
  0.6596913802201384  0.4968396702950336  0.1921276195286763   T   T   T
  0.9962861419575560  0.4989263429837428  0.1917783193409056   T   T   T
  0.3267002463864991  0.2509284462570650  0.1921269846876987   T   T   T
  0.9966526058247894  0.2479883855885054  0.1913825669382986   T   T   T
  0.6648373227749644  0.2498036986803823  0.1918829438946770   T   T   T
  0.9960165418499131  0.0002448534594973  0.0855042176088847   T   T   T
  0.3293929451024897  0.0003099592536736  0.0855644671614431   T   T   T
  0.6626460484989669  0.0002895201390775  0.0855750584284484   T   T   T
  0.9960326319524772  0.2502943260087584  0.0854998184816672   T   T   T
  0.3292787545345229  0.2503307006057222  0.0855534444419290   T   T   T
  0.6627646447091603  0.2503034611620273  0.0855792827855811   T   T   T
  0.1625642159126580  0.1255310446398382  0.1118405646437362   T   T   T
  0.4958983532475508  0.1257036457128139  0.1120366209822511   T   T   T
  0.8291973992203810  0.1255548339828338  0.1118523308915017   T   T   T
  0.1626335172729679  0.3755463615965127  0.1119045026719103   T   T   T
  0.4958570143773177  0.3755431151585246  0.1118748720544798   T   T   T
  0.8291108883952639  0.3755819260939438  0.1119391580047707   T   T   T
  0.4964830255008369  0.6238447332879705  0.0588772064346372   T   T   T
  0.8297605825022525  0.6238971213818815  0.0588741670383358   T   T   T
  0.1632452242748388  0.8738407579444868  0.0588687403475817   T   T   T
  0.4964770995720833  0.8738418037765038  0.0588761638637507   T   T   T
  0.8297002473414264  0.8738695466595879  0.0588684923917105   T   T   T
  0.1631112481033010  0.6238648313174209  0.0588611054400107   T   T   T
  0.9958645875124804  0.5005036068222589  0.1388467347552004   T   T   T
  0.3298335314314267  0.5003455895392372  0.1389267641326283   T   T   T
  0.6618227692707996  0.5002964903897150  0.1389743885573785   T   T   T
  0.9959435012968794  0.7504719722041946  0.1387869630506910   T   T   T
  0.3293733006748093  0.7502689664257514  0.1388160159691890   T   T   T
  0.6625294047310727  0.7502678058038452  0.1388107501043314   T   T   T
  0.1629551105102945  0.6250705694496845  0.1651340682364778   T   T   T
  0.4961745197723729  0.6245325732373299  0.1652254202761002   T   T   T
  0.8291651154420457  0.6250411844375011  0.1651594463749983   T   T   T
  0.1629213173179596  0.8751836876464526  0.1651407896477296   T   T   T
  0.4962391887900353  0.8751627036341291  0.1651589505391697   T   T   T
  0.8294488589612889  0.8752039429353035  0.1651542759345858   T   T   T
  0.3296712977500885  0.9989770529391827  0.1918218830790635   T   T   T
  0.6629468893825662  0.9990181247471648  0.1918329245265859   T   T   T
  0.9963092357045397  0.9988895046607478  0.1917221156485712   T   T   T
  0.3297650503173599  0.7486279499663129  0.1918216685031839   T   T   T
  0.9964055628843121  0.7487344540114131  0.1918203316449046   T   T   T
  0.6630123090963702  0.7486765570570362  0.1918209632369480   T   T   T
  0.9960130067193995  0.5002618946094987  0.0855487255430102   T   T   T
  0.3294175975634510  0.5002482609445122  0.0855433866758346   T   T   T
  0.6625846350280808  0.5002357758208394  0.0855680561770915   T   T   T
  0.9960674487881690  0.7502740368276916  0.0855514070951695   T   T   T
  0.3293924054748885  0.7501782150316345  0.0855581186067117   T   T   T
  0.6627079732217517  0.7501776490268823  0.0855580956749416   T   T   T
  0.1626289697404358  0.6253622401371706  0.1119043536139238   T   T   T
  0.4959360841890573  0.6252994538444464  0.1119325418627633   T   T   T
  0.8290818958304050  0.6253945751516417  0.1119191860827630   T   T   T
  0.1627473131219549  0.8754441604140735  0.1118875268694138   T   T   T
  0.4959753630249956  0.8754031921177896  0.1118929970527880   T   T   T
  0.8290449010522882  0.8754914877579565  0.1118935600952573   T   T   T
 
  0.00000000E+00  0.00000000E+00  0.00000000E+00
  0.00000000E+00  0.00000000E+00  0.00000000E+00
  0.00000000E+00  0.00000000E+00  0.00000000E+00
  0.00000000E+00  0.00000000E+00  0.00000000E+00
  0.00000000E+00  0.00000000E+00  0.00000000E+00
  0.00000000E+00  0.00000000E+00  0.00000000E+00
  0.00000000E+00  0.00000000E+00  0.00000000E+00
  0.00000000E+00  0.00000000E+00  0.00000000E+00
  0.00000000E+00  0.00000000E+00  0.00000000E+00
  0.00000000E+00  0.00000000E+00  0.00000000E+00
  0.00000000E+00  0.00000000E+00  0.00000000E+00
  0.00000000E+00  0.00000000E+00  0.00000000E+00
  0.00000000E+00  0.00000000E+00  0.00000000E+00
  0.00000000E+00  0.00000000E+00  0.00000000E+00
  0.00000000E+00  0.00000000E+00  0.00000000E+00
  0.00000000E+00  0.00000000E+00  0.00000000E+00
  0.00000000E+00  0.00000000E+00  0.00000000E+00
  0.00000000E+00  0.00000000E+00  0.00000000E+00
  0.00000000E+00  0.00000000E+00  0.00000000E+00
  0.00000000E+00  0.00000000E+00  0.00000000E+00
  0.00000000E+00  0.00000000E+00  0.00000000E+00
  0.00000000E+00  0.00000000E+00  0.00000000E+00
  0.00000000E+00  0.00000000E+00  0.00000000E+00
  0.00000000E+00  0.00000000E+00  0.00000000E+00
  0.00000000E+00  0.00000000E+00  0.00000000E+00
  0.00000000E+00  0.00000000E+00  0.00000000E+00
  0.00000000E+00  0.00000000E+00  0.00000000E+00
  0.00000000E+00  0.00000000E+00  0.00000000E+00
  0.00000000E+00  0.00000000E+00  0.00000000E+00
  0.00000000E+00  0.00000000E+00  0.00000000E+00
  0.00000000E+00  0.00000000E+00  0.00000000E+00
  0.00000000E+00  0.00000000E+00  0.00000000E+00
  0.00000000E+00  0.00000000E+00  0.00000000E+00
  0.00000000E+00  0.00000000E+00  0.00000000E+00
  0.00000000E+00  0.00000000E+00  0.00000000E+00
  0.00000000E+00  0.00000000E+00  0.00000000E+00
  0.00000000E+00  0.00000000E+00  0.00000000E+00
  0.00000000E+00  0.00000000E+00  0.00000000E+00
  0.00000000E+00  0.00000000E+00  0.00000000E+00
  0.00000000E+00  0.00000000E+00  0.00000000E+00
  0.00000000E+00  0.00000000E+00  0.00000000E+00
  0.00000000E+00  0.00000000E+00  0.00000000E+00
  0.00000000E+00  0.00000000E+00  0.00000000E+00
  0.00000000E+00  0.00000000E+00  0.00000000E+00
  0.00000000E+00  0.00000000E+00  0.00000000E+00
  0.00000000E+00  0.00000000E+00  0.00000000E+00
  0.00000000E+00  0.00000000E+00  0.00000000E+00
  0.00000000E+00  0.00000000E+00  0.00000000E+00
  0.00000000E+00  0.00000000E+00  0.00000000E+00
  0.00000000E+00  0.00000000E+00  0.00000000E+00
  0.00000000E+00  0.00000000E+00  0.00000000E+00
  0.00000000E+00  0.00000000E+00  0.00000000E+00
  0.00000000E+00  0.00000000E+00  0.00000000E+00
  0.00000000E+00  0.00000000E+00  0.00000000E+00
  0.00000000E+00  0.00000000E+00  0.00000000E+00
  0.00000000E+00  0.00000000E+00  0.00000000E+00
  0.00000000E+00  0.00000000E+00  0.00000000E+00
  0.00000000E+00  0.00000000E+00  0.00000000E+00
  0.00000000E+00  0.00000000E+00  0.00000000E+00
  0.00000000E+00  0.00000000E+00  0.00000000E+00
  0.00000000E+00  0.00000000E+00  0.00000000E+00
  0.00000000E+00  0.00000000E+00  0.00000000E+00
  0.00000000E+00  0.00000000E+00  0.00000000E+00
  0.00000000E+00  0.00000000E+00  0.00000000E+00
  0.00000000E+00  0.00000000E+00  0.00000000E+00
  0.00000000E+00  0.00000000E+00  0.00000000E+00
  0.00000000E+00  0.00000000E+00  0.00000000E+00
  0.00000000E+00  0.00000000E+00  0.00000000E+00
  0.00000000E+00  0.00000000E+00  0.00000000E+00
  0.00000000E+00  0.00000000E+00  0.00000000E+00
  0.00000000E+00  0.00000000E+00  0.00000000E+00
  0.00000000E+00  0.00000000E+00  0.00000000E+00
  0.00000000E+00  0.00000000E+00  0.00000000E+00
  0.00000000E+00  0.00000000E+00  0.00000000E+00
  0.00000000E+00  0.00000000E+00  0.00000000E+00
  0.00000000E+00  0.00000000E+00  0.00000000E+00
  0.00000000E+00  0.00000000E+00  0.00000000E+00
  0.00000000E+00  0.00000000E+00  0.00000000E+00
  0.00000000E+00  0.00000000E+00  0.00000000E+00
  0.00000000E+00  0.00000000E+00  0.00000000E+00
  0.00000000E+00  0.00000000E+00  0.00000000E+00
  0.00000000E+00  0.00000000E+00  0.00000000E+00
  0.00000000E+00  0.00000000E+00  0.00000000E+00
  0.00000000E+00  0.00000000E+00  0.00000000E+00
  0.00000000E+00  0.00000000E+00  0.00000000E+00
  0.00000000E+00  0.00000000E+00  0.00000000E+00
  0.00000000E+00  0.00000000E+00  0.00000000E+00
  0.00000000E+00  0.00000000E+00  0.00000000E+00
  0.00000000E+00  0.00000000E+00  0.00000000E+00
  0.00000000E+00  0.00000000E+00  0.00000000E+00
  0.00000000E+00  0.00000000E+00  0.00000000E+00
  0.00000000E+00  0.00000000E+00  0.00000000E+00
  0.00000000E+00  0.00000000E+00  0.00000000E+00
  0.00000000E+00  0.00000000E+00  0.00000000E+00
  0.00000000E+00  0.00000000E+00  0.00000000E+00
  0.00000000E+00  0.00000000E+00  0.00000000E+00
  0.00000000E+00  0.00000000E+00  0.00000000E+00
  0.00000000E+00  0.00000000E+00  0.00000000E+00
  0.00000000E+00  0.00000000E+00  0.00000000E+00
  0.00000000E+00  0.00000000E+00  0.00000000E+00
  0.00000000E+00  0.00000000E+00  0.00000000E+00
  0.00000000E+00  0.00000000E+00  0.00000000E+00
  0.00000000E+00  0.00000000E+00  0.00000000E+00
  0.00000000E+00  0.00000000E+00  0.00000000E+00
  0.00000000E+00  0.00000000E+00  0.00000000E+00
  0.00000000E+00  0.00000000E+00  0.00000000E+00
  0.00000000E+00  0.00000000E+00  0.00000000E+00
  0.00000000E+00  0.00000000E+00  0.00000000E+00
  0.00000000E+00  0.00000000E+00  0.00000000E+00
  0.00000000E+00  0.00000000E+00  0.00000000E+00
  0.00000000E+00  0.00000000E+00  0.00000000E+00
  0.00000000E+00  0.00000000E+00  0.00000000E+00
  0.00000000E+00  0.00000000E+00  0.00000000E+00
  0.00000000E+00  0.00000000E+00  0.00000000E+00
  0.00000000E+00  0.00000000E+00  0.00000000E+00
  0.00000000E+00  0.00000000E+00  0.00000000E+00
  0.00000000E+00  0.00000000E+00  0.00000000E+00
  0.00000000E+00  0.00000000E+00  0.00000000E+00
  0.00000000E+00  0.00000000E+00  0.00000000E+00
  0.00000000E+00  0.00000000E+00  0.00000000E+00
  0.00000000E+00  0.00000000E+00  0.00000000E+00
  0.00000000E+00  0.00000000E+00  0.00000000E+00
  0.00000000E+00  0.00000000E+00  0.00000000E+00
  0.00000000E+00  0.00000000E+00  0.00000000E+00
  0.00000000E+00  0.00000000E+00  0.00000000E+00
  0.00000000E+00  0.00000000E+00  0.00000000E+00
  0.00000000E+00  0.00000000E+00  0.00000000E+00
  0.00000000E+00  0.00000000E+00  0.00000000E+00
  0.00000000E+00  0.00000000E+00  0.00000000E+00
  0.00000000E+00  0.00000000E+00  0.00000000E+00
  0.00000000E+00  0.00000000E+00  0.00000000E+00
  0.00000000E+00  0.00000000E+00  0.00000000E+00
  0.00000000E+00  0.00000000E+00  0.00000000E+00
  0.00000000E+00  0.00000000E+00  0.00000000E+00
  0.00000000E+00  0.00000000E+00  0.00000000E+00
  0.00000000E+00  0.00000000E+00  0.00000000E+00
  0.00000000E+00  0.00000000E+00  0.00000000E+00
  0.00000000E+00  0.00000000E+00  0.00000000E+00
  0.00000000E+00  0.00000000E+00  0.00000000E+00
  0.00000000E+00  0.00000000E+00  0.00000000E+00
  0.00000000E+00  0.00000000E+00  0.00000000E+00
  0.00000000E+00  0.00000000E+00  0.00000000E+00
  0.00000000E+00  0.00000000E+00  0.00000000E+00
  0.00000000E+00  0.00000000E+00  0.00000000E+00
  0.00000000E+00  0.00000000E+00  0.00000000E+00
  0.00000000E+00  0.00000000E+00  0.00000000E+00
  0.00000000E+00  0.00000000E+00  0.00000000E+00
  0.00000000E+00  0.00000000E+00  0.00000000E+00
  0.00000000E+00  0.00000000E+00  0.00000000E+00
  0.00000000E+00  0.00000000E+00  0.00000000E+00
  0.00000000E+00  0.00000000E+00  0.00000000E+00
  0.00000000E+00  0.00000000E+00  0.00000000E+00
  0.00000000E+00  0.00000000E+00  0.00000000E+00
  0.00000000E+00  0.00000000E+00  0.00000000E+00
  0.00000000E+00  0.00000000E+00  0.00000000E+00
  0.00000000E+00  0.00000000E+00  0.00000000E+00
  0.00000000E+00  0.00000000E+00  0.00000000E+00
  0.00000000E+00  0.00000000E+00  0.00000000E+00
  0.00000000E+00  0.00000000E+00  0.00000000E+00
  0.00000000E+00  0.00000000E+00  0.00000000E+00
  0.00000000E+00  0.00000000E+00  0.00000000E+00
  0.00000000E+00  0.00000000E+00  0.00000000E+00
  0.00000000E+00  0.00000000E+00  0.00000000E+00
  0.00000000E+00  0.00000000E+00  0.00000000E+00
  0.00000000E+00  0.00000000E+00  0.00000000E+00
  0.00000000E+00  0.00000000E+00  0.00000000E+00
  0.00000000E+00  0.00000000E+00  0.00000000E+00
  0.00000000E+00  0.00000000E+00  0.00000000E+00
  0.00000000E+00  0.00000000E+00  0.00000000E+00
  0.00000000E+00  0.00000000E+00  0.00000000E+00
  0.00000000E+00  0.00000000E+00  0.00000000E+00
  0.00000000E+00  0.00000000E+00  0.00000000E+00
  0.00000000E+00  0.00000000E+00  0.00000000E+00
  0.00000000E+00  0.00000000E+00  0.00000000E+00
  0.00000000E+00  0.00000000E+00  0.00000000E+00
  0.00000000E+00  0.00000000E+00  0.00000000E+00
  0.00000000E+00  0.00000000E+00  0.00000000E+00
  0.00000000E+00  0.00000000E+00  0.00000000E+00
  0.00000000E+00  0.00000000E+00  0.00000000E+00
  0.00000000E+00  0.00000000E+00  0.00000000E+00
  0.00000000E+00  0.00000000E+00  0.00000000E+00
  0.00000000E+00  0.00000000E+00  0.00000000E+00
  0.00000000E+00  0.00000000E+00  0.00000000E+00
  0.00000000E+00  0.00000000E+00  0.00000000E+00
  0.00000000E+00  0.00000000E+00  0.00000000E+00
  0.00000000E+00  0.00000000E+00  0.00000000E+00
  0.00000000E+00  0.00000000E+00  0.00000000E+00
  0.00000000E+00  0.00000000E+00  0.00000000E+00
  0.00000000E+00  0.00000000E+00  0.00000000E+00
  0.00000000E+00  0.00000000E+00  0.00000000E+00
  0.00000000E+00  0.00000000E+00  0.00000000E+00
  0.00000000E+00  0.00000000E+00  0.00000000E+00
  0.00000000E+00  0.00000000E+00  0.00000000E+00
  0.00000000E+00  0.00000000E+00  0.00000000E+00
  0.00000000E+00  0.00000000E+00  0.00000000E+00
  0.00000000E+00  0.00000000E+00  0.00000000E+00
  0.00000000E+00  0.00000000E+00  0.00000000E+00
  0.00000000E+00  0.00000000E+00  0.00000000E+00
  0.00000000E+00  0.00000000E+00  0.00000000E+00
  0.00000000E+00  0.00000000E+00  0.00000000E+00
  0.00000000E+00  0.00000000E+00  0.00000000E+00
  0.00000000E+00  0.00000000E+00  0.00000000E+00
  0.00000000E+00  0.00000000E+00  0.00000000E+00
  0.00000000E+00  0.00000000E+00  0.00000000E+00
  0.00000000E+00  0.00000000E+00  0.00000000E+00
  0.00000000E+00  0.00000000E+00  0.00000000E+00
  0.00000000E+00  0.00000000E+00  0.00000000E+00
  0.00000000E+00  0.00000000E+00  0.00000000E+00
  0.00000000E+00  0.00000000E+00  0.00000000E+00
  0.00000000E+00  0.00000000E+00  0.00000000E+00
  0.00000000E+00  0.00000000E+00  0.00000000E+00
  0.00000000E+00  0.00000000E+00  0.00000000E+00
  0.00000000E+00  0.00000000E+00  0.00000000E+00
  0.00000000E+00  0.00000000E+00  0.00000000E+00
  0.00000000E+00  0.00000000E+00  0.00000000E+00
  0.00000000E+00  0.00000000E+00  0.00000000E+00
  0.00000000E+00  0.00000000E+00  0.00000000E+00
  0.00000000E+00  0.00000000E+00  0.00000000E+00
  0.00000000E+00  0.00000000E+00  0.00000000E+00
  0.00000000E+00  0.00000000E+00  0.00000000E+00
  0.00000000E+00  0.00000000E+00  0.00000000E+00
  0.00000000E+00  0.00000000E+00  0.00000000E+00
  0.00000000E+00  0.00000000E+00  0.00000000E+00
  0.00000000E+00  0.00000000E+00  0.00000000E+00
  0.00000000E+00  0.00000000E+00  0.00000000E+00
  0.00000000E+00  0.00000000E+00  0.00000000E+00
  0.00000000E+00  0.00000000E+00  0.00000000E+00
  0.00000000E+00  0.00000000E+00  0.00000000E+00
  0.00000000E+00  0.00000000E+00  0.00000000E+00
