C H O Si                                
   1.00000000000000     
     9.2874599999999994    0.0000000000000000    0.0000000000000000
     0.0000000000000000   17.5126199999999983    0.0000000000000000
     0.0000000000000000    0.0000000000000000   58.0000000000000000
   C    H    O    Si
    72    57    28    72
Selective dynamics
Direct
  0.9963753274560123  0.0651328135520614  0.0595688763978769   T   T   T
  0.3297690939014443  0.0652483550355890  0.0596220667881495   T   T   T
  0.6630624936264865  0.0652320049917501  0.0596273363355971   T   T   T
  0.9963816285159949  0.3152539241213757  0.0595664287003214   T   T   T
  0.3297023592526887  0.3151405354587740  0.0595654013083501   T   T   T
  0.6630990893410791  0.3151400935343259  0.0595858178900667   T   T   T
  0.1625848902848345  0.1879466431442331  0.1384153466440844   T   T   T
  0.4959283618710417  0.1882715071829389  0.1386977205197190   T   T   T
  0.8292201784723371  0.1880037124832854  0.1384302154245501   T   T   T
  0.1626183594179829  0.4380824880847670  0.1384903141338848   T   T   T
  0.4958978849291374  0.4374684704790262  0.1383337541566300   T   T   T
  0.8292711715603490  0.4380291318775403  0.1385508276884202   T   T   T
  0.3298153574911852  0.0633177838773071  0.1657456375999311   T   T   T
  0.6619812566895538  0.0634071808448354  0.1657807085307280   T   T   T
  0.9957763317602840  0.0626768413648267  0.1655127728829819   T   T   T
  0.3286676239910764  0.3133688281325303  0.1656949250474029   T   T   T
  0.6627254524325815  0.3133312239740835  0.1657453875605921   T   T   T
  0.9958226832975708  0.3131226936501422  0.1655411934167829   T   T   T
  0.1629604474376646  0.1892842747158425  0.1905979600630325   T   T   T
  0.4958179425210033  0.1924413971847160  0.1917053484045246   T   T   T
  0.8298490326449007  0.1896001273871698  0.1907114126355547   T   T   T
  0.1626296921234310  0.4405134375128001  0.1909569994158715   T   T   T
  0.4962583474655543  0.4415383950144113  0.1902109212395224   T   T   T
  0.8300127634374987  0.4403772897356109  0.1910804166357505   T   T   T
  0.1625425648388026  0.1880523081493752  0.0848999555112259   T   T   T
  0.4959084020801894  0.1881429900700138  0.0850485810594861   T   T   T
  0.8292724676174756  0.1880641927848955  0.0849119172163758   T   T   T
  0.1624724350688453  0.4381043506891924  0.0849378464233203   T   T   T
  0.4957921800715149  0.4380574511099715  0.0848252728585124   T   T   T
  0.8291089368156337  0.4381241103274553  0.0849660971444655   T   T   T
  0.3290690612958437  0.0630282810665462  0.1121937502793916   T   T   T
  0.6622806384271632  0.0630393171933642  0.1121999152671423   T   T   T
  0.9956937254853638  0.0629137148054196  0.1121176044380980   T   T   T
  0.3289975604111579  0.3129143055591597  0.1121296511640888   T   T   T
  0.6624678677643521  0.3129730134942598  0.1121401992162615   T   T   T
  0.9957504156074126  0.3129835526771239  0.1120992241120025   T   T   T
  0.9963664225267219  0.5652851067440162  0.0596150138168656   T   T   T
  0.3296824205446148  0.5652894245427921  0.0596016083373805   T   T   T
  0.6630538844658477  0.5652942600052748  0.0596133176946902   T   T   T
  0.9964255093112324  0.8153231759160786  0.0596123755925107   T   T   T
  0.3297894193574316  0.8152317766154117  0.0596221918663370   T   T   T
  0.6630584983367122  0.8152424092975012  0.0596131433693344   T   T   T
  0.1624279587159475  0.6881504912738217  0.1385058828919477   T   T   T
  0.4960458703577731  0.6878628072764130  0.1385697087358817   T   T   T
  0.8294441311410778  0.6880895846501633  0.1385169794909935   T   T   T
  0.1629969001640284  0.9380023128649306  0.1385324960392865   T   T   T
  0.4960551794284185  0.9379275726529837  0.1385368102928054   T   T   T
  0.8290471413824319  0.9379752537593150  0.1385432448886939   T   T   T
  0.3284362427457140  0.5633015587708834  0.1657082818437238   T   T   T
  0.6631882303206570  0.5631686529603872  0.1657988454070834   T   T   T
  0.9957215847172135  0.5634020825941827  0.1656648631708999   T   T   T
  0.3293800423041689  0.8131269508971444  0.1657085401932299   T   T   T
  0.6625859941734958  0.8131258209115791  0.1657045536820105   T   T   T
  0.9959507193156842  0.8131839033256999  0.1656994508543075   T   T   T
  0.1631593608304100  0.6902749491285506  0.1910159704748581   T   T   T
  0.4966043168465258  0.6902281613986371  0.1910621490435307   T   T   T
  0.8299655252350107  0.6903016816587338  0.1910294009145723   T   T   T
  0.1632656903816654  0.9403110170244307  0.1910292747203063   T   T   T
  0.4964803224308762  0.9403250893974877  0.1910618706341986   T   T   T
  0.8297617661796441  0.9403006909672921  0.1910480563551607   T   T   T
  0.1625771695048348  0.6881474229302990  0.0849795215621882   T   T   T
  0.4959525437883303  0.6881005586895460  0.0849950338509077   T   T   T
  0.8293099867265170  0.6881648190113252  0.0849830763282367   T   T   T
  0.1626256677393856  0.9381243106295779  0.0849794249686544   T   T   T
  0.4958416659581162  0.9381273553472016  0.0849869470860971   T   T   T
  0.8290686290176377  0.9381482876191874  0.0849831028803148   T   T   T
  0.3290210475206635  0.5629227295218369  0.1121385759468322   T   T   T
  0.6623596252511731  0.5628840700394111  0.1121642575314409   T   T   T
  0.9957078847887401  0.5629795015671951  0.1121681258867054   T   T   T
  0.3291432783153171  0.8129505623527004  0.1121681103960029   T   T   T
  0.6623836067513741  0.8129243489176303  0.1121685938749892   T   T   T
  0.9957963767050829  0.8131339886403964  0.1121573755638473   T   T   T
  0.0790285022361506  0.1790440232671681  0.0259541184702094   T   T   T
  0.4122461198742211  0.1791392366468936  0.0261230038810471   T   T   T
  0.7453140793520509  0.1790194444492158  0.0260236744620045   T   T   T
  0.0789447001706031  0.4290942044469714  0.0259777391450940   T   T   T
  0.4125020489160763  0.4288276302055857  0.0259185587478034   T   T   T
  0.7450199934542000  0.4288836005848097  0.0260639638966150   T   T   T
  0.3279331635697480  0.0288829689995550  0.0441289917253286   T   T   T
  0.6604872073134719  0.0288803900307710  0.0441337209826910   T   T   T
  0.9940923448398702  0.0288407779960933  0.0440624105281394   T   T   T
  0.3272007060678565  0.2787385238994011  0.0440798149059663   T   T   T
  0.6612523412289286  0.2787377888191365  0.0441010647609537   T   T   T
  0.9941158548640837  0.2789409575923272  0.0440607249881258   T   T   T
  0.8327843984914255  0.4039439395484621  0.2065465099502269   T   T   T
  0.8327792127618683  0.1534618357579005  0.2062479688318467   T   T   T
  0.1651622597292262  0.1535989578120723  0.2062353251664343   T   T   T
  0.4984255520347217  0.1558373317642524  0.2071495701368445   T   T   T
  0.1650314412036353  0.4039064356996717  0.2063766155188065   T   T   T
  0.5397958656978059  0.4643098803992537  0.2612421780380781   T   T   T
  0.0819897828449326  0.0548905038997241  0.2243538663149058   T   T   T
  0.4153234427389382  0.0548552435614228  0.2244810154880092   T   T   T
  0.7478087408175157  0.0549588370191337  0.2245775029010010   T   T   T
  0.0893708223100874  0.3029643530988855  0.2228790988921722   T   T   T
  0.3670374156985543  0.2842442818313987  0.2303615407873335   T   T   T
  0.7785982323575592  0.2984054946166562  0.2228740923943541   T   T   T
  0.4952331763579806  0.2706842242883969  0.2659901240699753   T   T   T
  0.4701634476266313  0.2281936506791064  0.3004278798606275   T   T   T
  0.5184793819214424  0.3125627869762999  0.3081614983544424   T   T   T
  0.2891885612133092  0.1365312224569530  0.2959217241335567   T   T   T
  0.4377464133364987  0.1081215619650107  0.2874292695388938   T   T   T
  0.6377687597716696  0.3857720807076534  0.3348263867328699   T   T   T
  0.5036202610971566  0.4320766412253980  0.3272661394764685   T   T   T
  0.5041129876221739  0.4386668656976474  0.2699092540279256   T   T   T
  0.5655485723121196  0.2682316538472598  0.2406837514835931   T   T   T
  0.0787870650625702  0.6791314928164403  0.0260338385330476   T   T   T
  0.4121307596110041  0.6791136493291577  0.0260556894843824   T   T   T
  0.7453734982406819  0.6790767790899823  0.0260474823540066   T   T   T
  0.0795592163585808  0.9290560205442921  0.0259757601882159   T   T   T
  0.4119660733771039  0.9289550087564024  0.0260333345377698   T   T   T
  0.7451623453249465  0.9289340442036750  0.0260498399150946   T   T   T
  0.3275497201193012  0.5290702338759189  0.0440808177318827   T   T   T
  0.6608970323779663  0.5290505312772408  0.0440940722639579   T   T   T
  0.9941736956981474  0.5290615433700809  0.0440924546719359   T   T   T
  0.3276083014680091  0.7789204167710061  0.0441226154795104   T   T   T
  0.6607839318384473  0.7789156642408290  0.0441157222967975   T   T   T
  0.9942040720811370  0.7789925110923424  0.0441086579864648   T   T   T
  0.8321818665695604  0.9040804769317971  0.2065668101097702   T   T   T
  0.8321064153276980  0.6538034076354499  0.2064933052479719   T   T   T
  0.1659786462995595  0.6538023289681808  0.2064807173864735   T   T   T
  0.4986906735590767  0.6537552492175492  0.2065393959226377   T   T   T
  0.1655438726123039  0.9040479449396137  0.2065463824760580   T   T   T
  0.4990692210076528  0.9039758310098327  0.2065574280059122   T   T   T
  0.0849709983791596  0.5535571687572529  0.2242652602735164   T   T   T
  0.4167658081929596  0.5508118472428475  0.2246146589344874   T   T   T
  0.7521532637304275  0.5534776828550838  0.2242246908642361   T   T   T
  0.0822904035671585  0.8039315427108528  0.2245614109423451   T   T   T
  0.4146504276907390  0.8041291062248225  0.2246422875239770   T   T   T
  0.7501865763212804  0.8035424445372690  0.2244812268485856   T   T   T
  0.1723255972070946  0.1686721505474277  0.0330665162834707   T   T   T
  0.5056662367196574  0.1690034041162309  0.0332365734882889   T   T   T
  0.8388222744001645  0.1686482162897590  0.0330693874155277   T   T   T
  0.1722773383909148  0.4187500496900289  0.0330779895402097   T   T   T
  0.5059340291205926  0.4186805966296522  0.0330217299589401   T   T   T
  0.8386515300617131  0.4187496206963989  0.0331026148909014   T   T   T
  0.3216565056029913  0.0439115193623380  0.2175660885248134   T   T   T
  0.6544938705182758  0.0437951054912992  0.2175865564976481   T   T   T
  0.9883428062630376  0.0438305592928106  0.2174442631630496   T   T   T
  0.3050256947155767  0.2988487076614955  0.2168224811501427   T   T   T
  0.6777440519730517  0.2938993056075545  0.2179216108446092   T   T   T
  0.9912372903106047  0.2925546372173169  0.2172464159612199   T   T   T
  0.5244408344907679  0.2741312421541865  0.2956276854501784   T   T   T
  0.3898507718663173  0.1321746526083612  0.3005056718516115   T   T   T
  0.5359893442904673  0.3806121137139397  0.3310199555771937   T   T   T
  0.4797331454713309  0.2533877034309121  0.2498620836810966   T   T   T
  0.1723180500987830  0.6687415075574192  0.0330817041017609   T   T   T
  0.5056194808123196  0.6687982361861410  0.0331202481541082   T   T   T
  0.8389091404598547  0.6687879701310457  0.0331045354044599   T   T   T
  0.1728008144144254  0.9187746606539664  0.0331292111061671   T   T   T
  0.5054410148929496  0.9187972343138718  0.0331202218777739   T   T   T
  0.8386270333423816  0.9187686365614831  0.0331313184565217   T   T   T
  0.3224251827270816  0.5444938644431401  0.2174188964752610   T   T   T
  0.6568115660828128  0.5444462035939842  0.2176584937855762   T   T   T
  0.9898735820774311  0.5443468013404875  0.2175929139030630   T   T   T
  0.3213328413598251  0.7938468726796690  0.2175293007990590   T   T   T
  0.6560357594779652  0.7941803290597916  0.2175190832105134   T   T   T
  0.9884781469777816  0.7938020405044165  0.2175770511899498   T   T   T
  0.4965595416597728  0.1238906532250072  0.0589502329551828   T   T   T
  0.8299154773473635  0.1238245418978872  0.0588278446257989   T   T   T
  0.1632518344852232  0.3738629930141485  0.0588369470789870   T   T   T
  0.4965777475623435  0.3738031152163341  0.0587847171420299   T   T   T
  0.8298399754603452  0.3738666794384101  0.0588719750122935   T   T   T
  0.1631835259146445  0.1238335141938152  0.0588133713504296   T   T   T
  0.9960301807876950  0.0002604258694693  0.1387472073788146   T   T   T
  0.3298108483631214  0.0006253051331760  0.1388571588238392   T   T   T
  0.6623400231995346  0.0006327966833157  0.1388727778868721   T   T   T
  0.9960015302400352  0.2505430351357804  0.1387493795587777   T   T   T
  0.3291926102184540  0.2509707047338135  0.1389523575459635   T   T   T
  0.6626722935143000  0.2509335091609097  0.1389240690474182   T   T   T
  0.1625777819868028  0.1249251931749255  0.1649513612965473   T   T   T
  0.4957614638143405  0.1265269108653982  0.1655527485225194   T   T   T
  0.8293413291987723  0.1250398206883738  0.1649714476607194   T   T   T
  0.1626753613447816  0.3755163998324614  0.1651654695381245   T   T   T
  0.4956794996666983  0.3763156113419254  0.1658933938581842   T   T   T
  0.8290852596048476  0.3754854140544731  0.1652273673465010   T   T   T
  0.3327217381274764  0.4968773475537246  0.1919478308813864   T   T   T
  0.6597532591689520  0.4968089727108075  0.1921465972331989   T   T   T
  0.9963935893106785  0.4989718340643724  0.1917991131327250   T   T   T
  0.3269063237350037  0.2508993360160106  0.1921156515653636   T   T   T
  0.9967388656931183  0.2479547397388038  0.1913682920198153   T   T   T
  0.6649124541411511  0.2498968624807565  0.1919014254885958   T   T   T
  0.9959225737850980  0.0002662422914899  0.0855231370198606   T   T   T
  0.3293406733908347  0.0003418235177750  0.0855660914118891   T   T   T
  0.6625293617783969  0.0003386064176399  0.0855699819948396   T   T   T
  0.9960471751668979  0.2503551343829540  0.0855119527915186   T   T   T
  0.3292789390074105  0.2503615223068857  0.0855572023012401   T   T   T
  0.6627214793457997  0.2503648667006375  0.0855604027602184   T   T   T
  0.1623418545277474  0.1255789352275846  0.1118463993656499   T   T   T
  0.4956655843061746  0.1257413912211492  0.1120327330450584   T   T   T
  0.8290536795960625  0.1255677537472794  0.1118531555708531   T   T   T
  0.1625446528461773  0.3755671061639945  0.1119122201938241   T   T   T
  0.4957072967080259  0.3755575347998478  0.1118652877218375   T   T   T
  0.8290439559807851  0.3755736665137075  0.1119408029117429   T   T   T
  0.4965439911700325  0.6238615046141330  0.0588753651182805   T   T   T
  0.8298688652203913  0.6238844867464904  0.0588642302237666   T   T   T
  0.1633287489225315  0.8738612360106287  0.0588646227390544   T   T   T
  0.4965461824292010  0.8738473368773677  0.0588632674597935   T   T   T
  0.8298140931984771  0.8738533702555528  0.0588692784255907   T   T   T
  0.1632193792762384  0.6238822501748309  0.0588604851605838   T   T   T
  0.9960079321704387  0.5004493788523768  0.1388709215528543   T   T   T
  0.3300278405282083  0.5003354050198962  0.1389339101808368   T   T   T
  0.6619383523539984  0.5003203117337622  0.1389828649906572   T   T   T
  0.9959672042209539  0.7504470367432018  0.1388035570561109   T   T   T
  0.3294033938570146  0.7502629187631678  0.1388297731162560   T   T   T
  0.6626853788763728  0.7502645213529986  0.1388306206370926   T   T   T
  0.1628157700040997  0.6250498456866388  0.1651353254120462   T   T   T
  0.4959855845465890  0.6245029519465112  0.1652330851631116   T   T   T
  0.8288755024082590  0.6250340895948526  0.1651627475515959   T   T   T
  0.1628390317135067  0.8752076677231315  0.1651466540775686   T   T   T
  0.4960346087557221  0.8752301427696800  0.1651722174164471   T   T   T
  0.8292248662755801  0.8752047951620634  0.1651609970409211   T   T   T
  0.3298190320728289  0.9990013129000590  0.1918189551981064   T   T   T
  0.6630846478474341  0.9989796202016752  0.1918429266010702   T   T   T
  0.9964463959891992  0.9988811405434508  0.1917146263764432   T   T   T
  0.3299146523301100  0.7486099816310707  0.1918079348559575   T   T   T
  0.9965487635282713  0.7487000615865244  0.1918191884706059   T   T   T
  0.6632181879897928  0.7486892435909853  0.1918239596118223   T   T   T
  0.9959036617506329  0.5002770109683004  0.0855590207913664   T   T   T
  0.3293320140455283  0.5002374465693853  0.0855293562915246   T   T   T
  0.6624183163319066  0.5002377109561442  0.0855463501665791   T   T   T
  0.9960543220591047  0.7503112213036792  0.0855462739058451   T   T   T
  0.3294255424729161  0.7502106667846935  0.0855500818008570   T   T   T
  0.6626752117695842  0.7502235169753875  0.0855459690995339   T   T   T
  0.1624881328319139  0.6254010724507210  0.1119149116585001   T   T   T
  0.4957198612474622  0.6253012630099563  0.1119336061135833   T   T   T
  0.8289722742843584  0.6253716471201418  0.1119180962040191   T   T   T
  0.1626274031089098  0.8754811886196925  0.1118905429099381   T   T   T
  0.4957782016803124  0.8753965366313016  0.1118976679949567   T   T   T
  0.8289610758481727  0.8754491107452358  0.1118914650375769   T   T   T
 
  0.00000000E+00  0.00000000E+00  0.00000000E+00
  0.00000000E+00  0.00000000E+00  0.00000000E+00
  0.00000000E+00  0.00000000E+00  0.00000000E+00
  0.00000000E+00  0.00000000E+00  0.00000000E+00
  0.00000000E+00  0.00000000E+00  0.00000000E+00
  0.00000000E+00  0.00000000E+00  0.00000000E+00
  0.00000000E+00  0.00000000E+00  0.00000000E+00
  0.00000000E+00  0.00000000E+00  0.00000000E+00
  0.00000000E+00  0.00000000E+00  0.00000000E+00
  0.00000000E+00  0.00000000E+00  0.00000000E+00
  0.00000000E+00  0.00000000E+00  0.00000000E+00
  0.00000000E+00  0.00000000E+00  0.00000000E+00
  0.00000000E+00  0.00000000E+00  0.00000000E+00
  0.00000000E+00  0.00000000E+00  0.00000000E+00
  0.00000000E+00  0.00000000E+00  0.00000000E+00
  0.00000000E+00  0.00000000E+00  0.00000000E+00
  0.00000000E+00  0.00000000E+00  0.00000000E+00
  0.00000000E+00  0.00000000E+00  0.00000000E+00
  0.00000000E+00  0.00000000E+00  0.00000000E+00
  0.00000000E+00  0.00000000E+00  0.00000000E+00
  0.00000000E+00  0.00000000E+00  0.00000000E+00
  0.00000000E+00  0.00000000E+00  0.00000000E+00
  0.00000000E+00  0.00000000E+00  0.00000000E+00
  0.00000000E+00  0.00000000E+00  0.00000000E+00
  0.00000000E+00  0.00000000E+00  0.00000000E+00
  0.00000000E+00  0.00000000E+00  0.00000000E+00
  0.00000000E+00  0.00000000E+00  0.00000000E+00
  0.00000000E+00  0.00000000E+00  0.00000000E+00
  0.00000000E+00  0.00000000E+00  0.00000000E+00
  0.00000000E+00  0.00000000E+00  0.00000000E+00
  0.00000000E+00  0.00000000E+00  0.00000000E+00
  0.00000000E+00  0.00000000E+00  0.00000000E+00
  0.00000000E+00  0.00000000E+00  0.00000000E+00
  0.00000000E+00  0.00000000E+00  0.00000000E+00
  0.00000000E+00  0.00000000E+00  0.00000000E+00
  0.00000000E+00  0.00000000E+00  0.00000000E+00
  0.00000000E+00  0.00000000E+00  0.00000000E+00
  0.00000000E+00  0.00000000E+00  0.00000000E+00
  0.00000000E+00  0.00000000E+00  0.00000000E+00
  0.00000000E+00  0.00000000E+00  0.00000000E+00
  0.00000000E+00  0.00000000E+00  0.00000000E+00
  0.00000000E+00  0.00000000E+00  0.00000000E+00
  0.00000000E+00  0.00000000E+00  0.00000000E+00
  0.00000000E+00  0.00000000E+00  0.00000000E+00
  0.00000000E+00  0.00000000E+00  0.00000000E+00
  0.00000000E+00  0.00000000E+00  0.00000000E+00
  0.00000000E+00  0.00000000E+00  0.00000000E+00
  0.00000000E+00  0.00000000E+00  0.00000000E+00
  0.00000000E+00  0.00000000E+00  0.00000000E+00
  0.00000000E+00  0.00000000E+00  0.00000000E+00
  0.00000000E+00  0.00000000E+00  0.00000000E+00
  0.00000000E+00  0.00000000E+00  0.00000000E+00
  0.00000000E+00  0.00000000E+00  0.00000000E+00
  0.00000000E+00  0.00000000E+00  0.00000000E+00
  0.00000000E+00  0.00000000E+00  0.00000000E+00
  0.00000000E+00  0.00000000E+00  0.00000000E+00
  0.00000000E+00  0.00000000E+00  0.00000000E+00
  0.00000000E+00  0.00000000E+00  0.00000000E+00
  0.00000000E+00  0.00000000E+00  0.00000000E+00
  0.00000000E+00  0.00000000E+00  0.00000000E+00
  0.00000000E+00  0.00000000E+00  0.00000000E+00
  0.00000000E+00  0.00000000E+00  0.00000000E+00
  0.00000000E+00  0.00000000E+00  0.00000000E+00
  0.00000000E+00  0.00000000E+00  0.00000000E+00
  0.00000000E+00  0.00000000E+00  0.00000000E+00
  0.00000000E+00  0.00000000E+00  0.00000000E+00
  0.00000000E+00  0.00000000E+00  0.00000000E+00
  0.00000000E+00  0.00000000E+00  0.00000000E+00
  0.00000000E+00  0.00000000E+00  0.00000000E+00
  0.00000000E+00  0.00000000E+00  0.00000000E+00
  0.00000000E+00  0.00000000E+00  0.00000000E+00
  0.00000000E+00  0.00000000E+00  0.00000000E+00
  0.00000000E+00  0.00000000E+00  0.00000000E+00
  0.00000000E+00  0.00000000E+00  0.00000000E+00
  0.00000000E+00  0.00000000E+00  0.00000000E+00
  0.00000000E+00  0.00000000E+00  0.00000000E+00
  0.00000000E+00  0.00000000E+00  0.00000000E+00
  0.00000000E+00  0.00000000E+00  0.00000000E+00
  0.00000000E+00  0.00000000E+00  0.00000000E+00
  0.00000000E+00  0.00000000E+00  0.00000000E+00
  0.00000000E+00  0.00000000E+00  0.00000000E+00
  0.00000000E+00  0.00000000E+00  0.00000000E+00
  0.00000000E+00  0.00000000E+00  0.00000000E+00
  0.00000000E+00  0.00000000E+00  0.00000000E+00
  0.00000000E+00  0.00000000E+00  0.00000000E+00
  0.00000000E+00  0.00000000E+00  0.00000000E+00
  0.00000000E+00  0.00000000E+00  0.00000000E+00
  0.00000000E+00  0.00000000E+00  0.00000000E+00
  0.00000000E+00  0.00000000E+00  0.00000000E+00
  0.00000000E+00  0.00000000E+00  0.00000000E+00
  0.00000000E+00  0.00000000E+00  0.00000000E+00
  0.00000000E+00  0.00000000E+00  0.00000000E+00
  0.00000000E+00  0.00000000E+00  0.00000000E+00
  0.00000000E+00  0.00000000E+00  0.00000000E+00
  0.00000000E+00  0.00000000E+00  0.00000000E+00
  0.00000000E+00  0.00000000E+00  0.00000000E+00
  0.00000000E+00  0.00000000E+00  0.00000000E+00
  0.00000000E+00  0.00000000E+00  0.00000000E+00
  0.00000000E+00  0.00000000E+00  0.00000000E+00
  0.00000000E+00  0.00000000E+00  0.00000000E+00
  0.00000000E+00  0.00000000E+00  0.00000000E+00
  0.00000000E+00  0.00000000E+00  0.00000000E+00
  0.00000000E+00  0.00000000E+00  0.00000000E+00
  0.00000000E+00  0.00000000E+00  0.00000000E+00
  0.00000000E+00  0.00000000E+00  0.00000000E+00
  0.00000000E+00  0.00000000E+00  0.00000000E+00
  0.00000000E+00  0.00000000E+00  0.00000000E+00
  0.00000000E+00  0.00000000E+00  0.00000000E+00
  0.00000000E+00  0.00000000E+00  0.00000000E+00
  0.00000000E+00  0.00000000E+00  0.00000000E+00
  0.00000000E+00  0.00000000E+00  0.00000000E+00
  0.00000000E+00  0.00000000E+00  0.00000000E+00
  0.00000000E+00  0.00000000E+00  0.00000000E+00
  0.00000000E+00  0.00000000E+00  0.00000000E+00
  0.00000000E+00  0.00000000E+00  0.00000000E+00
  0.00000000E+00  0.00000000E+00  0.00000000E+00
  0.00000000E+00  0.00000000E+00  0.00000000E+00
  0.00000000E+00  0.00000000E+00  0.00000000E+00
  0.00000000E+00  0.00000000E+00  0.00000000E+00
  0.00000000E+00  0.00000000E+00  0.00000000E+00
  0.00000000E+00  0.00000000E+00  0.00000000E+00
  0.00000000E+00  0.00000000E+00  0.00000000E+00
  0.00000000E+00  0.00000000E+00  0.00000000E+00
  0.00000000E+00  0.00000000E+00  0.00000000E+00
  0.00000000E+00  0.00000000E+00  0.00000000E+00
  0.00000000E+00  0.00000000E+00  0.00000000E+00
  0.00000000E+00  0.00000000E+00  0.00000000E+00
  0.00000000E+00  0.00000000E+00  0.00000000E+00
  0.00000000E+00  0.00000000E+00  0.00000000E+00
  0.00000000E+00  0.00000000E+00  0.00000000E+00
  0.00000000E+00  0.00000000E+00  0.00000000E+00
  0.00000000E+00  0.00000000E+00  0.00000000E+00
  0.00000000E+00  0.00000000E+00  0.00000000E+00
  0.00000000E+00  0.00000000E+00  0.00000000E+00
  0.00000000E+00  0.00000000E+00  0.00000000E+00
  0.00000000E+00  0.00000000E+00  0.00000000E+00
  0.00000000E+00  0.00000000E+00  0.00000000E+00
  0.00000000E+00  0.00000000E+00  0.00000000E+00
  0.00000000E+00  0.00000000E+00  0.00000000E+00
  0.00000000E+00  0.00000000E+00  0.00000000E+00
  0.00000000E+00  0.00000000E+00  0.00000000E+00
  0.00000000E+00  0.00000000E+00  0.00000000E+00
  0.00000000E+00  0.00000000E+00  0.00000000E+00
  0.00000000E+00  0.00000000E+00  0.00000000E+00
  0.00000000E+00  0.00000000E+00  0.00000000E+00
  0.00000000E+00  0.00000000E+00  0.00000000E+00
  0.00000000E+00  0.00000000E+00  0.00000000E+00
  0.00000000E+00  0.00000000E+00  0.00000000E+00
  0.00000000E+00  0.00000000E+00  0.00000000E+00
  0.00000000E+00  0.00000000E+00  0.00000000E+00
  0.00000000E+00  0.00000000E+00  0.00000000E+00
  0.00000000E+00  0.00000000E+00  0.00000000E+00
  0.00000000E+00  0.00000000E+00  0.00000000E+00
  0.00000000E+00  0.00000000E+00  0.00000000E+00
  0.00000000E+00  0.00000000E+00  0.00000000E+00
  0.00000000E+00  0.00000000E+00  0.00000000E+00
  0.00000000E+00  0.00000000E+00  0.00000000E+00
  0.00000000E+00  0.00000000E+00  0.00000000E+00
  0.00000000E+00  0.00000000E+00  0.00000000E+00
  0.00000000E+00  0.00000000E+00  0.00000000E+00
  0.00000000E+00  0.00000000E+00  0.00000000E+00
  0.00000000E+00  0.00000000E+00  0.00000000E+00
  0.00000000E+00  0.00000000E+00  0.00000000E+00
  0.00000000E+00  0.00000000E+00  0.00000000E+00
  0.00000000E+00  0.00000000E+00  0.00000000E+00
  0.00000000E+00  0.00000000E+00  0.00000000E+00
  0.00000000E+00  0.00000000E+00  0.00000000E+00
  0.00000000E+00  0.00000000E+00  0.00000000E+00
  0.00000000E+00  0.00000000E+00  0.00000000E+00
  0.00000000E+00  0.00000000E+00  0.00000000E+00
  0.00000000E+00  0.00000000E+00  0.00000000E+00
  0.00000000E+00  0.00000000E+00  0.00000000E+00
  0.00000000E+00  0.00000000E+00  0.00000000E+00
  0.00000000E+00  0.00000000E+00  0.00000000E+00
  0.00000000E+00  0.00000000E+00  0.00000000E+00
  0.00000000E+00  0.00000000E+00  0.00000000E+00
  0.00000000E+00  0.00000000E+00  0.00000000E+00
  0.00000000E+00  0.00000000E+00  0.00000000E+00
  0.00000000E+00  0.00000000E+00  0.00000000E+00
  0.00000000E+00  0.00000000E+00  0.00000000E+00
  0.00000000E+00  0.00000000E+00  0.00000000E+00
  0.00000000E+00  0.00000000E+00  0.00000000E+00
  0.00000000E+00  0.00000000E+00  0.00000000E+00
  0.00000000E+00  0.00000000E+00  0.00000000E+00
  0.00000000E+00  0.00000000E+00  0.00000000E+00
  0.00000000E+00  0.00000000E+00  0.00000000E+00
  0.00000000E+00  0.00000000E+00  0.00000000E+00
  0.00000000E+00  0.00000000E+00  0.00000000E+00
  0.00000000E+00  0.00000000E+00  0.00000000E+00
  0.00000000E+00  0.00000000E+00  0.00000000E+00
  0.00000000E+00  0.00000000E+00  0.00000000E+00
  0.00000000E+00  0.00000000E+00  0.00000000E+00
  0.00000000E+00  0.00000000E+00  0.00000000E+00
  0.00000000E+00  0.00000000E+00  0.00000000E+00
  0.00000000E+00  0.00000000E+00  0.00000000E+00
  0.00000000E+00  0.00000000E+00  0.00000000E+00
  0.00000000E+00  0.00000000E+00  0.00000000E+00
  0.00000000E+00  0.00000000E+00  0.00000000E+00
  0.00000000E+00  0.00000000E+00  0.00000000E+00
  0.00000000E+00  0.00000000E+00  0.00000000E+00
  0.00000000E+00  0.00000000E+00  0.00000000E+00
  0.00000000E+00  0.00000000E+00  0.00000000E+00
  0.00000000E+00  0.00000000E+00  0.00000000E+00
  0.00000000E+00  0.00000000E+00  0.00000000E+00
  0.00000000E+00  0.00000000E+00  0.00000000E+00
  0.00000000E+00  0.00000000E+00  0.00000000E+00
  0.00000000E+00  0.00000000E+00  0.00000000E+00
  0.00000000E+00  0.00000000E+00  0.00000000E+00
  0.00000000E+00  0.00000000E+00  0.00000000E+00
  0.00000000E+00  0.00000000E+00  0.00000000E+00
  0.00000000E+00  0.00000000E+00  0.00000000E+00
  0.00000000E+00  0.00000000E+00  0.00000000E+00
  0.00000000E+00  0.00000000E+00  0.00000000E+00
  0.00000000E+00  0.00000000E+00  0.00000000E+00
  0.00000000E+00  0.00000000E+00  0.00000000E+00
  0.00000000E+00  0.00000000E+00  0.00000000E+00
  0.00000000E+00  0.00000000E+00  0.00000000E+00
  0.00000000E+00  0.00000000E+00  0.00000000E+00
  0.00000000E+00  0.00000000E+00  0.00000000E+00
  0.00000000E+00  0.00000000E+00  0.00000000E+00
  0.00000000E+00  0.00000000E+00  0.00000000E+00
  0.00000000E+00  0.00000000E+00  0.00000000E+00
  0.00000000E+00  0.00000000E+00  0.00000000E+00
  0.00000000E+00  0.00000000E+00  0.00000000E+00
  0.00000000E+00  0.00000000E+00  0.00000000E+00
  0.00000000E+00  0.00000000E+00  0.00000000E+00
  0.00000000E+00  0.00000000E+00  0.00000000E+00
  0.00000000E+00  0.00000000E+00  0.00000000E+00
  0.00000000E+00  0.00000000E+00  0.00000000E+00
