C H O Si                                
   1.00000000000000     
     9.2874599999999994    0.0000000000000000    0.0000000000000000
     0.0000000000000000    8.7563099999999991    0.0000000000000000
     0.0000000000000000    0.0000000000000000   58.0000000000000000
   C    H    O    Si
    36    31    16    36
Selective dynamics
Direct
  0.9955597261681248  0.1291661768982166  0.0595614198709598   T   T   T
  0.3289286246913932  0.1291547746963673  0.0595883080501665   T   T   T
  0.6622882396499605  0.1292225381421446  0.0595539222739561   T   T   T
  0.9957077106258083  0.6293061385764673  0.0595985347305756   T   T   T
  0.3290536370068153  0.6289738633200983  0.0595311033733950   T   T   T
  0.6624190572085027  0.6290928892227186  0.0595611059655212   T   T   T
  0.1627890959361906  0.3747683288083223  0.1386285521027943   T   T   T
  0.4957084016810427  0.3754199206181141  0.1386239222398373   T   T   T
  0.8289104883627516  0.3747155059841489  0.1384940425527148   T   T   T
  0.1625341123703379  0.8755880449486497  0.1385211050960891   T   T   T
  0.4958463508833333  0.8770976536579695  0.1379539262420479   T   T   T
  0.8293156388917922  0.8756398233548452  0.1385806226411503   T   T   T
  0.3308392768717496  0.1262434407587918  0.1656135387082855   T   T   T
  0.6617566121905298  0.1256498024132355  0.1654948251460340   T   T   T
  0.9966726877049581  0.1257704419608956  0.1656237458835363   T   T   T
  0.3285769859043270  0.6261406412804860  0.1652949625182956   T   T   T
  0.6636823147809139  0.6256908237520733  0.1655354571503693   T   T   T
  0.9961927180242398  0.6258487890879678  0.1657764861683120   T   T   T
  0.1650111511143209  0.3820351951826026  0.1914203005823722   T   T   T
  0.4970479713594713  0.3836014639031973  0.1915065701845649   T   T   T
  0.8307577104849386  0.3788382122189731  0.1908449003650716   T   T   T
  0.1613526305107484  0.8798768183770349  0.1911864514671322   T   T   T
  0.4961368701651523  0.8976861440882047  0.1866798272339594   T   T   T
  0.8306872013034621  0.8807186787383401  0.1911942504322184   T   T   T
  0.1623677232086251  0.3747930859510760  0.0849998112958232   T   T   T
  0.4956520722346198  0.3746767669931472  0.0850234624190591   T   T   T
  0.8291956070687903  0.3748076696504370  0.0849616294854201   T   T   T
  0.1624257074349131  0.8747273509767908  0.0850057932607129   T   T   T
  0.4956761672845857  0.8750108900036437  0.0849045351538464   T   T   T
  0.8291377650030967  0.8747002180797168  0.0850128286284857   T   T   T
  0.3290320861035099  0.1252504638048677  0.1120973507530820   T   T   T
  0.6626864413942641  0.1252484911976595  0.1120675534530662   T   T   T
  0.9957276422956483  0.1250734064139465  0.1121149843551024   T   T   T
  0.3289841995219618  0.6244508775936737  0.1120026085712524   T   T   T
  0.6627524341442665  0.6246708524300146  0.1120856386702940   T   T   T
  0.9957250692056903  0.6246906018944145  0.1122001417371266   T   T   T
  0.0860507785667721  0.3513628800452508  0.0243484410611927   T   T   T
  0.4182454726014555  0.3513270138640294  0.0244759254371445   T   T   T
  0.7522563768866135  0.3511200430667927  0.0243273358704741   T   T   T
  0.0864071843824448  0.8514415022426007  0.0243256242529100   T   T   T
  0.4190591897345968  0.8520664289220647  0.0243604448126362   T   T   T
  0.7523726742003376  0.8514416924797459  0.0243896092408775   T   T   T
  0.3267372806845259  0.0569406909151695  0.0440265550359271   T   T   T
  0.6602428114878904  0.0570517549890042  0.0439840018876652   T   T   T
  0.9934939730322796  0.0568486445894081  0.0440109654120633   T   T   T
  0.3266452156140076  0.5570249212609255  0.0439454420846772   T   T   T
  0.6606060177306787  0.5569218840192462  0.0439909050876679   T   T   T
  0.9935474119885725  0.5568374558431444  0.0440578975370016   T   T   T
  0.8336785333848624  0.8107672688996104  0.2069452989935456   T   T   T
  0.8321020313239771  0.3076544063708155  0.2065408679961962   T   T   T
  0.1668299698474769  0.3102329345646808  0.2070490126185476   T   T   T
  0.4984790793083818  0.3121258171024479  0.2071410757065877   T   T   T
  0.1639810419746297  0.8079752662206943  0.2067688922448383   T   T   T
  0.0653447936775038  0.0908057019777360  0.2277617922215356   T   T   T
  0.4171467730055198  0.1031250442590377  0.2254827491900926   T   T   T
  0.7229898451084438  0.0938649815803103  0.2284196427517458   T   T   T
  0.0615198186250154  0.6046121244302043  0.2273141996253614   T   T   T
  0.3750204448706356  0.5845124495574936  0.2297903561122325   T   T   T
  0.7730024865377203  0.6039805012620150  0.2228778129916833   T   T   T
  0.4835198733950961  0.5470124691954865  0.2663384406940068   T   T   T
  0.4720602421659592  0.4536363357968867  0.3000840370307785   T   T   T
  0.5179397584100300  0.6243772218655650  0.3074152593681490   T   T   T
  0.2942388600211743  0.2718615080698612  0.2979628663673921   T   T   T
  0.4415495971702725  0.2085799236085464  0.2898706956090820   T   T   T
  0.6361060315155669  0.7674412083625768  0.3347200417967855   T   T   T
  0.5009836590426389  0.8584527972580958  0.3271020543104868   T   T   T
  0.5635461728104261  0.5436157587837585  0.2420132375418476   T   T   T
  0.1729915490052321  0.3422806520294444  0.0336962890073380   T   T   T
  0.5055471921257819  0.3427682693085501  0.0337532994230898   T   T   T
  0.8392277147421012  0.3428309631386526  0.0336864231732292   T   T   T
  0.1732806408618970  0.8422234275296248  0.0336889029967224   T   T   T
  0.5062362824230959  0.8423021721428015  0.0336375574100813   T   T   T
  0.8394303307733537  0.8426033819341114  0.0337172243509372   T   T   T
  0.3251064283594403  0.0883338406050882  0.2176019399007387   T   T   T
  0.6457972487249535  0.0929445997762812  0.2169987627068579   T   T   T
  0.9890959841217395  0.1016815564342153  0.2163284092416831   T   T   T
  0.3272188448414184  0.6188169143133919  0.2147679611354931   T   T   T
  0.6740969029912449  0.5975630227911353  0.2167576204675328   T   T   T
  0.9797227285768670  0.5933917848765944  0.2169137845359899   T   T   T
  0.5192258404469499  0.5487204809889192  0.2946497889869235   T   T   T
  0.3957031030545011  0.2665767159476999  0.3021960580993550   T   T   T
  0.5353218635674537  0.7555425118808401  0.3303704393011060   T   T   T
  0.4718983585287759  0.5187623010652516  0.2496736038711589   T   T   T
  0.4955760243459011  0.2470873845076440  0.0585095309719961   T   T   T
  0.8289810798479422  0.2472427106828192  0.0584502864456269   T   T   T
  0.1624462424665083  0.7471493030741954  0.0584889246168316   T   T   T
  0.4956779320355977  0.7467300787452587  0.0583919760552973   T   T   T
  0.8290821649641629  0.7471989777032420  0.0584977617675975   T   T   T
  0.1622585696135985  0.2470766794014665  0.0584921098143809   T   T   T
  0.9960903479433725  0.0011498044254239  0.1387376271060958   T   T   T
  0.3284963458467871  0.0011647518517179  0.1386914904234402   T   T   T
  0.6632369891510450  0.0009431694728050  0.1386264958364052   T   T   T
  0.9958188666140231  0.5008738883129524  0.1389095209101470   T   T   T
  0.3287575619385308  0.5003977913107320  0.1386222027757640   T   T   T
  0.6627783734146178  0.5001917931828430  0.1386625978494962   T   T   T
  0.1618449666708983  0.2521280851890992  0.1656363242824384   T   T   T
  0.4963772187846942  0.2528595386767734  0.1656632348799505   T   T   T
  0.8312899089747674  0.2504183117713481  0.1652675242230472   T   T   T
  0.1624128955271971  0.7511454155995665  0.1651806557528204   T   T   T
  0.4959888776609418  0.7458557565457724  0.1644172371023842   T   T   T
  0.8297873203057904  0.7511055398801929  0.1652537214748193   T   T   T
  0.3252924172948042  0.9986908818573070  0.1926098447979356   T   T   T
  0.6669379051839996  0.9996134512326691  0.1925180930056030   T   T   T
  0.9966065278671508  0.0005489628697646  0.1921902345506581   T   T   T
  0.3307063758989841  0.5040975586608880  0.1922381701134341   T   T   T
  0.9969558788802217  0.4977400306215145  0.1921981858753412   T   T   T
  0.6655381684571253  0.4988937836598524  0.1920662944435350   T   T   T
  0.9957720999000230  0.9999253958282992  0.0853096879107014   T   T   T
  0.3289213840996936  0.9998578919309580  0.0852913703034801   T   T   T
  0.6626173912798947  0.9998144098392814  0.0852659368067705   T   T   T
  0.9958124573976121  0.4999160686536968  0.0853293557514476   T   T   T
  0.3289641194195525  0.4995231932457500  0.0852423447854065   T   T   T
  0.6625963288992125  0.4995104761750682  0.0852838690490856   T   T   T
  0.1621063287075799  0.2505043914037230  0.1117676846570888   T   T   T
  0.4958017256015950  0.2504729317945973  0.1118340663893065   T   T   T
  0.8294657142412873  0.2505331165488585  0.1116886884573276   T   T   T
  0.1625175430815702  0.7505025861334857  0.1117655981698675   T   T   T
  0.4957602047426235  0.7487612421389258  0.1114015053743245   T   T   T
  0.8291647727286175  0.7506757362511962  0.1117995937025285   T   T   T
 
  0.00000000E+00  0.00000000E+00  0.00000000E+00
  0.00000000E+00  0.00000000E+00  0.00000000E+00
  0.00000000E+00  0.00000000E+00  0.00000000E+00
  0.00000000E+00  0.00000000E+00  0.00000000E+00
  0.00000000E+00  0.00000000E+00  0.00000000E+00
  0.00000000E+00  0.00000000E+00  0.00000000E+00
  0.00000000E+00  0.00000000E+00  0.00000000E+00
  0.00000000E+00  0.00000000E+00  0.00000000E+00
  0.00000000E+00  0.00000000E+00  0.00000000E+00
  0.00000000E+00  0.00000000E+00  0.00000000E+00
  0.00000000E+00  0.00000000E+00  0.00000000E+00
  0.00000000E+00  0.00000000E+00  0.00000000E+00
  0.00000000E+00  0.00000000E+00  0.00000000E+00
  0.00000000E+00  0.00000000E+00  0.00000000E+00
  0.00000000E+00  0.00000000E+00  0.00000000E+00
  0.00000000E+00  0.00000000E+00  0.00000000E+00
  0.00000000E+00  0.00000000E+00  0.00000000E+00
  0.00000000E+00  0.00000000E+00  0.00000000E+00
  0.00000000E+00  0.00000000E+00  0.00000000E+00
  0.00000000E+00  0.00000000E+00  0.00000000E+00
  0.00000000E+00  0.00000000E+00  0.00000000E+00
  0.00000000E+00  0.00000000E+00  0.00000000E+00
  0.00000000E+00  0.00000000E+00  0.00000000E+00
  0.00000000E+00  0.00000000E+00  0.00000000E+00
  0.00000000E+00  0.00000000E+00  0.00000000E+00
  0.00000000E+00  0.00000000E+00  0.00000000E+00
  0.00000000E+00  0.00000000E+00  0.00000000E+00
  0.00000000E+00  0.00000000E+00  0.00000000E+00
  0.00000000E+00  0.00000000E+00  0.00000000E+00
  0.00000000E+00  0.00000000E+00  0.00000000E+00
  0.00000000E+00  0.00000000E+00  0.00000000E+00
  0.00000000E+00  0.00000000E+00  0.00000000E+00
  0.00000000E+00  0.00000000E+00  0.00000000E+00
  0.00000000E+00  0.00000000E+00  0.00000000E+00
  0.00000000E+00  0.00000000E+00  0.00000000E+00
  0.00000000E+00  0.00000000E+00  0.00000000E+00
  0.00000000E+00  0.00000000E+00  0.00000000E+00
  0.00000000E+00  0.00000000E+00  0.00000000E+00
  0.00000000E+00  0.00000000E+00  0.00000000E+00
  0.00000000E+00  0.00000000E+00  0.00000000E+00
  0.00000000E+00  0.00000000E+00  0.00000000E+00
  0.00000000E+00  0.00000000E+00  0.00000000E+00
  0.00000000E+00  0.00000000E+00  0.00000000E+00
  0.00000000E+00  0.00000000E+00  0.00000000E+00
  0.00000000E+00  0.00000000E+00  0.00000000E+00
  0.00000000E+00  0.00000000E+00  0.00000000E+00
  0.00000000E+00  0.00000000E+00  0.00000000E+00
  0.00000000E+00  0.00000000E+00  0.00000000E+00
  0.00000000E+00  0.00000000E+00  0.00000000E+00
  0.00000000E+00  0.00000000E+00  0.00000000E+00
  0.00000000E+00  0.00000000E+00  0.00000000E+00
  0.00000000E+00  0.00000000E+00  0.00000000E+00
  0.00000000E+00  0.00000000E+00  0.00000000E+00
  0.00000000E+00  0.00000000E+00  0.00000000E+00
  0.00000000E+00  0.00000000E+00  0.00000000E+00
  0.00000000E+00  0.00000000E+00  0.00000000E+00
  0.00000000E+00  0.00000000E+00  0.00000000E+00
  0.00000000E+00  0.00000000E+00  0.00000000E+00
  0.00000000E+00  0.00000000E+00  0.00000000E+00
  0.00000000E+00  0.00000000E+00  0.00000000E+00
  0.00000000E+00  0.00000000E+00  0.00000000E+00
  0.00000000E+00  0.00000000E+00  0.00000000E+00
  0.00000000E+00  0.00000000E+00  0.00000000E+00
  0.00000000E+00  0.00000000E+00  0.00000000E+00
  0.00000000E+00  0.00000000E+00  0.00000000E+00
  0.00000000E+00  0.00000000E+00  0.00000000E+00
  0.00000000E+00  0.00000000E+00  0.00000000E+00
  0.00000000E+00  0.00000000E+00  0.00000000E+00
  0.00000000E+00  0.00000000E+00  0.00000000E+00
  0.00000000E+00  0.00000000E+00  0.00000000E+00
  0.00000000E+00  0.00000000E+00  0.00000000E+00
  0.00000000E+00  0.00000000E+00  0.00000000E+00
  0.00000000E+00  0.00000000E+00  0.00000000E+00
  0.00000000E+00  0.00000000E+00  0.00000000E+00
  0.00000000E+00  0.00000000E+00  0.00000000E+00
  0.00000000E+00  0.00000000E+00  0.00000000E+00
  0.00000000E+00  0.00000000E+00  0.00000000E+00
  0.00000000E+00  0.00000000E+00  0.00000000E+00
  0.00000000E+00  0.00000000E+00  0.00000000E+00
  0.00000000E+00  0.00000000E+00  0.00000000E+00
  0.00000000E+00  0.00000000E+00  0.00000000E+00
  0.00000000E+00  0.00000000E+00  0.00000000E+00
  0.00000000E+00  0.00000000E+00  0.00000000E+00
  0.00000000E+00  0.00000000E+00  0.00000000E+00
  0.00000000E+00  0.00000000E+00  0.00000000E+00
  0.00000000E+00  0.00000000E+00  0.00000000E+00
  0.00000000E+00  0.00000000E+00  0.00000000E+00
  0.00000000E+00  0.00000000E+00  0.00000000E+00
  0.00000000E+00  0.00000000E+00  0.00000000E+00
  0.00000000E+00  0.00000000E+00  0.00000000E+00
  0.00000000E+00  0.00000000E+00  0.00000000E+00
  0.00000000E+00  0.00000000E+00  0.00000000E+00
  0.00000000E+00  0.00000000E+00  0.00000000E+00
  0.00000000E+00  0.00000000E+00  0.00000000E+00
  0.00000000E+00  0.00000000E+00  0.00000000E+00
  0.00000000E+00  0.00000000E+00  0.00000000E+00
  0.00000000E+00  0.00000000E+00  0.00000000E+00
  0.00000000E+00  0.00000000E+00  0.00000000E+00
  0.00000000E+00  0.00000000E+00  0.00000000E+00
  0.00000000E+00  0.00000000E+00  0.00000000E+00
  0.00000000E+00  0.00000000E+00  0.00000000E+00
  0.00000000E+00  0.00000000E+00  0.00000000E+00
  0.00000000E+00  0.00000000E+00  0.00000000E+00
  0.00000000E+00  0.00000000E+00  0.00000000E+00
  0.00000000E+00  0.00000000E+00  0.00000000E+00
  0.00000000E+00  0.00000000E+00  0.00000000E+00
  0.00000000E+00  0.00000000E+00  0.00000000E+00
  0.00000000E+00  0.00000000E+00  0.00000000E+00
  0.00000000E+00  0.00000000E+00  0.00000000E+00
  0.00000000E+00  0.00000000E+00  0.00000000E+00
  0.00000000E+00  0.00000000E+00  0.00000000E+00
  0.00000000E+00  0.00000000E+00  0.00000000E+00
  0.00000000E+00  0.00000000E+00  0.00000000E+00
  0.00000000E+00  0.00000000E+00  0.00000000E+00
  0.00000000E+00  0.00000000E+00  0.00000000E+00
  0.00000000E+00  0.00000000E+00  0.00000000E+00
  0.00000000E+00  0.00000000E+00  0.00000000E+00
  0.00000000E+00  0.00000000E+00  0.00000000E+00
  0.00000000E+00  0.00000000E+00  0.00000000E+00
