C H O Si                                
   1.00000000000000     
     9.2874599999999994    0.0000000000000000    0.0000000000000000
     0.0000000000000000    8.7563099999999991    0.0000000000000000
     0.0000000000000000    0.0000000000000000   58.0000000000000000
   C    H    O    Si
    36    31    16    36
Selective dynamics
Direct
  0.9955597261681279  0.1291661768982175  0.0595614198709610   T   T   T
  0.3289286246913922  0.1291547746963685  0.0595883080501690   T   T   T
  0.6622882396499605  0.1292225381421443  0.0595539222739593   T   T   T
  0.9957077106258090  0.6293061385764690  0.0595985347305724   T   T   T
  0.3290536370068119  0.6289738633200961  0.0595311033733956   T   T   T
  0.6624190572085032  0.6290928892227178  0.0595611059655188   T   T   T
  0.1627890959361892  0.3747683288083245  0.1386285521027934   T   T   T
  0.4957084016810424  0.3754199206181131  0.1386239222398385   T   T   T
  0.8289104883627484  0.3747155059841481  0.1384940425527115   T   T   T
  0.1625341123703410  0.8755880449486485  0.1385211050960923   T   T   T
  0.4958463508833340  0.8770976536579662  0.1379539262420472   T   T   T
  0.8293156388917922  0.8756398233548456  0.1385806226411476   T   T   T
  0.3308392768717495  0.1262434407587908  0.1656135387082874   T   T   T
  0.6617566121905285  0.1256498024132387  0.1654948251460363   T   T   T
  0.9966726877049599  0.1257704419608945  0.1656237458835338   T   T   T
  0.3285769859043289  0.6261406412804876  0.1652949625182953   T   T   T
  0.6636823147809169  0.6256908237520746  0.1655354571503712   T   T   T
  0.9961927180242426  0.6258487890879670  0.1657764861683137   T   T   T
  0.1650111511143210  0.3820351951826028  0.1914203005823735   T   T   T
  0.4970479713594738  0.3836014639031987  0.1915065701845649   T   T   T
  0.8307577104849392  0.3788382122189735  0.1908449003650743   T   T   T
  0.1613526305107518  0.8798768183770357  0.1911864514671288   T   T   T
  0.4961368701651516  0.8976861440882080  0.1866798272339582   T   T   T
  0.8306872013034607  0.8807186787383374  0.1911942504322163   T   T   T
  0.1623677232086239  0.3747930859510784  0.0849998112958233   T   T   T
  0.4956520722346169  0.3746767669931496  0.0850234624190624   T   T   T
  0.8291956070687924  0.3748076696504385  0.0849616294854176   T   T   T
  0.1624257074349106  0.8747273509767878  0.0850057932607098   T   T   T
  0.4956761672845840  0.8750108900036407  0.0849045351538457   T   T   T
  0.8291377650030952  0.8747002180797198  0.0850128286284843   T   T   T
  0.3290320861035118  0.1252504638048672  0.1120973507530826   T   T   T
  0.6626864413942632  0.1252484911976600  0.1120675534530652   T   T   T
  0.9957276422956459  0.1250734064139470  0.1121149843551039   T   T   T
  0.3289841995219615  0.6244508775936737  0.1120026085712531   T   T   T
  0.6627524341442687  0.6246708524300182  0.1120856386702910   T   T   T
  0.9957250692056888  0.6246906018944122  0.1122001417371231   T   T   T
  0.0860507785667743  0.3513628800452502  0.0243484410611942   T   T   T
  0.4182454726014532  0.3513270138640310  0.0244759254371475   T   T   T
  0.7522563768866165  0.3511200430667926  0.0243273358704732   T   T   T
  0.0864071843824476  0.8514415022425980  0.0243256242529102   T   T   T
  0.4190591897345946  0.8520664289220679  0.0243604448126388   T   T   T
  0.7523726742003343  0.8514416924797489  0.0243896092408774   T   T   T
  0.3267372806845281  0.0569406909151680  0.0440265550359242   T   T   T
  0.6602428114878887  0.0570517549890008  0.0439840018876682   T   T   T
  0.9934939730322786  0.0568486445894066  0.0440109654120666   T   T   T
  0.3266452156140111  0.5570249212609288  0.0439454420846757   T   T   T
  0.6606060177306804  0.5569218840192457  0.0439909050876706   T   T   T
  0.9935474119885713  0.5568374558431440  0.0440578975370009   T   T   T
  0.8336785333848613  0.8107672688996138  0.2069452989935430   T   T   T
  0.8321020313239765  0.3076544063708186  0.2065408679961967   T   T   T
  0.1668299698474752  0.3102329345646818  0.2070490126185472   T   T   T
  0.4984790793083826  0.3121258171024444  0.2071410757065849   T   T   T
  0.1639810419746291  0.8079752662206924  0.2067688922448399   T   T   T
  0.0653447936775044  0.0908057019777339  0.2277617922215329   T   T   T
  0.4171467730055166  0.1031250442590372  0.2254827491900958   T   T   T
  0.7229898451084464  0.0938649815803132  0.2284196427517427   T   T   T
  0.0615198186250167  0.6046121244302060  0.2273141996253597   T   T   T
  0.3750204448706328  0.5845124495574968  0.2297903561122355   T   T   T
  0.7730024865377184  0.6039805012620125  0.2228778129916799   T   T   T
  0.4835198733950989  0.5470124691954898  0.2663384406940039   T   T   T
  0.4720602421659604  0.4536363357968883  0.3000840370307750   T   T   T
  0.5179397584100330  0.6243772218655633  0.3074152593681517   T   T   T
  0.2942388600211748  0.2718615080698630  0.2979628663673902   T   T   T
  0.4415495971702740  0.2085799236085439  0.2898706956090836   T   T   T
  0.6361060315155657  0.7674412083625750  0.3347200417967832   T   T   T
  0.5009836590426382  0.8584527972580925  0.3271020543104838   T   T   T
  0.5635461728104237  0.5436157587837587  0.2420132375418502   T   T   T
  0.1729915490052335  0.3422806520294464  0.0336962890073356   T   T   T
  0.5055471921257811  0.3427682693085467  0.0337532994230887   T   T   T
  0.8392277147420990  0.3428309631386491  0.0336864231732261   T   T   T
  0.1732806408618976  0.8422234275296263  0.0336889029967233   T   T   T
  0.5062362824230937  0.8423021721428029  0.0336375574100834   T   T   T
  0.8394303307733536  0.8426033819341140  0.0337172243509365   T   T   T
  0.3251064283594374  0.0883338406050870  0.2176019399007380   T   T   T
  0.6457972487249537  0.0929445997762841  0.2169987627068601   T   T   T
  0.9890959841217397  0.1016815564342152  0.2163284092416861   T   T   T
  0.3272188448414203  0.6188169143133930  0.2147679611354936   T   T   T
  0.6740969029912438  0.5975630227911366  0.2167576204675318   T   T   T
  0.9797227285768699  0.5933917848765919  0.2169137845359867   T   T   T
  0.5192258404469504  0.5487204809889167  0.2946497889869232   T   T   T
  0.3957031030545041  0.2665767159476974  0.3021960580993577   T   T   T
  0.5353218635674518  0.7555425118808412  0.3303704393011047   T   T   T
  0.4718983585287788  0.5187623010652491  0.2496736038711578   T   T   T
  0.4955760243459022  0.2470873845076414  0.0585095309719944   T   T   T
  0.8289810798479388  0.2472427106828186  0.0584502864456300   T   T   T
  0.1624462424665075  0.7471493030741981  0.0584889246168289   T   T   T
  0.4956779320355947  0.7467300787452599  0.0583919760552976   T   T   T
  0.8290821649641632  0.7471989777032437  0.0584977617675944   T   T   T
  0.1622585696135954  0.2470766794014677  0.0584921098143782   T   T   T
  0.9960903479433737  0.0011498044254245  0.1387376271060968   T   T   T
  0.3284963458467858  0.0011647518517167  0.1386914904234389   T   T   T
  0.6632369891510466  0.0009431694728017  0.1386264958364048   T   T   T
  0.9958188666140234  0.5008738883129515  0.1389095209101486   T   T   T
  0.3287575619385310  0.5003977913107327  0.1386222027757675   T   T   T
  0.6627783734146163  0.5001917931828460  0.1386625978494986   T   T   T
  0.1618449666708953  0.2521280851890988  0.1656363242824372   T   T   T
  0.4963772187846950  0.2528595386767722  0.1656632348799477   T   T   T
  0.8312899089747682  0.2504183117713497  0.1652675242230472   T   T   T
  0.1624128955271938  0.7511454155995699  0.1651806557528203   T   T   T
  0.4959888776609425  0.7458557565457746  0.1644172371023837   T   T   T
  0.8297873203057878  0.7511055398801944  0.1652537214748199   T   T   T
  0.3252924172948011  0.9986908818573080  0.1926098447979322   T   T   T
  0.6669379051840004  0.9996134512326700  0.1925180930056002   T   T   T
  0.9966065278671514  0.0005489628697629  0.1921902345506597   T   T   T
  0.3307063758989828  0.5040975586608887  0.1922381701134342   T   T   T
  0.9969558788802221  0.4977400306215131  0.1921981858753378   T   T   T
  0.6655381684571265  0.4988937836598488  0.1920662944435354   T   T   T
  0.9957720999000230  0.9999253958282960  0.0853096879107029   T   T   T
  0.3289213840996957  0.9998578919309550  0.0852913703034823   T   T   T
  0.6626173912798937  0.9998144098392822  0.0852659368067728   T   T   T
  0.9958124573976133  0.4999160686536967  0.0853293557514503   T   T   T
  0.3289641194195551  0.4995231932457466  0.0852423447854052   T   T   T
  0.6625963288992111  0.4995104761750648  0.0852838690490848   T   T   T
  0.1621063287075817  0.2505043914037223  0.1117676846570857   T   T   T
  0.4958017256015938  0.2504729317945974  0.1118340663893100   T   T   T
  0.8294657142412850  0.2505331165488593  0.1116886884573304   T   T   T
  0.1625175430815688  0.7505025861334826  0.1117655981698706   T   T   T
  0.4957602047426219  0.7487612421389275  0.1114015053743240   T   T   T
  0.8291647727286179  0.7506757362511927  0.1117995937025253   T   T   T
 
  0.00000000E+00  0.00000000E+00  0.00000000E+00
  0.00000000E+00  0.00000000E+00  0.00000000E+00
  0.00000000E+00  0.00000000E+00  0.00000000E+00
  0.00000000E+00  0.00000000E+00  0.00000000E+00
  0.00000000E+00  0.00000000E+00  0.00000000E+00
  0.00000000E+00  0.00000000E+00  0.00000000E+00
  0.00000000E+00  0.00000000E+00  0.00000000E+00
  0.00000000E+00  0.00000000E+00  0.00000000E+00
  0.00000000E+00  0.00000000E+00  0.00000000E+00
  0.00000000E+00  0.00000000E+00  0.00000000E+00
  0.00000000E+00  0.00000000E+00  0.00000000E+00
  0.00000000E+00  0.00000000E+00  0.00000000E+00
  0.00000000E+00  0.00000000E+00  0.00000000E+00
  0.00000000E+00  0.00000000E+00  0.00000000E+00
  0.00000000E+00  0.00000000E+00  0.00000000E+00
  0.00000000E+00  0.00000000E+00  0.00000000E+00
  0.00000000E+00  0.00000000E+00  0.00000000E+00
  0.00000000E+00  0.00000000E+00  0.00000000E+00
  0.00000000E+00  0.00000000E+00  0.00000000E+00
  0.00000000E+00  0.00000000E+00  0.00000000E+00
  0.00000000E+00  0.00000000E+00  0.00000000E+00
  0.00000000E+00  0.00000000E+00  0.00000000E+00
  0.00000000E+00  0.00000000E+00  0.00000000E+00
  0.00000000E+00  0.00000000E+00  0.00000000E+00
  0.00000000E+00  0.00000000E+00  0.00000000E+00
  0.00000000E+00  0.00000000E+00  0.00000000E+00
  0.00000000E+00  0.00000000E+00  0.00000000E+00
  0.00000000E+00  0.00000000E+00  0.00000000E+00
  0.00000000E+00  0.00000000E+00  0.00000000E+00
  0.00000000E+00  0.00000000E+00  0.00000000E+00
  0.00000000E+00  0.00000000E+00  0.00000000E+00
  0.00000000E+00  0.00000000E+00  0.00000000E+00
  0.00000000E+00  0.00000000E+00  0.00000000E+00
  0.00000000E+00  0.00000000E+00  0.00000000E+00
  0.00000000E+00  0.00000000E+00  0.00000000E+00
  0.00000000E+00  0.00000000E+00  0.00000000E+00
  0.00000000E+00  0.00000000E+00  0.00000000E+00
  0.00000000E+00  0.00000000E+00  0.00000000E+00
  0.00000000E+00  0.00000000E+00  0.00000000E+00
  0.00000000E+00  0.00000000E+00  0.00000000E+00
  0.00000000E+00  0.00000000E+00  0.00000000E+00
  0.00000000E+00  0.00000000E+00  0.00000000E+00
  0.00000000E+00  0.00000000E+00  0.00000000E+00
  0.00000000E+00  0.00000000E+00  0.00000000E+00
  0.00000000E+00  0.00000000E+00  0.00000000E+00
  0.00000000E+00  0.00000000E+00  0.00000000E+00
  0.00000000E+00  0.00000000E+00  0.00000000E+00
  0.00000000E+00  0.00000000E+00  0.00000000E+00
  0.00000000E+00  0.00000000E+00  0.00000000E+00
  0.00000000E+00  0.00000000E+00  0.00000000E+00
  0.00000000E+00  0.00000000E+00  0.00000000E+00
  0.00000000E+00  0.00000000E+00  0.00000000E+00
  0.00000000E+00  0.00000000E+00  0.00000000E+00
  0.00000000E+00  0.00000000E+00  0.00000000E+00
  0.00000000E+00  0.00000000E+00  0.00000000E+00
  0.00000000E+00  0.00000000E+00  0.00000000E+00
  0.00000000E+00  0.00000000E+00  0.00000000E+00
  0.00000000E+00  0.00000000E+00  0.00000000E+00
  0.00000000E+00  0.00000000E+00  0.00000000E+00
  0.00000000E+00  0.00000000E+00  0.00000000E+00
  0.00000000E+00  0.00000000E+00  0.00000000E+00
  0.00000000E+00  0.00000000E+00  0.00000000E+00
  0.00000000E+00  0.00000000E+00  0.00000000E+00
  0.00000000E+00  0.00000000E+00  0.00000000E+00
  0.00000000E+00  0.00000000E+00  0.00000000E+00
  0.00000000E+00  0.00000000E+00  0.00000000E+00
  0.00000000E+00  0.00000000E+00  0.00000000E+00
  0.00000000E+00  0.00000000E+00  0.00000000E+00
  0.00000000E+00  0.00000000E+00  0.00000000E+00
  0.00000000E+00  0.00000000E+00  0.00000000E+00
  0.00000000E+00  0.00000000E+00  0.00000000E+00
  0.00000000E+00  0.00000000E+00  0.00000000E+00
  0.00000000E+00  0.00000000E+00  0.00000000E+00
  0.00000000E+00  0.00000000E+00  0.00000000E+00
  0.00000000E+00  0.00000000E+00  0.00000000E+00
  0.00000000E+00  0.00000000E+00  0.00000000E+00
  0.00000000E+00  0.00000000E+00  0.00000000E+00
  0.00000000E+00  0.00000000E+00  0.00000000E+00
  0.00000000E+00  0.00000000E+00  0.00000000E+00
  0.00000000E+00  0.00000000E+00  0.00000000E+00
  0.00000000E+00  0.00000000E+00  0.00000000E+00
  0.00000000E+00  0.00000000E+00  0.00000000E+00
  0.00000000E+00  0.00000000E+00  0.00000000E+00
  0.00000000E+00  0.00000000E+00  0.00000000E+00
  0.00000000E+00  0.00000000E+00  0.00000000E+00
  0.00000000E+00  0.00000000E+00  0.00000000E+00
  0.00000000E+00  0.00000000E+00  0.00000000E+00
  0.00000000E+00  0.00000000E+00  0.00000000E+00
  0.00000000E+00  0.00000000E+00  0.00000000E+00
  0.00000000E+00  0.00000000E+00  0.00000000E+00
  0.00000000E+00  0.00000000E+00  0.00000000E+00
  0.00000000E+00  0.00000000E+00  0.00000000E+00
  0.00000000E+00  0.00000000E+00  0.00000000E+00
  0.00000000E+00  0.00000000E+00  0.00000000E+00
  0.00000000E+00  0.00000000E+00  0.00000000E+00
  0.00000000E+00  0.00000000E+00  0.00000000E+00
  0.00000000E+00  0.00000000E+00  0.00000000E+00
  0.00000000E+00  0.00000000E+00  0.00000000E+00
  0.00000000E+00  0.00000000E+00  0.00000000E+00
  0.00000000E+00  0.00000000E+00  0.00000000E+00
  0.00000000E+00  0.00000000E+00  0.00000000E+00
  0.00000000E+00  0.00000000E+00  0.00000000E+00
  0.00000000E+00  0.00000000E+00  0.00000000E+00
  0.00000000E+00  0.00000000E+00  0.00000000E+00
  0.00000000E+00  0.00000000E+00  0.00000000E+00
  0.00000000E+00  0.00000000E+00  0.00000000E+00
  0.00000000E+00  0.00000000E+00  0.00000000E+00
  0.00000000E+00  0.00000000E+00  0.00000000E+00
  0.00000000E+00  0.00000000E+00  0.00000000E+00
  0.00000000E+00  0.00000000E+00  0.00000000E+00
  0.00000000E+00  0.00000000E+00  0.00000000E+00
  0.00000000E+00  0.00000000E+00  0.00000000E+00
  0.00000000E+00  0.00000000E+00  0.00000000E+00
  0.00000000E+00  0.00000000E+00  0.00000000E+00
  0.00000000E+00  0.00000000E+00  0.00000000E+00
  0.00000000E+00  0.00000000E+00  0.00000000E+00
  0.00000000E+00  0.00000000E+00  0.00000000E+00
  0.00000000E+00  0.00000000E+00  0.00000000E+00
  0.00000000E+00  0.00000000E+00  0.00000000E+00
  0.00000000E+00  0.00000000E+00  0.00000000E+00
  0.00000000E+00  0.00000000E+00  0.00000000E+00
