C H O Si                                
   1.00000000000000     
     9.2874599999999994    0.0000000000000000    0.0000000000000000
     0.0000000000000000   17.5126199999999983    0.0000000000000000
     0.0000000000000000    0.0000000000000000   58.0000000000000000
   C    H    O    Si
    72    57    28    72
Selective dynamics
Direct
  0.9964292109038672  0.0652334678375501  0.0595400382098308   T   T   T
  0.3298683456526733  0.0652856562932907  0.0596279594034427   T   T   T
  0.6630859979393984  0.0652676515730973  0.0596550862465413   T   T   T
  0.9964912907110459  0.3152817182256087  0.0595509227287368   T   T   T
  0.3298750787860076  0.3151434378798353  0.0595663659197568   T   T   T
  0.6632344543065459  0.3151001632726500  0.0596102741037781   T   T   T
  0.1628087877422986  0.1880516410595806  0.1383553934128472   T   T   T
  0.4959212624346496  0.1884784239195376  0.1387473149172656   T   T   T
  0.8292727363926528  0.1881227551582319  0.1383823594969490   T   T   T
  0.1627502990212675  0.4382303988108096  0.1384534146179615   T   T   T
  0.4958839015437848  0.4372956092970767  0.1384074039651007   T   T   T
  0.8293149134853685  0.4381913278913430  0.1385259042184509   T   T   T
  0.3300869905890228  0.0633990648310219  0.1657398507177183   T   T   T
  0.6619785760005532  0.0635826215196808  0.1657766222804903   T   T   T
  0.9958018592416498  0.0626263361681567  0.1654557479565162   T   T   T
  0.3287004538603123  0.3135336728488481  0.1657893881739968   T   T   T
  0.6630106400978728  0.3135049871396038  0.1658002072495115   T   T   T
  0.9958104164255337  0.3132402384918013  0.1654914259978617   T   T   T
  0.1623635059065100  0.1890522685711561  0.1904419483735943   T   T   T
  0.4951883101192907  0.1928048951359254  0.1918518010367899   T   T   T
  0.8294800187201475  0.1894885176980879  0.1906403487590662   T   T   T
  0.1624014532692848  0.4405628531926458  0.1908865482039966   T   T   T
  0.4956174591662304  0.4388651605323963  0.1913542688451889   T   T   T
  0.8293219248246859  0.4405640674513180  0.1910921647771584   T   T   T
  0.1628908873560197  0.1881543414005566  0.0848807222278208   T   T   T
  0.4959995149290404  0.1882425748688571  0.0850621647522007   T   T   T
  0.8294761372937267  0.1881704286746557  0.0849037402688332   T   T   T
  0.1628445216615140  0.4382170308197640  0.0849112344269356   T   T   T
  0.4959956660265555  0.4381315445140819  0.0848100794966669   T   T   T
  0.8293527375317578  0.4382412513359730  0.0849420150265294   T   T   T
  0.3295102625997509  0.0631328688157342  0.1121759279009334   T   T   T
  0.6625883378067757  0.0631268442805960  0.1121851233448563   T   T   T
  0.9958798836694438  0.0629899117449668  0.1120818780697359   T   T   T
  0.3293062980624070  0.3130645939235458  0.1121379697804599   T   T   T
  0.6628013636617709  0.3130346203163470  0.1121505304494937   T   T   T
  0.9959292964157774  0.3131015956985804  0.1120632613649591   T   T   T
  0.9964406055692803  0.5653232995533554  0.0595980883691317   T   T   T
  0.3298242583274511  0.5653325186790514  0.0595622281454453   T   T   T
  0.6631901502442893  0.5652830262246050  0.0596052936473613   T   T   T
  0.9964926165199103  0.8153806784987083  0.0595940571462569   T   T   T
  0.3298734968754636  0.8152723034399063  0.0596110193568259   T   T   T
  0.6631671898541270  0.8152409234735151  0.0596210423350177   T   T   T
  0.1625564228937616  0.6882485319311630  0.1384673840271614   T   T   T
  0.4959831016874982  0.6879690175075668  0.1385225470280540   T   T   T
  0.8295571530667277  0.6882142886783644  0.1384846776418132   T   T   T
  0.1630849377706726  0.9380815866898454  0.1384965359916308   T   T   T
  0.4960382691291117  0.9379839631118854  0.1385099408407367   T   T   T
  0.8290850638179127  0.9380953380439309  0.1384975881105338   T   T   T
  0.3285896491938990  0.5633387908544236  0.1656924614604835   T   T   T
  0.6633423125706317  0.5631351435013667  0.1658242470198030   T   T   T
  0.9958495106033500  0.5634476261374085  0.1656399458124488   T   T   T
  0.3295997369025674  0.8131233645542432  0.1656689438957330   T   T   T
  0.6629243529506016  0.8130835178832918  0.1656626786263565   T   T   T
  0.9961057520375004  0.8132433757642509  0.1656591786548900   T   T   T
  0.1629525837281856  0.6903363102578245  0.1909861034911547   T   T   T
  0.4964402499048081  0.6902128218068064  0.1910408894166332   T   T   T
  0.8298062434036935  0.6903488569036288  0.1910088745528886   T   T   T
  0.1629969238736690  0.9402783485588759  0.1910000585591730   T   T   T
  0.4963503802316648  0.9402540564700069  0.1910380588117381   T   T   T
  0.8295554503469326  0.9403343639039418  0.1910170268222269   T   T   T
  0.1627870345378709  0.6882404340544880  0.0849438535358764   T   T   T
  0.4960881843230129  0.6881948236528314  0.0849431543544527   T   T   T
  0.8295077142315435  0.6882472071666219  0.0849506965504196   T   T   T
  0.1628780064436364  0.9382514332456922  0.0849490740453593   T   T   T
  0.4959943881162107  0.9382217613296864  0.0849666916329152   T   T   T
  0.8292809837214727  0.9382695919467424  0.0849492384459336   T   T   T
  0.3293215125781662  0.5630002388057223  0.1121139482924226   T   T   T
  0.6627135157409438  0.5629249413237234  0.1121616598705594   T   T   T
  0.9958622830548250  0.5630778360067493  0.1121261483856608   T   T   T
  0.3294062668311841  0.8130299254343798  0.1121333944548812   T   T   T
  0.6627355539064150  0.8129917797681365  0.1121352817866805   T   T   T
  0.9958632409691970  0.8132578087505238  0.1121233952408188   T   T   T
  0.0783715106318850  0.1792389708752900  0.0261089798190873   T   T   T
  0.4114164101767808  0.1793417153594947  0.0262892113204529   T   T   T
  0.7442465962931788  0.1792069241422072  0.0261904861138900   T   T   T
  0.0781098342418108  0.4292492367830728  0.0261651076666928   T   T   T
  0.4115546232064136  0.4289430037619454  0.0260684228258593   T   T   T
  0.7438168720117615  0.4290173856771936  0.0262452729299193   T   T   T
  0.3280146563998239  0.0289128878924002  0.0441323047538691   T   T   T
  0.6604737630237306  0.0289160204367750  0.0441520542802144   T   T   T
  0.9941164846260319  0.0288535266722397  0.0440494124539842   T   T   T
  0.3272336613387057  0.2786732637443587  0.0440967492864890   T   T   T
  0.6613682546678095  0.2786718559968094  0.0441224259770739   T   T   T
  0.9941816182137919  0.2789563492302857  0.0440513933918817   T   T   T
  0.8319342901691605  0.4037331791309124  0.2064712887212599   T   T   T
  0.8325448914337219  0.1534383428054389  0.2061879093865073   T   T   T
  0.1645009071003600  0.1534540991122311  0.2060956077736458   T   T   T
  0.4980610234150813  0.1560427996777927  0.2072486056453211   T   T   T
  0.1651141129037996  0.4038045556354347  0.2062724319307828   T   T   T
  0.5390161179928602  0.4646464295840197  0.2614254032501493   T   T   T
  0.0823284351184563  0.0553462329205459  0.2240963643719239   T   T   T
  0.4154581414340746  0.0553428528299243  0.2242372884785873   T   T   T
  0.7480539848058368  0.0554364602864772  0.2243333116717578   T   T   T
  0.0914686546192279  0.3015044626205718  0.2225462914173303   T   T   T
  0.3656697890224621  0.2835939494692732  0.2305053032233083   T   T   T
  0.7814103672220565  0.2967666649613794  0.2228825345353337   T   T   T
  0.4976899488583640  0.2708043853026462  0.2660287611493161   T   T   T
  0.4699897284500099  0.2284299042148772  0.3004988734368945   T   T   T
  0.5182560708435086  0.3127078068620096  0.3084404370337379   T   T   T
  0.2889074672874711  0.1365131168596952  0.2958610721243355   T   T   T
  0.4375779485038931  0.1083257677191637  0.2874002678902332   T   T   T
  0.6376890534371772  0.3858909733745868  0.3348276445935979   T   T   T
  0.5035937143379399  0.4323405598455119  0.3272819313712961   T   T   T
  0.5044572001814382  0.4391321158999100  0.2702435173381341   T   T   T
  0.5667817092271131  0.2676897735071291  0.2406365872013796   T   T   T
  0.0778278301521433  0.6793021547615006  0.0261859784478286   T   T   T
  0.4113087265269334  0.6792819105170692  0.0261905360849231   T   T   T
  0.7445414784113848  0.6792370957176290  0.0261942950430436   T   T   T
  0.0787012851799614  0.9292553758334969  0.0261135856951277   T   T   T
  0.4114325621945820  0.9291349557731362  0.0261843568050869   T   T   T
  0.7443062940420399  0.9291116702867761  0.0261904658684993   T   T   T
  0.3276167093797794  0.5290445450605217  0.0440524926900625   T   T   T
  0.6609661443559822  0.5290228422982296  0.0440878790472672   T   T   T
  0.9942115612514022  0.5290381314480004  0.0440874657766520   T   T   T
  0.3276333617575043  0.7789045710018584  0.0441141628237748   T   T   T
  0.6608072723288940  0.7789004972033223  0.0441155496854058   T   T   T
  0.9942251189798836  0.7789897286382460  0.0441031346325408   T   T   T
  0.8319113766550692  0.9040252134179184  0.2065140775745080   T   T   T
  0.8317849189337326  0.6537111387656881  0.2064321835652267   T   T   T
  0.1661352948581064  0.6536317786962061  0.2063894338777538   T   T   T
  0.4984091607696669  0.6533712862212411  0.2064351226712553   T   T   T
  0.1653847876148562  0.9039730221511687  0.2064953423137788   T   T   T
  0.4988706391853648  0.9038960272754381  0.2065266640567736   T   T   T
  0.0877853856480919  0.5535837631696487  0.2237125365277327   T   T   T
  0.4162783057221280  0.5497810406010604  0.2244426399592512   T   T   T
  0.7548013851181911  0.5543519473286684  0.2233304437846814   T   T   T
  0.0828944727265298  0.8041453801336463  0.2243191432928484   T   T   T
  0.4153488237576641  0.8043010777937680  0.2244073953178526   T   T   T
  0.7508820331785807  0.8037372272253508  0.2242394599715067   T   T   T
  0.1721709990504839  0.1686836939945208  0.0330454677859027   T   T   T
  0.5053555962866576  0.1688156382829643  0.0331809687894393   T   T   T
  0.8382884014300922  0.1686870646382215  0.0330471094725511   T   T   T
  0.1720591945587897  0.4187575219196696  0.0330557266925203   T   T   T
  0.5055496783284735  0.4183962909873981  0.0329418458904175   T   T   T
  0.8380567900543145  0.4187793292311974  0.0330792042113360   T   T   T
  0.3213336368180718  0.0434926715130277  0.2176113124042326   T   T   T
  0.6541955586627872  0.0435119233578145  0.2176271702190256   T   T   T
  0.9881476747737300  0.0438619841609418  0.2174266335230691   T   T   T
  0.2981125094416364  0.2953395808020574  0.2174657059241537   T   T   T
  0.6799324436412830  0.2917252428930365  0.2183131339973756   T   T   T
  0.9919404742292391  0.2920478903154020  0.2172455074555180   T   T   T
  0.5245434521995157  0.2745059780988823  0.2958466464627099   T   T   T
  0.3896406398386497  0.1326387819631479  0.3004434213325194   T   T   T
  0.5357101635394100  0.3808901342030462  0.3311292371109515   T   T   T
  0.4818235259220725  0.2524343193532506  0.2500247079747198   T   T   T
  0.1718306465140813  0.6688195693983757  0.0330649062436070   T   T   T
  0.5053297096252717  0.6688075637074725  0.0330666039969850   T   T   T
  0.8385926902742609  0.6688296191021772  0.0330705561211189   T   T   T
  0.1723933665477472  0.9188422382542347  0.0330963927573346   T   T   T
  0.5053168726833827  0.9188771241399875  0.0331242015039255   T   T   T
  0.8383307359649412  0.9188263164781265  0.0330858303262245   T   T   T
  0.3218609443213649  0.5459847726088918  0.2170835380877627   T   T   T
  0.6576180384649611  0.5453707298067717  0.2174918582370291   T   T   T
  0.9912139786690547  0.5443902071074145  0.2175482031594177   T   T   T
  0.3213134586431627  0.7938889652352057  0.2175346359717646   T   T   T
  0.6560870701583001  0.7941860548348707  0.2175059807291027   T   T   T
  0.9885014686057555  0.7939435684236420  0.2175311067479232   T   T   T
  0.4966386373555128  0.1240092344244864  0.0589933331166450   T   T   T
  0.8298924500797737  0.1239317277083891  0.0588686468521829   T   T   T
  0.1633996311769642  0.3739248019381227  0.0588865220073984   T   T   T
  0.4967066698240601  0.3738675597467454  0.0588340593208047   T   T   T
  0.8298707385803011  0.3739334939968180  0.0589085539838020   T   T   T
  0.1632578113223656  0.1239079995274681  0.0588571935207251   T   T   T
  0.9960349601048964  0.0002808303211393  0.1387107755147653   T   T   T
  0.3299193566710339  0.0006597707238929  0.1388449807906519   T   T   T
  0.6623250046005372  0.0007431368789383  0.1388661062840861   T   T   T
  0.9960428212460453  0.2507071571382640  0.1387560299901698   T   T   T
  0.3292627600189365  0.2513101342442284  0.1390407372126131   T   T   T
  0.6626578261015151  0.2512889309603261  0.1390257294516196   T   T   T
  0.1624729178154836  0.1249112155644864  0.1648608353517234   T   T   T
  0.4956370598014236  0.1268707904542090  0.1656141594267891   T   T   T
  0.8293047054086037  0.1251364239150281  0.1649277024746052   T   T   T
  0.1628496816878649  0.3756254496114532  0.1651720982434320   T   T   T
  0.4956067026109681  0.3772536643132068  0.1664567099698802   T   T   T
  0.8288967162050098  0.3756881726744240  0.1652864852550900   T   T   T
  0.3348636672518552  0.4957622903303171  0.1918311396027808   T   T   T
  0.6562453513905229  0.4957188829209778  0.1921244308911853   T   T   T
  0.9959802339923870  0.4987768670070684  0.1917156405098147   T   T   T
  0.3256375783735301  0.2509577907993921  0.1921845962030106   T   T   T
  0.9961546118956102  0.2479446654898678  0.1912497117713457   T   T   T
  0.6645787003270484  0.2501313767917802  0.1919459427978012   T   T   T
  0.9960671443305321  0.0003751754889698  0.0855145209327147   T   T   T
  0.3295020974716102  0.0004253136449938  0.0855830207849012   T   T   T
  0.6626801285913910  0.0004386934015895  0.0855934113303064   T   T   T
  0.9961689040423030  0.2504436489068080  0.0855290425534097   T   T   T
  0.3294339247405179  0.2505126305014660  0.0856154250401808   T   T   T
  0.6628806586426917  0.2504914056245274  0.0856287897500513   T   T   T
  0.1626399024053832  0.1256728418438791  0.1118474593937480   T   T   T
  0.4959105082978238  0.1259002861285681  0.1120944162769601   T   T   T
  0.8292105462979144  0.1256623432708581  0.1118764439454239   T   T   T
  0.1627842959716700  0.3756901725013249  0.1119473817969893   T   T   T
  0.4959373769653982  0.3758312488296690  0.1119988844199434   T   T   T
  0.8291315111218505  0.3756778197392558  0.1119864520697651   T   T   T
  0.4966638967090833  0.6238916406862615  0.0588894905085627   T   T   T
  0.8299280123482458  0.6239253459797622  0.0588997149865376   T   T   T
  0.1633949644243211  0.8739338180202578  0.0588840815692671   T   T   T
  0.4966621353768996  0.8738954347860586  0.0589030147603629   T   T   T
  0.8298539285543043  0.8739413203521590  0.0588852945956154   T   T   T
  0.1632841237644543  0.6239288063321854  0.0588855085747928   T   T   T
  0.9960313596962502  0.5004924876860967  0.1388759892370167   T   T   T
  0.3304796141384087  0.5003050766437283  0.1389801922578621   T   T   T
  0.6615215307704905  0.5002795330876717  0.1390586575439889   T   T   T
  0.9960592142244832  0.7503739418309883  0.1387758300573267   T   T   T
  0.3295190137736865  0.7501759166072265  0.1388007654806362   T   T   T
  0.6627318014911541  0.7501693985614408  0.1388009826580491   T   T   T
  0.1632741792499376  0.6248297919215150  0.1651101259133029   T   T   T
  0.4960252671087451  0.6242603264521595  0.1651950961229071   T   T   T
  0.8284780244254488  0.6247523152114552  0.1651508640072989   T   T   T
  0.1628510838600934  0.8751631249195191  0.1651051800143258   T   T   T
  0.4961303222433999  0.8751421322369397  0.1651328447124117   T   T   T
  0.8292707391129336  0.8751900123583068  0.1651182263350570   T   T   T
  0.3295101197300167  0.9989786947191829  0.1917625284496242   T   T   T
  0.6627532930168002  0.9990188630004491  0.1917775380742781   T   T   T
  0.9961548611902703  0.9989063097596231  0.1916331590892258   T   T   T
  0.3297074710055725  0.7485071015593415  0.1917460258671028   T   T   T
  0.9962889604126530  0.7486325043102553  0.1917364506683787   T   T   T
  0.6628572512248975  0.7485616287541281  0.1917618096018901   T   T   T
  0.9960677373542237  0.5003497579663866  0.0855719711158137   T   T   T
  0.3295602857033374  0.5003354741639567  0.0855522227120180   T   T   T
  0.6625794138196859  0.5003119581340062  0.0855828458639355   T   T   T
  0.9961545800185009  0.7503398691352265  0.0855524083814576   T   T   T
  0.3295207903583296  0.7502220727686905  0.0855491171450063   T   T   T
  0.6628233954368037  0.7502276416759092  0.0855519561034257   T   T   T
  0.1627630599644279  0.6253738309792014  0.1119296747318984   T   T   T
  0.4959720316588334  0.6252807388812935  0.1119391119429239   T   T   T
  0.8290683675909202  0.6253561692148086  0.1119438050723827   T   T   T
  0.1628166648809770  0.8754846033220943  0.1118871615991799   T   T   T
  0.4960023419530746  0.8754021226177495  0.1118948219998900   T   T   T
  0.8290686029629155  0.8754921145930067  0.1118866403827888   T   T   T
 
  0.00000000E+00  0.00000000E+00  0.00000000E+00
  0.00000000E+00  0.00000000E+00  0.00000000E+00
  0.00000000E+00  0.00000000E+00  0.00000000E+00
  0.00000000E+00  0.00000000E+00  0.00000000E+00
  0.00000000E+00  0.00000000E+00  0.00000000E+00
  0.00000000E+00  0.00000000E+00  0.00000000E+00
  0.00000000E+00  0.00000000E+00  0.00000000E+00
  0.00000000E+00  0.00000000E+00  0.00000000E+00
  0.00000000E+00  0.00000000E+00  0.00000000E+00
  0.00000000E+00  0.00000000E+00  0.00000000E+00
  0.00000000E+00  0.00000000E+00  0.00000000E+00
  0.00000000E+00  0.00000000E+00  0.00000000E+00
  0.00000000E+00  0.00000000E+00  0.00000000E+00
  0.00000000E+00  0.00000000E+00  0.00000000E+00
  0.00000000E+00  0.00000000E+00  0.00000000E+00
  0.00000000E+00  0.00000000E+00  0.00000000E+00
  0.00000000E+00  0.00000000E+00  0.00000000E+00
  0.00000000E+00  0.00000000E+00  0.00000000E+00
  0.00000000E+00  0.00000000E+00  0.00000000E+00
  0.00000000E+00  0.00000000E+00  0.00000000E+00
  0.00000000E+00  0.00000000E+00  0.00000000E+00
  0.00000000E+00  0.00000000E+00  0.00000000E+00
  0.00000000E+00  0.00000000E+00  0.00000000E+00
  0.00000000E+00  0.00000000E+00  0.00000000E+00
  0.00000000E+00  0.00000000E+00  0.00000000E+00
  0.00000000E+00  0.00000000E+00  0.00000000E+00
  0.00000000E+00  0.00000000E+00  0.00000000E+00
  0.00000000E+00  0.00000000E+00  0.00000000E+00
  0.00000000E+00  0.00000000E+00  0.00000000E+00
  0.00000000E+00  0.00000000E+00  0.00000000E+00
  0.00000000E+00  0.00000000E+00  0.00000000E+00
  0.00000000E+00  0.00000000E+00  0.00000000E+00
  0.00000000E+00  0.00000000E+00  0.00000000E+00
  0.00000000E+00  0.00000000E+00  0.00000000E+00
  0.00000000E+00  0.00000000E+00  0.00000000E+00
  0.00000000E+00  0.00000000E+00  0.00000000E+00
  0.00000000E+00  0.00000000E+00  0.00000000E+00
  0.00000000E+00  0.00000000E+00  0.00000000E+00
  0.00000000E+00  0.00000000E+00  0.00000000E+00
  0.00000000E+00  0.00000000E+00  0.00000000E+00
  0.00000000E+00  0.00000000E+00  0.00000000E+00
  0.00000000E+00  0.00000000E+00  0.00000000E+00
  0.00000000E+00  0.00000000E+00  0.00000000E+00
  0.00000000E+00  0.00000000E+00  0.00000000E+00
  0.00000000E+00  0.00000000E+00  0.00000000E+00
  0.00000000E+00  0.00000000E+00  0.00000000E+00
  0.00000000E+00  0.00000000E+00  0.00000000E+00
  0.00000000E+00  0.00000000E+00  0.00000000E+00
  0.00000000E+00  0.00000000E+00  0.00000000E+00
  0.00000000E+00  0.00000000E+00  0.00000000E+00
  0.00000000E+00  0.00000000E+00  0.00000000E+00
  0.00000000E+00  0.00000000E+00  0.00000000E+00
  0.00000000E+00  0.00000000E+00  0.00000000E+00
  0.00000000E+00  0.00000000E+00  0.00000000E+00
  0.00000000E+00  0.00000000E+00  0.00000000E+00
  0.00000000E+00  0.00000000E+00  0.00000000E+00
  0.00000000E+00  0.00000000E+00  0.00000000E+00
  0.00000000E+00  0.00000000E+00  0.00000000E+00
  0.00000000E+00  0.00000000E+00  0.00000000E+00
  0.00000000E+00  0.00000000E+00  0.00000000E+00
  0.00000000E+00  0.00000000E+00  0.00000000E+00
  0.00000000E+00  0.00000000E+00  0.00000000E+00
  0.00000000E+00  0.00000000E+00  0.00000000E+00
  0.00000000E+00  0.00000000E+00  0.00000000E+00
  0.00000000E+00  0.00000000E+00  0.00000000E+00
  0.00000000E+00  0.00000000E+00  0.00000000E+00
  0.00000000E+00  0.00000000E+00  0.00000000E+00
  0.00000000E+00  0.00000000E+00  0.00000000E+00
  0.00000000E+00  0.00000000E+00  0.00000000E+00
  0.00000000E+00  0.00000000E+00  0.00000000E+00
  0.00000000E+00  0.00000000E+00  0.00000000E+00
  0.00000000E+00  0.00000000E+00  0.00000000E+00
  0.00000000E+00  0.00000000E+00  0.00000000E+00
  0.00000000E+00  0.00000000E+00  0.00000000E+00
  0.00000000E+00  0.00000000E+00  0.00000000E+00
  0.00000000E+00  0.00000000E+00  0.00000000E+00
  0.00000000E+00  0.00000000E+00  0.00000000E+00
  0.00000000E+00  0.00000000E+00  0.00000000E+00
  0.00000000E+00  0.00000000E+00  0.00000000E+00
  0.00000000E+00  0.00000000E+00  0.00000000E+00
  0.00000000E+00  0.00000000E+00  0.00000000E+00
  0.00000000E+00  0.00000000E+00  0.00000000E+00
  0.00000000E+00  0.00000000E+00  0.00000000E+00
  0.00000000E+00  0.00000000E+00  0.00000000E+00
  0.00000000E+00  0.00000000E+00  0.00000000E+00
  0.00000000E+00  0.00000000E+00  0.00000000E+00
  0.00000000E+00  0.00000000E+00  0.00000000E+00
  0.00000000E+00  0.00000000E+00  0.00000000E+00
  0.00000000E+00  0.00000000E+00  0.00000000E+00
  0.00000000E+00  0.00000000E+00  0.00000000E+00
  0.00000000E+00  0.00000000E+00  0.00000000E+00
  0.00000000E+00  0.00000000E+00  0.00000000E+00
  0.00000000E+00  0.00000000E+00  0.00000000E+00
  0.00000000E+00  0.00000000E+00  0.00000000E+00
  0.00000000E+00  0.00000000E+00  0.00000000E+00
  0.00000000E+00  0.00000000E+00  0.00000000E+00
  0.00000000E+00  0.00000000E+00  0.00000000E+00
  0.00000000E+00  0.00000000E+00  0.00000000E+00
  0.00000000E+00  0.00000000E+00  0.00000000E+00
  0.00000000E+00  0.00000000E+00  0.00000000E+00
  0.00000000E+00  0.00000000E+00  0.00000000E+00
  0.00000000E+00  0.00000000E+00  0.00000000E+00
  0.00000000E+00  0.00000000E+00  0.00000000E+00
  0.00000000E+00  0.00000000E+00  0.00000000E+00
  0.00000000E+00  0.00000000E+00  0.00000000E+00
  0.00000000E+00  0.00000000E+00  0.00000000E+00
  0.00000000E+00  0.00000000E+00  0.00000000E+00
  0.00000000E+00  0.00000000E+00  0.00000000E+00
  0.00000000E+00  0.00000000E+00  0.00000000E+00
  0.00000000E+00  0.00000000E+00  0.00000000E+00
  0.00000000E+00  0.00000000E+00  0.00000000E+00
  0.00000000E+00  0.00000000E+00  0.00000000E+00
  0.00000000E+00  0.00000000E+00  0.00000000E+00
  0.00000000E+00  0.00000000E+00  0.00000000E+00
  0.00000000E+00  0.00000000E+00  0.00000000E+00
  0.00000000E+00  0.00000000E+00  0.00000000E+00
  0.00000000E+00  0.00000000E+00  0.00000000E+00
  0.00000000E+00  0.00000000E+00  0.00000000E+00
  0.00000000E+00  0.00000000E+00  0.00000000E+00
  0.00000000E+00  0.00000000E+00  0.00000000E+00
  0.00000000E+00  0.00000000E+00  0.00000000E+00
  0.00000000E+00  0.00000000E+00  0.00000000E+00
  0.00000000E+00  0.00000000E+00  0.00000000E+00
  0.00000000E+00  0.00000000E+00  0.00000000E+00
  0.00000000E+00  0.00000000E+00  0.00000000E+00
  0.00000000E+00  0.00000000E+00  0.00000000E+00
  0.00000000E+00  0.00000000E+00  0.00000000E+00
  0.00000000E+00  0.00000000E+00  0.00000000E+00
  0.00000000E+00  0.00000000E+00  0.00000000E+00
  0.00000000E+00  0.00000000E+00  0.00000000E+00
  0.00000000E+00  0.00000000E+00  0.00000000E+00
  0.00000000E+00  0.00000000E+00  0.00000000E+00
  0.00000000E+00  0.00000000E+00  0.00000000E+00
  0.00000000E+00  0.00000000E+00  0.00000000E+00
  0.00000000E+00  0.00000000E+00  0.00000000E+00
  0.00000000E+00  0.00000000E+00  0.00000000E+00
  0.00000000E+00  0.00000000E+00  0.00000000E+00
  0.00000000E+00  0.00000000E+00  0.00000000E+00
  0.00000000E+00  0.00000000E+00  0.00000000E+00
  0.00000000E+00  0.00000000E+00  0.00000000E+00
  0.00000000E+00  0.00000000E+00  0.00000000E+00
  0.00000000E+00  0.00000000E+00  0.00000000E+00
  0.00000000E+00  0.00000000E+00  0.00000000E+00
  0.00000000E+00  0.00000000E+00  0.00000000E+00
  0.00000000E+00  0.00000000E+00  0.00000000E+00
  0.00000000E+00  0.00000000E+00  0.00000000E+00
  0.00000000E+00  0.00000000E+00  0.00000000E+00
  0.00000000E+00  0.00000000E+00  0.00000000E+00
  0.00000000E+00  0.00000000E+00  0.00000000E+00
  0.00000000E+00  0.00000000E+00  0.00000000E+00
  0.00000000E+00  0.00000000E+00  0.00000000E+00
  0.00000000E+00  0.00000000E+00  0.00000000E+00
  0.00000000E+00  0.00000000E+00  0.00000000E+00
  0.00000000E+00  0.00000000E+00  0.00000000E+00
  0.00000000E+00  0.00000000E+00  0.00000000E+00
  0.00000000E+00  0.00000000E+00  0.00000000E+00
  0.00000000E+00  0.00000000E+00  0.00000000E+00
  0.00000000E+00  0.00000000E+00  0.00000000E+00
  0.00000000E+00  0.00000000E+00  0.00000000E+00
  0.00000000E+00  0.00000000E+00  0.00000000E+00
  0.00000000E+00  0.00000000E+00  0.00000000E+00
  0.00000000E+00  0.00000000E+00  0.00000000E+00
  0.00000000E+00  0.00000000E+00  0.00000000E+00
  0.00000000E+00  0.00000000E+00  0.00000000E+00
  0.00000000E+00  0.00000000E+00  0.00000000E+00
  0.00000000E+00  0.00000000E+00  0.00000000E+00
  0.00000000E+00  0.00000000E+00  0.00000000E+00
  0.00000000E+00  0.00000000E+00  0.00000000E+00
  0.00000000E+00  0.00000000E+00  0.00000000E+00
  0.00000000E+00  0.00000000E+00  0.00000000E+00
  0.00000000E+00  0.00000000E+00  0.00000000E+00
  0.00000000E+00  0.00000000E+00  0.00000000E+00
  0.00000000E+00  0.00000000E+00  0.00000000E+00
  0.00000000E+00  0.00000000E+00  0.00000000E+00
  0.00000000E+00  0.00000000E+00  0.00000000E+00
  0.00000000E+00  0.00000000E+00  0.00000000E+00
  0.00000000E+00  0.00000000E+00  0.00000000E+00
  0.00000000E+00  0.00000000E+00  0.00000000E+00
  0.00000000E+00  0.00000000E+00  0.00000000E+00
  0.00000000E+00  0.00000000E+00  0.00000000E+00
  0.00000000E+00  0.00000000E+00  0.00000000E+00
  0.00000000E+00  0.00000000E+00  0.00000000E+00
  0.00000000E+00  0.00000000E+00  0.00000000E+00
  0.00000000E+00  0.00000000E+00  0.00000000E+00
  0.00000000E+00  0.00000000E+00  0.00000000E+00
  0.00000000E+00  0.00000000E+00  0.00000000E+00
  0.00000000E+00  0.00000000E+00  0.00000000E+00
  0.00000000E+00  0.00000000E+00  0.00000000E+00
  0.00000000E+00  0.00000000E+00  0.00000000E+00
  0.00000000E+00  0.00000000E+00  0.00000000E+00
  0.00000000E+00  0.00000000E+00  0.00000000E+00
  0.00000000E+00  0.00000000E+00  0.00000000E+00
  0.00000000E+00  0.00000000E+00  0.00000000E+00
  0.00000000E+00  0.00000000E+00  0.00000000E+00
  0.00000000E+00  0.00000000E+00  0.00000000E+00
  0.00000000E+00  0.00000000E+00  0.00000000E+00
  0.00000000E+00  0.00000000E+00  0.00000000E+00
  0.00000000E+00  0.00000000E+00  0.00000000E+00
  0.00000000E+00  0.00000000E+00  0.00000000E+00
  0.00000000E+00  0.00000000E+00  0.00000000E+00
  0.00000000E+00  0.00000000E+00  0.00000000E+00
  0.00000000E+00  0.00000000E+00  0.00000000E+00
  0.00000000E+00  0.00000000E+00  0.00000000E+00
  0.00000000E+00  0.00000000E+00  0.00000000E+00
  0.00000000E+00  0.00000000E+00  0.00000000E+00
  0.00000000E+00  0.00000000E+00  0.00000000E+00
  0.00000000E+00  0.00000000E+00  0.00000000E+00
  0.00000000E+00  0.00000000E+00  0.00000000E+00
  0.00000000E+00  0.00000000E+00  0.00000000E+00
  0.00000000E+00  0.00000000E+00  0.00000000E+00
  0.00000000E+00  0.00000000E+00  0.00000000E+00
  0.00000000E+00  0.00000000E+00  0.00000000E+00
  0.00000000E+00  0.00000000E+00  0.00000000E+00
  0.00000000E+00  0.00000000E+00  0.00000000E+00
  0.00000000E+00  0.00000000E+00  0.00000000E+00
  0.00000000E+00  0.00000000E+00  0.00000000E+00
  0.00000000E+00  0.00000000E+00  0.00000000E+00
  0.00000000E+00  0.00000000E+00  0.00000000E+00
  0.00000000E+00  0.00000000E+00  0.00000000E+00
  0.00000000E+00  0.00000000E+00  0.00000000E+00
  0.00000000E+00  0.00000000E+00  0.00000000E+00
  0.00000000E+00  0.00000000E+00  0.00000000E+00
  0.00000000E+00  0.00000000E+00  0.00000000E+00
  0.00000000E+00  0.00000000E+00  0.00000000E+00
  0.00000000E+00  0.00000000E+00  0.00000000E+00
  0.00000000E+00  0.00000000E+00  0.00000000E+00
  0.00000000E+00  0.00000000E+00  0.00000000E+00
  0.00000000E+00  0.00000000E+00  0.00000000E+00
  0.00000000E+00  0.00000000E+00  0.00000000E+00
