C H O Si                                
   1.00000000000000     
     9.2874599999999994    0.0000000000000000    0.0000000000000000
     0.0000000000000000   17.5126199999999983    0.0000000000000000
     0.0000000000000000    0.0000000000000000   58.0000000000000000
   C    H    O    Si
    72    57    28    72
Selective dynamics
Direct
  0.9964194207617216  0.0651824416194892  0.0595430489388301   T   T   T
  0.3298771991880138  0.0653247705587381  0.0596139641504356   T   T   T
  0.6630644553934931  0.0653314229727209  0.0596274163947901   T   T   T
  0.9965390355751992  0.3152759614749028  0.0595582683009087   T   T   T
  0.3298702047548397  0.3151500052126948  0.0595574822600937   T   T   T
  0.6632573409112461  0.3151339419205257  0.0595854168485704   T   T   T
  0.1629282497208960  0.1880277243240431  0.1383726485921919   T   T   T
  0.4961941863576906  0.1885313815007281  0.1387452096332501   T   T   T
  0.8293108838483643  0.1880693868309821  0.1384098417048193   T   T   T
  0.1628669903985894  0.4382310161859378  0.1384781095618179   T   T   T
  0.4962242330087276  0.4373141946209335  0.1384406219220322   T   T   T
  0.8293782893782642  0.4381498698665904  0.1385378461719904   T   T   T
  0.3297997018864940  0.0633613461581091  0.1657283198166434   T   T   T
  0.6617415409415535  0.0635301846376953  0.1657786599586559   T   T   T
  0.9955011540213115  0.0626302170298230  0.1654700794432968   T   T   T
  0.3286021958737559  0.3134435613272002  0.1657795309487673   T   T   T
  0.6627166416719764  0.3134694477253014  0.1658147462477962   T   T   T
  0.9956687851565833  0.3132428269708274  0.1655128562595407   T   T   T
  0.1622919470117514  0.1890252052348110  0.1904379822036515   T   T   T
  0.4952917434374280  0.1928165366603473  0.1918264217434044   T   T   T
  0.8295080419652581  0.1895265800898343  0.1906307937768466   T   T   T
  0.1624798709907845  0.4406525353175834  0.1908766022807313   T   T   T
  0.4954907769105477  0.4388281585009615  0.1913640082201897   T   T   T
  0.8292201002861226  0.4406724229651297  0.1911002643148529   T   T   T
  0.1627645855410637  0.1881179412406065  0.0848802989850381   T   T   T
  0.4961048107568292  0.1881883178739273  0.0850664910948767   T   T   T
  0.8294074423541322  0.1881066618175028  0.0849149559454146   T   T   T
  0.1626518009423536  0.4381921582312963  0.0849078645169563   T   T   T
  0.4958793801267703  0.4381081551345075  0.0847929154403139   T   T   T
  0.8293105334354565  0.4381736869353636  0.0849480023978539   T   T   T
  0.3292220943424152  0.0631147377758084  0.1121894784176447   T   T   T
  0.6623179490160417  0.0631487164054056  0.1122040989544046   T   T   T
  0.9958276829050015  0.0629860693834890  0.1121090376324834   T   T   T
  0.3291967412940620  0.3130706420106411  0.1121512136411535   T   T   T
  0.6624793218939693  0.3130708250488780  0.1121521553233319   T   T   T
  0.9959003815079320  0.3130905431533264  0.1120753937913172   T   T   T
  0.9965194768472467  0.5653653086306892  0.0595938081959966   T   T   T
  0.3297929832288954  0.5653687745327881  0.0595584505427464   T   T   T
  0.6632273225771517  0.5653712064497997  0.0595830124129339   T   T   T
  0.9965158270212836  0.8153932546111931  0.0595812251420443   T   T   T
  0.3298720370570523  0.8152829187671004  0.0596011813113382   T   T   T
  0.6631758796650828  0.8152758721461543  0.0596010648898377   T   T   T
  0.1626288137455023  0.6882511775751877  0.1385023903697780   T   T   T
  0.4962685911085810  0.6879273565549310  0.1385425910421706   T   T   T
  0.8296784377700144  0.6881661455594376  0.1385130208691878   T   T   T
  0.1632715486642775  0.9380773482434477  0.1385205748831952   T   T   T
  0.4963829376250843  0.9379329973979847  0.1385265976442692   T   T   T
  0.8291852382293687  0.9380937933844319  0.1385172883894353   T   T   T
  0.3284261171522362  0.5632740189279225  0.1656916637895472   T   T   T
  0.6630075005875334  0.5631026947974836  0.1658294464820385   T   T   T
  0.9957143470402362  0.5634658110513344  0.1656430128451798   T   T   T
  0.3293109369795051  0.8131480519373943  0.1656694161785884   T   T   T
  0.6626123661294753  0.8131253819107541  0.1656743741510134   T   T   T
  0.9958966440176886  0.8132262674115616  0.1656641330212609   T   T   T
  0.1630257201024955  0.6903996549154727  0.1909768400025041   T   T   T
  0.4964371055998782  0.6902226739070708  0.1910391560787696   T   T   T
  0.8298568469304483  0.6903911694489635  0.1909990272556568   T   T   T
  0.1631123761074532  0.9403352538637476  0.1909920706070768   T   T   T
  0.4964180292052993  0.9402829482174314  0.1910313615105536   T   T   T
  0.8296281089814067  0.9403614729830074  0.1910116542456955   T   T   T
  0.1626933546471867  0.6882236772501191  0.0849473009865885   T   T   T
  0.4961200720407634  0.6881553342414475  0.0849472224288566   T   T   T
  0.8294938682829761  0.6882081950035396  0.0849592093468001   T   T   T
  0.1627595678173817  0.9382512091295830  0.0849660021483717   T   T   T
  0.4960144582785117  0.9381826315808055  0.0849857904192581   T   T   T
  0.8292122863590830  0.9382552953464454  0.0849607872131762   T   T   T
  0.3291503262290067  0.5630169755362672  0.1121195719961059   T   T   T
  0.6624645252699093  0.5629364060844519  0.1121588750916574   T   T   T
  0.9957810950873547  0.5631003195449741  0.1121428596499514   T   T   T
  0.3292007867478419  0.8130213451888527  0.1121315589716403   T   T   T
  0.6625170264426816  0.8130123585748068  0.1121305266981468   T   T   T
  0.9958431570499491  0.8132128440462265  0.1121414688742810   T   T   T
  0.0783414922259908  0.1791764541023662  0.0261216989124801   T   T   T
  0.4114031843102352  0.1792743706443618  0.0263062278034517   T   T   T
  0.7442130266519911  0.1791501672496534  0.0262024418502364   T   T   T
  0.0780820510747178  0.4291904614612951  0.0261745047182249   T   T   T
  0.4115232982067440  0.4288731433178816  0.0260803877355742   T   T   T
  0.7437739198116401  0.4289629530176176  0.0262526886533238   T   T   T
  0.3280614018796035  0.0289311804753650  0.0441363840343245   T   T   T
  0.6605349662893255  0.0289303039767607  0.0441541639303293   T   T   T
  0.9941770164673500  0.0288658641027418  0.0440455333725292   T   T   T
  0.3272840247010635  0.2786741716129644  0.0440987831464891   T   T   T
  0.6614498005075381  0.2786710277734877  0.0441251004095085   T   T   T
  0.9942351429361094  0.2789822905335593  0.0440601828135474   T   T   T
  0.8319498375849750  0.4037555818656088  0.2064574350824066   T   T   T
  0.8325531350607274  0.1534930724496224  0.2061807817967625   T   T   T
  0.1646162158629484  0.1535061006713623  0.2060935683215531   T   T   T
  0.4980910374192394  0.1561304114007153  0.2072344670459767   T   T   T
  0.1651911071000160  0.4038544707528985  0.2062544357622072   T   T   T
  0.5390302853706629  0.4645985190585325  0.2614005254089525   T   T   T
  0.0823621245714676  0.0553150980253952  0.2241001168836803   T   T   T
  0.4155392137506796  0.0553230952559478  0.2242383607789370   T   T   T
  0.7481474730637260  0.0554087166733697  0.2243386099293068   T   T   T
  0.0914254952638601  0.3015725254067893  0.2225328502709016   T   T   T
  0.3656529335538092  0.2835945273789460  0.2304939948998194   T   T   T
  0.7813820119188865  0.2968147475655799  0.2228641423536023   T   T   T
  0.4976035996695211  0.2707513651313946  0.2660129935848196   T   T   T
  0.4698791463130640  0.2284873480335265  0.3004745405181981   T   T   T
  0.5181763802225970  0.3127611372977122  0.3084280984418863   T   T   T
  0.2889803704911752  0.1365093356526619  0.2958366156100864   T   T   T
  0.4376000567483016  0.1084045368754348  0.2873686939746823   T   T   T
  0.6377067282322731  0.3858865280332383  0.3348201465982479   T   T   T
  0.5037105470703825  0.4323396405591605  0.3273000167896846   T   T   T
  0.5044016672440798  0.4390680410135072  0.2701953528753293   T   T   T
  0.5667801934084939  0.2676129834152738  0.2406288315086448   T   T   T
  0.0778214420598439  0.6792522341859452  0.0261960573891006   T   T   T
  0.4112992508996287  0.6792298294236826  0.0262047107867017   T   T   T
  0.7445256265308989  0.6791859422049282  0.0262062537014529   T   T   T
  0.0786696509338858  0.9291951782800326  0.0261243829553670   T   T   T
  0.4114108531858538  0.9290743159996649  0.0261967173625893   T   T   T
  0.7442942704432174  0.9290414318765334  0.0262079989119979   T   T   T
  0.3276896382805725  0.5290699872665708  0.0440568696045248   T   T   T
  0.6610081193707088  0.5290324645490568  0.0440879762563857   T   T   T
  0.9942542791215045  0.5290779068880339  0.0440922239186409   T   T   T
  0.3276993809084698  0.7788928048094194  0.0441189826669183   T   T   T
  0.6608609617377881  0.7788892593543880  0.0441186407712754   T   T   T
  0.9942761954768152  0.7789701055756040  0.0441021064837998   T   T   T
  0.8319304988929289  0.9040408779316836  0.2065092397879249   T   T   T
  0.8318276415895438  0.6537183336555233  0.2064181766403898   T   T   T
  0.1661944084986390  0.6536525923825652  0.2063756767084075   T   T   T
  0.4984638127722864  0.6533881620621170  0.2064280132808756   T   T   T
  0.1654470786312805  0.9039883261994723  0.2064850835223414   T   T   T
  0.4989166623030342  0.9039186259471702  0.2065182998050275   T   T   T
  0.0878299705520016  0.5535793733446325  0.2237222364972286   T   T   T
  0.4163907351847888  0.5497963755770524  0.2244478789270548   T   T   T
  0.7548476379191962  0.5543106518005765  0.2233440790104128   T   T   T
  0.0829417023327543  0.8041400268196901  0.2243286125344280   T   T   T
  0.4153948251879406  0.8043078314933935  0.2244222162118898   T   T   T
  0.7509973924329871  0.8037197900428522  0.2242497213347148   T   T   T
  0.1722839560277582  0.1687400624425117  0.0330331216370884   T   T   T
  0.5054715872003462  0.1687827854064100  0.0331591985484787   T   T   T
  0.8384133994436456  0.1687167162038615  0.0330240360804850   T   T   T
  0.1721697719156643  0.4188060456638329  0.0330373864658876   T   T   T
  0.5056984359958511  0.4184662553019319  0.0329209631777117   T   T   T
  0.8381719048804981  0.4187962106145734  0.0330530394014904   T   T   T
  0.3213282174666045  0.0435166599047130  0.2176317525674215   T   T   T
  0.6542530358342096  0.0435482373246260  0.2176333722898071   T   T   T
  0.9882254562463449  0.0438790074236813  0.2174123755217453   T   T   T
  0.2980480047661655  0.2953519984500635  0.2174945083132479   T   T   T
  0.6797263018092327  0.2917843293755408  0.2183750581005884   T   T   T
  0.9918124822459395  0.2921183992347340  0.2172427697662242   T   T   T
  0.5245136126570120  0.2745240358577739  0.2958687564481916   T   T   T
  0.3896181912814540  0.1325178069141045  0.3004251038783123   T   T   T
  0.5358133322317411  0.3809177176777191  0.3311187493561585   T   T   T
  0.4817493744135344  0.2525285619243327  0.2500079774903269   T   T   T
  0.1719081881419382  0.6687953906338868  0.0330519981588779   T   T   T
  0.5054166220735811  0.6687641801220225  0.0330489353316156   T   T   T
  0.8386620736289682  0.6687942818705932  0.0330550315573360   T   T   T
  0.1724998929965552  0.9188509589271338  0.0330737870466006   T   T   T
  0.5054219660774965  0.9188725877681255  0.0330987616058888   T   T   T
  0.8384676492127741  0.9188165345410618  0.0330642364261581   T   T   T
  0.3221847388902551  0.5458337987667214  0.2170447788963054   T   T   T
  0.6576109383394079  0.5453844020672248  0.2175101887077649   T   T   T
  0.9911966774818518  0.5444063511257714  0.2175755934176509   T   T   T
  0.3214536345270285  0.7938216694431618  0.2175308808369441   T   T   T
  0.6562150487147769  0.7942124165354372  0.2175085529939782   T   T   T
  0.9886006237599236  0.7938905309202461  0.2175297821415196   T   T   T
  0.4966345011694151  0.1240372791189044  0.0589769530859955   T   T   T
  0.8299369993632616  0.1239621645735592  0.0588461731230101   T   T   T
  0.1634251638413528  0.3739411747449614  0.0588571079696826   T   T   T
  0.4967347497578962  0.3738782585310280  0.0588047066317030   T   T   T
  0.8299379786457246  0.3739413145532783  0.0588885258630533   T   T   T
  0.1632707649677770  0.1239246970639887  0.0588343167074786   T   T   T
  0.9961632593568288  0.0002843606976022  0.1387278041805161   T   T   T
  0.3301448204233937  0.0006608396514761  0.1388531300450860   T   T   T
  0.6624466490569728  0.0007501998691956  0.1388699982613262   T   T   T
  0.9961751635561912  0.2506852203712563  0.1387526509227106   T   T   T
  0.3294753578862973  0.2513057501187914  0.1390388747320344   T   T   T
  0.6628560035594032  0.2513007888417324  0.1390172246941118   T   T   T
  0.1622986305819413  0.1248885593917160  0.1648463140097647   T   T   T
  0.4955371066504023  0.1268698309218529  0.1656017315182402   T   T   T
  0.8291406448375293  0.1250967135399514  0.1649128659029350   T   T   T
  0.1628436463200490  0.3756065450210247  0.1651697181146840   T   T   T
  0.4956466306376251  0.3772330855534534  0.1664626932829996   T   T   T
  0.8287156923403702  0.3756934544784891  0.1652810788673812   T   T   T
  0.3349605357479772  0.4957595336608389  0.1918147846378177   T   T   T
  0.6560179038746454  0.4957129863908793  0.1921473230310714   T   T   T
  0.9959643115347772  0.4988115960197810  0.1917102841770483   T   T   T
  0.3256391541318222  0.2509824303183463  0.1921909598459711   T   T   T
  0.9962408158907198  0.2479106323109723  0.1912478808075078   T   T   T
  0.6646370312790891  0.2501777475853586  0.1919735378619578   T   T   T
  0.9960297184522919  0.0003681415236817  0.0855493854356039   T   T   T
  0.3294858518250017  0.0004517600875691  0.0855950484147947   T   T   T
  0.6625845573843221  0.0004555286957394  0.0856066218736286   T   T   T
  0.9961646212860424  0.2503813980930618  0.0855513788716043   T   T   T
  0.3295248469198543  0.2505121761519942  0.0856213740057020   T   T   T
  0.6627826122929096  0.2504581308669662  0.0856323501173623   T   T   T
  0.1625390980612491  0.1257040868657040  0.1118587400563293   T   T   T
  0.4958044255754788  0.1259189016530353  0.1121138624082860   T   T   T
  0.8291594092336509  0.1256659217291233  0.1118800380333112   T   T   T
  0.1627726890329746  0.3757290558592788  0.1119600000706042   T   T   T
  0.4958507305930084  0.3758821364693378  0.1120067910730944   T   T   T
  0.8290333988520276  0.3756692851363740  0.1119891800558014   T   T   T
  0.4966714503168451  0.6239145554427399  0.0588673397685062   T   T   T
  0.8300087570792978  0.6239560080109442  0.0588704725315040   T   T   T
  0.1634312815521864  0.8739799257814245  0.0588703973739894   T   T   T
  0.4966748358810059  0.8739163772138897  0.0588902812358180   T   T   T
  0.8299077357201178  0.8739616274066540  0.0588619519904333   T   T   T
  0.1633329460603887  0.6239526452179132  0.0588666909307806   T   T   T
  0.9961022016580832  0.5004828583617060  0.1388777622739513   T   T   T
  0.3307180499661166  0.5003436907520991  0.1389803481430596   T   T   T
  0.6616721752010555  0.5003105239737318  0.1390525501450648   T   T   T
  0.9961312512364557  0.7503551717043478  0.1387744489324623   T   T   T
  0.3296753110959594  0.7501570173918987  0.1387859833344396   T   T   T
  0.6627992714074334  0.7501743784618873  0.1387890688630282   T   T   T
  0.1632803099428295  0.6247809228645351  0.1651158133000423   T   T   T
  0.4959101318816349  0.6241606897509123  0.1651999085527625   T   T   T
  0.8282847908888762  0.6247137027304454  0.1651524533990220   T   T   T
  0.1627534689052957  0.8751580705745721  0.1650940792373273   T   T   T
  0.4960426082143526  0.8750895948799717  0.1651234724913737   T   T   T
  0.8292277020410062  0.8751874847101123  0.1651060174159747   T   T   T
  0.3295879273880076  0.9989921906519658  0.1917681003092596   T   T   T
  0.6628297968388243  0.9990269636512970  0.1917834951144489   T   T   T
  0.9962033265723004  0.9989458941832936  0.1916332598724126   T   T   T
  0.3297490335826340  0.7485270667028512  0.1917464337561018   T   T   T
  0.9963283512209342  0.7486569049962685  0.1917357879365332   T   T   T
  0.6628892152160178  0.7485604569976546  0.1917615283567406   T   T   T
  0.9960553240970514  0.5003336367949532  0.0855842176523469   T   T   T
  0.3294664366276716  0.5003636190084718  0.0855607721493150   T   T   T
  0.6624872818882209  0.5003074328697873  0.0855851371363815   T   T   T
  0.9961296368907498  0.7503538926684242  0.0855604246825543   T   T   T
  0.3294841268286707  0.7502016136511682  0.0855609818856690   T   T   T
  0.6628365064935381  0.7501890645567483  0.0855606619594016   T   T   T
  0.1626253980813151  0.6254300538649570  0.1119479134061242   T   T   T
  0.4958949784777536  0.6252924370979190  0.1119456923788232   T   T   T
  0.8289909483176666  0.6253654800912785  0.1119541813576683   T   T   T
  0.1626803533364974  0.8755062908917788  0.1118934586053164   T   T   T
  0.4958997515146959  0.8753913040898151  0.1119004282632022   T   T   T
  0.8290067955364495  0.8755334261957549  0.1118914700600054   T   T   T
 
  0.00000000E+00  0.00000000E+00  0.00000000E+00
  0.00000000E+00  0.00000000E+00  0.00000000E+00
  0.00000000E+00  0.00000000E+00  0.00000000E+00
  0.00000000E+00  0.00000000E+00  0.00000000E+00
  0.00000000E+00  0.00000000E+00  0.00000000E+00
  0.00000000E+00  0.00000000E+00  0.00000000E+00
  0.00000000E+00  0.00000000E+00  0.00000000E+00
  0.00000000E+00  0.00000000E+00  0.00000000E+00
  0.00000000E+00  0.00000000E+00  0.00000000E+00
  0.00000000E+00  0.00000000E+00  0.00000000E+00
  0.00000000E+00  0.00000000E+00  0.00000000E+00
  0.00000000E+00  0.00000000E+00  0.00000000E+00
  0.00000000E+00  0.00000000E+00  0.00000000E+00
  0.00000000E+00  0.00000000E+00  0.00000000E+00
  0.00000000E+00  0.00000000E+00  0.00000000E+00
  0.00000000E+00  0.00000000E+00  0.00000000E+00
  0.00000000E+00  0.00000000E+00  0.00000000E+00
  0.00000000E+00  0.00000000E+00  0.00000000E+00
  0.00000000E+00  0.00000000E+00  0.00000000E+00
  0.00000000E+00  0.00000000E+00  0.00000000E+00
  0.00000000E+00  0.00000000E+00  0.00000000E+00
  0.00000000E+00  0.00000000E+00  0.00000000E+00
  0.00000000E+00  0.00000000E+00  0.00000000E+00
  0.00000000E+00  0.00000000E+00  0.00000000E+00
  0.00000000E+00  0.00000000E+00  0.00000000E+00
  0.00000000E+00  0.00000000E+00  0.00000000E+00
  0.00000000E+00  0.00000000E+00  0.00000000E+00
  0.00000000E+00  0.00000000E+00  0.00000000E+00
  0.00000000E+00  0.00000000E+00  0.00000000E+00
  0.00000000E+00  0.00000000E+00  0.00000000E+00
  0.00000000E+00  0.00000000E+00  0.00000000E+00
  0.00000000E+00  0.00000000E+00  0.00000000E+00
  0.00000000E+00  0.00000000E+00  0.00000000E+00
  0.00000000E+00  0.00000000E+00  0.00000000E+00
  0.00000000E+00  0.00000000E+00  0.00000000E+00
  0.00000000E+00  0.00000000E+00  0.00000000E+00
  0.00000000E+00  0.00000000E+00  0.00000000E+00
  0.00000000E+00  0.00000000E+00  0.00000000E+00
  0.00000000E+00  0.00000000E+00  0.00000000E+00
  0.00000000E+00  0.00000000E+00  0.00000000E+00
  0.00000000E+00  0.00000000E+00  0.00000000E+00
  0.00000000E+00  0.00000000E+00  0.00000000E+00
  0.00000000E+00  0.00000000E+00  0.00000000E+00
  0.00000000E+00  0.00000000E+00  0.00000000E+00
  0.00000000E+00  0.00000000E+00  0.00000000E+00
  0.00000000E+00  0.00000000E+00  0.00000000E+00
  0.00000000E+00  0.00000000E+00  0.00000000E+00
  0.00000000E+00  0.00000000E+00  0.00000000E+00
  0.00000000E+00  0.00000000E+00  0.00000000E+00
  0.00000000E+00  0.00000000E+00  0.00000000E+00
  0.00000000E+00  0.00000000E+00  0.00000000E+00
  0.00000000E+00  0.00000000E+00  0.00000000E+00
  0.00000000E+00  0.00000000E+00  0.00000000E+00
  0.00000000E+00  0.00000000E+00  0.00000000E+00
  0.00000000E+00  0.00000000E+00  0.00000000E+00
  0.00000000E+00  0.00000000E+00  0.00000000E+00
  0.00000000E+00  0.00000000E+00  0.00000000E+00
  0.00000000E+00  0.00000000E+00  0.00000000E+00
  0.00000000E+00  0.00000000E+00  0.00000000E+00
  0.00000000E+00  0.00000000E+00  0.00000000E+00
  0.00000000E+00  0.00000000E+00  0.00000000E+00
  0.00000000E+00  0.00000000E+00  0.00000000E+00
  0.00000000E+00  0.00000000E+00  0.00000000E+00
  0.00000000E+00  0.00000000E+00  0.00000000E+00
  0.00000000E+00  0.00000000E+00  0.00000000E+00
  0.00000000E+00  0.00000000E+00  0.00000000E+00
  0.00000000E+00  0.00000000E+00  0.00000000E+00
  0.00000000E+00  0.00000000E+00  0.00000000E+00
  0.00000000E+00  0.00000000E+00  0.00000000E+00
  0.00000000E+00  0.00000000E+00  0.00000000E+00
  0.00000000E+00  0.00000000E+00  0.00000000E+00
  0.00000000E+00  0.00000000E+00  0.00000000E+00
  0.00000000E+00  0.00000000E+00  0.00000000E+00
  0.00000000E+00  0.00000000E+00  0.00000000E+00
  0.00000000E+00  0.00000000E+00  0.00000000E+00
  0.00000000E+00  0.00000000E+00  0.00000000E+00
  0.00000000E+00  0.00000000E+00  0.00000000E+00
  0.00000000E+00  0.00000000E+00  0.00000000E+00
  0.00000000E+00  0.00000000E+00  0.00000000E+00
  0.00000000E+00  0.00000000E+00  0.00000000E+00
  0.00000000E+00  0.00000000E+00  0.00000000E+00
  0.00000000E+00  0.00000000E+00  0.00000000E+00
  0.00000000E+00  0.00000000E+00  0.00000000E+00
  0.00000000E+00  0.00000000E+00  0.00000000E+00
  0.00000000E+00  0.00000000E+00  0.00000000E+00
  0.00000000E+00  0.00000000E+00  0.00000000E+00
  0.00000000E+00  0.00000000E+00  0.00000000E+00
  0.00000000E+00  0.00000000E+00  0.00000000E+00
  0.00000000E+00  0.00000000E+00  0.00000000E+00
  0.00000000E+00  0.00000000E+00  0.00000000E+00
  0.00000000E+00  0.00000000E+00  0.00000000E+00
  0.00000000E+00  0.00000000E+00  0.00000000E+00
  0.00000000E+00  0.00000000E+00  0.00000000E+00
  0.00000000E+00  0.00000000E+00  0.00000000E+00
  0.00000000E+00  0.00000000E+00  0.00000000E+00
  0.00000000E+00  0.00000000E+00  0.00000000E+00
  0.00000000E+00  0.00000000E+00  0.00000000E+00
  0.00000000E+00  0.00000000E+00  0.00000000E+00
  0.00000000E+00  0.00000000E+00  0.00000000E+00
  0.00000000E+00  0.00000000E+00  0.00000000E+00
  0.00000000E+00  0.00000000E+00  0.00000000E+00
  0.00000000E+00  0.00000000E+00  0.00000000E+00
  0.00000000E+00  0.00000000E+00  0.00000000E+00
  0.00000000E+00  0.00000000E+00  0.00000000E+00
  0.00000000E+00  0.00000000E+00  0.00000000E+00
  0.00000000E+00  0.00000000E+00  0.00000000E+00
  0.00000000E+00  0.00000000E+00  0.00000000E+00
  0.00000000E+00  0.00000000E+00  0.00000000E+00
  0.00000000E+00  0.00000000E+00  0.00000000E+00
  0.00000000E+00  0.00000000E+00  0.00000000E+00
  0.00000000E+00  0.00000000E+00  0.00000000E+00
  0.00000000E+00  0.00000000E+00  0.00000000E+00
  0.00000000E+00  0.00000000E+00  0.00000000E+00
  0.00000000E+00  0.00000000E+00  0.00000000E+00
  0.00000000E+00  0.00000000E+00  0.00000000E+00
  0.00000000E+00  0.00000000E+00  0.00000000E+00
  0.00000000E+00  0.00000000E+00  0.00000000E+00
  0.00000000E+00  0.00000000E+00  0.00000000E+00
  0.00000000E+00  0.00000000E+00  0.00000000E+00
  0.00000000E+00  0.00000000E+00  0.00000000E+00
  0.00000000E+00  0.00000000E+00  0.00000000E+00
  0.00000000E+00  0.00000000E+00  0.00000000E+00
  0.00000000E+00  0.00000000E+00  0.00000000E+00
  0.00000000E+00  0.00000000E+00  0.00000000E+00
  0.00000000E+00  0.00000000E+00  0.00000000E+00
  0.00000000E+00  0.00000000E+00  0.00000000E+00
  0.00000000E+00  0.00000000E+00  0.00000000E+00
  0.00000000E+00  0.00000000E+00  0.00000000E+00
  0.00000000E+00  0.00000000E+00  0.00000000E+00
  0.00000000E+00  0.00000000E+00  0.00000000E+00
  0.00000000E+00  0.00000000E+00  0.00000000E+00
  0.00000000E+00  0.00000000E+00  0.00000000E+00
  0.00000000E+00  0.00000000E+00  0.00000000E+00
  0.00000000E+00  0.00000000E+00  0.00000000E+00
  0.00000000E+00  0.00000000E+00  0.00000000E+00
  0.00000000E+00  0.00000000E+00  0.00000000E+00
  0.00000000E+00  0.00000000E+00  0.00000000E+00
  0.00000000E+00  0.00000000E+00  0.00000000E+00
  0.00000000E+00  0.00000000E+00  0.00000000E+00
  0.00000000E+00  0.00000000E+00  0.00000000E+00
  0.00000000E+00  0.00000000E+00  0.00000000E+00
  0.00000000E+00  0.00000000E+00  0.00000000E+00
  0.00000000E+00  0.00000000E+00  0.00000000E+00
  0.00000000E+00  0.00000000E+00  0.00000000E+00
  0.00000000E+00  0.00000000E+00  0.00000000E+00
  0.00000000E+00  0.00000000E+00  0.00000000E+00
  0.00000000E+00  0.00000000E+00  0.00000000E+00
  0.00000000E+00  0.00000000E+00  0.00000000E+00
  0.00000000E+00  0.00000000E+00  0.00000000E+00
  0.00000000E+00  0.00000000E+00  0.00000000E+00
  0.00000000E+00  0.00000000E+00  0.00000000E+00
  0.00000000E+00  0.00000000E+00  0.00000000E+00
  0.00000000E+00  0.00000000E+00  0.00000000E+00
  0.00000000E+00  0.00000000E+00  0.00000000E+00
  0.00000000E+00  0.00000000E+00  0.00000000E+00
  0.00000000E+00  0.00000000E+00  0.00000000E+00
  0.00000000E+00  0.00000000E+00  0.00000000E+00
  0.00000000E+00  0.00000000E+00  0.00000000E+00
  0.00000000E+00  0.00000000E+00  0.00000000E+00
  0.00000000E+00  0.00000000E+00  0.00000000E+00
  0.00000000E+00  0.00000000E+00  0.00000000E+00
  0.00000000E+00  0.00000000E+00  0.00000000E+00
  0.00000000E+00  0.00000000E+00  0.00000000E+00
  0.00000000E+00  0.00000000E+00  0.00000000E+00
  0.00000000E+00  0.00000000E+00  0.00000000E+00
  0.00000000E+00  0.00000000E+00  0.00000000E+00
  0.00000000E+00  0.00000000E+00  0.00000000E+00
  0.00000000E+00  0.00000000E+00  0.00000000E+00
  0.00000000E+00  0.00000000E+00  0.00000000E+00
  0.00000000E+00  0.00000000E+00  0.00000000E+00
  0.00000000E+00  0.00000000E+00  0.00000000E+00
  0.00000000E+00  0.00000000E+00  0.00000000E+00
  0.00000000E+00  0.00000000E+00  0.00000000E+00
  0.00000000E+00  0.00000000E+00  0.00000000E+00
  0.00000000E+00  0.00000000E+00  0.00000000E+00
  0.00000000E+00  0.00000000E+00  0.00000000E+00
  0.00000000E+00  0.00000000E+00  0.00000000E+00
  0.00000000E+00  0.00000000E+00  0.00000000E+00
  0.00000000E+00  0.00000000E+00  0.00000000E+00
  0.00000000E+00  0.00000000E+00  0.00000000E+00
  0.00000000E+00  0.00000000E+00  0.00000000E+00
  0.00000000E+00  0.00000000E+00  0.00000000E+00
  0.00000000E+00  0.00000000E+00  0.00000000E+00
  0.00000000E+00  0.00000000E+00  0.00000000E+00
  0.00000000E+00  0.00000000E+00  0.00000000E+00
  0.00000000E+00  0.00000000E+00  0.00000000E+00
  0.00000000E+00  0.00000000E+00  0.00000000E+00
  0.00000000E+00  0.00000000E+00  0.00000000E+00
  0.00000000E+00  0.00000000E+00  0.00000000E+00
  0.00000000E+00  0.00000000E+00  0.00000000E+00
  0.00000000E+00  0.00000000E+00  0.00000000E+00
  0.00000000E+00  0.00000000E+00  0.00000000E+00
  0.00000000E+00  0.00000000E+00  0.00000000E+00
  0.00000000E+00  0.00000000E+00  0.00000000E+00
  0.00000000E+00  0.00000000E+00  0.00000000E+00
  0.00000000E+00  0.00000000E+00  0.00000000E+00
  0.00000000E+00  0.00000000E+00  0.00000000E+00
  0.00000000E+00  0.00000000E+00  0.00000000E+00
  0.00000000E+00  0.00000000E+00  0.00000000E+00
  0.00000000E+00  0.00000000E+00  0.00000000E+00
  0.00000000E+00  0.00000000E+00  0.00000000E+00
  0.00000000E+00  0.00000000E+00  0.00000000E+00
  0.00000000E+00  0.00000000E+00  0.00000000E+00
  0.00000000E+00  0.00000000E+00  0.00000000E+00
  0.00000000E+00  0.00000000E+00  0.00000000E+00
  0.00000000E+00  0.00000000E+00  0.00000000E+00
  0.00000000E+00  0.00000000E+00  0.00000000E+00
  0.00000000E+00  0.00000000E+00  0.00000000E+00
  0.00000000E+00  0.00000000E+00  0.00000000E+00
  0.00000000E+00  0.00000000E+00  0.00000000E+00
  0.00000000E+00  0.00000000E+00  0.00000000E+00
  0.00000000E+00  0.00000000E+00  0.00000000E+00
  0.00000000E+00  0.00000000E+00  0.00000000E+00
  0.00000000E+00  0.00000000E+00  0.00000000E+00
  0.00000000E+00  0.00000000E+00  0.00000000E+00
  0.00000000E+00  0.00000000E+00  0.00000000E+00
  0.00000000E+00  0.00000000E+00  0.00000000E+00
  0.00000000E+00  0.00000000E+00  0.00000000E+00
  0.00000000E+00  0.00000000E+00  0.00000000E+00
  0.00000000E+00  0.00000000E+00  0.00000000E+00
  0.00000000E+00  0.00000000E+00  0.00000000E+00
  0.00000000E+00  0.00000000E+00  0.00000000E+00
  0.00000000E+00  0.00000000E+00  0.00000000E+00
  0.00000000E+00  0.00000000E+00  0.00000000E+00
  0.00000000E+00  0.00000000E+00  0.00000000E+00
  0.00000000E+00  0.00000000E+00  0.00000000E+00
  0.00000000E+00  0.00000000E+00  0.00000000E+00
  0.00000000E+00  0.00000000E+00  0.00000000E+00
  0.00000000E+00  0.00000000E+00  0.00000000E+00
