C H O Si                                
   1.00000000000000     
    18.5749199999999988    0.0000000000000000    0.0000000000000000
     0.0000000000000000   17.5126199999999983    0.0000000000000000
     0.0000000000000000    0.0000000000000000   58.0000000000000000
   C    H    O    Si
   144   105    52   144
Selective dynamics
Direct
  0.4997545777336024  0.0653557245369176  0.0600531834030236   T   T   T
  0.1664628642685901  0.0654462382315840  0.0601004746447326   T   T   T
  0.3329962096313258  0.0654201479939057  0.0600869092123390   T   T   T
  0.4997683752913851  0.3153785383972265  0.0600320178159620   T   T   T
  0.1664632156369573  0.3154581288279897  0.0601122734503982   T   T   T
  0.3330297071874816  0.3154345972113954  0.0600982445957506   T   T   T
  0.0827522496625703  0.1882445235380950  0.1389887967094673   T   T   T
  0.2494202262329029  0.1882941867371588  0.1390118512279784   T   T   T
  0.4160519738894781  0.1882267751510258  0.1389555120124560   T   T   T
  0.0827164289661442  0.4382790704696358  0.1390294045493577   T   T   T
  0.2494107422700179  0.4383052147165785  0.1390181902305652   T   T   T
  0.4160892590448683  0.4383502277006063  0.1389684848467861   T   T   T
  0.1660532165382076  0.0632752379026894  0.1661625979726836   T   T   T
  0.3325874706122152  0.0632643724560474  0.1661615811725430   T   T   T
  0.4991198900062878  0.0629922987902887  0.1660429520174217   T   T   T
  0.1660143588840363  0.3133989258732550  0.1661944353992135   T   T   T
  0.3326318378591374  0.3134194273228832  0.1661782946211950   T   T   T
  0.4991324815033670  0.3133201482114745  0.1660018201853134   T   T   T
  0.0827505335207162  0.1900935125016979  0.1915080294298679   T   T   T
  0.2491912183163325  0.1903454042435865  0.1915478465477129   T   T   T
  0.4157184322503344  0.1902637880636262  0.1915021466398786   T   T   T
  0.0823926268295596  0.4403489218579679  0.1915800405873643   T   T   T
  0.2492555028323859  0.4403952407291072  0.1915631558499226   T   T   T
  0.4161559134137527  0.4404743249711436  0.1915462937429439   T   T   T
  0.0829271934113987  0.1884401875752596  0.0854431073613316   T   T   T
  0.2495811610452599  0.1884738184715591  0.0854658750699062   T   T   T
  0.4162939394510241  0.1883891687415626  0.0854255733451023   T   T   T
  0.0829062992544572  0.4384416210854944  0.0854557564137876   T   T   T
  0.2495927355784211  0.4384940485906179  0.0854603935996150   T   T   T
  0.4163338311787997  0.4384497136482415  0.0854204027548582   T   T   T
  0.1661964245115253  0.0632305971919969  0.1126172246865542   T   T   T
  0.3327746213789949  0.0631917387003753  0.1126040538959893   T   T   T
  0.4994608524705340  0.0631999273668087  0.1125814342332874   T   T   T
  0.1661757311117165  0.3132846582322139  0.1126353145946851   T   T   T
  0.3328075950472890  0.3132665750088190  0.1126170392711013   T   T   T
  0.4994553961507251  0.3132655853950165  0.1125473600722561   T   T   T
  0.4997777875166821  0.5654644369122933  0.0600567904307771   T   T   T
  0.1664149873284400  0.5654696245621658  0.0601177360074983   T   T   T
  0.3330209766611417  0.5654834658583138  0.0600987278079797   T   T   T
  0.4998224568249234  0.8154506125833645  0.0600848315468727   T   T   T
  0.1664389569699755  0.8153529674843978  0.0601085615236307   T   T   T
  0.3330255101436588  0.8153648669462921  0.0600857494665582   T   T   T
  0.0827393962224887  0.6882461327944581  0.1390427964275724   T   T   T
  0.2494021688874645  0.6882368949305275  0.1390263432835081   T   T   T
  0.4160687018172577  0.6883135363898282  0.1389821986469311   T   T   T
  0.0827824583530904  0.9381612504145328  0.1389975435955781   T   T   T
  0.2494019816636875  0.9381901015986566  0.1390008054424237   T   T   T
  0.4160193295663875  0.9381268600054963  0.1389601703417203   T   T   T
  0.1659619178953664  0.5633388725114435  0.1662007638695603   T   T   T
  0.3326506142429835  0.5633498434084970  0.1661751433322684   T   T   T
  0.4992342651704736  0.5635296212903131  0.1660981639520624   T   T   T
  0.1659915941627030  0.8133049378564874  0.1661945503965406   T   T   T
  0.3326236822744041  0.8132759697351634  0.1661771704692107   T   T   T
  0.4992808975157723  0.8133537647257751  0.1661646989907340   T   T   T
  0.0825767647201520  0.6903023833326021  0.1915720435506910   T   T   T
  0.2492258612092142  0.6903111687938822  0.1915633393805159   T   T   T
  0.4159073484672557  0.6902766070359428  0.1915282587151190   T   T   T
  0.0825876694231367  0.9403126602294445  0.1915585513099566   T   T   T
  0.2492073049551303  0.9402872498356586  0.1915500706073974   T   T   T
  0.4158700650623836  0.9403000881815399  0.1915359879822643   T   T   T
  0.0828575247820256  0.6884123926969200  0.0854821024400074   T   T   T
  0.2495646531794162  0.6884234671871642  0.0854699923439091   T   T   T
  0.4163239730758544  0.6884623066978280  0.0854467556237527   T   T   T
  0.0829471077795680  0.9384114040025692  0.0854440282068292   T   T   T
  0.2495872438345036  0.9383863188091248  0.0854433902872149   T   T   T
  0.4162904492484377  0.9383739203016137  0.0854149047709629   T   T   T
  0.1661497361586476  0.5632572399782391  0.1126423899081208   T   T   T
  0.3328008843111370  0.5632569797165595  0.1126174627894440   T   T   T
  0.4994716385232563  0.5633009109538245  0.1125842969978573   T   T   T
  0.1661838563977047  0.8132103879353122  0.1126344661285917   T   T   T
  0.3327593199942809  0.8132004411477390  0.1126045887136654   T   T   T
  0.4994653978251600  0.8133726814538306  0.1126145068635977   T   T   T
  0.9997446872517410  0.0653845491273242  0.0600960650165161   T   T   T
  0.6664921906234752  0.0654080832513312  0.0601435039183530   T   T   T
  0.8330273653878442  0.0654229301251030  0.0601587531637438   T   T   T
  0.9997482390870109  0.3154199079180542  0.0600984872366105   T   T   T
  0.6664361085916962  0.3152691662430379  0.0600822717428414   T   T   T
  0.8330973972770013  0.3152670755343428  0.0601142083151836   T   T   T
  0.5827200212242881  0.1882156977474108  0.1388580512827122   T   T   T
  0.7493060564028936  0.1886708482828106  0.1392560648957706   T   T   T
  0.9160245394951970  0.1883685001645143  0.1389343390633332   T   T   T
  0.5826870430024604  0.4383152841250936  0.1389331274039246   T   T   T
  0.7493142048257387  0.4374399973509653  0.1389413169821624   T   T   T
  0.9160226860135904  0.4382485751130195  0.1390607936346471   T   T   T
  0.6662489632489470  0.0635738037418147  0.1662435580406600   T   T   T
  0.8323157069075308  0.0638255493484123  0.1663136620487236   T   T   T
  0.9994161536697915  0.0631681935557279  0.1660994486882738   T   T   T
  0.6656388819182524  0.3136674212831453  0.1662847028574914   T   T   T
  0.8326612983196069  0.3136121578811989  0.1662961759526618   T   T   T
  0.9993737470290839  0.3133809363643565  0.1661327109609072   T   T   T
  0.5822088270413016  0.1892421268953208  0.1909391595432021   T   T   T
  0.7487070338719202  0.1926487701163498  0.1923235278167167   T   T   T
  0.9160860163198902  0.1896835062317290  0.1911832158764796   T   T   T
  0.5826251147400344  0.4404602896070439  0.1913752738085357   T   T   T
  0.7490166144954531  0.4390395701760761  0.1919182830135123   T   T   T
  0.9156651789317982  0.4403583679594829  0.1916043850735115   T   T   T
  0.5829222020964486  0.1883727869919589  0.0853708823013435   T   T   T
  0.7495876247344676  0.1884895152120425  0.0855660576370920   T   T   T
  0.9163047492062721  0.1884250458520427  0.0854349772934360   T   T   T
  0.5829556426770791  0.4384036859240374  0.0853801713006914   T   T   T
  0.7495642737541440  0.4383099359215538  0.0853071509098056   T   T   T
  0.9162577615071847  0.4383918768880300  0.0854794780318876   T   T   T
  0.6662416940356434  0.0633589212493939  0.1126747814168393   T   T   T
  0.8327350914885514  0.0633905924575496  0.1127044783764854   T   T   T
  0.9994720894172545  0.0632615948506834  0.1126258514414330   T   T   T
  0.6661402182286420  0.3132140431919394  0.1126339827827515   T   T   T
  0.8327403316199159  0.3132098836366960  0.1126557418465707   T   T   T
  0.9994567729763499  0.3133024441127907  0.1126249338101036   T   T   T
  0.9996863935956460  0.5654231766806036  0.0601274576399379   T   T   T
  0.6664439728196919  0.5654502542025935  0.0600471959022087   T   T   T
  0.8330232802823229  0.5654404752830308  0.0601001201496224   T   T   T
  0.9996877113911451  0.8154303511606344  0.0601276199050335   T   T   T
  0.6664752504393887  0.8154614580475676  0.0601164660089182   T   T   T
  0.8330491328248182  0.8154645392713634  0.0601329357808077   T   T   T
  0.5826065859551993  0.6884124436449005  0.1389530838889014   T   T   T
  0.7494182575154357  0.6881624560383831  0.1390384960682902   T   T   T
  0.9162291180192638  0.6883418555092015  0.1390256570428585   T   T   T
  0.5828391239063084  0.9383326954560238  0.1390343585771569   T   T   T
  0.7494488414420498  0.9382845020383794  0.1390400137721265   T   T   T
  0.9159834797050448  0.9383941601597346  0.1390683171624298   T   T   T
  0.6655461484023750  0.5634863366214341  0.1662055091801025   T   T   T
  0.8328890601226328  0.5632835173686569  0.1663257754607269   T   T   T
  0.9992651749525076  0.5633853859822779  0.1661993981223121   T   T   T
  0.6660301798878657  0.8132927236100511  0.1661914299651240   T   T   T
  0.8326285014842079  0.8132731702245132  0.1662052275570940   T   T   T
  0.9993077753683466  0.8133915872860694  0.1661894949538894   T   T   T
  0.5824922262222731  0.6903456031229942  0.1915113998746392   T   T   T
  0.7491983086388743  0.6901849592401244  0.1915640061975404   T   T   T
  0.9159877013875499  0.6904387647967409  0.1915528326657490   T   T   T
  0.5825187639836003  0.9403324476131780  0.1915449662736733   T   T   T
  0.7492135949564637  0.9403429585137616  0.1915699297974118   T   T   T
  0.9158919496225363  0.9404562704371198  0.1915729674893659   T   T   T
  0.5829437939404918  0.6884407084921578  0.0854293526893858   T   T   T
  0.7495868849046731  0.6884244526645227  0.0854589345549283   T   T   T
  0.9162687731996736  0.6884073880223246  0.0854934703957938   T   T   T
  0.5829806870423228  0.9384626369302950  0.0854515441346574   T   T   T
  0.7496111922245564  0.9384898745873408  0.0854963345603427   T   T   T
  0.9162705866585200  0.9385037245652128  0.0855068373992082   T   T   T
  0.6661907508666458  0.5631374317268780  0.1125990395259359   T   T   T
  0.8327377310372229  0.5630776545874784  0.1126656099429721   T   T   T
  0.9994332611118489  0.5632305722332764  0.1126666623005818   T   T   T
  0.6662172540493756  0.8132582072979396  0.1126370040295157   T   T   T
  0.8327881065980760  0.8132291480459443  0.1126530678994003   T   T   T
  0.9994879087250693  0.8133563175201857  0.1126608792840828   T   T   T
  0.0399960049288607  0.1796487692453845  0.0269670622131263   T   T   T
  0.2064968427754421  0.1796360539480936  0.0269806767161678   T   T   T
  0.3731228826670376  0.1795804775749057  0.0269776917390131   T   T   T
  0.0400306442054688  0.4296150188990041  0.0269690890500832   T   T   T
  0.2066015804989587  0.4295557318170258  0.0269610452084383   T   T   T
  0.3730920858010686  0.4295097514297971  0.0269644043990867   T   T   T
  0.1652096452631505  0.0289495460437632  0.0446437830473176   T   T   T
  0.3317439869750095  0.0289253476244900  0.0446297194794416   T   T   T
  0.4984643949375790  0.0288642010954045  0.0445970398055137   T   T   T
  0.1651818736777700  0.2789434847039299  0.0446603215297841   T   T   T
  0.3317718792189655  0.2789169496283266  0.0446464794257897   T   T   T
  0.4984872919135736  0.2789248214127962  0.0445690385921048   T   T   T
  0.4176777562718045  0.4038464310186431  0.2069789726013775   T   T   T
  0.4171852883337324  0.1537419903103332  0.2069611519429252   T   T   T
  0.0838578650220801  0.1535774668199275  0.2069588972217614   T   T   T
  0.2505274647487966  0.1537637366582459  0.2069919812820574   T   T   T
  0.0836431908203122  0.4037038107331525  0.2070097989749097   T   T   T
  0.2505417790869759  0.4037960630630378  0.2070051755736566   T   T   T
  0.0428235049351447  0.0548107122248806  0.2245575317929741   T   T   T
  0.2091426691894027  0.0548605391549263  0.2246134733257074   T   T   T
  0.3756719225833018  0.0550801524680156  0.2245778159395796   T   T   T
  0.0411041949828624  0.3042139680971389  0.2248865170094315   T   T   T
  0.2089730582258591  0.3048797593150251  0.2246095324981488   T   T   T
  0.3754607526928556  0.3054003948165458  0.2246351566774651   T   T   T
  0.0398387251808799  0.6796618240339284  0.0270146970588483   T   T   T
  0.2064699442343988  0.6796042671073991  0.0269852105562698   T   T   T
  0.3731161732419754  0.6795998809479149  0.0269864653294264   T   T   T
  0.0400580521066451  0.9295299026968638  0.0269451053904383   T   T   T
  0.2065517802261037  0.9294593721376028  0.0269510142613469   T   T   T
  0.3731678459783929  0.9294432772670551  0.0269430924165017   T   T   T
  0.1651134310097822  0.5289581328231427  0.0446637608460512   T   T   T
  0.3318182065771013  0.5289715295638724  0.0446460025166867   T   T   T
  0.4985323408908856  0.5289825108331992  0.0445986742983071   T   T   T
  0.1651457489208964  0.7788215957493702  0.0446603592812052   T   T   T
  0.3317899965617687  0.7788376566367766  0.0446370918287498   T   T   T
  0.4986569855811107  0.7789496725033128  0.0446320161921542   T   T   T
  0.4171585879088112  0.9037338396641309  0.2069850937945503   T   T   T
  0.4172568982433639  0.6536019258984722  0.2069563593675552   T   T   T
  0.0837194966534953  0.6537378428133797  0.2070154090027470   T   T   T
  0.2504768624624951  0.6537143634656158  0.2070084220672466   T   T   T
  0.0838056916629175  0.9037906310276613  0.2070088270965059   T   T   T
  0.2505038732160861  0.9037539462922111  0.2070053741130676   T   T   T
  0.0434667887704614  0.5543573399562234  0.2244425316456798   T   T   T
  0.2092860201560193  0.5544382103997570  0.2246479583905009   T   T   T
  0.3760653691822530  0.5546345039014324  0.2246242214326210   T   T   T
  0.0428550172486513  0.8047225313603460  0.2245826689769354   T   T   T
  0.2090580417629527  0.8047266402764324  0.2246661598997338   T   T   T
  0.3761528393570415  0.8044786095295502  0.2245752772012508   T   T   T
  0.5400854678918012  0.1795358757848428  0.0269170884960745   T   T   T
  0.7065273820073178  0.1796595192570595  0.0270960313719136   T   T   T
  0.8731096707616047  0.1795889318101559  0.0269999066509532   T   T   T
  0.5399127254924578  0.4295555945490900  0.0269327280806556   T   T   T
  0.7067333729996814  0.4292929838071085  0.0268497064276592   T   T   T
  0.8730481233879853  0.4294422772114443  0.0270223253719845   T   T   T
  0.6654148790134778  0.0288453108737281  0.0446968647968510   T   T   T
  0.8316920822479194  0.0288555916683556  0.0447127374871406   T   T   T
  0.9984866149442756  0.0289077614190639  0.0446374928986425   T   T   T
  0.6650469085066546  0.2786922602781374  0.0446433549313472   T   T   T
  0.8320695071067750  0.2786692596651837  0.0446791528575112   T   T   T
  0.9984614767251916  0.2789477806580773  0.0446389238075810   T   T   T
  0.9166222351826726  0.4034379143999987  0.2069697547671804   T   T   T
  0.9174896439549528  0.1532868187361590  0.2066654535247301   T   T   T
  0.5832698826032968  0.1534178899105859  0.2065327727210338   T   T   T
  0.7501969916157729  0.1557495389761649  0.2076878860478199   T   T   T
  0.5837445411646991  0.4036346815396397  0.2067380640739841   T   T   T
  0.7698225738476427  0.4646328729375352  0.2619976249762380   T   T   T
  0.5422027750333447  0.0559684619243676  0.2243970081254367   T   T   T
  0.7089046004609462  0.0558497075108006  0.2244696655512725   T   T   T
  0.8753497413481850  0.0558193969202552  0.2246185021528969   T   T   T
  0.5493627433924428  0.3011755820660157  0.2225878656566979   T   T   T
  0.6843398331719511  0.2826472067854865  0.2309723757359155   T   T   T
  0.8913314696832194  0.2959929448922889  0.2233129823129841   T   T   T
  0.7504494590041439  0.2700107419737882  0.2663778426354568   T   T   T
  0.7353923025094649  0.2278762284344685  0.3006225331306719   T   T   T
  0.7593422749622984  0.3121619556162438  0.3086064885101859   T   T   T
  0.6439758670523211  0.1361721912005762  0.2960362878144255   T   T   T
  0.7181117272069284  0.1079219322331743  0.2874385293144578   T   T   T
  0.8181169824057660  0.3864070359308022  0.3347380042661548   T   T   T
  0.7513016483832555  0.4324502597569964  0.3267840834426922   T   T   T
  0.7524867422728581  0.4389574097042863  0.2707568873609680   T   T   T
  0.7845837311646267  0.2670556250881210  0.2408844438922675   T   T   T
  0.5398114308772327  0.6796989990664120  0.0269748232436848   T   T   T
  0.7065327521661633  0.6797225851633379  0.0269880430529512   T   T   T
  0.8731816435506105  0.6796940806394898  0.0270041568513072   T   T   T
  0.5400816021358366  0.9296104689404245  0.0269403660394588   T   T   T
  0.7066052704372393  0.9295715661232272  0.0269914418600776   T   T   T
  0.8731501804111202  0.9295899699895092  0.0270079570043378   T   T   T
  0.6652144924638179  0.5289882713950452  0.0445769209378126   T   T   T
  0.8318791697022875  0.5289700803918553  0.0446353398107466   T   T   T
  0.9984217112125933  0.5289473144177680  0.0446671741302687   T   T   T
  0.6652429651461411  0.7789826211808891  0.0446568601953837   T   T   T
  0.8318405191759844  0.7789683962505674  0.0446745570219316   T   T   T
  0.9983158277362744  0.7789322211803661  0.0446737333489871   T   T   T
  0.9170712373745273  0.9039734401519594  0.2070413987848962   T   T   T
  0.9168711899810104  0.6536552376546114  0.2069497114614370   T   T   T
  0.5841853662063687  0.6533720211527787  0.2068535061901884   T   T   T
  0.7502225543667800  0.6530729107800701  0.2068977615154251   T   T   T
  0.5838118205629377  0.9038367565469720  0.2070028000890283   T   T   T
  0.7505019438954964  0.9038100463697053  0.2070265467007953   T   T   T
  0.5445290034812574  0.5541260355226925  0.2240948905524079   T   T   T
  0.7089991059819458  0.5500798285705203  0.2249105168619759   T   T   T
  0.8790258455907806  0.5550080837217252  0.2235132711148189   T   T   T
  0.5423871554063011  0.8046298603417348  0.2246019957726476   T   T   T
  0.7090292072930002  0.8046577542964323  0.2246047937220544   T   T   T
  0.8762837567999987  0.8044894306768906  0.2245374604589245   T   T   T
  0.0873181374860598  0.1688394355055618  0.0335612797551500   T   T   T
  0.2538472466185513  0.1689756877605088  0.0335799544783546   T   T   T
  0.4205041806599751  0.1688343560330777  0.0335424014747496   T   T   T
  0.0873483687909259  0.4188120998435226  0.0335651136725227   T   T   T
  0.2539255137698596  0.4188714938947859  0.0335646043055466   T   T   T
  0.4204938801487557  0.4187906809657762  0.0335230538519010   T   T   T
  0.1617757536841073  0.0436873239983893  0.2181003220183318   T   T   T
  0.3283122297270102  0.0435628108661164  0.2181147242093145   T   T   T
  0.4948721210249186  0.0435178688893328  0.2180680574452505   T   T   T
  0.1616049496510068  0.2935469386250271  0.2181207761565268   T   T   T
  0.3282821979623737  0.2935341510927567  0.2181238539899977   T   T   T
  0.4986990264535509  0.2931042247240557  0.2178641318920641   T   T   T
  0.0871921704980069  0.6689236914836623  0.0336046964039763   T   T   T
  0.2538361081225148  0.6689676631302550  0.0335873371545715   T   T   T
  0.4204963158731105  0.6690011600442697  0.0335692325990265   T   T   T
  0.0873469132019144  0.9187117833101265  0.0335586355252423   T   T   T
  0.2538831455631855  0.9187610449952049  0.0335526356789008   T   T   T
  0.4205397224238701  0.9186886727215657  0.0335151491453853   T   T   T
  0.1618433788169678  0.5436978374290976  0.2181281059621540   T   T   T
  0.3286410908345593  0.5437411507719252  0.2181099580797931   T   T   T
  0.4962630808392145  0.5439807365585536  0.2180368254726228   T   T   T
  0.1617171277256955  0.7936399043364450  0.2181232523007450   T   T   T
  0.3286441367020078  0.7937002915151050  0.2180973508177101   T   T   T
  0.4949551799697687  0.7936425057709549  0.2181011936030035   T   T   T
  0.5874124163769453  0.1684678593277333  0.0334649464080581   T   T   T
  0.7538925754511109  0.1687760434823806  0.0336491702878736   T   T   T
  0.9205084570493673  0.1685912006288257  0.0335246446201256   T   T   T
  0.5872826768967180  0.4185184670529081  0.0334512462957867   T   T   T
  0.7540432525533074  0.4177772295871472  0.0333364405955337   T   T   T
  0.9204885455730076  0.4187550984704095  0.0335717255863961   T   T   T
  0.6615601827642945  0.0432357618262543  0.2181894264367591   T   T   T
  0.8281277597579439  0.0432166803617040  0.2182381020124046   T   T   T
  0.9953777454180879  0.0437089895280750  0.2180902589236447   T   T   T
  0.6507938886341385  0.2954773556230526  0.2180097901508822   T   T   T
  0.8404362885208031  0.2914565307686667  0.2188222216303553   T   T   T
  0.9943957586420752  0.2920816928201389  0.2180719874881619   T   T   T
  0.7633822909636783  0.2736081562711243  0.2961515095132794   T   T   T
  0.6944315542485736  0.1322178045133583  0.3005279166699719   T   T   T
  0.7671436379825475  0.3813022968611334  0.3310309806804838   T   T   T
  0.7428314197551171  0.2505727783233440  0.2504778332351923   T   T   T
  0.5872131972934314  0.6690651981199829  0.0335489394674532   T   T   T
  0.7539013069346323  0.6689920409258494  0.0335609534822347   T   T   T
  0.9205469127543637  0.6689463709261795  0.0335843499055522   T   T   T
  0.5873790525921523  0.9188496918270823  0.0335504359271019   T   T   T
  0.7539451824557334  0.9188432960631341  0.0335883200559941   T   T   T
  0.9205122723987397  0.9189603051954924  0.0336066179991116   T   T   T
  0.6615842569485896  0.5454478562350062  0.2177475889956868   T   T   T
  0.8301435951453315  0.5452194743206241  0.2180404199465921   T   T   T
  0.9956768728961479  0.5438414667128360  0.2181460215915804   T   T   T
  0.6616048163794521  0.7935989108365959  0.2181134014574505   T   T   T
  0.8287022277689267  0.7937555185277066  0.2181134214672564   T   T   T
  0.9953616178879485  0.7937853433762840  0.2181204177549908   T   T   T
  0.2498072269838574  0.1241193113119061  0.0594964879922988   T   T   T
  0.4164868023077877  0.1240210250301867  0.0594763814870648   T   T   T
  0.0831497104906267  0.3740542570591813  0.0595126451082774   T   T   T
  0.2498295016537426  0.3740989678190114  0.0595010052406328   T   T   T
  0.4165159936006440  0.3740361358040508  0.0594739282064766   T   T   T
  0.0831585948498280  0.1240473712442662  0.0595015272592859   T   T   T
  0.4993659029213243  0.0005097542914820  0.1391925399894002   T   T   T
  0.1661250160024627  0.0006306300978456  0.1392357347326721   T   T   T
  0.3326930437093438  0.0006123251301565  0.1392303213146882   T   T   T
  0.4994993871507883  0.2507084741307304  0.1391876896588120   T   T   T
  0.1661076642302257  0.2507170916188549  0.1392615974589471   T   T   T
  0.3327612477499133  0.2507123519429372  0.1392526562229660   T   T   T
  0.0826762374253955  0.1252854884269528  0.1654945147697741   T   T   T
  0.2493142677364630  0.1253945491971748  0.1655278136890983   T   T   T
  0.4159273914558642  0.1253390628869670  0.1655036741652418   T   T   T
  0.0825161854774653  0.3754126878496322  0.1655754683870376   T   T   T
  0.2493285425542864  0.3754000603286829  0.1655476625174213   T   T   T
  0.4161415463809574  0.3754304628982691  0.1655358173835709   T   T   T
  0.1656563621413462  0.4988186138075197  0.1921721304876874   T   T   T
  0.3326865869825976  0.4988749736311268  0.1921626376074835   T   T   T
  0.4999083072579280  0.4988951597862068  0.1920661261786925   T   T   T
  0.1657912360766437  0.2489181461825264  0.1921527380129620   T   T   T
  0.4993176530251023  0.2485409977754488  0.1919157762496277   T   T   T
  0.3324919561470541  0.2489427198400389  0.1921418372853961   T   T   T
  0.4996040536062328  0.0004636467385539  0.0860676136029901   T   T   T
  0.1662718016199402  0.0004720667526256  0.0860965331699729   T   T   T
  0.3329289935718982  0.0004545438577835  0.0860821239422635   T   T   T
  0.4996200289637683  0.2505122885444925  0.0860507985826936   T   T   T
  0.1662467139511083  0.2505266363492213  0.0861176963660973   T   T   T
  0.3329560414558541  0.2505028786081405  0.0861056212615666   T   T   T
  0.0827886859128612  0.1256814029686759  0.1123900526999189   T   T   T
  0.2494771092556407  0.1256555775467726  0.1124093039969049   T   T   T
  0.4161233157519765  0.1256413644374651  0.1123692641439120   T   T   T
  0.0827255059793829  0.3757154435054753  0.1124202678989746   T   T   T
  0.2494880168207679  0.3756860594201831  0.1124138205330871   T   T   T
  0.4162153988645737  0.3757151368277303  0.1123824592790606   T   T   T
  0.2497848395810241  0.6240922611751560  0.0595029771621760   T   T   T
  0.4165137310851154  0.6240943992926138  0.0594878689180557   T   T   T
  0.0831529039075184  0.8739729105581603  0.0595032573103558   T   T   T
  0.2498067757916902  0.8739906988933818  0.0594865972959907   T   T   T
  0.4164948728178086  0.8739780927104529  0.0594691924550980   T   T   T
  0.0830787279406282  0.6240606708305615  0.0595312663929399   T   T   T
  0.4996569764288498  0.5006800678475198  0.1392414134501487   T   T   T
  0.1660399355740996  0.5006628124852854  0.1392721038572635   T   T   T
  0.3327837482143298  0.5006760233568718  0.1392484816943056   T   T   T
  0.4995103156776194  0.7506452860607989  0.1392262273720026   T   T   T
  0.1660868545734072  0.7506122800492449  0.1392620327731764   T   T   T
  0.3327211047108580  0.7506188636217808  0.1392403943322854   T   T   T
  0.0824231367764763  0.6252610367183591  0.1655749736742748   T   T   T
  0.2492892180801639  0.6252881514811696  0.1655518136392383   T   T   T
  0.4161023616109547  0.6253256739210551  0.1655179291578266   T   T   T
  0.0825993562369606  0.8753528259193761  0.1655486227116510   T   T   T
  0.2492954468395380  0.8753248933865592  0.1655351561582626   T   T   T
  0.4159485738577464  0.8753363455508179  0.1655293371960310   T   T   T
  0.1657998245806200  0.9989172281610008  0.1921528590973410   T   T   T
  0.3324627441723348  0.9989071192803952  0.1921500026856304   T   T   T
  0.4991075042214872  0.9989300151096442  0.1920895528368610   T   T   T
  0.1657690862751109  0.7488566026006132  0.1921745285747433   T   T   T
  0.4992491058524278  0.7487507798177611  0.1921468006867614   T   T   T
  0.3325280055606514  0.7488503654127950  0.1921580451995792   T   T   T
  0.4996830319571859  0.5005113844179950  0.0860724991589830   T   T   T
  0.1662214326838836  0.5005039244069622  0.0861219603147668   T   T   T
  0.3329814776256693  0.5005061924610328  0.0860996489879362   T   T   T
  0.4996715950779755  0.7505096705694252  0.0860990141061585   T   T   T
  0.1662238612949613  0.7504366287877712  0.0861231931343910   T   T   T
  0.3329330762999697  0.7504390450767744  0.0860977615199420   T   T   T
  0.0826900125260913  0.6256349058366916  0.1124374981132303   T   T   T
  0.2494612332550606  0.6256230823496169  0.1124180660570366   T   T   T
  0.4161981194090367  0.6256740826684124  0.1123876153013288   T   T   T
  0.0828105028809943  0.8756445634149141  0.1123940467874690   T   T   T
  0.2494626054898509  0.8756041160130814  0.1123948776278379   T   T   T
  0.4160871934296979  0.8756078015006731  0.1123534237721748   T   T   T
  0.7498353554079071  0.1241105246610143  0.0596110906082458   T   T   T
  0.9164588630210920  0.1240371687535650  0.0595018055400236   T   T   T
  0.5832412554918860  0.3740078584711626  0.0594475147836167   T   T   T
  0.7498427514517394  0.3738965929002099  0.0594394550251142   T   T   T
  0.9164286663930180  0.3740406323565576  0.0595337134240390   T   T   T
  0.5832104966718131  0.1239945110614118  0.0594553397869511   T   T   T
  0.9994370699684852  0.0005890466531706  0.1392288985851569   T   T   T
  0.6662873815327361  0.0008906121728401  0.1393208241564897   T   T   T
  0.8325767156019613  0.0009813262308380  0.1393618355371982   T   T   T
  0.9993023198528704  0.2507385408334861  0.1392449316093368   T   T   T
  0.6659957536879474  0.2513804446344748  0.1395052778976657   T   T   T
  0.8326156680888979  0.2513572495031826  0.1394911858166257   T   T   T
  0.5825131357808708  0.1250902747508778  0.1653147282172759   T   T   T
  0.7490722409326347  0.1268656428558654  0.1660409927014353   T   T   T
  0.9160035477384719  0.1252825967465775  0.1653960056769750   T   T   T
  0.5828177415680907  0.3756712361297448  0.1655748889808777   T   T   T
  0.7490527602224900  0.3774797273591927  0.1669273405728166   T   T   T
  0.9155251903360785  0.3756607949342212  0.1657094075839946   T   T   T
  0.6687539612321930  0.4959470190066964  0.1922852894292801   T   T   T
  0.8291787998659068  0.4959258890526138  0.1925252913105896   T   T   T
  0.9984379495335182  0.4987237740858714  0.1921750945018854   T   T   T
  0.6640714016177985  0.2509657171316106  0.1926088837219214   T   T   T
  0.9991898189820484  0.2483213110829177  0.1918949812683249   T   T   T
  0.8332416007493516  0.2500512823501057  0.1923506709455943   T   T   T
  0.9996263270719499  0.0004957193749565  0.0861072520206765   T   T   T
  0.6663467965702038  0.0005709537748219  0.0861649282255397   T   T   T
  0.8328666597495267  0.0005891303162854  0.0861868634651061   T   T   T
  0.9995847060778458  0.2505392284448199  0.0861095065868410   T   T   T
  0.6662643141844300  0.2506036254872141  0.0861686742909413   T   T   T
  0.8328991733608828  0.2505989993066602  0.0861937584603745   T   T   T
  0.5828016915539099  0.1257838362182860  0.1123634275213624   T   T   T
  0.7494260401373191  0.1260537762278347  0.1126043434493945   T   T   T
  0.9160921803240956  0.1258160522765690  0.1124125916760299   T   T   T