C H O Si                                
   1.00000000000000     
    18.5749199999999988    0.0000000000000000    0.0000000000000000
     0.0000000000000000   17.5126199999999983    0.0000000000000000
     0.0000000000000000    0.0000000000000000   58.0000000000000000
   C    H    O    Si
   144   105    52   144
Selective dynamics
Direct
  0.4997537722784401  0.0654088994831068  0.0600527599245312   T   T   T
  0.1664232319005472  0.0654775734718465  0.0601012567640057   T   T   T
  0.3330384869251045  0.0654636231129534  0.0600862745216520   T   T   T
  0.4997586582246226  0.3154227935649670  0.0600352953125298   T   T   T
  0.1664221544436061  0.3154931443327792  0.0601149486660337   T   T   T
  0.3330551615021534  0.3154637190554468  0.0601009309087821   T   T   T
  0.0828421844226008  0.1882867432780261  0.1389811634144525   T   T   T
  0.2495062034894122  0.1882883419380273  0.1390046255715661   T   T   T
  0.4161043361201706  0.1882243683124475  0.1389657410358407   T   T   T
  0.0828058347322107  0.4382753156400979  0.1390168469656970   T   T   T
  0.2494967113345442  0.4382894544686735  0.1390063250479713   T   T   T
  0.4161481280747374  0.4383388968139816  0.1389858184678703   T   T   T
  0.1659559561696840  0.0632540016322904  0.1661833119319649   T   T   T
  0.3325122431770051  0.0632519245131384  0.1661856826657231   T   T   T
  0.4989997064566749  0.0629787992910263  0.1660553152036745   T   T   T
  0.1659164508765400  0.3133227364753601  0.1662151581831953   T   T   T
  0.3325793041865971  0.3133692141461070  0.1662062022304600   T   T   T
  0.4990368749100061  0.3132973052687523  0.1660137317596605   T   T   T
  0.0827496125511964  0.1901184791456489  0.1915110559654133   T   T   T
  0.2492601031562145  0.1903245746305763  0.1915471956685043   T   T   T
  0.4157388260424335  0.1902578999773779  0.1915181710182548   T   T   T
  0.0824209917529931  0.4403241049570747  0.1915657253172234   T   T   T
  0.2492970360747503  0.4403630982571312  0.1915605817286204   T   T   T
  0.4161492003490062  0.4404374843947064  0.1915335648533204   T   T   T
  0.0829489531006922  0.1884270475618805  0.0854650543530821   T   T   T
  0.2496115945613497  0.1884168423173444  0.0854862074910973   T   T   T
  0.4162644437619862  0.1883878710895679  0.0854354467658889   T   T   T
  0.0829324144381338  0.4384089684224909  0.0854819022680784   T   T   T
  0.2496350726548059  0.4384195172708754  0.0854737905664360   T   T   T
  0.4163195423120877  0.4384093074538737  0.0854306810938842   T   T   T
  0.1660729185796186  0.0632714087726092  0.1126073295757210   T   T   T
  0.3327130476645928  0.0632412225646513  0.1125933980239689   T   T   T
  0.4993817425824779  0.0632260955868738  0.1125622553694232   T   T   T
  0.1660578568807812  0.3133351455704328  0.1126241621203281   T   T   T
  0.3327701012276838  0.3133385369678950  0.1126091652795193   T   T   T
  0.4994059297325096  0.3132797010377904  0.1125337514000932   T   T   T
  0.4997486204123502  0.5655025646054330  0.0600606558754150   T   T   T
  0.1663861960677117  0.5655097793031006  0.0601149957973067   T   T   T
  0.3330528618632992  0.5655304597904824  0.0600988145146361   T   T   T
  0.4998006312782826  0.8154845497509692  0.0600884254769340   T   T   T
  0.1664114840677127  0.8153611077527226  0.0601124085054072   T   T   T
  0.3330761421960910  0.8153857249163957  0.0600906507582971   T   T   T
  0.0828576913026386  0.6882587467571472  0.1390344534693760   T   T   T
  0.2494971717583313  0.6882222817681263  0.1390193532269590   T   T   T
  0.4161164044352006  0.6883440153112454  0.1389902536106700   T   T   T
  0.0828708565506230  0.9381973247236309  0.1389945123934470   T   T   T
  0.2494820601533458  0.9381951489260355  0.1389968058838450   T   T   T
  0.4160507980173277  0.9381134709314057  0.1389602867851218   T   T   T
  0.1658533317105434  0.5632941885269441  0.1662255256489930   T   T   T
  0.3325842146970162  0.5633166561200853  0.1662035011200406   T   T   T
  0.4991790626355195  0.5635053314047286  0.1661171648891728   T   T   T
  0.1658956283094273  0.8132857615231643  0.1662136299832822   T   T   T
  0.3325441688468269  0.8132657588378410  0.1661972346392693   T   T   T
  0.4992054409013418  0.8132807226852301  0.1661930855843839   T   T   T
  0.0825951366356385  0.6902943069788904  0.1915623492130631   T   T   T
  0.2492590879055876  0.6902798903289056  0.1915651205918219   T   T   T
  0.4159451585802362  0.6902468329779865  0.1915328070309313   T   T   T
  0.0826148826071210  0.9402832108916566  0.1915447854859363   T   T   T
  0.2492527040234601  0.9402578210359067  0.1915503328578048   T   T   T
  0.4159017235723155  0.9402625186665942  0.1915400890194525   T   T   T
  0.0828927696622183  0.6884306416261945  0.0855155228449407   T   T   T
  0.2495980391935456  0.6883839830136590  0.0854904707639560   T   T   T
  0.4162971605861325  0.6884527677942517  0.0854570058952015   T   T   T
  0.0829808957661155  0.9383779407023933  0.0854637465677218   T   T   T
  0.2496290491632010  0.9383484849259233  0.0854541153757254   T   T   T
  0.4162740541538778  0.9383649789038176  0.0854239153329090   T   T   T
  0.1660252902794111  0.5633073907637811  0.1126337604031206   T   T   T
  0.3327507918867788  0.5633459794039366  0.1126084166102456   T   T   T
  0.4993922390173526  0.5633495908433450  0.1125707266190692   T   T   T
  0.1660785205571845  0.8132401913079292  0.1126205896224392   T   T   T
  0.3326885683969626  0.8132166453454259  0.1125994790975281   T   T   T
  0.4993952689000764  0.8133878972870722  0.1126095314587229   T   T   T
  0.9997419071012802  0.0654510005032941  0.0600933943400126   T   T   T
  0.6664737210092332  0.0654351634832717  0.0601395757538341   T   T   T
  0.8330533382913302  0.0654313203639981  0.0601500096362600   T   T   T
  0.9997377558795960  0.3154710495230047  0.0600960997752859   T   T   T
  0.6664093928284256  0.3152795951489934  0.0600805411750961   T   T   T
  0.8331601410538350  0.3152545804339655  0.0601185903990029   T   T   T
  0.5827854340330908  0.1882398684136069  0.1388674666546437   T   T   T
  0.7493543299217839  0.1886373336040105  0.1392548566063210   T   T   T
  0.9160615804915511  0.1883614157852730  0.1389352453141803   T   T   T
  0.5827653364424309  0.4383096541794613  0.1389395990937496   T   T   T
  0.7493733463593198  0.4374726863509310  0.1389542189732446   T   T   T
  0.9160714520826502  0.4382460620736498  0.1390590122815027   T   T   T
  0.6662226165830424  0.0635537863309618  0.1662740920563518   T   T   T
  0.8323129755950844  0.0638228229611924  0.1663463180328658   T   T   T
  0.9993572104553615  0.0631342830292514  0.1661180731264181   T   T   T
  0.6655968609131190  0.3136377056794878  0.1663033135296660   T   T   T
  0.8326178554248526  0.3135810923644592  0.1663313285688556   T   T   T
  0.9993052688199073  0.3133344867513275  0.1661587652801930   T   T   T
  0.5821498702547155  0.1893417354163899  0.1909296330594416   T   T   T
  0.7487956898172367  0.1926749652764079  0.1923097374937490   T   T   T
  0.9160991208802652  0.1897368821479481  0.1911890998672053   T   T   T
  0.5826541544272574  0.4405285433725907  0.1913698336810772   T   T   T
  0.7490727658818943  0.4390051133383958  0.1919108555989224   T   T   T
  0.9156702843272947  0.4403247599708162  0.1916055861901814   T   T   T
  0.5829239001397117  0.1883728531246927  0.0853935674033840   T   T   T
  0.7496299200494678  0.1884497734358882  0.0855887495156108   T   T   T
  0.9162902614868209  0.1883950894405460  0.0854460619921752   T   T   T
  0.5829778225415699  0.4383779453915201  0.0853972326847406   T   T   T
  0.7496289536408870  0.4382797674763826  0.0853438511068172   T   T   T
  0.9162408955964088  0.4383638315402286  0.0854981421766433   T   T   T
  0.6661510432521667  0.0634520669480787  0.1126602523633764   T   T   T
  0.8326602735467731  0.0634894567744670  0.1126882635182915   T   T   T
  0.9994039069568789  0.0633092168372313  0.1126010364071870   T   T   T
  0.6660183094238369  0.3132600159690873  0.1126170870848432   T   T   T
  0.8326737787958697  0.3132727023718065  0.1126509378089457   T   T   T
  0.9993801101466548  0.3133333358839557  0.1126086499524544   T   T   T
  0.9996843052093379  0.5654843117967495  0.0601235733143100   T   T   T
  0.6664023895991750  0.5654769413771039  0.0600437053470294   T   T   T
  0.8330632756354394  0.5654829185851437  0.0600973968301689   T   T   T
  0.9996759370496316  0.8154766470348422  0.0601261507478950   T   T   T
  0.6664561843436462  0.8155021936721859  0.0601179977774057   T   T   T
  0.8330931104028139  0.8154768065197436  0.0601325628169431   T   T   T
  0.5826823383161444  0.6884213449458179  0.1389575140729636   T   T   T
  0.7495165902196534  0.6881697655033703  0.1390354174662388   T   T   T
  0.9162860198425898  0.6883554469058766  0.1390307727740792   T   T   T
  0.5829493688233299  0.9383530556264185  0.1390256202034809   T   T   T
  0.7495433326677224  0.9382520981807427  0.1390377675492509   T   T   T
  0.9160348405243888  0.9383925676069306  0.1390670359180478   T   T   T
  0.6654234640983303  0.5633983339573433  0.1662065314503079   T   T   T
  0.8328667137904593  0.5632444416987015  0.1663621670877173   T   T   T
  0.9991827733796826  0.5633509330740905  0.1662240954940350   T   T   T
  0.6659275842937185  0.8132733262495960  0.1662111312589103   T   T   T
  0.8325486514818055  0.8132491801439210  0.1662285841662079   T   T   T
  0.9992572903346568  0.8133295303441886  0.1662182720742481   T   T   T
  0.5825426323956792  0.6903346227725782  0.1914926971010608   T   T   T
  0.7492386282723507  0.6901632242048884  0.1915629744751414   T   T   T
  0.9160203115929634  0.6903929079369089  0.1915449113760247   T   T   T
  0.5825802542709763  0.9403055601950229  0.1915346612254882   T   T   T
  0.7492516291691763  0.9403134865766466  0.1915708026371433   T   T   T
  0.9159065960556467  0.9404131920214835  0.1915728604292745   T   T   T
  0.5829704250297307  0.6884140406719732  0.0854473022002800   T   T   T
  0.7496175665083409  0.6883837046036152  0.0854819063126872   T   T   T
  0.9162492686601660  0.6884000514605113  0.0855182561689030   T   T   T
  0.5830187893352489  0.9384389061441623  0.0854783515219709   T   T   T
  0.7496299506556868  0.9384165917666318  0.0855186593964094   T   T   T
  0.9162443622135032  0.9384586022051867  0.0855296571894197   T   T   T
  0.6660662075766585  0.5631656098271192  0.1125824220190980   T   T   T
  0.8326858566003538  0.5630977338848291  0.1126594360871327   T   T   T
  0.9993550701752802  0.5632729737262815  0.1126496885433316   T   T   T
  0.6661158480021168  0.8133087180677254  0.1126278477686881   T   T   T
  0.8327336339618546  0.8132990026565261  0.1126457148406663   T   T   T
  0.9994056471543846  0.8134125167809722  0.1126433822607927   T   T   T
  0.0400099046701244  0.1795899469540545  0.0269570534639113   T   T   T
  0.2065089566913349  0.1795845244434049  0.0269660342208706   T   T   T
  0.3731292791821040  0.1795242802335166  0.0269659063609770   T   T   T
  0.0400468269477211  0.4295545656992590  0.0269572830102880   T   T   T
  0.2066310448529254  0.4294924518541165  0.0269502260697521   T   T   T
  0.3731053083269290  0.4294477487608624  0.0269538109619613   T   T   T
  0.1652056438453830  0.0289463744133328  0.0446481364734167   T   T   T
  0.3317504265153540  0.0289278899531549  0.0446368459315492   T   T   T
  0.4984619070799096  0.0288674032003788  0.0446056850490828   T   T   T
  0.1651802309196506  0.2789480878002888  0.0446662424627028   T   T   T
  0.3317790552454994  0.2789241368109785  0.0446520023221802   T   T   T
  0.4984864927227128  0.2789328659867970  0.0445750060725867   T   T   T
  0.4176832365207074  0.4038675736567046  0.2069791083346897   T   T   T
  0.4171799857972648  0.1537298111123161  0.2069585329482245   T   T   T
  0.0838724464598542  0.1535851337027379  0.2069509578705177   T   T   T
  0.2505335004913213  0.1537658019319022  0.2069870540919943   T   T   T
  0.0836468937863619  0.4037304252370728  0.2070052391511528   T   T   T
  0.2505444517931374  0.4038105882392684  0.2070051267987540   T   T   T
  0.0428286717792317  0.0547799147076880  0.2245690441354815   T   T   T
  0.2091417550087964  0.0548196079219784  0.2246182190631187   T   T   T
  0.3756727819418954  0.0550331547475871  0.2245825954237496   T   T   T
  0.0411078629924342  0.3041719454161978  0.2248870523070951   T   T   T
  0.2089595363943595  0.3048313545596100  0.2246091448951872   T   T   T
  0.3754703754035695  0.3053429094403611  0.2246341014203293   T   T   T
  0.0398459546478358  0.6796137043959103  0.0269986691762661   T   T   T
  0.2064841074566736  0.6795501582941160  0.0269722217034671   T   T   T
  0.3731199024573786  0.6795382781474217  0.0269771110064528   T   T   T
  0.0400697131362075  0.9294770005039003  0.0269284274021666   T   T   T
  0.2065804613996499  0.9294028300786431  0.0269377384371564   T   T   T
  0.3731792305497706  0.9293860642796730  0.0269316717618330   T   T   T
  0.1651131849978377  0.5289528653178718  0.0446690054357236   T   T   T
  0.3318240201813106  0.5289712242910725  0.0446531596531682   T   T   T
  0.4985347577629666  0.5289866463582829  0.0446058062594931   T   T   T
  0.1651433004560821  0.7788221248345916  0.0446624616681432   T   T   T
  0.3317913892169760  0.7788466087565298  0.0446431826917815   T   T   T
  0.4986531201921122  0.7789582225621108  0.0446351365248751   T   T   T
  0.4171683068468693  0.9037376963433900  0.2069877880945977   T   T   T
  0.4172650706282240  0.6536003340715805  0.2069535261126974   T   T   T
  0.0837255212425057  0.6537604544971831  0.2070023401002862   T   T   T
  0.2504829020282265  0.6537228299190102  0.2070030634435037   T   T   T
  0.0838160685221181  0.9038162971639888  0.2070038890684786   T   T   T
  0.2505168911204609  0.9037679429984951  0.2070062320832315   T   T   T
  0.0434566771504766  0.5542990713101611  0.2244457119152767   T   T   T
  0.2092806542010921  0.5543846348976694  0.2246547095290888   T   T   T
  0.3760639113265649  0.5545905216020612  0.2246341369342979   T   T   T
  0.0428531970323771  0.8046814288771038  0.2245903162821297   T   T   T
  0.2090495335473303  0.8046790441935838  0.2246705733688447   T   T   T
  0.3761555892235933  0.8044286166193007  0.2245801736731509   T   T   T
  0.5400859556776997  0.1794782947667939  0.0269091691090499   T   T   T
  0.7065428539961889  0.1796107233059756  0.0270818530709155   T   T   T
  0.8731261425693668  0.1795383338961363  0.0269869458522091   T   T   T
  0.5399076097652200  0.4295097135959712  0.0269194493411068   T   T   T
  0.7067367676008643  0.4292597455492902  0.0268291406817811   T   T   T
  0.8730678099223250  0.4293912873936201  0.0270080071864496   T   T   T
  0.6654043468032312  0.0288466783777356  0.0447041688921980   T   T   T
  0.8316979583743837  0.0288480317639078  0.0447155327054408   T   T   T
  0.9984828283207603  0.0289130435135464  0.0446446647961521   T   T   T
  0.6650303543552206  0.2786958925559037  0.0446444522009016   T   T   T
  0.8320662345525209  0.2786708245257536  0.0446802600615557   T   T   T
  0.9984629010233533  0.2789457734327629  0.0446423643253714   T   T   T
  0.9166142859798906  0.4034581289123789  0.2069679137346682   T   T   T
  0.9175111019114565  0.1532976461278494  0.2066537250738416   T   T   T
  0.5832979039160665  0.1534505505359685  0.2065163228879854   T   T   T
  0.7501889516160894  0.1557874025788345  0.2076712422589799   T   T   T
  0.5837725954086020  0.4036779997587740  0.2067278163322214   T   T   T
  0.7698430258545522  0.4645857962186792  0.2619680789503854   T   T   T
  0.5422130152115677  0.0559205455880001  0.2244020660414775   T   T   T
  0.7088925859619850  0.0557902316027740  0.2244718413970810   T   T   T
  0.8753514619498979  0.0557706296388474  0.2246202653545286   T   T   T
  0.5493396460349399  0.3012057559456178  0.2225836127697988   T   T   T
  0.6842997200727836  0.2826940769728885  0.2309844877758378   T   T   T
  0.8912541077981421  0.2959350949196047  0.2232708909875821   T   T   T
  0.7503076142141702  0.2700490387583339  0.2663759344904164   T   T   T
  0.7353434096551446  0.2279967801376041  0.3006063227881526   T   T   T
  0.7592721194708218  0.3121360167302950  0.3085866647312616   T   T   T
  0.6439821581522563  0.1361783915207285  0.2960195493890445   T   T   T
  0.7181686647532342  0.1079850859100556  0.2874050602939730   T   T   T
  0.8181663895467765  0.3863743498578907  0.3347308258142074   T   T   T
  0.7513298206685954  0.4324766899441355  0.3267949412690862   T   T   T
  0.7524552847527505  0.4388845217290111  0.2707026791559702   T   T   T
  0.7845727426114972  0.2670924507531420  0.2408694632842606   T   T   T
  0.5398161742704624  0.6796379044834165  0.0269657431936944   T   T   T
  0.7065371460051351  0.6796716875550243  0.0269747340326198   T   T   T
  0.8731775451706763  0.6796533521392074  0.0269850058742405   T   T   T
  0.5400898779510620  0.9295557533260540  0.0269272716808188   T   T   T
  0.7066309500780079  0.9295195482299744  0.0269770717823039   T   T   T
  0.8731552355236766  0.9295388421589167  0.0269905597320427   T   T   T
  0.6652134696000666  0.5289871941681439  0.0445804911997656   T   T   T
  0.8318774316036668  0.5289720012349125  0.0446382087158253   T   T   T
  0.9984219843943375  0.5289513591178850  0.0446735574259519   T   T   T
  0.6652349615991159  0.7789891710794423  0.0446632117646235   T   T   T
  0.8318385935012181  0.7789655013356379  0.0446793233529358   T   T   T
  0.9983180433630893  0.7789348332344417  0.0446781645521803   T   T   T
  0.9170728221121210  0.9039828634257532  0.2070418909872465   T   T   T
  0.9168741339373976  0.6536635939152914  0.2069401268404923   T   T   T
  0.5841957175395279  0.6533957935965111  0.2068441764122666   T   T   T
  0.7502306607658225  0.6530764872974895  0.2068893887196067   T   T   T
  0.5838273268587034  0.9038558146349910  0.2069992076877222   T   T   T
  0.7505159976480522  0.9038316732961623  0.2070247107915385   T   T   T
  0.5444945278531259  0.5541141884171562  0.2241024895602780   T   T   T
  0.7090462382406232  0.5500739487365891  0.2249207681692149   T   T   T
  0.8789863650352990  0.5549312172349793  0.2235175554583952   T   T   T
  0.5423778093022281  0.8045780982856405  0.2246032519588928   T   T   T
  0.7090248913513716  0.8046080901807042  0.2246073209291823   T   T   T
  0.8762861120477999  0.8044375107932366  0.2245425431709703   T   T   T
  0.0873414129771541  0.1688733282849583  0.0335607015732715   T   T   T
  0.2538714273006888  0.1690385822928991  0.0335811334875040   T   T   T
  0.4205179880504530  0.1688872665640455  0.0335471271343717   T   T   T
  0.0873720466277429  0.4188362914686956  0.0335630436792275   T   T   T
  0.2539668724978589  0.4189177143584820  0.0335649878431911   T   T   T
  0.4205216520460512  0.4188352546175399  0.0335209465206948   T   T   T
  0.1617468432255899  0.0437523899855677  0.2181082103509958   T   T   T
  0.3282816880356482  0.0436399809981889  0.2181232571308312   T   T   T
  0.4948343531290385  0.0435716437122172  0.2180906680294466   T   T   T
  0.1615622361534444  0.2936091931885336  0.2181286546923935   T   T   T
  0.3282502466608047  0.2936011205383195  0.2181320847539470   T   T   T
  0.4987232484224781  0.2930539185464612  0.2178176631797742   T   T   T
  0.0872023361401958  0.6689603199383850  0.0336065018987271   T   T   T
  0.2538616688695687  0.6690318600031058  0.0335907009291895   T   T   T
  0.4205296688914141  0.6690843408607013  0.0335679682805732   T   T   T
  0.0873566178165923  0.9187378704479950  0.0335603674343289   T   T   T
  0.2539130968913822  0.9187954726151438  0.0335561355593944   T   T   T
  0.4205602856025470  0.9187227231398288  0.0335139651916231   T   T   T
  0.1618365022681589  0.5437602141659527  0.2181226621684048   T   T   T
  0.3286445499425778  0.5438210701154461  0.2180993122359016   T   T   T
  0.4962401919615498  0.5439781495365786  0.2180359274931587   T   T   T
  0.1616865380762476  0.7936787911856333  0.2181284513671123   T   T   T
  0.3286313942240384  0.7937875949535348  0.2180931962632271   T   T   T
  0.4949197252483544  0.7936779086483462  0.2181097988249131   T   T   T
  0.5874350640671208  0.1684857932007543  0.0334583619277257   T   T   T
  0.7539065015958170  0.1687878877111685  0.0336494597618253   T   T   T
  0.9205087208337591  0.1686075517684339  0.0335340042819003   T   T   T
  0.5873086894868170  0.4185448190878314  0.0334345839537425   T   T   T
  0.7540539528592219  0.4177393226671974  0.0333212062617450   T   T   T
  0.9204992157723818  0.4187678005750022  0.0335762232143863   T   T   T
  0.6615358855354924  0.0432705443342830  0.2181848520923499   T   T   T
  0.8281065756543468  0.0432461240149797  0.2182441946097098   T   T   T
  0.9953681072841422  0.0437570666808341  0.2180981789742350   T   T   T
  0.6507797676298432  0.2955859961526146  0.2180368267957091   T   T   T
  0.8402333827375729  0.2914933817636180  0.2188741858312621   T   T   T
  0.9943609712704689  0.2921354508514547  0.2180802857416824   T   T   T
  0.7633973632936284  0.2736457941491365  0.2961172379158697   T   T   T
  0.6943959382722109  0.1320813519943358  0.3004993785224689   T   T   T
  0.7671977304814426  0.3813216162579552  0.3310231760543392   T   T   T
  0.7429239470293747  0.2505878230521262  0.2504820588574175   T   T   T
  0.5872448652921406  0.6691371852309821  0.0335480654566099   T   T   T
  0.7539318706644192  0.6690696595782060  0.0335571878498698   T   T   T
  0.9205480618541919  0.6689896302801683  0.0335817708209133   T   T   T
  0.5874024742009207  0.9188819779586539  0.0335420667759837   T   T   T
  0.7539599240145028  0.9188666793490231  0.0335925154813180   T   T   T
  0.9205224994296749  0.9190073513900330  0.0336057778295804   T   T   T
  0.6616411458913196  0.5453683772248484  0.2177561470475797   T   T   T
  0.8300776929103522  0.5452645061763677  0.2180492019193440   T   T   T
  0.9956671935359132  0.5438680806040569  0.2181401784130660   T   T   T
  0.6615705421914218  0.7936338145569374  0.2181250169274450   T   T   T
  0.8286943128251033  0.7938337028175272  0.2181071264236018   T   T   T
  0.9953502178513938  0.7938315365855811  0.2181194927513573   T   T   T
  0.2498058421454235  0.1240875785300287  0.0595022192593635   T   T   T
  0.4164784724596008  0.1239917764164358  0.0594763513278896   T   T   T
  0.0831350665686119  0.3740387404419159  0.0595096091897551   T   T   T
  0.2498237175600205  0.3740527938272679  0.0594977215528047   T   T   T
  0.4165124834126659  0.3739969421408418  0.0594649656184434   T   T   T
  0.0831475572383441  0.1240365219822077  0.0594973214348626   T   T   T
  0.4994211069529037  0.0005455075083552  0.1391760001865768   T   T   T
  0.1662090192211836  0.0006576034937235  0.1392257224034727   T   T   T
  0.3327856500081136  0.0006689842286704  0.1392204720586741   T   T   T
  0.4995587216942486  0.2507654268564260  0.1391796189640384   T   T   T
  0.1661796461931589  0.2507657986409094  0.1392514430239390   T   T   T
  0.3328610543109751  0.2507807325766272  0.1392418856945718   T   T   T
  0.0826189925695219  0.1252805198649176  0.1654746077980787   T   T   T
  0.2492537701372688  0.1253858727576536  0.1655209952023354   T   T   T
  0.4158684341245590  0.1253549283407299  0.1655006358545527   T   T   T
  0.0824630514660056  0.3753975530963057  0.1655588499516316   T   T   T
  0.2492661089734282  0.3753891680888795  0.1655358397868031   T   T   T
  0.4160888358779891  0.3754176184623443  0.1655234111579637   T   T   T
  0.1657093078105671  0.4988111537468399  0.1921848870878314   T   T   T
  0.3327372584474018  0.4988475028494104  0.1921680731843095   T   T   T
  0.4999274686643140  0.4988792100299358  0.1920767814082152   T   T   T
  0.1658259934114021  0.2489122433793095  0.1921745223444350   T   T   T
  0.4992985622091395  0.2485447098124820  0.1919010511878165   T   T   T
  0.3325443393887590  0.2489164764643355  0.1921586114419828   T   T   T
  0.4996287860875469  0.0004553048967900  0.0860723520067757   T   T   T
  0.1663104242455557  0.0004531137983593  0.0860970366738838   T   T   T
  0.3329955882138134  0.0004304326490553  0.0860859543846853   T   T   T
  0.4996391534132116  0.2504952343281291  0.0860602163140028   T   T   T
  0.1662754421427454  0.2505152660594953  0.0861211650887500   T   T   T
  0.3329987657768002  0.2504910810514845  0.0861106018223205   T   T   T
  0.0827457818008434  0.1256935537985300  0.1123789484839485   T   T   T
  0.2494181686346414  0.1256628803743773  0.1124088952749681   T   T   T
  0.4160750302768778  0.1256640443681162  0.1123667209974569   T   T   T
  0.0826715814539462  0.3757059025273174  0.1124180587373662   T   T   T
  0.2494270022430276  0.3756794897380497  0.1124126808241063   T   T   T
  0.4161832139774077  0.3757265839765742  0.1123822742742276   T   T   T
  0.2497853070130262  0.6240751243510725  0.0595077264753035   T   T   T
  0.4164975432187636  0.6240712801879355  0.0594892349775199   T   T   T
  0.0831486700660364  0.8739373006659614  0.0595039721129515   T   T   T
  0.2498143757202801  0.8739308549565559  0.0594843247640314   T   T   T
  0.4164945994875500  0.8739436989671522  0.0594603779251011   T   T   T
  0.0830792288172334  0.6240575286171078  0.0595389593735691   T   T   T
  0.4997270489685827  0.5007553111292186  0.1392352685236350   T   T   T
  0.1661246358808567  0.5006915577018848  0.1392624483472975   T   T   T
  0.3328751825017976  0.5007273368930384  0.1392405423660590   T   T   T
  0.4995799232346835  0.7506836018845223  0.1392189228954365   T   T   T
  0.1661723746213357  0.7506474406965649  0.1392538956732904   T   T   T
  0.3328147340346191  0.7506734828971132  0.1392323810167950   T   T   T
  0.0823538014361253  0.6252386756476278  0.1655689680236624   T   T   T
  0.2492218152781698  0.6252740543079800  0.1655410342304663   T   T   T
  0.4160580981153917  0.6253151803612138  0.1655130312438879   T   T   T
  0.0825439069081707  0.8753193369011758  0.1655350286392279   T   T   T
  0.2492204444779010  0.8753088705098796  0.1655198715914850   T   T   T
  0.4159095395632966  0.8753028206667448  0.1655188016372640   T   T   T
  0.1658444083238129  0.9988969984772097  0.1921667090087160   T   T   T
  0.3325091939210847  0.9988878453091868  0.1921671458269689   T   T   T
  0.4991346335965237  0.9989467762888354  0.1921086719522434   T   T   T
  0.1658083105614155  0.7488372628296613  0.1921822800261249   T   T   T
  0.4992776725690179  0.7487407563590903  0.1921625990362217   T   T   T
  0.3325828305614503  0.7488149839672966  0.1921678323459442   T   T   T
  0.4997375715502168  0.5004807282836576  0.0860816433627585   T   T   T
  0.1662617647634057  0.5004953392235175  0.0861212811624632   T   T   T
  0.3330376060224596  0.5004943073440574  0.0861061043821723   T   T   T
  0.4996872414317082  0.7504955591303279  0.0861056579999375   T   T   T
  0.1662524002666418  0.7504190827415590  0.0861255858592944   T   T   T
  0.3329706950167790  0.7504293510504285  0.0861020112322115   T   T   T
  0.0826177047212732  0.6256283083252642  0.1124357843977888   T   T   T
  0.2493914078770217  0.6256294597909631  0.1124197561190709   T   T   T
  0.4161526423803523  0.6257214472734536  0.1123806091063265   T   T   T
  0.0827643984507103  0.8756349826828699  0.1123866172698752   T   T   T
  0.2494098319788861  0.8755952150538127  0.1123921833793800   T   T   T
  0.4160359848147504  0.8756059250932144  0.1123561216671113   T   T   T
  0.7498335551334436  0.1240926485975961  0.0596151237373746   T   T   T
  0.9164498374366866  0.1240077438295690  0.0595002307735075   T   T   T
  0.5832378753828040  0.3739803272492762  0.0594412096557816   T   T   T
  0.7498717149792153  0.3738667314701079  0.0594473209466811   T   T   T
  0.9164234698308990  0.3740238447406870  0.0595323288778457   T   T   T
  0.5832019868039008  0.1239779533777945  0.0594548740590322   T   T   T
  0.9994961140753729  0.0006163211309161  0.1392105448148670   T   T   T
  0.6663791313530343  0.0009349521381784  0.1393062398861363   T   T   T
  0.8326485493543768  0.0010266711094635  0.1393432329124954   T   T   T
  0.9993603893479450  0.2507872181304431  0.1392329705593685   T   T   T
  0.6660040341365667  0.2514415023887664  0.1394853499814380   T   T   T
  0.8326420943986914  0.2513878700159272  0.1394738419679029   T   T   T
  0.5824766332737592  0.1250691722562078  0.1653076955666033   T   T   T
  0.7490860450239022  0.1268410978960927  0.1660523199226296   T   T   T
  0.9159781688848533  0.1252851894237947  0.1653727233730022   T   T   T
  0.5827582652267534  0.3756298498473123  0.1655648042259959   T   T   T
  0.7490459847167174  0.3774631714153225  0.1669389827314542   T   T   T
  0.9154997323862347  0.3756421239406127  0.1657032338698646   T   T   T
  0.6687745361476449  0.4959286753654575  0.1922804994409172   T   T   T
  0.8292231607277158  0.4958919908062172  0.1925373899435800   T   T   T
  0.9984791987891952  0.4987097450460576  0.1921826661898469   T   T   T
  0.6640773695444754  0.2509784035907542  0.1926145695064403   T   T   T
  0.9991923270668631  0.2483107718996748  0.1919065812934029   T   T   T
  0.8332677214645355  0.2500573118187664  0.1923592539160064   T   T   T
  0.9996572689760685  0.0004856791791054  0.0861105136642583   T   T   T
  0.6663763367899248  0.0005891929077054  0.0861660354990750   T   T   T
  0.8328916088464907  0.0005936578708169  0.0861824355036408   T   T   T
  0.9996073311192740  0.2505328347267107  0.0861147120736796   T   T   T
  0.6662974666508680  0.2505858492946068  0.0861614073247880   T   T   T
  0.8329343664852566  0.2505783640924849  0.0861910553738866   T   T   T
  0.5827512177363298  0.1258037832627503  0.1123623718108020   T   T   T
  0.7493900837364396  0.1260872650680349  0.1126200451178046   T   T   T
  0.9160481375417935  0.1258462700410453  0.1124020644384413   T   T   T