C H O Si                                
   1.00000000000000     
     9.2874599999999994    0.0000000000000000    0.0000000000000000
     0.0000000000000000    8.7562999999999995    0.0000000000000000
     0.0000000000000000    0.0000000000000000   58.0000000000000000
   C    H    O    Si
    36    24    12    36
Selective dynamics
Direct
  0.0006300398376478  0.1357969282544247  0.4342384425682198   T   T   T
  0.0006300398376478  0.6357969282544246  0.4342384425682198   T   T   T
  0.3339633731706496  0.1357969282544247  0.4342384425682198   T   T   T
  0.3339633731706496  0.6357969282544246  0.4342384425682198   T   T   T
  0.6672967065046461  0.1357969282544247  0.4342384425682198   T   T   T
  0.6672967065046461  0.6357969282544246  0.4342384425682198   T   T   T
  0.1676550949478583  0.3822849610126712  0.4596116231400499   T   T   T
  0.1676550949478583  0.8822849610126712  0.4596116231400499   T   T   T
  0.5009884282818547  0.3822849610126712  0.4596116231400499   T   T   T
  0.5009884282818547  0.8822849610126712  0.4596116231400499   T   T   T
  0.8343217616148565  0.3822849610126712  0.4596116231400499   T   T   T
  0.8343217616148565  0.8822849610126712  0.4596116231400499   T   T   T
  0.0010680923811765  0.1320829458011385  0.4868117678733787   T   T   T
  0.0010680923811765  0.6320829458011384  0.4868117678733787   T   T   T
  0.3344014257141782  0.1320829458011385  0.4868117678733787   T   T   T
  0.3344014257141782  0.6320829458011384  0.4868117678733787   T   T   T
  0.6677347590481818  0.1320829458011385  0.4868117678733787   T   T   T
  0.6677347590481818  0.6320829458011384  0.4868117678733787   T   T   T
  0.1677348475791777  0.3820831146101337  0.5131882321266213   T   T   T
  0.1677348475791777  0.8820831146101337  0.5131882321266213   T   T   T
  0.5010681809131813  0.3820831146101337  0.5131882321266213   T   T   T
  0.5010681809131813  0.8820831146101337  0.5131882321266213   T   T   T
  0.8344015142461830  0.3820831146101337  0.5131882321266213   T   T   T
  0.8344015142461830  0.8820831146101337  0.5131882321266213   T   T   T
  0.0009883397498571  0.1322847922036760  0.5403883768599501   T   T   T
  0.0009883397498571  0.6322847922036759  0.5403883768599501   T   T   T
  0.3343216730828517  0.1322847922036760  0.5403883768599501   T   T   T
  0.3343216730828517  0.6322847922036759  0.5403883768599501   T   T   T
  0.6676550064168553  0.1322847922036760  0.5403883768599501   T   T   T
  0.6676550064168553  0.6322847922036759  0.5403883768599501   T   T   T
  0.1672967950356561  0.3857970970634199  0.5657615574317874   T   T   T
  0.1672967950356561  0.8857970970634198  0.5657615574317874   T   T   T
  0.5006301283696456  0.3857970970634199  0.5657615574317874   T   T   T
  0.5006301283696456  0.8857970970634198  0.5657615574317874   T   T   T
  0.8339634617026473  0.3857970970634199  0.5657615574317874   T   T   T
  0.8339634617026473  0.8857970970634198  0.5657615574317874   T   T   T
  0.0032764105679536  0.0623233548945147  0.4188347005347804   T   T   T
  0.0032764105679536  0.5623233548945147  0.4188347005347804   T   T   T
  0.3366097439019572  0.0623233548945147  0.4188347005347804   T   T   T
  0.3366097439019572  0.5623233548945147  0.4188347005347804   T   T   T
  0.6699430772349589  0.0623233548945147  0.4188347005347804   T   T   T
  0.6699430772349589  0.5623233548945147  0.4188347005347804   T   T   T
  0.1699433291119564  0.3123235237035170  0.5811652994652196   T   T   T
  0.1699433291119564  0.8123235237035170  0.5811652994652196   T   T   T
  0.5032766624459529  0.3123235237035170  0.5811652994652196   T   T   T
  0.5032766624459529  0.8123235237035170  0.5811652994652196   T   T   T
  0.8366099957789547  0.3123235237035170  0.5811652994652196   T   T   T
  0.8366099957789547  0.8123235237035170  0.5811652994652196   T   T   T
  0.0902350557517589  0.1175388314717786  0.5978910932659003   T   T   T
  0.0902350557517589  0.6175388314717715  0.5978910932659003   T   T   T
  0.4235683890847607  0.1175388314717786  0.5978910932659003   T   T   T
  0.4235683890847607  0.6175388314717715  0.5978910932659003   T   T   T
  0.7569017224177553  0.1175388314717786  0.5978910932659003   T   T   T
  0.7569017224177553  0.6175388314717715  0.5978910932659003   T   T   T
  0.2569016918657606  0.3675390759087755  0.4021089067341068   T   T   T
  0.2569016918657606  0.8675390759087683  0.4021089067341068   T   T   T
  0.5902350251987553  0.3675390759087755  0.4021089067341068   T   T   T
  0.5902350251987553  0.8675390759087683  0.4021089067341068   T   T   T
  0.9235683585317570  0.3675390759087755  0.4021089067341068   T   T   T
  0.9235683585317570  0.8675390759087683  0.4021089067341068   T   T   T
  0.1603442141150752  0.3403770986236150  0.4074367702054725   T   T   T
  0.1603442141150752  0.8403770986236151  0.4074367702054725   T   T   T
  0.4936775474490717  0.3403770986236150  0.4074367702054725   T   T   T
  0.4936775474490717  0.8403770986236151  0.4074367702054725   T   T   T
  0.8270108807820734  0.3403770986236150  0.4074367702054725   T   T   T
  0.8270108807820734  0.8403770986236151  0.4074367702054725   T   T   T
  0.9936775275820765  0.0903769298146127  0.5925632297945274   T   T   T
  0.9936775275820765  0.5903769298146128  0.5925632297945274   T   T   T
  0.3270108609160731  0.0903769298146127  0.5925632297945274   T   T   T
  0.3270108609160731  0.5903769298146128  0.5925632297945274   T   T   T
  0.6603441942490748  0.0903769298146127  0.5925632297945274   T   T   T
  0.6603441942490748  0.5903769298146128  0.5925632297945274   T   T   T
  0.1670518782388078  0.2528445201164261  0.4338833743127807   T   T   T
  0.1670518782388078  0.7528445201164261  0.4338833743127807   T   T   T
  0.5003852115728042  0.2528445201164261  0.4338833743127807   T   T   T
  0.5003852115728042  0.7528445201164261  0.4338833743127807   T   T   T
  0.8337185449058060  0.2528445201164261  0.4338833743127807   T   T   T
  0.8337185449058060  0.7528445201164261  0.4338833743127807   T   T   T
  0.0009825071296035  0.0061414828361039  0.4604214240598375   T   T   T
  0.0009825071296035  0.5061414828361039  0.4604214240598375   T   T   T
  0.3343158404626053  0.0061414828361039  0.4604214240598375   T   T   T
  0.3343158404626053  0.5061414828361039  0.4604214240598375   T   T   T
  0.6676491737966017  0.0061414828361039  0.4604214240598375   T   T   T
  0.6676491737966017  0.5061414828361039  0.4604214240598375   T   T   T
  0.1677333732251292  0.2565486695143349  0.4866219473300835   T   T   T
  0.1677333732251292  0.7565486695143350  0.4866219473300835   T   T   T
  0.5010667065591257  0.2565486695143349  0.4866219473300835   T   T   T
  0.5010667065591257  0.7565486695143350  0.4866219473300835   T   T   T
  0.8344000398921274  0.2565486695143349  0.4866219473300835   T   T   T
  0.8344000398921274  0.7565486695143350  0.4866219473300835   T   T   T
  0.0010666180271280  0.0065485007043378  0.5133780526699164   T   T   T
  0.0010666180271280  0.5065485007043379  0.5133780526699164   T   T   T
  0.3343999513601298  0.0065485007043378  0.5133780526699164   T   T   T
  0.3343999513601298  0.5065485007043379  0.5133780526699164   T   T   T
  0.6677332846941262  0.0065485007043378  0.5133780526699164   T   T   T
  0.6677332846941262  0.5065485007043379  0.5133780526699164   T   T   T
  0.1676492623276047  0.2561416516461010  0.5395785759401625   T   T   T
  0.1676492623276047  0.7561416516461010  0.5395785759401625   T   T   T
  0.5009825956616012  0.2561416516461010  0.5395785759401625   T   T   T
  0.5009825956616012  0.7561416516461010  0.5395785759401625   T   T   T
  0.8343159289946029  0.2561416516461010  0.5395785759401625   T   T   T
  0.8343159289946029  0.7561416516461010  0.5395785759401625   T   T   T
  0.0003851230408066  0.0028443513064290  0.5661166256872192   T   T   T
  0.0003851230408066  0.5028443513064290  0.5661166256872192   T   T   T
  0.3337184563738083  0.0028443513064290  0.5661166256872192   T   T   T
  0.3337184563738083  0.5028443513064290  0.5661166256872192   T   T   T
  0.6670517897078048  0.0028443513064290  0.5661166256872192   T   T   T
  0.6670517897078048  0.5028443513064290  0.5661166256872192   T   T   T
 
  0.00000000E+00  0.00000000E+00  0.00000000E+00
  0.00000000E+00  0.00000000E+00  0.00000000E+00
  0.00000000E+00  0.00000000E+00  0.00000000E+00
  0.00000000E+00  0.00000000E+00  0.00000000E+00
  0.00000000E+00  0.00000000E+00  0.00000000E+00
  0.00000000E+00  0.00000000E+00  0.00000000E+00
  0.00000000E+00  0.00000000E+00  0.00000000E+00
  0.00000000E+00  0.00000000E+00  0.00000000E+00
  0.00000000E+00  0.00000000E+00  0.00000000E+00
  0.00000000E+00  0.00000000E+00  0.00000000E+00
  0.00000000E+00  0.00000000E+00  0.00000000E+00
  0.00000000E+00  0.00000000E+00  0.00000000E+00
  0.00000000E+00  0.00000000E+00  0.00000000E+00
  0.00000000E+00  0.00000000E+00  0.00000000E+00
  0.00000000E+00  0.00000000E+00  0.00000000E+00
  0.00000000E+00  0.00000000E+00  0.00000000E+00
  0.00000000E+00  0.00000000E+00  0.00000000E+00
  0.00000000E+00  0.00000000E+00  0.00000000E+00
  0.00000000E+00  0.00000000E+00  0.00000000E+00
  0.00000000E+00  0.00000000E+00  0.00000000E+00
  0.00000000E+00  0.00000000E+00  0.00000000E+00
  0.00000000E+00  0.00000000E+00  0.00000000E+00
  0.00000000E+00  0.00000000E+00  0.00000000E+00
  0.00000000E+00  0.00000000E+00  0.00000000E+00
  0.00000000E+00  0.00000000E+00  0.00000000E+00
  0.00000000E+00  0.00000000E+00  0.00000000E+00
  0.00000000E+00  0.00000000E+00  0.00000000E+00
  0.00000000E+00  0.00000000E+00  0.00000000E+00
  0.00000000E+00  0.00000000E+00  0.00000000E+00
  0.00000000E+00  0.00000000E+00  0.00000000E+00
  0.00000000E+00  0.00000000E+00  0.00000000E+00
  0.00000000E+00  0.00000000E+00  0.00000000E+00
  0.00000000E+00  0.00000000E+00  0.00000000E+00
  0.00000000E+00  0.00000000E+00  0.00000000E+00
  0.00000000E+00  0.00000000E+00  0.00000000E+00
  0.00000000E+00  0.00000000E+00  0.00000000E+00
  0.00000000E+00  0.00000000E+00  0.00000000E+00
  0.00000000E+00  0.00000000E+00  0.00000000E+00
  0.00000000E+00  0.00000000E+00  0.00000000E+00
  0.00000000E+00  0.00000000E+00  0.00000000E+00
  0.00000000E+00  0.00000000E+00  0.00000000E+00
  0.00000000E+00  0.00000000E+00  0.00000000E+00
  0.00000000E+00  0.00000000E+00  0.00000000E+00
  0.00000000E+00  0.00000000E+00  0.00000000E+00
  0.00000000E+00  0.00000000E+00  0.00000000E+00
  0.00000000E+00  0.00000000E+00  0.00000000E+00
  0.00000000E+00  0.00000000E+00  0.00000000E+00
  0.00000000E+00  0.00000000E+00  0.00000000E+00
  0.00000000E+00  0.00000000E+00  0.00000000E+00
  0.00000000E+00  0.00000000E+00  0.00000000E+00
  0.00000000E+00  0.00000000E+00  0.00000000E+00
  0.00000000E+00  0.00000000E+00  0.00000000E+00
  0.00000000E+00  0.00000000E+00  0.00000000E+00
  0.00000000E+00  0.00000000E+00  0.00000000E+00
  0.00000000E+00  0.00000000E+00  0.00000000E+00
  0.00000000E+00  0.00000000E+00  0.00000000E+00
  0.00000000E+00  0.00000000E+00  0.00000000E+00
  0.00000000E+00  0.00000000E+00  0.00000000E+00
  0.00000000E+00  0.00000000E+00  0.00000000E+00
  0.00000000E+00  0.00000000E+00  0.00000000E+00
  0.00000000E+00  0.00000000E+00  0.00000000E+00
  0.00000000E+00  0.00000000E+00  0.00000000E+00
  0.00000000E+00  0.00000000E+00  0.00000000E+00
  0.00000000E+00  0.00000000E+00  0.00000000E+00
  0.00000000E+00  0.00000000E+00  0.00000000E+00
  0.00000000E+00  0.00000000E+00  0.00000000E+00
  0.00000000E+00  0.00000000E+00  0.00000000E+00
  0.00000000E+00  0.00000000E+00  0.00000000E+00
  0.00000000E+00  0.00000000E+00  0.00000000E+00
  0.00000000E+00  0.00000000E+00  0.00000000E+00
  0.00000000E+00  0.00000000E+00  0.00000000E+00
  0.00000000E+00  0.00000000E+00  0.00000000E+00
  0.00000000E+00  0.00000000E+00  0.00000000E+00
  0.00000000E+00  0.00000000E+00  0.00000000E+00
  0.00000000E+00  0.00000000E+00  0.00000000E+00
  0.00000000E+00  0.00000000E+00  0.00000000E+00
  0.00000000E+00  0.00000000E+00  0.00000000E+00
  0.00000000E+00  0.00000000E+00  0.00000000E+00
  0.00000000E+00  0.00000000E+00  0.00000000E+00
  0.00000000E+00  0.00000000E+00  0.00000000E+00
  0.00000000E+00  0.00000000E+00  0.00000000E+00
  0.00000000E+00  0.00000000E+00  0.00000000E+00
  0.00000000E+00  0.00000000E+00  0.00000000E+00
  0.00000000E+00  0.00000000E+00  0.00000000E+00
  0.00000000E+00  0.00000000E+00  0.00000000E+00
  0.00000000E+00  0.00000000E+00  0.00000000E+00
  0.00000000E+00  0.00000000E+00  0.00000000E+00
  0.00000000E+00  0.00000000E+00  0.00000000E+00
  0.00000000E+00  0.00000000E+00  0.00000000E+00
  0.00000000E+00  0.00000000E+00  0.00000000E+00
  0.00000000E+00  0.00000000E+00  0.00000000E+00
  0.00000000E+00  0.00000000E+00  0.00000000E+00
  0.00000000E+00  0.00000000E+00  0.00000000E+00
  0.00000000E+00  0.00000000E+00  0.00000000E+00
  0.00000000E+00  0.00000000E+00  0.00000000E+00
  0.00000000E+00  0.00000000E+00  0.00000000E+00
  0.00000000E+00  0.00000000E+00  0.00000000E+00
  0.00000000E+00  0.00000000E+00  0.00000000E+00
  0.00000000E+00  0.00000000E+00  0.00000000E+00
  0.00000000E+00  0.00000000E+00  0.00000000E+00
  0.00000000E+00  0.00000000E+00  0.00000000E+00
  0.00000000E+00  0.00000000E+00  0.00000000E+00
  0.00000000E+00  0.00000000E+00  0.00000000E+00
  0.00000000E+00  0.00000000E+00  0.00000000E+00
  0.00000000E+00  0.00000000E+00  0.00000000E+00
  0.00000000E+00  0.00000000E+00  0.00000000E+00
  0.00000000E+00  0.00000000E+00  0.00000000E+00
  0.00000000E+00  0.00000000E+00  0.00000000E+00
