C H O Si                                
   1.00000000000000     
     9.2874599999999994    0.0000000000000000    0.0000000000000000
     0.0000000000000000   17.5126199999999983    0.0000000000000000
     0.0000000000000000    0.0000000000000000   58.0000000000000000
   C    H    O    Si
    72    57    28    72
Selective dynamics
Direct
  0.9936865359298873  0.0631228983388128  0.0604708500141699   T   T   T
  0.3270386610875672  0.0631479331796316  0.0605473525586949   T   T   T
  0.6603258027887252  0.0631513879287673  0.0605269187329059   T   T   T
  0.9935804707831228  0.3131381402576759  0.0604617789791271   T   T   T
  0.3268765573176107  0.3130985448545417  0.0605554109034399   T   T   T
  0.6602498689604107  0.3131125900248062  0.0605253369489073   T   T   T
  0.1599928777090438  0.1860726432625737  0.1393859791861904   T   T   T
  0.4932528166232296  0.1863673022597239  0.1396408063985654   T   T   T
  0.8266758942206106  0.1860430292835551  0.1393397961689312   T   T   T
  0.1598936154076270  0.4361844868384196  0.1394305627979088   T   T   T
  0.4932416351248662  0.4361020449742815  0.1394823402554286   T   T   T
  0.8266331706880053  0.4361927315799385  0.1394232585679967   T   T   T
  0.3271715241391632  0.0614407415807041  0.1667228497982991   T   T   T
  0.6594978610706140  0.0614548808679434  0.1666951126965190   T   T   T
  0.9935102006231504  0.0607336518743239  0.1664709243167328   T   T   T
  0.3263654895469583  0.3113143563756037  0.1667937700439781   T   T   T
  0.6602970506395660  0.3113644843261951  0.1666774986686396   T   T   T
  0.9933340104825120  0.3112235208112734  0.1665245765152867   T   T   T
  0.1599329068719175  0.1871833029656405  0.1917110045676584   T   T   T
  0.4934360346794736  0.1899799997089631  0.1927761904451152   T   T   T
  0.8273885117478204  0.1868809942598405  0.1915713724862245   T   T   T
  0.1595557499227926  0.4384108792668137  0.1919768051275164   T   T   T
  0.4931109513370370  0.4379883182961457  0.1920372801768321   T   T   T
  0.8267140331003154  0.4384422610391758  0.1919394756623319   T   T   T
  0.1600793429243390  0.1862424383166890  0.0858196528297733   T   T   T
  0.4933444276715804  0.1862891695890741  0.0859568628047384   T   T   T
  0.8266606743697514  0.1862501548444301  0.0857947083118753   T   T   T
  0.1600674802281260  0.4362402096351997  0.0858429404941029   T   T   T
  0.4933271967947155  0.4362227820414118  0.0858790265835155   T   T   T
  0.8266609297666563  0.4362393439177651  0.0858358784251111   T   T   T
  0.3266588234857938  0.0611776343950226  0.1130945549465697   T   T   T
  0.6598517679549130  0.0611892116001008  0.1130813817704679   T   T   T
  0.9932784539440104  0.0610868431764202  0.1130059070804438   T   T   T
  0.3265766693054337  0.3111445552539825  0.1131361930626259   T   T   T
  0.6600111685611428  0.3111706180148043  0.1130954834580817   T   T   T
  0.9933189559249561  0.3111537749311297  0.1130016612985527   T   T   T
  0.9936854225944586  0.5631066536697650  0.0604982235566653   T   T   T
  0.3269851382645338  0.5631157912076595  0.0605142214353331   T   T   T
  0.6603966767359384  0.5631164310783439  0.0605106850999151   T   T   T
  0.9935718569258708  0.8131423052943170  0.0605034876178866   T   T   T
  0.3268851121375515  0.8131096401000349  0.0605022378150795   T   T   T
  0.6602600457651644  0.8131254288942937  0.0604974081070000   T   T   T
  0.1598859061017885  0.6861949610945829  0.1394249453178968   T   T   T
  0.4931773881221334  0.6861799016536227  0.1394345986408507   T   T   T
  0.8264546939780563  0.6861889788957035  0.1394230069132670   T   T   T
  0.1602937260566704  0.9361513916524034  0.1394342876543143   T   T   T
  0.4932387767963241  0.9361193436040673  0.1394432716764664   T   T   T
  0.8263373320090136  0.9361851270473649  0.1394332960042036   T   T   T
  0.3265127095849483  0.5612809603818958  0.1666156732673303   T   T   T
  0.6597086221499994  0.5612603023536141  0.1666211815352232   T   T   T
  0.9931608642408452  0.5614511511048839  0.1665831065227948   T   T   T
  0.3265560240562608  0.8112264026518933  0.1666258607480117   T   T   T
  0.6599165448332860  0.8112390249418344  0.1666170331740696   T   T   T
  0.9932319644769332  0.8113041837608786  0.1666099295863498   T   T   T
  0.1599495762344874  0.6881551618686869  0.1919898092878152   T   T   T
  0.4932344488593090  0.6881479797997524  0.1920040913419452   T   T   T
  0.8264833746963692  0.6881466129458385  0.1919817797362278   T   T   T
  0.1601016977601980  0.9381019313717927  0.1919944841176478   T   T   T
  0.4933517371147468  0.9380592108529288  0.1920156132852160   T   T   T
  0.8265371040233632  0.9381003308670020  0.1919751920751039   T   T   T
  0.1600390828253556  0.6862549879213943  0.0858392596857284   T   T   T
  0.4933466568869745  0.6862193369262182  0.0858476521265388   T   T   T
  0.8266664151426651  0.6862531472914460  0.0858385674465390   T   T   T
  0.1601065155585289  0.9362549034941691  0.0858373907099360   T   T   T
  0.4933272029592444  0.9362432492528250  0.0858564717203471   T   T   T
  0.8266013541679250  0.9362604866688685  0.0858355469371560   T   T   T
  0.3265714102887771  0.5611413984119524  0.1130600912878881   T   T   T
  0.6599143849319763  0.5611443652131234  0.1130614392442685   T   T   T
  0.9932498800197969  0.5611730355035046  0.1130423049801957   T   T   T
  0.3266460684617458  0.8111238742670317  0.1130445586975372   T   T   T
  0.6598934216697095  0.8111324433557126  0.1130440666769091   T   T   T
  0.9932596684829472  0.8112237996524398  0.1130588577282689   T   T   T
  0.0722816499544195  0.1782489346020386  0.0279202460760559   T   T   T
  0.4048697616655629  0.1782269110457637  0.0280748518389725   T   T   T
  0.7380559560068611  0.1781680908981224  0.0279561399373284   T   T   T
  0.0720743020270314  0.4283158726750741  0.0279413191600944   T   T   T
  0.4045226757103048  0.4281315390326410  0.0280215528812012   T   T   T
  0.7375847157598776  0.4281564530818091  0.0279952100154002   T   T   T
  0.3248179043455819  0.0264476582699583  0.0451372284735570   T   T   T
  0.6574212913655743  0.0264642411108958  0.0451216989868588   T   T   T
  0.9912299165091654  0.0264875888590350  0.0450500842729312   T   T   T
  0.3242905266492235  0.2763391674497118  0.0451613785981713   T   T   T
  0.6575204813729236  0.2763855892456393  0.0451253415412606   T   T   T
  0.9909494641069670  0.2765188422113244  0.0450382484113430   T   T   T
  0.8286258524798912  0.4020708586725189  0.2073967256949496   T   T   T
  0.8300831079114540  0.1504435458170406  0.2070327262523985   T   T   T
  0.1616547237390043  0.1508394329076556  0.2071895299744367   T   T   T
  0.4964150193085970  0.1526603419143936  0.2080473766847620   T   T   T
  0.1615027461975730  0.4016302446415463  0.2073615805614167   T   T   T
  0.4938587817326748  0.4013740991713071  0.2074721921316566   T   T   T
  0.0820892732623882  0.0531831883385312  0.2244897243299752   T   T   T
  0.4158919804718608  0.0527161968683192  0.2246225034426769   T   T   T
  0.7493013328838521  0.0528876921242488  0.2245553482665790   T   T   T
  0.0812692329983623  0.3011965957316599  0.2241429889023727   T   T   T
  0.3776455792073913  0.3105896533482509  0.2281746284873193   T   T   T
  0.7823987766146882  0.2956334018948353  0.2227968595181472   T   T   T
  0.5476374295319252  0.3058185679914720  0.2737156688293929   T   T   T
  0.4929104582332304  0.2379647291145233  0.2932519531315881   T   T   T
  0.5719839444995389  0.3195628165040957  0.3029887584135553   T   T   T
  0.3142029960113232  0.1937488704899827  0.3097579239306155   T   T   T
  0.4221375285159692  0.1297701844910172  0.3023517297673139   T   T   T
  0.6508447304020982  0.3662965377830931  0.3335560313819110   T   T   T
  0.4850093512545874  0.3779023739809988  0.3308767796328222   T   T   T
  0.5196630775785599  0.3953163844876931  0.2521502368558016   T   T   T
  0.5869188590364365  0.3228836002610305  0.2386013111262229   T   T   T
  0.0719099172624120  0.6782762905768985  0.0279717309112154   T   T   T
  0.4050100827244245  0.6782067625133965  0.0279913203893106   T   T   T
  0.7382253387423023  0.6782058119852543  0.0279906344271668   T   T   T
  0.0716303269430100  0.9282606965912986  0.0279637520239156   T   T   T
  0.4046042749961864  0.9281599700727844  0.0279950584378481   T   T   T
  0.7379755249936771  0.9282285257293519  0.0279856569716597   T   T   T
  0.3244764899361014  0.5264172680386895  0.0451060684306733   T   T   T
  0.6578585288678904  0.5264229833134436  0.0451024042955443   T   T   T
  0.9911342379084405  0.5264402752438923  0.0450855242541881   T   T   T
  0.3243130863800134  0.7764188149909949  0.0450942663132649   T   T   T
  0.6575430122857882  0.7764334692931834  0.0450901768944517   T   T   T
  0.9909270126933069  0.7764507825816409  0.0450970747040352   T   T   T
  0.8290312825700260  0.9014287391261276  0.2073884092041834   T   T   T
  0.8290019726937053  0.6514555509617067  0.2073889155058673   T   T   T
  0.1622708199205839  0.6514414802786902  0.2073937561911348   T   T   T
  0.4957632150724405  0.6515091358721374  0.2074224670590418   T   T   T
  0.1623941472989798  0.9014199241414713  0.2074056754173935   T   T   T
  0.4959271275928150  0.9013558580295054  0.2074220433585874   T   T   T
  0.0815969591264205  0.5540437759789699  0.2244856997572357   T   T   T
  0.4154479286300438  0.5543745493507617  0.2243565227610620   T   T   T
  0.7488420111304577  0.5539135208803186  0.2244250394780929   T   T   T
  0.0822294314552015  0.8032605858554336  0.2245126411625519   T   T   T
  0.4151223271755533  0.8035334389463854  0.2245602202994796   T   T   T
  0.7495961038922179  0.8030259401209849  0.2244684894238547   T   T   T
  0.1680812919908926  0.1655659457134301  0.0337459516869004   T   T   T
  0.5009067060433238  0.1658704073106859  0.0338776304266927   T   T   T
  0.8340724848145954  0.1655341463530816  0.0337081140256321   T   T   T
  0.1678909719777509  0.4157334913175786  0.0337825948533670   T   T   T
  0.5005687749040248  0.4156379929924330  0.0337921948212183   T   T   T
  0.8336570209456764  0.4156364790668877  0.0337485519693730   T   T   T
  0.3198808860637131  0.0409240348804384  0.2187155855942026   T   T   T
  0.6532132944835769  0.0409968983018225  0.2186904871109558   T   T   T
  0.9862567666127746  0.0410516570957420  0.2185761278384287   T   T   T
  0.2983053192022826  0.2907443823087479  0.2187750448602817   T   T   T
  0.6793337632528150  0.2913693783797935  0.2187554143591023   T   T   T
  0.9843650844087105  0.2890102278747435  0.2184423799429502   T   T   T
  0.5706933514032304  0.2795309540281061  0.2896894353752700   T   T   T
  0.3807495883892135  0.1784741190732205  0.2975739984441023   T   T   T
  0.5755220509870730  0.3774954956126775  0.3223226695937277   T   T   T
  0.5151374409925781  0.3397786387547823  0.2510724315507006   T   T   T
  0.1678040336123942  0.6656636911963655  0.0337744484941350   T   T   T
  0.5009937664513359  0.6656402393487045  0.0337711759489335   T   T   T
  0.8342223057429641  0.6656397181602478  0.0337660120120884   T   T   T
  0.1675616488491889  0.9156990432418753  0.0337674506211564   T   T   T
  0.5006432462348260  0.9156818673604057  0.0337718002585319   T   T   T
  0.8339693166251044  0.9156351877605787  0.0337561438572396   T   T   T
  0.3196593158214773  0.5410614161316650  0.2186547750835698   T   T   T
  0.6529648196696205  0.5410665288807682  0.2186537058550259   T   T   T
  0.9858960350100865  0.5411552796617944  0.2186617614126486   T   T   T
  0.3193911217709421  0.7909767724232661  0.2186810378740972   T   T   T
  0.6533938105232318  0.7910453065084733  0.2186603869402706   T   T   T
  0.9863049434646798  0.7910024469336747  0.2186505028371082   T   T   T
  0.4938610631715875  0.1217276591296005  0.0601202571445709   T   T   T
  0.8271454235451737  0.1216821136344992  0.0599890366902771   T   T   T
  0.1604597638468328  0.3716738327928107  0.0600327349144760   T   T   T
  0.4937235777965704  0.3716389665442902  0.0600574583766734   T   T   T
  0.8270197148768200  0.3716776754239403  0.0600154631853015   T   T   T
  0.1605764183949710  0.1216627970196116  0.0600174522760238   T   T   T
  0.9932372742995742  0.4985300245696726  0.1396147066288932   T   T   T
  0.3265450042794180  0.4984561316672058  0.1396345215201198   T   T   T
  0.6598526578888465  0.4984549257304986  0.1396376330089740   T   T   T
  0.9932996999526464  0.2483528621192555  0.1395245587863491   T   T   T
  0.3264043437677914  0.2484970827964911  0.1397422927036695   T   T   T
  0.6600991377990095  0.2483998920040302  0.1396421013135241   T   T   T
  0.1599417727462893  0.1227978939714656  0.1657195768082211   T   T   T
  0.4932607169730089  0.1240843033673726  0.1662253569269780   T   T   T
  0.8269165717277783  0.1225517478016016  0.1656061711920589   T   T   T
  0.1597708577011056  0.3734122170445399  0.1658728035519178   T   T   T
  0.4930994361978580  0.3731586778154687  0.1659067622129959   T   T   T
  0.8269174421426790  0.3734285974408081  0.1658426830342873   T   T   T
  0.3260815463218793  0.4968244937402835  0.1924233319138825   T   T   T
  0.6597182851144775  0.4967875427016394  0.1924296772319852   T   T   T
  0.9929353430895116  0.4970608390569913  0.1923992146223698   T   T   T
  0.3241109550802961  0.2474124176542615  0.1928060353577523   T   T   T
  0.9933910014319818  0.2456084686587555  0.1920245238127415   T   T   T
  0.6625887994496136  0.2464903678274256  0.1922778490293172   T   T   T
  0.9933347143734620  0.4981694417598134  0.0866160947916949   T   T   T
  0.3266526262358549  0.4981862094303365  0.0866316581094207   T   T   T
  0.6599829656849793  0.4981750814508614  0.0866289628643397   T   T   T
  0.9933539266666027  0.2481794785601807  0.0865713073897715   T   T   T
  0.3266395198958700  0.2482074216407776  0.0866830486088703   T   T   T
  0.6599958831866778  0.2482007243350887  0.0866475634803585   T   T   T
  0.1599412704265918  0.1234435913256455  0.1128150391125517   T   T   T
  0.4932244706317845  0.1235467681949519  0.1129737305718731   T   T   T
  0.8266318767343738  0.1234158724816765  0.1127778956864429   T   T   T
  0.1599447487457887  0.3734906746427569  0.1128557875706737   T   T   T
  0.4932623954561574  0.3734661605209751  0.1128824907077750   T   T   T
  0.8266665451305417  0.3734863578351830  0.1128457603730452   T   T   T
  0.4938761056376676  0.6216466004929937  0.0600317316677324   T   T   T
  0.8271937250602537  0.6216793395342053  0.0600279113980297   T   T   T
  0.1604524475363323  0.8716837456911607  0.0600231311696320   T   T   T
  0.4937514271671715  0.8716691390261978  0.0600348317147901   T   T   T
  0.8270384874062445  0.8716873524060332  0.0600248978483089   T   T   T
  0.1605164617386647  0.6216679541765631  0.0600294029354602   T   T   T
  0.9933155785806979  0.9981868743926144  0.1395397493393165   T   T   T
  0.3269479248812261  0.9985689923176873  0.1396797884091629   T   T   T
  0.6595554787310126  0.9985396040438514  0.1396594370922661   T   T   T
  0.9931704658858103  0.7484834780522738  0.1396223453643583   T   T   T
  0.3265192282152245  0.7484833969219981  0.1396271278572823   T   T   T
  0.6598025411984899  0.7484713815211061  0.1396228362144254   T   T   T
  0.1598148997925100  0.6233272661798559  0.1658458278086777   T   T   T
  0.4931156697646149  0.6233059629133770  0.1658695619683761   T   T   T
  0.8263982869100248  0.6233101810768474  0.1658467414686559   T   T   T
  0.1599444070269448  0.8732401540393311  0.1658624415774813   T   T   T
  0.4932173946593171  0.8732190219896250  0.1658813757632952   T   T   T
  0.8264792215611558  0.8732350217762385  0.1658516561367886   T   T   T
  0.3265070737872986  0.9966635522039587  0.1924870465237550   T   T   T
  0.6597542573912720  0.9966844209086905  0.1924584162485088   T   T   T
  0.9931287911948161  0.9965813182559771  0.1923714659877318   T   T   T
  0.3263534383614188  0.7467227756495373  0.1924432964095791   T   T   T
  0.9930176512804112  0.7467199809772300  0.1924247694250565   T   T   T
  0.6597051184838374  0.7467381353298023  0.1924337146234054   T   T   T
  0.9933343039892947  0.9981651617870583  0.0865793204268699   T   T   T
  0.3267099685926708  0.9982011894964525  0.0866506544189843   T   T   T
  0.6599122263552830  0.9982099045880194  0.0866356052912292   T   T   T
  0.9933179431022195  0.7482120273529438  0.0866224591785237   T   T   T
  0.3266682609059547  0.7481741257188027  0.0866168305487419   T   T   T
  0.6599523912588503  0.7481741672881707  0.0866124701531345   T   T   T
  0.1598967887554231  0.6234957448276280  0.1128487640278834   T   T   T
  0.4932116867472124  0.6234745696239252  0.1128553204161460   T   T   T
  0.8265636311789868  0.6234892972449319  0.1128472019779865   T   T   T
  0.1600694313667645  0.8734813036310048  0.1128479293935553   T   T   T
  0.4932404195611164  0.8734694531369602  0.1128534085804065   T   T   T
  0.8264627549918991  0.8735038291113518  0.1128477696826228   T   T   T
 
  0.00000000E+00  0.00000000E+00  0.00000000E+00
  0.00000000E+00  0.00000000E+00  0.00000000E+00
  0.00000000E+00  0.00000000E+00  0.00000000E+00
  0.00000000E+00  0.00000000E+00  0.00000000E+00
  0.00000000E+00  0.00000000E+00  0.00000000E+00
  0.00000000E+00  0.00000000E+00  0.00000000E+00
  0.00000000E+00  0.00000000E+00  0.00000000E+00
  0.00000000E+00  0.00000000E+00  0.00000000E+00
  0.00000000E+00  0.00000000E+00  0.00000000E+00
  0.00000000E+00  0.00000000E+00  0.00000000E+00
  0.00000000E+00  0.00000000E+00  0.00000000E+00
  0.00000000E+00  0.00000000E+00  0.00000000E+00
  0.00000000E+00  0.00000000E+00  0.00000000E+00
  0.00000000E+00  0.00000000E+00  0.00000000E+00
  0.00000000E+00  0.00000000E+00  0.00000000E+00
  0.00000000E+00  0.00000000E+00  0.00000000E+00
  0.00000000E+00  0.00000000E+00  0.00000000E+00
  0.00000000E+00  0.00000000E+00  0.00000000E+00
  0.00000000E+00  0.00000000E+00  0.00000000E+00
  0.00000000E+00  0.00000000E+00  0.00000000E+00
  0.00000000E+00  0.00000000E+00  0.00000000E+00
  0.00000000E+00  0.00000000E+00  0.00000000E+00
  0.00000000E+00  0.00000000E+00  0.00000000E+00
  0.00000000E+00  0.00000000E+00  0.00000000E+00
  0.00000000E+00  0.00000000E+00  0.00000000E+00
  0.00000000E+00  0.00000000E+00  0.00000000E+00
  0.00000000E+00  0.00000000E+00  0.00000000E+00
  0.00000000E+00  0.00000000E+00  0.00000000E+00
  0.00000000E+00  0.00000000E+00  0.00000000E+00
  0.00000000E+00  0.00000000E+00  0.00000000E+00
  0.00000000E+00  0.00000000E+00  0.00000000E+00
  0.00000000E+00  0.00000000E+00  0.00000000E+00
  0.00000000E+00  0.00000000E+00  0.00000000E+00
  0.00000000E+00  0.00000000E+00  0.00000000E+00
  0.00000000E+00  0.00000000E+00  0.00000000E+00
  0.00000000E+00  0.00000000E+00  0.00000000E+00
  0.00000000E+00  0.00000000E+00  0.00000000E+00
  0.00000000E+00  0.00000000E+00  0.00000000E+00
  0.00000000E+00  0.00000000E+00  0.00000000E+00
  0.00000000E+00  0.00000000E+00  0.00000000E+00
  0.00000000E+00  0.00000000E+00  0.00000000E+00
  0.00000000E+00  0.00000000E+00  0.00000000E+00
  0.00000000E+00  0.00000000E+00  0.00000000E+00
  0.00000000E+00  0.00000000E+00  0.00000000E+00
  0.00000000E+00  0.00000000E+00  0.00000000E+00
  0.00000000E+00  0.00000000E+00  0.00000000E+00
  0.00000000E+00  0.00000000E+00  0.00000000E+00
  0.00000000E+00  0.00000000E+00  0.00000000E+00
  0.00000000E+00  0.00000000E+00  0.00000000E+00
  0.00000000E+00  0.00000000E+00  0.00000000E+00
  0.00000000E+00  0.00000000E+00  0.00000000E+00
  0.00000000E+00  0.00000000E+00  0.00000000E+00
  0.00000000E+00  0.00000000E+00  0.00000000E+00
  0.00000000E+00  0.00000000E+00  0.00000000E+00
  0.00000000E+00  0.00000000E+00  0.00000000E+00
  0.00000000E+00  0.00000000E+00  0.00000000E+00
  0.00000000E+00  0.00000000E+00  0.00000000E+00
  0.00000000E+00  0.00000000E+00  0.00000000E+00
  0.00000000E+00  0.00000000E+00  0.00000000E+00
  0.00000000E+00  0.00000000E+00  0.00000000E+00
  0.00000000E+00  0.00000000E+00  0.00000000E+00
  0.00000000E+00  0.00000000E+00  0.00000000E+00
  0.00000000E+00  0.00000000E+00  0.00000000E+00
  0.00000000E+00  0.00000000E+00  0.00000000E+00
  0.00000000E+00  0.00000000E+00  0.00000000E+00
  0.00000000E+00  0.00000000E+00  0.00000000E+00
  0.00000000E+00  0.00000000E+00  0.00000000E+00
  0.00000000E+00  0.00000000E+00  0.00000000E+00
  0.00000000E+00  0.00000000E+00  0.00000000E+00
  0.00000000E+00  0.00000000E+00  0.00000000E+00
  0.00000000E+00  0.00000000E+00  0.00000000E+00
  0.00000000E+00  0.00000000E+00  0.00000000E+00
  0.00000000E+00  0.00000000E+00  0.00000000E+00
  0.00000000E+00  0.00000000E+00  0.00000000E+00
  0.00000000E+00  0.00000000E+00  0.00000000E+00
  0.00000000E+00  0.00000000E+00  0.00000000E+00
  0.00000000E+00  0.00000000E+00  0.00000000E+00
  0.00000000E+00  0.00000000E+00  0.00000000E+00
  0.00000000E+00  0.00000000E+00  0.00000000E+00
  0.00000000E+00  0.00000000E+00  0.00000000E+00
  0.00000000E+00  0.00000000E+00  0.00000000E+00
  0.00000000E+00  0.00000000E+00  0.00000000E+00
  0.00000000E+00  0.00000000E+00  0.00000000E+00
  0.00000000E+00  0.00000000E+00  0.00000000E+00
  0.00000000E+00  0.00000000E+00  0.00000000E+00
  0.00000000E+00  0.00000000E+00  0.00000000E+00
  0.00000000E+00  0.00000000E+00  0.00000000E+00
  0.00000000E+00  0.00000000E+00  0.00000000E+00
  0.00000000E+00  0.00000000E+00  0.00000000E+00
  0.00000000E+00  0.00000000E+00  0.00000000E+00
  0.00000000E+00  0.00000000E+00  0.00000000E+00
  0.00000000E+00  0.00000000E+00  0.00000000E+00
  0.00000000E+00  0.00000000E+00  0.00000000E+00
  0.00000000E+00  0.00000000E+00  0.00000000E+00
  0.00000000E+00  0.00000000E+00  0.00000000E+00
  0.00000000E+00  0.00000000E+00  0.00000000E+00
  0.00000000E+00  0.00000000E+00  0.00000000E+00
  0.00000000E+00  0.00000000E+00  0.00000000E+00
  0.00000000E+00  0.00000000E+00  0.00000000E+00
  0.00000000E+00  0.00000000E+00  0.00000000E+00
  0.00000000E+00  0.00000000E+00  0.00000000E+00
  0.00000000E+00  0.00000000E+00  0.00000000E+00
  0.00000000E+00  0.00000000E+00  0.00000000E+00
  0.00000000E+00  0.00000000E+00  0.00000000E+00
  0.00000000E+00  0.00000000E+00  0.00000000E+00
  0.00000000E+00  0.00000000E+00  0.00000000E+00
  0.00000000E+00  0.00000000E+00  0.00000000E+00
  0.00000000E+00  0.00000000E+00  0.00000000E+00
  0.00000000E+00  0.00000000E+00  0.00000000E+00
  0.00000000E+00  0.00000000E+00  0.00000000E+00
  0.00000000E+00  0.00000000E+00  0.00000000E+00
  0.00000000E+00  0.00000000E+00  0.00000000E+00
  0.00000000E+00  0.00000000E+00  0.00000000E+00
  0.00000000E+00  0.00000000E+00  0.00000000E+00
  0.00000000E+00  0.00000000E+00  0.00000000E+00
  0.00000000E+00  0.00000000E+00  0.00000000E+00
  0.00000000E+00  0.00000000E+00  0.00000000E+00
  0.00000000E+00  0.00000000E+00  0.00000000E+00
  0.00000000E+00  0.00000000E+00  0.00000000E+00
  0.00000000E+00  0.00000000E+00  0.00000000E+00
  0.00000000E+00  0.00000000E+00  0.00000000E+00
  0.00000000E+00  0.00000000E+00  0.00000000E+00
  0.00000000E+00  0.00000000E+00  0.00000000E+00
  0.00000000E+00  0.00000000E+00  0.00000000E+00
  0.00000000E+00  0.00000000E+00  0.00000000E+00
  0.00000000E+00  0.00000000E+00  0.00000000E+00
  0.00000000E+00  0.00000000E+00  0.00000000E+00
  0.00000000E+00  0.00000000E+00  0.00000000E+00
  0.00000000E+00  0.00000000E+00  0.00000000E+00
  0.00000000E+00  0.00000000E+00  0.00000000E+00
  0.00000000E+00  0.00000000E+00  0.00000000E+00
  0.00000000E+00  0.00000000E+00  0.00000000E+00
  0.00000000E+00  0.00000000E+00  0.00000000E+00
  0.00000000E+00  0.00000000E+00  0.00000000E+00
  0.00000000E+00  0.00000000E+00  0.00000000E+00
  0.00000000E+00  0.00000000E+00  0.00000000E+00
  0.00000000E+00  0.00000000E+00  0.00000000E+00
  0.00000000E+00  0.00000000E+00  0.00000000E+00
  0.00000000E+00  0.00000000E+00  0.00000000E+00
  0.00000000E+00  0.00000000E+00  0.00000000E+00
  0.00000000E+00  0.00000000E+00  0.00000000E+00
  0.00000000E+00  0.00000000E+00  0.00000000E+00
  0.00000000E+00  0.00000000E+00  0.00000000E+00
  0.00000000E+00  0.00000000E+00  0.00000000E+00
  0.00000000E+00  0.00000000E+00  0.00000000E+00
  0.00000000E+00  0.00000000E+00  0.00000000E+00
  0.00000000E+00  0.00000000E+00  0.00000000E+00
  0.00000000E+00  0.00000000E+00  0.00000000E+00
  0.00000000E+00  0.00000000E+00  0.00000000E+00
  0.00000000E+00  0.00000000E+00  0.00000000E+00
  0.00000000E+00  0.00000000E+00  0.00000000E+00
  0.00000000E+00  0.00000000E+00  0.00000000E+00
  0.00000000E+00  0.00000000E+00  0.00000000E+00
  0.00000000E+00  0.00000000E+00  0.00000000E+00
  0.00000000E+00  0.00000000E+00  0.00000000E+00
  0.00000000E+00  0.00000000E+00  0.00000000E+00
  0.00000000E+00  0.00000000E+00  0.00000000E+00
  0.00000000E+00  0.00000000E+00  0.00000000E+00
  0.00000000E+00  0.00000000E+00  0.00000000E+00
  0.00000000E+00  0.00000000E+00  0.00000000E+00
  0.00000000E+00  0.00000000E+00  0.00000000E+00
  0.00000000E+00  0.00000000E+00  0.00000000E+00
  0.00000000E+00  0.00000000E+00  0.00000000E+00
  0.00000000E+00  0.00000000E+00  0.00000000E+00
  0.00000000E+00  0.00000000E+00  0.00000000E+00
  0.00000000E+00  0.00000000E+00  0.00000000E+00
  0.00000000E+00  0.00000000E+00  0.00000000E+00
  0.00000000E+00  0.00000000E+00  0.00000000E+00
  0.00000000E+00  0.00000000E+00  0.00000000E+00
  0.00000000E+00  0.00000000E+00  0.00000000E+00
  0.00000000E+00  0.00000000E+00  0.00000000E+00
  0.00000000E+00  0.00000000E+00  0.00000000E+00
  0.00000000E+00  0.00000000E+00  0.00000000E+00
  0.00000000E+00  0.00000000E+00  0.00000000E+00
  0.00000000E+00  0.00000000E+00  0.00000000E+00
  0.00000000E+00  0.00000000E+00  0.00000000E+00
  0.00000000E+00  0.00000000E+00  0.00000000E+00
  0.00000000E+00  0.00000000E+00  0.00000000E+00
  0.00000000E+00  0.00000000E+00  0.00000000E+00
  0.00000000E+00  0.00000000E+00  0.00000000E+00
  0.00000000E+00  0.00000000E+00  0.00000000E+00
  0.00000000E+00  0.00000000E+00  0.00000000E+00
  0.00000000E+00  0.00000000E+00  0.00000000E+00
  0.00000000E+00  0.00000000E+00  0.00000000E+00
  0.00000000E+00  0.00000000E+00  0.00000000E+00
  0.00000000E+00  0.00000000E+00  0.00000000E+00
  0.00000000E+00  0.00000000E+00  0.00000000E+00
  0.00000000E+00  0.00000000E+00  0.00000000E+00
  0.00000000E+00  0.00000000E+00  0.00000000E+00
  0.00000000E+00  0.00000000E+00  0.00000000E+00
  0.00000000E+00  0.00000000E+00  0.00000000E+00
  0.00000000E+00  0.00000000E+00  0.00000000E+00
  0.00000000E+00  0.00000000E+00  0.00000000E+00
  0.00000000E+00  0.00000000E+00  0.00000000E+00
  0.00000000E+00  0.00000000E+00  0.00000000E+00
  0.00000000E+00  0.00000000E+00  0.00000000E+00
  0.00000000E+00  0.00000000E+00  0.00000000E+00
  0.00000000E+00  0.00000000E+00  0.00000000E+00
  0.00000000E+00  0.00000000E+00  0.00000000E+00
  0.00000000E+00  0.00000000E+00  0.00000000E+00
  0.00000000E+00  0.00000000E+00  0.00000000E+00
  0.00000000E+00  0.00000000E+00  0.00000000E+00
  0.00000000E+00  0.00000000E+00  0.00000000E+00
  0.00000000E+00  0.00000000E+00  0.00000000E+00
  0.00000000E+00  0.00000000E+00  0.00000000E+00
  0.00000000E+00  0.00000000E+00  0.00000000E+00
  0.00000000E+00  0.00000000E+00  0.00000000E+00
  0.00000000E+00  0.00000000E+00  0.00000000E+00
  0.00000000E+00  0.00000000E+00  0.00000000E+00
  0.00000000E+00  0.00000000E+00  0.00000000E+00
  0.00000000E+00  0.00000000E+00  0.00000000E+00
  0.00000000E+00  0.00000000E+00  0.00000000E+00
  0.00000000E+00  0.00000000E+00  0.00000000E+00
  0.00000000E+00  0.00000000E+00  0.00000000E+00
  0.00000000E+00  0.00000000E+00  0.00000000E+00
  0.00000000E+00  0.00000000E+00  0.00000000E+00
  0.00000000E+00  0.00000000E+00  0.00000000E+00
  0.00000000E+00  0.00000000E+00  0.00000000E+00
  0.00000000E+00  0.00000000E+00  0.00000000E+00
  0.00000000E+00  0.00000000E+00  0.00000000E+00
  0.00000000E+00  0.00000000E+00  0.00000000E+00
  0.00000000E+00  0.00000000E+00  0.00000000E+00
  0.00000000E+00  0.00000000E+00  0.00000000E+00
  0.00000000E+00  0.00000000E+00  0.00000000E+00
  0.00000000E+00  0.00000000E+00  0.00000000E+00
  0.00000000E+00  0.00000000E+00  0.00000000E+00
  0.00000000E+00  0.00000000E+00  0.00000000E+00
  0.00000000E+00  0.00000000E+00  0.00000000E+00
  0.00000000E+00  0.00000000E+00  0.00000000E+00
