C H O Si                                
   1.00000000000000     
     9.2874599999999994    0.0000000000000000    0.0000000000000000
     0.0000000000000000   17.5126199999999983    0.0000000000000000
     0.0000000000000000    0.0000000000000000   58.0000000000000000
   C    H    O    Si
    72    57    28    72
Selective dynamics
Direct
  0.9936147505280111  0.0631028173177659  0.0604873094272017   T   T   T
  0.3270085954098745  0.0630981929961345  0.0605607909317087   T   T   T
  0.6602097600819343  0.0631272474333841  0.0605429260980902   T   T   T
  0.9935399942965917  0.3131078099797354  0.0604796398589268   T   T   T
  0.3268623032419202  0.3130562516631530  0.0605693067955210   T   T   T
  0.6601520591902077  0.3130767130945653  0.0605407058786123   T   T   T
  0.1599217454135188  0.1860906912651668  0.1393884496342069   T   T   T
  0.4931983710567242  0.1863300521441244  0.1396256189839172   T   T   T
  0.8266543361767213  0.1860500945475198  0.1393404937350328   T   T   T
  0.1598566733347797  0.4362297020167583  0.1394254336753888   T   T   T
  0.4932465693079356  0.4361380082913461  0.1394773255624765   T   T   T
  0.8265911805822929  0.4362442703919274  0.1394209136793208   T   T   T
  0.3271691384463049  0.0614974544943728  0.1667488299587707   T   T   T
  0.6594058823814474  0.0614994836454515  0.1667029322327306   T   T   T
  0.9934011603373685  0.0607441139196575  0.1664706713783700   T   T   T
  0.3263385188863251  0.3113448700995305  0.1668068012242828   T   T   T
  0.6601698227977998  0.3113469136922201  0.1666959041506696   T   T   T
  0.9932208408051044  0.3112022903520090  0.1665169663479767   T   T   T
  0.1598340300308652  0.1871974681007668  0.1917125076810486   T   T   T
  0.4934164261212211  0.1900139583692957  0.1927782631568238   T   T   T
  0.8273157119155612  0.1869277766847046  0.1915789560191484   T   T   T
  0.1594330405329181  0.4383766014343669  0.1919636460206240   T   T   T
  0.4931041601208696  0.4379745471014608  0.1920246811391765   T   T   T
  0.8266435076587048  0.4383539371296660  0.1919190049148183   T   T   T
  0.1600197021747615  0.1862416659524807  0.0858404841505028   T   T   T
  0.4933000153066298  0.1863035993011730  0.0859658545300460   T   T   T
  0.8266617643776927  0.1862506061101384  0.0858160619389891   T   T   T
  0.1599889737417344  0.4362229336080282  0.0858565631764179   T   T   T
  0.4932896504033987  0.4362369013422894  0.0858817604949369   T   T   T
  0.8266368187182034  0.4362200812187150  0.0858523635018642   T   T   T
  0.3266442401282262  0.0611510430268212  0.1130841344995762   T   T   T
  0.6598566591615060  0.0611609919354340  0.1130683042619882   T   T   T
  0.9932502261665427  0.0610709145674145  0.1129924032025080   T   T   T
  0.3266077363750327  0.3111352159655090  0.1131219496068644   T   T   T
  0.6599882334818187  0.3111441679100077  0.1130787982804808   T   T   T
  0.9933083921951740  0.3111313671633367  0.1129905601524284   T   T   T
  0.9936145489589260  0.5630798359861662  0.0605180946240576   T   T   T
  0.3269549871287537  0.5630698036735418  0.0605326848009553   T   T   T
  0.6602818157286797  0.5630684612038408  0.0605310748239217   T   T   T
  0.9935484636558648  0.8131212310388739  0.0605209861123004   T   T   T
  0.3268749873878872  0.8130674131233385  0.0605205101535514   T   T   T
  0.6601757877623339  0.8130727613711287  0.0605174972440208   T   T   T
  0.1598622317087638  0.6862408468682970  0.1394246447157679   T   T   T
  0.4931320754372474  0.6862121254988290  0.1394355397220845   T   T   T
  0.8264281216991319  0.6862275147444979  0.1394286327341380   T   T   T
  0.1602369345850214  0.9361886574161233  0.1394322275122771   T   T   T
  0.4932341852150074  0.9361464592602067  0.1394434979576836   T   T   T
  0.8262848634217553  0.9362312582255176  0.1394358774836814   T   T   T
  0.3264403777449490  0.5613252627760837  0.1666233996138316   T   T   T
  0.6595991884631914  0.5612977445281008  0.1666293003931656   T   T   T
  0.9930173225616191  0.5614656136856169  0.1665847202440039   T   T   T
  0.3264975946792101  0.8112578554301283  0.1666384061109850   T   T   T
  0.6597800446347041  0.8112520912698390  0.1666221227168334   T   T   T
  0.9931419667906061  0.8113034227913990  0.1666205817228182   T   T   T
  0.1598320234942038  0.6880815316160526  0.1919721712474196   T   T   T
  0.4931922126054935  0.6881259470843455  0.1919973135218893   T   T   T
  0.8264899845424751  0.6880729214982546  0.1919635280743187   T   T   T
  0.1599853989447512  0.9380578812147786  0.1919822355137459   T   T   T
  0.4933097039965832  0.9380374539244382  0.1920059729750811   T   T   T
  0.8265297975897247  0.9380548775547388  0.1919622077643017   T   T   T
  0.1599767012852495  0.6862397504070336  0.0858503694878930   T   T   T
  0.4933031209725769  0.6862044384777335  0.0858527329364088   T   T   T
  0.8266503486750202  0.6862453831561699  0.0858496794103610   T   T   T
  0.1600265719308338  0.9362444250755195  0.0858495000938053   T   T   T
  0.4932780811083395  0.9362365203916498  0.0858648898547383   T   T   T
  0.8265612292729323  0.9362532775503969  0.0858533212024762   T   T   T
  0.3265495165920762  0.5611196925002592  0.1130513547863961   T   T   T
  0.6598756743282022  0.5611158507203431  0.1130508685847742   T   T   T
  0.9932184098021322  0.5611579173215467  0.1130285097391721   T   T   T
  0.3266252083808220  0.8111064763430808  0.1130341672534209   T   T   T
  0.6598843044662072  0.8111085000552761  0.1130314159495200   T   T   T
  0.9932254965270325  0.8111999663670190  0.1130462404584879   T   T   T
  0.0722249877696296  0.1781943093929159  0.0279251391628347   T   T   T
  0.4048322564126623  0.1781750677668421  0.0280773206765652   T   T   T
  0.7379860800837434  0.1781226508134315  0.0279577381321960   T   T   T
  0.0720128097382572  0.4282693379391785  0.0279420250541854   T   T   T
  0.4044562819324208  0.4280958052203825  0.0280189810757028   T   T   T
  0.7374967313605215  0.4281299616044092  0.0279896078480951   T   T   T
  0.3248221792885565  0.0264398908956047  0.0451354097381804   T   T   T
  0.6574437278042167  0.0264501621566786  0.0451192880907592   T   T   T
  0.9912498074208432  0.0264940413692519  0.0450543132910756   T   T   T
  0.3242650025092303  0.2763308424209791  0.0451568800044468   T   T   T
  0.6575065173461256  0.2763785856300160  0.0451235756423223   T   T   T
  0.9909350891809459  0.2765205320762956  0.0450377069944998   T   T   T
  0.8286450089003536  0.4020903988566236  0.2073988357473639   T   T   T
  0.8301085247835436  0.1504401935812265  0.2070286546654614   T   T   T
  0.1616830492028087  0.1508272781943615  0.2071946587360206   T   T   T
  0.4964480210136162  0.1526605746474481  0.2080509113110852   T   T   T
  0.1615071272319011  0.4016386615472927  0.2073643185637893   T   T   T
  0.4938600700422196  0.4013841150312157  0.2074749473109525   T   T   T
  0.0821136340391448  0.0531746434226055  0.2245152343577873   T   T   T
  0.4159083728857859  0.0526948905736813  0.2246434521325399   T   T   T
  0.7493385438438981  0.0528702453084053  0.2245745827921889   T   T   T
  0.0812415668692060  0.3012185721315210  0.2241538379616879   T   T   T
  0.3776949175526042  0.3106017235275476  0.2281922588596481   T   T   T
  0.7824420628545172  0.2956328417486475  0.2228040772628142   T   T   T
  0.5477545038534504  0.3057731750279418  0.2737345039760606   T   T   T
  0.4930959883166942  0.2380307850173360  0.2932535039420959   T   T   T
  0.5720073672388012  0.3194576535046793  0.3029736829962258   T   T   T
  0.3142905819973852  0.1937782029580495  0.3097624533501653   T   T   T
  0.4221229958768726  0.1297951268427524  0.3023554331577735   T   T   T
  0.6508672536089817  0.3662636188022685  0.3335671124914619   T   T   T
  0.4849044984637392  0.3778348291384847  0.3308814652389115   T   T   T
  0.5195749433866484  0.3953154376093070  0.2521522116272752   T   T   T
  0.5869984450405817  0.3228320191769317  0.2386004294586083   T   T   T
  0.0718588574739303  0.6782213813890301  0.0279771763635518   T   T   T
  0.4049312407396645  0.6781592880701158  0.0279940632497748   T   T   T
  0.7381526158428870  0.6781584784473609  0.0279934712992365   T   T   T
  0.0715500757193414  0.9282207002319395  0.0279623910231349   T   T   T
  0.4045248516636951  0.9281229380361241  0.0279933364171470   T   T   T
  0.7378931570737691  0.9281932567890626  0.0279835406870089   T   T   T
  0.3244928113782432  0.5264231747085996  0.0451084198028827   T   T   T
  0.6578710285503063  0.5264287278918198  0.0451043905988051   T   T   T
  0.9911510032759651  0.5264478272793900  0.0450884205738210   T   T   T
  0.3242952562332164  0.7764150678687389  0.0450948590617824   T   T   T
  0.6575230623064791  0.7764271579882874  0.0450898188791616   T   T   T
  0.9909105455779271  0.7764487403950249  0.0450971735115425   T   T   T
  0.8290430384601847  0.9014314260568463  0.2073898892948452   T   T   T
  0.8289945589995794  0.6514461053623000  0.2073940940890193   T   T   T
  0.1622641274787057  0.6514380197725833  0.2073967704239683   T   T   T
  0.4957533967708886  0.6515076680366767  0.2074243341654012   T   T   T
  0.1624002522670926  0.9014270435570221  0.2074081285784386   T   T   T
  0.4959301471175344  0.9013639601774230  0.2074223622974058   T   T   T
  0.0816422520783422  0.5540610115740838  0.2245142814066415   T   T   T
  0.4154890073511271  0.5543846150275534  0.2243798632785075   T   T   T
  0.7488758162529344  0.5539199700193719  0.2244497150487003   T   T   T
  0.0822663365876606  0.8032561162017735  0.2245395042012749   T   T   T
  0.4151489062010431  0.8035410110840867  0.2245909964376017   T   T   T
  0.7496566786551294  0.8030062022586003  0.2244881232160888   T   T   T
  0.1682586833181038  0.1656188165709160  0.0336901600381743   T   T   T
  0.5010002725020448  0.1658864966113515  0.0338468281298488   T   T   T
  0.8342061581524766  0.1655924582596343  0.0336543834984239   T   T   T
  0.1680170618611184  0.4158039903849103  0.0337359119908030   T   T   T
  0.5006190224855871  0.4156580485894337  0.0337522472511184   T   T   T
  0.8337075779220714  0.4156712276372446  0.0337040430240970   T   T   T
  0.3199861342976154  0.0409687635983954  0.2187078586388075   T   T   T
  0.6533440560985569  0.0410329489460943  0.2186893694137722   T   T   T
  0.9863917524396332  0.0410750770662446  0.2185763630335362   T   T   T
  0.2985800498080520  0.2907347575724014  0.2187658482891402   T   T   T
  0.6793631102773989  0.2914353153729107  0.2187526145926193   T   T   T
  0.9844549358754725  0.2888952249112955  0.2184434270551678   T   T   T
  0.5706493835562235  0.2795599656249655  0.2896816577004815   T   T   T
  0.3807264644310780  0.1784884116504085  0.2975637410100309   T   T   T
  0.5755274561434340  0.3776344918217689  0.3223358351003581   T   T   T
  0.5149920435670778  0.3397848100884456  0.2510588723990056   T   T   T
  0.1679782423849868  0.6657344851710489  0.0337213716546285   T   T   T
  0.5011134005476728  0.6656879214495596  0.0337232460467324   T   T   T
  0.8343618418252617  0.6656976450601939  0.0337166478650121   T   T   T
  0.1676923457001588  0.9157614349258436  0.0337199293910100   T   T   T
  0.5007041294407232  0.9157077251128288  0.0337296307004791   T   T   T
  0.8340509262132469  0.9156736203438791  0.0337107944767223   T   T   T
  0.3197816840433903  0.5411065769715925  0.2186536405710280   T   T   T
  0.6531114993086293  0.5410979506684808  0.2186494898052680   T   T   T
  0.9860665951595931  0.5411489410625030  0.2186661831100844   T   T   T
  0.3195418571573614  0.7910065174300176  0.2186704553901130   T   T   T
  0.6535054586290190  0.7910978314955113  0.2186600749207317   T   T   T
  0.9864318863040406  0.7910469153294700  0.2186476707646723   T   T   T
  0.4938407679843951  0.1217540307088357  0.0601194565170657   T   T   T
  0.8271706823536772  0.1216930055822208  0.0599831463754995   T   T   T
  0.1605196122136289  0.3716838550094956  0.0600257730683599   T   T   T
  0.4937505599157474  0.3716702585902358  0.0600593615191181   T   T   T
  0.8270602350216588  0.3716883633753646  0.0600172641955870   T   T   T
  0.1606130836914416  0.1216744819936418  0.0600109515768212   T   T   T
  0.9933134844975519  0.4985628781905050  0.1396249350039138   T   T   T
  0.3266135909477170  0.4984978526081034  0.1396449270536660   T   T   T
  0.6599165392168093  0.4985059947886444  0.1396470590744055   T   T   T
  0.9934032233066240  0.2483818012277010  0.1395288566024677   T   T   T
  0.3264306927103341  0.2485445270281159  0.1397523563375263   T   T   T
  0.6601872518229682  0.2484223505444973  0.1396488543311375   T   T   T
  0.1598608377901086  0.1228210948600046  0.1657291393658575   T   T   T
  0.4932294436394923  0.1240997369935702  0.1662246538755205   T   T   T
  0.8269454390868933  0.1225486994790542  0.1656145594081767   T   T   T
  0.1597357353478021  0.3734291712428249  0.1658662972929882   T   T   T
  0.4930632268876839  0.3731830790963152  0.1659043105250439   T   T   T
  0.8268165922979718  0.3734348808162207  0.1658449687766765   T   T   T
  0.3261519250680021  0.4967404695178971  0.1924268700817067   T   T   T
  0.6597687488454468  0.4967096160059236  0.1924340366995349   T   T   T
  0.9928930636468832  0.4969883022690382  0.1924054555781538   T   T   T
  0.3241122864663546  0.2473921818768611  0.1928176260135028   T   T   T
  0.9933924251713975  0.2455665509997727  0.1920283528563304   T   T   T
  0.6626501632891485  0.2464060795910314  0.1922851231175377   T   T   T
  0.9933827822569441  0.4981652756384957  0.0866170330065420   T   T   T
  0.3267227371144714  0.4981646493548582  0.0866323347520078   T   T   T
  0.6600353257720174  0.4981609107180186  0.0866315135728185   T   T   T
  0.9934049169034267  0.2481583231189101  0.0865777629660480   T   T   T
  0.3266785975272575  0.2482032727078293  0.0866878835979584   T   T   T
  0.6600521703127920  0.2481967842998025  0.0866480358856509   T   T   T
  0.1598963159653955  0.1234866306269613  0.1128140002056738   T   T   T
  0.4932130875314095  0.1235573947340286  0.1129634804372977   T   T   T
  0.8265400777916078  0.1234678899602967  0.1127763015315013   T   T   T
  0.1599448604716199  0.3735273542072058  0.1128457039277473   T   T   T
  0.4932064870525275  0.3734951191698870  0.1128775357222540   T   T   T
  0.8266374567204594  0.3735346210547160  0.1128411664933170   T   T   T
  0.4938791068581326  0.6216528370344609  0.0600285123044916   T   T   T
  0.8272062413296891  0.6216733148632355  0.0600242284278066   T   T   T
  0.1605165499157502  0.8716933897361734  0.0600203368472583   T   T   T
  0.4937707820121580  0.8716866284174243  0.0600319828351581   T   T   T
  0.8270859587546558  0.8716955184192795  0.0600222326991091   T   T   T
  0.1605703544701191  0.6216710382423860  0.0600243485413244   T   T   T
  0.9934153082679171  0.9982087124323165  0.1395441700771006   T   T   T
  0.3270180918842054  0.9985929522092115  0.1396856385518577   T   T   T
  0.6595620110635824  0.9985987328624470  0.1396718521817825   T   T   T
  0.9932113825831985  0.7485238972281265  0.1396341795847202   T   T   T
  0.3265803903238025  0.7485204435820807  0.1396377213770730   T   T   T
  0.6598411217464805  0.7485147216370136  0.1396296983000010   T   T   T
  0.1597446351496870  0.6233362992347641  0.1658477281166795   T   T   T
  0.4930639550409751  0.6233403506785338  0.1658673981060536   T   T   T
  0.8263213988649680  0.6233178477711954  0.1658456035940524   T   T   T
  0.1598916904716322  0.8732548948597925  0.1658615669058381   T   T   T
  0.4931734996873210  0.8732460812745938  0.1658781466265627   T   T   T
  0.8264231968605033  0.8732536073018218  0.1658507550885379   T   T   T
  0.3265470601672436  0.9965712258292982  0.1924865422460903   T   T   T
  0.6598009045226519  0.9966100144340623  0.1924637573043716   T   T   T
  0.9931238970216949  0.9965059052202958  0.1923736107130147   T   T   T
  0.3263563717658841  0.7466398336389476  0.1924504520344832   T   T   T
  0.9930359217367708  0.7466308659917473  0.1924259913293454   T   T   T
  0.6597450525924357  0.7466562405980658  0.1924406091851583   T   T   T
  0.9933985765820805  0.9981426535158293  0.0865872188707645   T   T   T
  0.3267482541627148  0.9982033367531390  0.0866542715507661   T   T   T
  0.6599589306311835  0.9982057378952790  0.0866411424980590   T   T   T
  0.9933600164770838  0.7482104903564541  0.0866259142598684   T   T   T
  0.3267182855360914  0.7481560397492699  0.0866183140738415   T   T   T
  0.6600020402484119  0.7481612958776436  0.0866157476785152   T   T   T
  0.1598741452648931  0.6235255160925600  0.1128449463446647   T   T   T
  0.4931844960794070  0.6235092113955990  0.1128508502036699   T   T   T
  0.8264994131418808  0.6235283843537083  0.1128438919537793   T   T   T
  0.1600504670780152  0.8735181682538183  0.1128389552891153   T   T   T
  0.4932470763397380  0.8735032400106736  0.1128441962062871   T   T   T
  0.8263910287626600  0.8735406614197951  0.1128459897353472   T   T   T
 
  0.00000000E+00  0.00000000E+00  0.00000000E+00
  0.00000000E+00  0.00000000E+00  0.00000000E+00
  0.00000000E+00  0.00000000E+00  0.00000000E+00
  0.00000000E+00  0.00000000E+00  0.00000000E+00
  0.00000000E+00  0.00000000E+00  0.00000000E+00
  0.00000000E+00  0.00000000E+00  0.00000000E+00
  0.00000000E+00  0.00000000E+00  0.00000000E+00
  0.00000000E+00  0.00000000E+00  0.00000000E+00
  0.00000000E+00  0.00000000E+00  0.00000000E+00
  0.00000000E+00  0.00000000E+00  0.00000000E+00
  0.00000000E+00  0.00000000E+00  0.00000000E+00
  0.00000000E+00  0.00000000E+00  0.00000000E+00
  0.00000000E+00  0.00000000E+00  0.00000000E+00
  0.00000000E+00  0.00000000E+00  0.00000000E+00
  0.00000000E+00  0.00000000E+00  0.00000000E+00
  0.00000000E+00  0.00000000E+00  0.00000000E+00
  0.00000000E+00  0.00000000E+00  0.00000000E+00
  0.00000000E+00  0.00000000E+00  0.00000000E+00
  0.00000000E+00  0.00000000E+00  0.00000000E+00
  0.00000000E+00  0.00000000E+00  0.00000000E+00
  0.00000000E+00  0.00000000E+00  0.00000000E+00
  0.00000000E+00  0.00000000E+00  0.00000000E+00
  0.00000000E+00  0.00000000E+00  0.00000000E+00
  0.00000000E+00  0.00000000E+00  0.00000000E+00
  0.00000000E+00  0.00000000E+00  0.00000000E+00
  0.00000000E+00  0.00000000E+00  0.00000000E+00
  0.00000000E+00  0.00000000E+00  0.00000000E+00
  0.00000000E+00  0.00000000E+00  0.00000000E+00
  0.00000000E+00  0.00000000E+00  0.00000000E+00
  0.00000000E+00  0.00000000E+00  0.00000000E+00
  0.00000000E+00  0.00000000E+00  0.00000000E+00
  0.00000000E+00  0.00000000E+00  0.00000000E+00
  0.00000000E+00  0.00000000E+00  0.00000000E+00
  0.00000000E+00  0.00000000E+00  0.00000000E+00
  0.00000000E+00  0.00000000E+00  0.00000000E+00
  0.00000000E+00  0.00000000E+00  0.00000000E+00
  0.00000000E+00  0.00000000E+00  0.00000000E+00
  0.00000000E+00  0.00000000E+00  0.00000000E+00
  0.00000000E+00  0.00000000E+00  0.00000000E+00
  0.00000000E+00  0.00000000E+00  0.00000000E+00
  0.00000000E+00  0.00000000E+00  0.00000000E+00
  0.00000000E+00  0.00000000E+00  0.00000000E+00
  0.00000000E+00  0.00000000E+00  0.00000000E+00
  0.00000000E+00  0.00000000E+00  0.00000000E+00
  0.00000000E+00  0.00000000E+00  0.00000000E+00
  0.00000000E+00  0.00000000E+00  0.00000000E+00
  0.00000000E+00  0.00000000E+00  0.00000000E+00
  0.00000000E+00  0.00000000E+00  0.00000000E+00
  0.00000000E+00  0.00000000E+00  0.00000000E+00
  0.00000000E+00  0.00000000E+00  0.00000000E+00
  0.00000000E+00  0.00000000E+00  0.00000000E+00
  0.00000000E+00  0.00000000E+00  0.00000000E+00
  0.00000000E+00  0.00000000E+00  0.00000000E+00
  0.00000000E+00  0.00000000E+00  0.00000000E+00
  0.00000000E+00  0.00000000E+00  0.00000000E+00
  0.00000000E+00  0.00000000E+00  0.00000000E+00
  0.00000000E+00  0.00000000E+00  0.00000000E+00
  0.00000000E+00  0.00000000E+00  0.00000000E+00
  0.00000000E+00  0.00000000E+00  0.00000000E+00
  0.00000000E+00  0.00000000E+00  0.00000000E+00
  0.00000000E+00  0.00000000E+00  0.00000000E+00
  0.00000000E+00  0.00000000E+00  0.00000000E+00
  0.00000000E+00  0.00000000E+00  0.00000000E+00
  0.00000000E+00  0.00000000E+00  0.00000000E+00
  0.00000000E+00  0.00000000E+00  0.00000000E+00
  0.00000000E+00  0.00000000E+00  0.00000000E+00
  0.00000000E+00  0.00000000E+00  0.00000000E+00
  0.00000000E+00  0.00000000E+00  0.00000000E+00
  0.00000000E+00  0.00000000E+00  0.00000000E+00
  0.00000000E+00  0.00000000E+00  0.00000000E+00
  0.00000000E+00  0.00000000E+00  0.00000000E+00
  0.00000000E+00  0.00000000E+00  0.00000000E+00
  0.00000000E+00  0.00000000E+00  0.00000000E+00
  0.00000000E+00  0.00000000E+00  0.00000000E+00
  0.00000000E+00  0.00000000E+00  0.00000000E+00
  0.00000000E+00  0.00000000E+00  0.00000000E+00
  0.00000000E+00  0.00000000E+00  0.00000000E+00
  0.00000000E+00  0.00000000E+00  0.00000000E+00
  0.00000000E+00  0.00000000E+00  0.00000000E+00
  0.00000000E+00  0.00000000E+00  0.00000000E+00
  0.00000000E+00  0.00000000E+00  0.00000000E+00
  0.00000000E+00  0.00000000E+00  0.00000000E+00
  0.00000000E+00  0.00000000E+00  0.00000000E+00
  0.00000000E+00  0.00000000E+00  0.00000000E+00
  0.00000000E+00  0.00000000E+00  0.00000000E+00
  0.00000000E+00  0.00000000E+00  0.00000000E+00
  0.00000000E+00  0.00000000E+00  0.00000000E+00
  0.00000000E+00  0.00000000E+00  0.00000000E+00
  0.00000000E+00  0.00000000E+00  0.00000000E+00
  0.00000000E+00  0.00000000E+00  0.00000000E+00
  0.00000000E+00  0.00000000E+00  0.00000000E+00
  0.00000000E+00  0.00000000E+00  0.00000000E+00
  0.00000000E+00  0.00000000E+00  0.00000000E+00
  0.00000000E+00  0.00000000E+00  0.00000000E+00
  0.00000000E+00  0.00000000E+00  0.00000000E+00
  0.00000000E+00  0.00000000E+00  0.00000000E+00
  0.00000000E+00  0.00000000E+00  0.00000000E+00
  0.00000000E+00  0.00000000E+00  0.00000000E+00
  0.00000000E+00  0.00000000E+00  0.00000000E+00
  0.00000000E+00  0.00000000E+00  0.00000000E+00
  0.00000000E+00  0.00000000E+00  0.00000000E+00
  0.00000000E+00  0.00000000E+00  0.00000000E+00
  0.00000000E+00  0.00000000E+00  0.00000000E+00
  0.00000000E+00  0.00000000E+00  0.00000000E+00
  0.00000000E+00  0.00000000E+00  0.00000000E+00
  0.00000000E+00  0.00000000E+00  0.00000000E+00
  0.00000000E+00  0.00000000E+00  0.00000000E+00
  0.00000000E+00  0.00000000E+00  0.00000000E+00
  0.00000000E+00  0.00000000E+00  0.00000000E+00
  0.00000000E+00  0.00000000E+00  0.00000000E+00
  0.00000000E+00  0.00000000E+00  0.00000000E+00
  0.00000000E+00  0.00000000E+00  0.00000000E+00
  0.00000000E+00  0.00000000E+00  0.00000000E+00
  0.00000000E+00  0.00000000E+00  0.00000000E+00
  0.00000000E+00  0.00000000E+00  0.00000000E+00
  0.00000000E+00  0.00000000E+00  0.00000000E+00
  0.00000000E+00  0.00000000E+00  0.00000000E+00
  0.00000000E+00  0.00000000E+00  0.00000000E+00
  0.00000000E+00  0.00000000E+00  0.00000000E+00
  0.00000000E+00  0.00000000E+00  0.00000000E+00
  0.00000000E+00  0.00000000E+00  0.00000000E+00
  0.00000000E+00  0.00000000E+00  0.00000000E+00
  0.00000000E+00  0.00000000E+00  0.00000000E+00
  0.00000000E+00  0.00000000E+00  0.00000000E+00
  0.00000000E+00  0.00000000E+00  0.00000000E+00
  0.00000000E+00  0.00000000E+00  0.00000000E+00
  0.00000000E+00  0.00000000E+00  0.00000000E+00
  0.00000000E+00  0.00000000E+00  0.00000000E+00
  0.00000000E+00  0.00000000E+00  0.00000000E+00
  0.00000000E+00  0.00000000E+00  0.00000000E+00
  0.00000000E+00  0.00000000E+00  0.00000000E+00
  0.00000000E+00  0.00000000E+00  0.00000000E+00
  0.00000000E+00  0.00000000E+00  0.00000000E+00
  0.00000000E+00  0.00000000E+00  0.00000000E+00
  0.00000000E+00  0.00000000E+00  0.00000000E+00
  0.00000000E+00  0.00000000E+00  0.00000000E+00
  0.00000000E+00  0.00000000E+00  0.00000000E+00
  0.00000000E+00  0.00000000E+00  0.00000000E+00
  0.00000000E+00  0.00000000E+00  0.00000000E+00
  0.00000000E+00  0.00000000E+00  0.00000000E+00
  0.00000000E+00  0.00000000E+00  0.00000000E+00
  0.00000000E+00  0.00000000E+00  0.00000000E+00
  0.00000000E+00  0.00000000E+00  0.00000000E+00
  0.00000000E+00  0.00000000E+00  0.00000000E+00
  0.00000000E+00  0.00000000E+00  0.00000000E+00
  0.00000000E+00  0.00000000E+00  0.00000000E+00
  0.00000000E+00  0.00000000E+00  0.00000000E+00
  0.00000000E+00  0.00000000E+00  0.00000000E+00
  0.00000000E+00  0.00000000E+00  0.00000000E+00
  0.00000000E+00  0.00000000E+00  0.00000000E+00
  0.00000000E+00  0.00000000E+00  0.00000000E+00
  0.00000000E+00  0.00000000E+00  0.00000000E+00
  0.00000000E+00  0.00000000E+00  0.00000000E+00
  0.00000000E+00  0.00000000E+00  0.00000000E+00
  0.00000000E+00  0.00000000E+00  0.00000000E+00
  0.00000000E+00  0.00000000E+00  0.00000000E+00
  0.00000000E+00  0.00000000E+00  0.00000000E+00
  0.00000000E+00  0.00000000E+00  0.00000000E+00
  0.00000000E+00  0.00000000E+00  0.00000000E+00
  0.00000000E+00  0.00000000E+00  0.00000000E+00
  0.00000000E+00  0.00000000E+00  0.00000000E+00
  0.00000000E+00  0.00000000E+00  0.00000000E+00
  0.00000000E+00  0.00000000E+00  0.00000000E+00
  0.00000000E+00  0.00000000E+00  0.00000000E+00
  0.00000000E+00  0.00000000E+00  0.00000000E+00
  0.00000000E+00  0.00000000E+00  0.00000000E+00
  0.00000000E+00  0.00000000E+00  0.00000000E+00
  0.00000000E+00  0.00000000E+00  0.00000000E+00
  0.00000000E+00  0.00000000E+00  0.00000000E+00
  0.00000000E+00  0.00000000E+00  0.00000000E+00
  0.00000000E+00  0.00000000E+00  0.00000000E+00
  0.00000000E+00  0.00000000E+00  0.00000000E+00
  0.00000000E+00  0.00000000E+00  0.00000000E+00
  0.00000000E+00  0.00000000E+00  0.00000000E+00
  0.00000000E+00  0.00000000E+00  0.00000000E+00
  0.00000000E+00  0.00000000E+00  0.00000000E+00
  0.00000000E+00  0.00000000E+00  0.00000000E+00
  0.00000000E+00  0.00000000E+00  0.00000000E+00
  0.00000000E+00  0.00000000E+00  0.00000000E+00
  0.00000000E+00  0.00000000E+00  0.00000000E+00
  0.00000000E+00  0.00000000E+00  0.00000000E+00
  0.00000000E+00  0.00000000E+00  0.00000000E+00
  0.00000000E+00  0.00000000E+00  0.00000000E+00
  0.00000000E+00  0.00000000E+00  0.00000000E+00
  0.00000000E+00  0.00000000E+00  0.00000000E+00
  0.00000000E+00  0.00000000E+00  0.00000000E+00
  0.00000000E+00  0.00000000E+00  0.00000000E+00
  0.00000000E+00  0.00000000E+00  0.00000000E+00
  0.00000000E+00  0.00000000E+00  0.00000000E+00
  0.00000000E+00  0.00000000E+00  0.00000000E+00
  0.00000000E+00  0.00000000E+00  0.00000000E+00
  0.00000000E+00  0.00000000E+00  0.00000000E+00
  0.00000000E+00  0.00000000E+00  0.00000000E+00
  0.00000000E+00  0.00000000E+00  0.00000000E+00
  0.00000000E+00  0.00000000E+00  0.00000000E+00
  0.00000000E+00  0.00000000E+00  0.00000000E+00
  0.00000000E+00  0.00000000E+00  0.00000000E+00
  0.00000000E+00  0.00000000E+00  0.00000000E+00
  0.00000000E+00  0.00000000E+00  0.00000000E+00
  0.00000000E+00  0.00000000E+00  0.00000000E+00
  0.00000000E+00  0.00000000E+00  0.00000000E+00
  0.00000000E+00  0.00000000E+00  0.00000000E+00
  0.00000000E+00  0.00000000E+00  0.00000000E+00
  0.00000000E+00  0.00000000E+00  0.00000000E+00
  0.00000000E+00  0.00000000E+00  0.00000000E+00
  0.00000000E+00  0.00000000E+00  0.00000000E+00
  0.00000000E+00  0.00000000E+00  0.00000000E+00
  0.00000000E+00  0.00000000E+00  0.00000000E+00
  0.00000000E+00  0.00000000E+00  0.00000000E+00
  0.00000000E+00  0.00000000E+00  0.00000000E+00
  0.00000000E+00  0.00000000E+00  0.00000000E+00
  0.00000000E+00  0.00000000E+00  0.00000000E+00
  0.00000000E+00  0.00000000E+00  0.00000000E+00
  0.00000000E+00  0.00000000E+00  0.00000000E+00
  0.00000000E+00  0.00000000E+00  0.00000000E+00
  0.00000000E+00  0.00000000E+00  0.00000000E+00
  0.00000000E+00  0.00000000E+00  0.00000000E+00
  0.00000000E+00  0.00000000E+00  0.00000000E+00
  0.00000000E+00  0.00000000E+00  0.00000000E+00
  0.00000000E+00  0.00000000E+00  0.00000000E+00
  0.00000000E+00  0.00000000E+00  0.00000000E+00
  0.00000000E+00  0.00000000E+00  0.00000000E+00
  0.00000000E+00  0.00000000E+00  0.00000000E+00
  0.00000000E+00  0.00000000E+00  0.00000000E+00
  0.00000000E+00  0.00000000E+00  0.00000000E+00
  0.00000000E+00  0.00000000E+00  0.00000000E+00
  0.00000000E+00  0.00000000E+00  0.00000000E+00
  0.00000000E+00  0.00000000E+00  0.00000000E+00
  0.00000000E+00  0.00000000E+00  0.00000000E+00
