C H O Si                                
   1.00000000000000     
     9.2874599999999994    0.0000000000000000    0.0000000000000000
     0.0000000000000000    8.7562999999999995    0.0000000000000000
     0.0000000000000000    0.0000000000000000   90.0000000000000000
   C    H    O    Si
    36    33    16    36
Selective dynamics
Direct
  0.0024701648555290  0.1355535037639508  0.4231958599827371   T   T   T
  0.0024809782603839  0.6357214255343229  0.4232109261581576   T   T   T
  0.3357794813902321  0.1356539740980297  0.4232395013771841   T   T   T
  0.3357805909705958  0.6355671572085108  0.4232496525882884   T   T   T
  0.6689135510763519  0.1355467241932254  0.4232440846108930   T   T   T
  0.6689690886689743  0.6355351106723168  0.4232426268307392   T   T   T
  0.1691699408857320  0.3811263117327884  0.4395659256694881   T   T   T
  0.1692861773438449  0.8811076583982037  0.4395787099624980   T   T   T
  0.5024818266984089  0.3811445760340141  0.4396322240445761   T   T   T
  0.5024696059142072  0.8810916134419071  0.4396010078848795   T   T   T
  0.8358438934622008  0.3810996801132313  0.4395235090422900   T   T   T
  0.8357744870785084  0.8810993572818940  0.4395597240246563   T   T   T
  0.0024211784921345  0.1307833154400520  0.4570376812112172   T   T   T
  0.0024451584123194  0.6310417682097966  0.4570599206038007   T   T   T
  0.3358231258204545  0.1308992135534212  0.4571025862213282   T   T   T
  0.3357851392636545  0.6307425741152443  0.4571135023530659   T   T   T
  0.6690220752192547  0.1309722487260895  0.4570998020898474   T   T   T
  0.6691099434057008  0.6308786708026084  0.4570941322376945   T   T   T
  0.1692106574156169  0.3808286368766324  0.4740452791650446   T   T   T
  0.1694133438639881  0.8809432943113833  0.4740785208907114   T   T   T
  0.5024635492481134  0.3811962511456563  0.4742004021496257   T   T   T
  0.5024800747226323  0.8806522536328447  0.4741074832785857   T   T   T
  0.8358386868974710  0.3807200915818160  0.4740050407015775   T   T   T
  0.8356513840497979  0.8809562535674668  0.4740837631823203   T   T   T
  0.0028468042932747  0.1305544503970669  0.4914700890233563   T   T   T
  0.0026830013575525  0.6310984990877141  0.4915469417046781   T   T   T
  0.3365087137259942  0.1316385386582631  0.4916376730469187   T   T   T
  0.3357580639270813  0.6311128457734521  0.4916664062597602   T   T   T
  0.6685721580571918  0.1315196956460856  0.4916284348704871   T   T   T
  0.6695143015972306  0.6313168389311092  0.4916235218144919   T   T   T
  0.1690238521911559  0.3839431660621112  0.5077932581739286   T   T   T
  0.1688511778497976  0.8860212543306292  0.5079263944713577   T   T   T
  0.5026704775272729  0.3893159543194781  0.5083996385179396   T   T   T
  0.5024360790624323  0.8852727575812334  0.5079758891572638   T   T   T
  0.8364650914258894  0.3831426470538892  0.5076533716322167   T   T   T
  0.8359924502247853  0.8862266997697632  0.5078929768845841   T   T   T
  0.0049552865792801  0.0632066249981862  0.4131875752136877   T   T   T
  0.0048387494160946  0.5633399745918096  0.4132001998721208   T   T   T
  0.3382408887931663  0.0632498798575798  0.4132297866547532   T   T   T
  0.3380881633548313  0.5631573291623096  0.4132399351561761   T   T   T
  0.6708747442873756  0.0630700829207216  0.4132388571337562   T   T   T
  0.6711076911673521  0.5631066317497496  0.4132348901061869   T   T   T
  0.1707327372649648  0.3118737641948319  0.5178240179636961   T   T   T
  0.1711231896181072  0.8133958036344683  0.5179179891320081   T   T   T
  0.5055493020676026  0.3156948986844998  0.5183261926635954   T   T   T
  0.5030213352228543  0.8128825346884585  0.5179792742619728   T   T   T
  0.8389247604755996  0.3110598887804695  0.5176811279461088   T   T   T
  0.8380153878352465  0.8146630689534055  0.5179419162152781   T   T   T
  0.0831810594879464  0.1130381625627245  0.5299114079048648   T   T   T
  0.0819859402159042  0.6114597257856633  0.5296140747703270   T   T   T
  0.4168008368086410  0.1144916980992667  0.5298957530664765   T   T   T
  0.3818055123160138  0.6297673795716336  0.5319120476815372   T   T   T
  0.7507403968567935  0.1129972697879727  0.5299097897856898   T   T   T
  0.7878357467802592  0.5999990028979882  0.5282618475984096   T   T   T
  0.2513429650725841  0.3622665194808421  0.4012462555103621   T   T   T
  0.2515880308187441  0.8621447965419595  0.4012694654694973   T   T   T
  0.5839348641722522  0.3624121802338729  0.4012783805500739   T   T   T
  0.5837202491178405  0.8623344668842282  0.4012413026871788   T   T   T
  0.9163575418816399  0.3623300894177498  0.4011425588569463   T   T   T
  0.9162896491215938  0.8624312552931420  0.4011666772727568   T   T   T
  0.5383585086196321  0.6114960532526739  0.5605580226076173   T   T   T
  0.4840041361823197  0.4735633713575740  0.5727365240119543   T   T   T
  0.5643202483206528  0.6396065300217737  0.5791630443634429   T   T   T
  0.3034395696204198  0.3784511757543920  0.5821120518112420   T   T   T
  0.4218096349821884  0.2565765191673442  0.5785375272227595   T   T   T
  0.6487958771279363  0.7348257496789784  0.5981870503331015   T   T   T
  0.4849150488563572  0.7712436757476918  0.5962224351757573   T   T   T
  0.5113010736739078  0.7989394691821806  0.5469264151605608   T   T   T
  0.5872091950924185  0.6603158875129808  0.5382855641897883   T   T   T
  0.1596610133186896  0.3447861310309867  0.4062803947434687   T   T   T
  0.1598401639027965  0.8448305312418509  0.4062966049268080   T   T   T
  0.4924410128198622  0.3452672508019519  0.4063592316627749   T   T   T
  0.4922713657463670  0.8449157515057236  0.4063229992200997   T   T   T
  0.8251571807032427  0.3444165192466716  0.4062474690530720   T   T   T
  0.8251296788209491  0.8445991910637016  0.4062818137424246   T   T   T
  0.9920040252672082  0.0955189317138063  0.5247872049268061   T   T   T
  0.9895673803426629  0.5908742030567460  0.5247622972575005   T   T   T
  0.3254897278592514  0.0946980506468110  0.5248822786244157   T   T   T
  0.3070143478627665  0.5959314003877465  0.5248154588882457   T   T   T
  0.6592058742597213  0.0949080234130040  0.5248695138994134   T   T   T
  0.6865004390482965  0.5950287905359677  0.5249366369411683   T   T   T
  0.5610805493986921  0.5585458526995747  0.5705569581130685   T   T   T
  0.3775889340605941  0.3506143652830405  0.5749191057754717   T   T   T
  0.5750355296250390  0.7579677843413775  0.5907950002158633   T   T   T
  0.5085740718159782  0.6883032869839097  0.5455189379224640   T   T   T
  0.1690915983065195  0.2530758439937821  0.4226432573875781   T   T   T
  0.1691503987920070  0.7530660225062769  0.4226572959478850   T   T   T
  0.5022844058176371  0.2531332941808903  0.4226989285413974   T   T   T
  0.5022648572935673  0.7530533419486292  0.4226768291388513   T   T   T
  0.8355573697115275  0.2528559733815357  0.4226173686488519   T   T   T
  0.8355458545110163  0.7529340072633461  0.4226451857328534   T   T   T
  0.0025150820278964  0.0056573536445967  0.4398432035462811   T   T   T
  0.0024915814358766  0.5057922830195367  0.4398540820794186   T   T   T
  0.3358592763785885  0.0058378898432397  0.4398911127245000   T   T   T
  0.3357955632582840  0.5057974548271381  0.4399014847014643   T   T   T
  0.6690466568457579  0.0057614261022969  0.4398942378998501   T   T   T
  0.6691290892943130  0.5057194094073338  0.4398869344611865   T   T   T
  0.1691070491158622  0.2562460645322232  0.4568623900631558   T   T   T
  0.1692786417786906  0.7563022582698370  0.4568853575366605   T   T   T
  0.5023982122923145  0.2564086852766305  0.4569595377049421   T   T   T
  0.5023776228631333  0.7561777166545453  0.4569041714826418   T   T   T
  0.8357903626371106  0.2562350913800266  0.4568260569427827   T   T   T
  0.8356884849815889  0.7563866680294901  0.4568794081960146   T   T   T
  0.0025992300071059  0.0059467703017651  0.4742089117977117   T   T   T
  0.0025438901606997  0.5061916819228053  0.4742159199296346   T   T   T
  0.3361533678177174  0.0064239935458095  0.4742927182016752   T   T   T
  0.3357076007378364  0.5063566491214341  0.4743286660082683   T   T   T
  0.6687842283066615  0.0063990390807846  0.4742897795246788   T   T   T
  0.6692782543637712  0.5062545743803377  0.4742731141087131   T   T   T
  0.1692571696861002  0.2551384182450358  0.4911848862127882   T   T   T
  0.1692433447151767  0.7559818530594832  0.4912794826740938   T   T   T
  0.5024934022237898  0.2574744811973591  0.4914966871755085   T   T   T
  0.5023384203574995  0.7554759722148519  0.4912951491985182   T   T   T
  0.8361573310527186  0.2543965542062024  0.4910962006937176   T   T   T
  0.8361566017022930  0.7560252066274527  0.4912723755608483   T   T   T
  0.0024250474424075  0.0035712039506373  0.5084384037470289   T   T   T
  0.0025192665916933  0.5008568204931731  0.5082540458845187   T   T   T
  0.3354779479996217  0.0032048780942336  0.5085149073000759   T   T   T
  0.3333870638013413  0.5046362457036860  0.5087489399060099   T   T   T
  0.6691633632856162  0.0032200070474304  0.5085099479310485   T   T   T
  0.6719673170219103  0.5025901136949927  0.5083993852948252   T   T   T
 
  0.00000000E+00  0.00000000E+00  0.00000000E+00
  0.00000000E+00  0.00000000E+00  0.00000000E+00
  0.00000000E+00  0.00000000E+00  0.00000000E+00
  0.00000000E+00  0.00000000E+00  0.00000000E+00
  0.00000000E+00  0.00000000E+00  0.00000000E+00
  0.00000000E+00  0.00000000E+00  0.00000000E+00
  0.00000000E+00  0.00000000E+00  0.00000000E+00
  0.00000000E+00  0.00000000E+00  0.00000000E+00
  0.00000000E+00  0.00000000E+00  0.00000000E+00
  0.00000000E+00  0.00000000E+00  0.00000000E+00
  0.00000000E+00  0.00000000E+00  0.00000000E+00
  0.00000000E+00  0.00000000E+00  0.00000000E+00
  0.00000000E+00  0.00000000E+00  0.00000000E+00
  0.00000000E+00  0.00000000E+00  0.00000000E+00
  0.00000000E+00  0.00000000E+00  0.00000000E+00
  0.00000000E+00  0.00000000E+00  0.00000000E+00
  0.00000000E+00  0.00000000E+00  0.00000000E+00
  0.00000000E+00  0.00000000E+00  0.00000000E+00
  0.00000000E+00  0.00000000E+00  0.00000000E+00
  0.00000000E+00  0.00000000E+00  0.00000000E+00
  0.00000000E+00  0.00000000E+00  0.00000000E+00
  0.00000000E+00  0.00000000E+00  0.00000000E+00
  0.00000000E+00  0.00000000E+00  0.00000000E+00
  0.00000000E+00  0.00000000E+00  0.00000000E+00
  0.00000000E+00  0.00000000E+00  0.00000000E+00
  0.00000000E+00  0.00000000E+00  0.00000000E+00
  0.00000000E+00  0.00000000E+00  0.00000000E+00
  0.00000000E+00  0.00000000E+00  0.00000000E+00
  0.00000000E+00  0.00000000E+00  0.00000000E+00
  0.00000000E+00  0.00000000E+00  0.00000000E+00
  0.00000000E+00  0.00000000E+00  0.00000000E+00
  0.00000000E+00  0.00000000E+00  0.00000000E+00
  0.00000000E+00  0.00000000E+00  0.00000000E+00
  0.00000000E+00  0.00000000E+00  0.00000000E+00
  0.00000000E+00  0.00000000E+00  0.00000000E+00
  0.00000000E+00  0.00000000E+00  0.00000000E+00
  0.00000000E+00  0.00000000E+00  0.00000000E+00
  0.00000000E+00  0.00000000E+00  0.00000000E+00
  0.00000000E+00  0.00000000E+00  0.00000000E+00
  0.00000000E+00  0.00000000E+00  0.00000000E+00
  0.00000000E+00  0.00000000E+00  0.00000000E+00
  0.00000000E+00  0.00000000E+00  0.00000000E+00
  0.00000000E+00  0.00000000E+00  0.00000000E+00
  0.00000000E+00  0.00000000E+00  0.00000000E+00
  0.00000000E+00  0.00000000E+00  0.00000000E+00
  0.00000000E+00  0.00000000E+00  0.00000000E+00
  0.00000000E+00  0.00000000E+00  0.00000000E+00
  0.00000000E+00  0.00000000E+00  0.00000000E+00
  0.00000000E+00  0.00000000E+00  0.00000000E+00
  0.00000000E+00  0.00000000E+00  0.00000000E+00
  0.00000000E+00  0.00000000E+00  0.00000000E+00
  0.00000000E+00  0.00000000E+00  0.00000000E+00
  0.00000000E+00  0.00000000E+00  0.00000000E+00
  0.00000000E+00  0.00000000E+00  0.00000000E+00
  0.00000000E+00  0.00000000E+00  0.00000000E+00
  0.00000000E+00  0.00000000E+00  0.00000000E+00
  0.00000000E+00  0.00000000E+00  0.00000000E+00
  0.00000000E+00  0.00000000E+00  0.00000000E+00
  0.00000000E+00  0.00000000E+00  0.00000000E+00
  0.00000000E+00  0.00000000E+00  0.00000000E+00
  0.00000000E+00  0.00000000E+00  0.00000000E+00
  0.00000000E+00  0.00000000E+00  0.00000000E+00
  0.00000000E+00  0.00000000E+00  0.00000000E+00
  0.00000000E+00  0.00000000E+00  0.00000000E+00
  0.00000000E+00  0.00000000E+00  0.00000000E+00
  0.00000000E+00  0.00000000E+00  0.00000000E+00
  0.00000000E+00  0.00000000E+00  0.00000000E+00
  0.00000000E+00  0.00000000E+00  0.00000000E+00
  0.00000000E+00  0.00000000E+00  0.00000000E+00
  0.00000000E+00  0.00000000E+00  0.00000000E+00
  0.00000000E+00  0.00000000E+00  0.00000000E+00
  0.00000000E+00  0.00000000E+00  0.00000000E+00
  0.00000000E+00  0.00000000E+00  0.00000000E+00
  0.00000000E+00  0.00000000E+00  0.00000000E+00
  0.00000000E+00  0.00000000E+00  0.00000000E+00
  0.00000000E+00  0.00000000E+00  0.00000000E+00
  0.00000000E+00  0.00000000E+00  0.00000000E+00
  0.00000000E+00  0.00000000E+00  0.00000000E+00
  0.00000000E+00  0.00000000E+00  0.00000000E+00
  0.00000000E+00  0.00000000E+00  0.00000000E+00
  0.00000000E+00  0.00000000E+00  0.00000000E+00
  0.00000000E+00  0.00000000E+00  0.00000000E+00
  0.00000000E+00  0.00000000E+00  0.00000000E+00
  0.00000000E+00  0.00000000E+00  0.00000000E+00
  0.00000000E+00  0.00000000E+00  0.00000000E+00
  0.00000000E+00  0.00000000E+00  0.00000000E+00
  0.00000000E+00  0.00000000E+00  0.00000000E+00
  0.00000000E+00  0.00000000E+00  0.00000000E+00
  0.00000000E+00  0.00000000E+00  0.00000000E+00
  0.00000000E+00  0.00000000E+00  0.00000000E+00
  0.00000000E+00  0.00000000E+00  0.00000000E+00
  0.00000000E+00  0.00000000E+00  0.00000000E+00
  0.00000000E+00  0.00000000E+00  0.00000000E+00
  0.00000000E+00  0.00000000E+00  0.00000000E+00
  0.00000000E+00  0.00000000E+00  0.00000000E+00
  0.00000000E+00  0.00000000E+00  0.00000000E+00
  0.00000000E+00  0.00000000E+00  0.00000000E+00
  0.00000000E+00  0.00000000E+00  0.00000000E+00
  0.00000000E+00  0.00000000E+00  0.00000000E+00
  0.00000000E+00  0.00000000E+00  0.00000000E+00
  0.00000000E+00  0.00000000E+00  0.00000000E+00
  0.00000000E+00  0.00000000E+00  0.00000000E+00
  0.00000000E+00  0.00000000E+00  0.00000000E+00
  0.00000000E+00  0.00000000E+00  0.00000000E+00
  0.00000000E+00  0.00000000E+00  0.00000000E+00
  0.00000000E+00  0.00000000E+00  0.00000000E+00
  0.00000000E+00  0.00000000E+00  0.00000000E+00
  0.00000000E+00  0.00000000E+00  0.00000000E+00
  0.00000000E+00  0.00000000E+00  0.00000000E+00
  0.00000000E+00  0.00000000E+00  0.00000000E+00
  0.00000000E+00  0.00000000E+00  0.00000000E+00
  0.00000000E+00  0.00000000E+00  0.00000000E+00
  0.00000000E+00  0.00000000E+00  0.00000000E+00
  0.00000000E+00  0.00000000E+00  0.00000000E+00
  0.00000000E+00  0.00000000E+00  0.00000000E+00
  0.00000000E+00  0.00000000E+00  0.00000000E+00
  0.00000000E+00  0.00000000E+00  0.00000000E+00
  0.00000000E+00  0.00000000E+00  0.00000000E+00
  0.00000000E+00  0.00000000E+00  0.00000000E+00
  0.00000000E+00  0.00000000E+00  0.00000000E+00
  0.00000000E+00  0.00000000E+00  0.00000000E+00
