C H O Si                                
   1.00000000000000     
     9.2874599999999994    0.0000000000000000    0.0000000000000000
     0.0000000000000000    8.7563099999999991    0.0000000000000000
     0.0000000000000000    0.0000000000000000   58.0000000000000000
   C    H    O    Si
    36    32    16    36
Selective dynamics
Direct
  0.9934680937379954  0.1259149757278679  0.0605792985415090   T   T   T
  0.3268757948130709  0.1259168555818811  0.0605479082200911   T   T   T
  0.6601766354463087  0.1257840644906167  0.0607403571074937   T   T   T
  0.9934303529283264  0.6259516253252063  0.0605802158259681   T   T   T
  0.3269453275245402  0.6259100980521105  0.0607071216877320   T   T   T
  0.6602339844990476  0.6258103164353032  0.0607391990871797   T   T   T
  0.1596096327849549  0.3719111253787482  0.1393613909276628   T   T   T
  0.4929499482680257  0.3710503863994201  0.1397444781901125   T   T   T
  0.8261031142128424  0.3717084423457471  0.1395472726502323   T   T   T
  0.1596556540423999  0.8718291529728182  0.1395235370678538   T   T   T
  0.4928427759126767  0.8711837583720375  0.1397303937549347   T   T   T
  0.8255067529214818  0.8714024857470323  0.1395597818897818   T   T   T
  0.3266629519631151  0.1228462582975828  0.1661542618270672   T   T   T
  0.6588857614797607  0.1222014686289132  0.1669968755660053   T   T   T
  0.9929277300393780  0.1209496752607665  0.1664500887626268   T   T   T
  0.3256145260677624  0.6222169748761376  0.1670269079339128   T   T   T
  0.6593323916055834  0.6206761315527755  0.1672430606988911   T   T   T
  0.9932143189299570  0.6223974112857842  0.1665142715264759   T   T   T
  0.1575149565003644  0.3743449810688832  0.1914635418457998   T   T   T
  0.4888711502297265  0.3719874416919240  0.1937020995198010   T   T   T
  0.8255335340852714  0.3736130800497248  0.1918401641585203   T   T   T
  0.1620679614576398  0.8777660970134289  0.1922212043375545   T   T   T
  0.4930279061281255  0.8783012258775813  0.1924750568278850   T   T   T
  0.8280801871227818  0.8748687294363888  0.1918473552138905   T   T   T
  0.1596507096282263  0.3720240033302388  0.0858812857437125   T   T   T
  0.4929723159343549  0.3718617442736570  0.0860462422894175   T   T   T
  0.8261957282468494  0.3719463877605967  0.0859856373548479   T   T   T
  0.1596854571016094  0.8719699568876476  0.0859582586411467   T   T   T
  0.4929795816811567  0.8718651915009182  0.0860741401758899   T   T   T
  0.8261756847080395  0.8720001876818367  0.0859927274232056   T   T   T
  0.3262943343129224  0.1216050125728465  0.1130145608703042   T   T   T
  0.6593750942790890  0.1215604220023635  0.1133046242247905   T   T   T
  0.9927434235948100  0.1215781424265028  0.1131022815986496   T   T   T
  0.3262465910225518  0.6214994890248069  0.1132680193390084   T   T   T
  0.6594715152377064  0.6214230943121654  0.1133145142975415   T   T   T
  0.9927542292376429  0.6217668754334711  0.1130870104631065   T   T   T
  0.0737726222422210  0.3572274181726339  0.0277997006038207   T   T   T
  0.4076734396054282  0.3567369641986155  0.0278811500329745   T   T   T
  0.7391755139570408  0.3567153169869294  0.0279597399603673   T   T   T
  0.0742185153320568  0.8570637986111302  0.0278641940546196   T   T   T
  0.4072588858503464  0.8568899366431671  0.0279808463184759   T   T   T
  0.7394223680116402  0.8568758665568373  0.0279422822814315   T   T   T
  0.3242485427389138  0.0531885710386101  0.0450642996326192   T   T   T
  0.6570336635899215  0.0525075810176506  0.0453159108728211   T   T   T
  0.9903132834740421  0.0528870636212939  0.0451298303777027   T   T   T
  0.3242100584715540  0.5526053850978494  0.0452768922546970   T   T   T
  0.6570354565619994  0.5525285525689364  0.0453136934297659   T   T   T
  0.9903370934985948  0.5530110450623501  0.0451198604719687   T   T   T
  0.8300430142978005  0.8022498550329729  0.2073306549129923   T   T   T
  0.8299639829263490  0.2992426108201710  0.2071358614118209   T   T   T
  0.1574027704277233  0.3015425352557613  0.2069135281394515   T   T   T
  0.1645227375940579  0.8033713867865645  0.2075127222412571   T   T   T
  0.4907879645047940  0.8053970322730908  0.2079487655985031   T   T   T
  0.0838649389561187  0.1123913047514827  0.2236244009356361   T   T   T
  0.3865975777383957  0.2000127632209954  0.2131844762110825   T   T   T
  0.7733906713953274  0.0902235325791223  0.2237591838107937   T   T   T
  0.0868535862245656  0.5999319642861847  0.2234420166528531   T   T   T
  0.3742460933296951  0.6140881973696174  0.2284546771415458   T   T   T
  0.7796391467472555  0.5920905193758650  0.2225981137613070   T   T   T
  0.5455766109986913  0.6089499128670020  0.2737327918442527   T   T   T
  0.4907959574140154  0.4736833539625100  0.2935721514536683   T   T   T
  0.5697693843067150  0.6372962566778013  0.3031245898806620   T   T   T
  0.3106172000799325  0.3801866603778945  0.3096065052189306   T   T   T
  0.4226740437908028  0.2551170763287995  0.3026586028529977   T   T   T
  0.6517442916547252  0.7335538049533549  0.3334118011260990   T   T   T
  0.4866509244567035  0.7621431853259503  0.3307477268892805   T   T   T
  0.5187862260684557  0.7856834844338478  0.2523842503776981   T   T   T
  0.5857890816973851  0.6400023804909298  0.2387078283512876   T   T   T
  0.1688733229750983  0.3315236113385529  0.0338689107305774   T   T   T
  0.5027882167583412  0.3319080954582388  0.0340348031913074   T   T   T
  0.8346296125811673  0.3317393827042194  0.0339777099780656   T   T   T
  0.1692745516959640  0.8316957142008610  0.0339813306289644   T   T   T
  0.5024625781055092  0.8320178517568916  0.0340959458432589   T   T   T
  0.8347866782607674  0.8318076676133741  0.0339817661385591   T   T   T
  0.3233026338871338  0.1084578064718710  0.2165002775360839   T   T   T
  0.6719349528901726  0.0760261137587055  0.2195847921001293   T   T   T
  0.9875405352574450  0.0814298595982968  0.2185844862778366   T   T   T
  0.2944518737349762  0.5831489021174964  0.2184676252480695   T   T   T
  0.6763301704417770  0.5804991111545806  0.2191644943319963   T   T   T
  0.9873436119742446  0.5798221973991284  0.2183305129948453   T   T   T
  0.5678295369967064  0.5567976976706738  0.2899778540410241   T   T   T
  0.3795259795448082  0.3512203948194946  0.2976754190548667   T   T   T
  0.5768308059905257  0.7567056792266015  0.3221437592828361   T   T   T
  0.5151383675412754  0.6744862498660581  0.2515159202533170   T   T   T
  0.4938698306407065  0.2432158452830294  0.0601657459044455   T   T   T
  0.8268936682875040  0.2430973038972590  0.0601091377140702   T   T   T
  0.1604782185867471  0.7430338045308092  0.0600964848390533   T   T   T
  0.4938878795989911  0.7430897360609798  0.0601959784225433   T   T   T
  0.8268906927359941  0.7431861924857479  0.0601131609135375   T   T   T
  0.1604500667211513  0.2431383117359573  0.0600085890006595   T   T   T
  0.9926100756677004  0.9954131760628492  0.1397256349364357   T   T   T
  0.3267591081308915  0.9967498439225946  0.1397188951413313   T   T   T
  0.6588016070795637  0.9967586398497605  0.1401102423726989   T   T   T
  0.9930175402098163  0.4962430707691483  0.1397242550763765   T   T   T
  0.3270210463583039  0.4964094911001780  0.1401055544747068   T   T   T
  0.6586009126784910  0.4960979009237677  0.1401451040746850   T   T   T
  0.1595740244005165  0.2452126207117124  0.1657616659054763   T   T   T
  0.4923751471042255  0.2507713123372359  0.1674995014562946   T   T   T
  0.8257861972847234  0.2447575359242448  0.1660129158737100   T   T   T
  0.1607586262801587  0.7463906450654658  0.1662128603538953   T   T   T
  0.4928207802113649  0.7455172268541967  0.1665241230437076   T   T   T
  0.8257280819320639  0.7446859780076840  0.1661108999836242   T   T   T
  0.3270128547226126  0.9989534706564156  0.1923911093035227   T   T   T
  0.6616640800553091  0.9939205253990225  0.1931360644262994   T   T   T
  0.9940459290055624  0.9922240675724884  0.1923750618533070   T   T   T
  0.3271365588951217  0.4884259826213375  0.1930708173817269   T   T   T
  0.9916991797123440  0.4910698983003826  0.1920924833835154   T   T   T
  0.6536597092101784  0.4837870281561240  0.1930763563674968   T   T   T
  0.9929688117021233  0.9959517322583937  0.0866579826955689   T   T   T
  0.3264344095277527  0.9960348292450996  0.0866300583229345   T   T   T
  0.6595552515648117  0.9960397044594774  0.0868251912378690   T   T   T
  0.9929332820711771  0.4959690028544488  0.0866422631693915   T   T   T
  0.3264945294140817  0.4959161612700433  0.0867921863484842   T   T   T
  0.6595355002004920  0.4959068343573155  0.0868207056187842   T   T   T
  0.1597729524569379  0.2464818384494106  0.1129093194499773   T   T   T
  0.4928281637392071  0.2469479636109820  0.1132228181478578   T   T   T
  0.8259460675234311  0.2465010495397836  0.1130329672266653   T   T   T
  0.1597832646257178  0.7464225773758796  0.1130258177720638   T   T   T
  0.4928813226572082  0.7463924222329678  0.1131553544889907   T   T   T
  0.8257820814757427  0.7464499378081926  0.1130313506939896   T   T   T
 
  0.00000000E+00  0.00000000E+00  0.00000000E+00
  0.00000000E+00  0.00000000E+00  0.00000000E+00
  0.00000000E+00  0.00000000E+00  0.00000000E+00
  0.00000000E+00  0.00000000E+00  0.00000000E+00
  0.00000000E+00  0.00000000E+00  0.00000000E+00
  0.00000000E+00  0.00000000E+00  0.00000000E+00
  0.00000000E+00  0.00000000E+00  0.00000000E+00
  0.00000000E+00  0.00000000E+00  0.00000000E+00
  0.00000000E+00  0.00000000E+00  0.00000000E+00
  0.00000000E+00  0.00000000E+00  0.00000000E+00
  0.00000000E+00  0.00000000E+00  0.00000000E+00
  0.00000000E+00  0.00000000E+00  0.00000000E+00
  0.00000000E+00  0.00000000E+00  0.00000000E+00
  0.00000000E+00  0.00000000E+00  0.00000000E+00
  0.00000000E+00  0.00000000E+00  0.00000000E+00
  0.00000000E+00  0.00000000E+00  0.00000000E+00
  0.00000000E+00  0.00000000E+00  0.00000000E+00
  0.00000000E+00  0.00000000E+00  0.00000000E+00
  0.00000000E+00  0.00000000E+00  0.00000000E+00
  0.00000000E+00  0.00000000E+00  0.00000000E+00
  0.00000000E+00  0.00000000E+00  0.00000000E+00
  0.00000000E+00  0.00000000E+00  0.00000000E+00
  0.00000000E+00  0.00000000E+00  0.00000000E+00
  0.00000000E+00  0.00000000E+00  0.00000000E+00
  0.00000000E+00  0.00000000E+00  0.00000000E+00
  0.00000000E+00  0.00000000E+00  0.00000000E+00
  0.00000000E+00  0.00000000E+00  0.00000000E+00
  0.00000000E+00  0.00000000E+00  0.00000000E+00
  0.00000000E+00  0.00000000E+00  0.00000000E+00
  0.00000000E+00  0.00000000E+00  0.00000000E+00
  0.00000000E+00  0.00000000E+00  0.00000000E+00
  0.00000000E+00  0.00000000E+00  0.00000000E+00
  0.00000000E+00  0.00000000E+00  0.00000000E+00
  0.00000000E+00  0.00000000E+00  0.00000000E+00
  0.00000000E+00  0.00000000E+00  0.00000000E+00
  0.00000000E+00  0.00000000E+00  0.00000000E+00
  0.00000000E+00  0.00000000E+00  0.00000000E+00
  0.00000000E+00  0.00000000E+00  0.00000000E+00
  0.00000000E+00  0.00000000E+00  0.00000000E+00
  0.00000000E+00  0.00000000E+00  0.00000000E+00
  0.00000000E+00  0.00000000E+00  0.00000000E+00
  0.00000000E+00  0.00000000E+00  0.00000000E+00
  0.00000000E+00  0.00000000E+00  0.00000000E+00
  0.00000000E+00  0.00000000E+00  0.00000000E+00
  0.00000000E+00  0.00000000E+00  0.00000000E+00
  0.00000000E+00  0.00000000E+00  0.00000000E+00
  0.00000000E+00  0.00000000E+00  0.00000000E+00
  0.00000000E+00  0.00000000E+00  0.00000000E+00
  0.00000000E+00  0.00000000E+00  0.00000000E+00
  0.00000000E+00  0.00000000E+00  0.00000000E+00
  0.00000000E+00  0.00000000E+00  0.00000000E+00
  0.00000000E+00  0.00000000E+00  0.00000000E+00
  0.00000000E+00  0.00000000E+00  0.00000000E+00
  0.00000000E+00  0.00000000E+00  0.00000000E+00
  0.00000000E+00  0.00000000E+00  0.00000000E+00
  0.00000000E+00  0.00000000E+00  0.00000000E+00
  0.00000000E+00  0.00000000E+00  0.00000000E+00
  0.00000000E+00  0.00000000E+00  0.00000000E+00
  0.00000000E+00  0.00000000E+00  0.00000000E+00
  0.00000000E+00  0.00000000E+00  0.00000000E+00
  0.00000000E+00  0.00000000E+00  0.00000000E+00
  0.00000000E+00  0.00000000E+00  0.00000000E+00
  0.00000000E+00  0.00000000E+00  0.00000000E+00
  0.00000000E+00  0.00000000E+00  0.00000000E+00
  0.00000000E+00  0.00000000E+00  0.00000000E+00
  0.00000000E+00  0.00000000E+00  0.00000000E+00
  0.00000000E+00  0.00000000E+00  0.00000000E+00
  0.00000000E+00  0.00000000E+00  0.00000000E+00
  0.00000000E+00  0.00000000E+00  0.00000000E+00
  0.00000000E+00  0.00000000E+00  0.00000000E+00
  0.00000000E+00  0.00000000E+00  0.00000000E+00
  0.00000000E+00  0.00000000E+00  0.00000000E+00
  0.00000000E+00  0.00000000E+00  0.00000000E+00
  0.00000000E+00  0.00000000E+00  0.00000000E+00
  0.00000000E+00  0.00000000E+00  0.00000000E+00
  0.00000000E+00  0.00000000E+00  0.00000000E+00
  0.00000000E+00  0.00000000E+00  0.00000000E+00
  0.00000000E+00  0.00000000E+00  0.00000000E+00
  0.00000000E+00  0.00000000E+00  0.00000000E+00
  0.00000000E+00  0.00000000E+00  0.00000000E+00
  0.00000000E+00  0.00000000E+00  0.00000000E+00
  0.00000000E+00  0.00000000E+00  0.00000000E+00
  0.00000000E+00  0.00000000E+00  0.00000000E+00
  0.00000000E+00  0.00000000E+00  0.00000000E+00
  0.00000000E+00  0.00000000E+00  0.00000000E+00
  0.00000000E+00  0.00000000E+00  0.00000000E+00
  0.00000000E+00  0.00000000E+00  0.00000000E+00
  0.00000000E+00  0.00000000E+00  0.00000000E+00
  0.00000000E+00  0.00000000E+00  0.00000000E+00
  0.00000000E+00  0.00000000E+00  0.00000000E+00
  0.00000000E+00  0.00000000E+00  0.00000000E+00
  0.00000000E+00  0.00000000E+00  0.00000000E+00
  0.00000000E+00  0.00000000E+00  0.00000000E+00
  0.00000000E+00  0.00000000E+00  0.00000000E+00
  0.00000000E+00  0.00000000E+00  0.00000000E+00
  0.00000000E+00  0.00000000E+00  0.00000000E+00
  0.00000000E+00  0.00000000E+00  0.00000000E+00
  0.00000000E+00  0.00000000E+00  0.00000000E+00
  0.00000000E+00  0.00000000E+00  0.00000000E+00
  0.00000000E+00  0.00000000E+00  0.00000000E+00
  0.00000000E+00  0.00000000E+00  0.00000000E+00
  0.00000000E+00  0.00000000E+00  0.00000000E+00
  0.00000000E+00  0.00000000E+00  0.00000000E+00
  0.00000000E+00  0.00000000E+00  0.00000000E+00
  0.00000000E+00  0.00000000E+00  0.00000000E+00
  0.00000000E+00  0.00000000E+00  0.00000000E+00
  0.00000000E+00  0.00000000E+00  0.00000000E+00
  0.00000000E+00  0.00000000E+00  0.00000000E+00
  0.00000000E+00  0.00000000E+00  0.00000000E+00
  0.00000000E+00  0.00000000E+00  0.00000000E+00
  0.00000000E+00  0.00000000E+00  0.00000000E+00
  0.00000000E+00  0.00000000E+00  0.00000000E+00
  0.00000000E+00  0.00000000E+00  0.00000000E+00
  0.00000000E+00  0.00000000E+00  0.00000000E+00
  0.00000000E+00  0.00000000E+00  0.00000000E+00
  0.00000000E+00  0.00000000E+00  0.00000000E+00
  0.00000000E+00  0.00000000E+00  0.00000000E+00
  0.00000000E+00  0.00000000E+00  0.00000000E+00
  0.00000000E+00  0.00000000E+00  0.00000000E+00
  0.00000000E+00  0.00000000E+00  0.00000000E+00
