C H O Si                                
   1.00000000000000     
     9.2874599999999994    0.0000000000000000    0.0000000000000000
     0.0000000000000000    8.7563099999999991    0.0000000000000000
     0.0000000000000000    0.0000000000000000   58.0000000000000000
   C    H    O    Si
    36    32    16    36
Selective dynamics
Direct
  0.9934401117071472  0.1259489490313648  0.0605800197480440   T   T   T
  0.3268705385662104  0.1258890943267585  0.0605485406909459   T   T   T
  0.6600625421867543  0.1257752120701258  0.0607398093410040   T   T   T
  0.9933825499934346  0.6259768859436373  0.0605811715852837   T   T   T
  0.3268930189830346  0.6258713662136606  0.0607073336627451   T   T   T
  0.6601052744986617  0.6258118968191555  0.0607342439378652   T   T   T
  0.1596271212477374  0.3719290636609737  0.1393727053155121   T   T   T
  0.4928979356045603  0.3709337066178371  0.1397572341258055   T   T   T
  0.8261142796894115  0.3717247099514187  0.1395426209783543   T   T   T
  0.1596822941876576  0.8718005923287079  0.1395141640396692   T   T   T
  0.4928345479889363  0.8710605310855227  0.1397366920876864   T   T   T
  0.8255631266404106  0.8714230322706535  0.1395603044399379   T   T   T
  0.3266819058761575  0.1228693458724390  0.1661572040199273   T   T   T
  0.6588862777675015  0.1221589001181743  0.1670062222437800   T   T   T
  0.9929384031895645  0.1209002230661231  0.1664673242607526   T   T   T
  0.3257168139782428  0.6221794085750295  0.1670358758032821   T   T   T
  0.6593347242178763  0.6207501840307119  0.1672465525854306   T   T   T
  0.9931235862517288  0.6222692456231932  0.1665227725586075   T   T   T
  0.1576064548899641  0.3743305471945300  0.1914826889372786   T   T   T
  0.4889196788055085  0.3720034065386547  0.1937072802087213   T   T   T
  0.8255635052457536  0.3735955471689756  0.1918513249055593   T   T   T
  0.1620364425304883  0.8777163390419698  0.1922132750534319   T   T   T
  0.4930379644824603  0.8782880881829406  0.1924611959035299   T   T   T
  0.8280512556489943  0.8748300503587476  0.1918515151864677   T   T   T
  0.1595564380776911  0.3718947187280531  0.0858807108627527   T   T   T
  0.4929337847734896  0.3718298537202080  0.0860287700281494   T   T   T
  0.8261940028163602  0.3718661370476881  0.0859681478686565   T   T   T
  0.1596290690717818  0.8718752483095735  0.0859426184683588   T   T   T
  0.4929048142244322  0.8718502924592632  0.0860529517774506   T   T   T
  0.8261629497193428  0.8719122684862400  0.0859773396595627   T   T   T
  0.3263184412189973  0.1215710630765639  0.1130082724566914   T   T   T
  0.6593220616553863  0.1214829440873106  0.1133030083047191   T   T   T
  0.9927882693336325  0.1215936203913656  0.1131097054556066   T   T   T
  0.3261881581132066  0.6214277971565835  0.1132713332734033   T   T   T
  0.6594380468592127  0.6213407734491749  0.1133084977119518   T   T   T
  0.9928030345263428  0.6217844644767214  0.1130761997055208   T   T   T
  0.0737998739055524  0.3570997578587027  0.0278150860772620   T   T   T
  0.4077034025844721  0.3565826594145530  0.0278958504974324   T   T   T
  0.7392272947614552  0.3566148034848673  0.0279668219902643   T   T   T
  0.0742699050898253  0.8569099520161776  0.0278830897418114   T   T   T
  0.4072912902042056  0.8567448982166885  0.0279946360809207   T   T   T
  0.7394745037006349  0.8567706742164596  0.0279482533584195   T   T   T
  0.3241848899381878  0.0531920827507192  0.0450658293600618   T   T   T
  0.6569865294733945  0.0525281049153894  0.0453163934134744   T   T   T
  0.9902638170813095  0.0528869091647280  0.0451334888148906   T   T   T
  0.3241458290450385  0.5526321930719140  0.0452812793902785   T   T   T
  0.6569814129699969  0.5525336179334861  0.0453135225801672   T   T   T
  0.9902816727519176  0.5530183389654703  0.0451256866308375   T   T   T
  0.8300338873175735  0.8022843791604576  0.2073328083027086   T   T   T
  0.8300477231068079  0.2992103044425817  0.2071392278165097   T   T   T
  0.1573806427415508  0.3015072995781938  0.2069306032082238   T   T   T
  0.1645306862411244  0.8033592550689902  0.2075099898122925   T   T   T
  0.4908005285641258  0.8054619684862305  0.2079469499598045   T   T   T
  0.0839124245867938  0.1122904426472374  0.2236437757917933   T   T   T
  0.3865547782742335  0.1999802420328632  0.2131904778105427   T   T   T
  0.7733550513542784  0.0902364809185403  0.2237817200646396   T   T   T
  0.0868896483322965  0.5999460809908882  0.2234652897818175   T   T   T
  0.3742404674769014  0.6140039411181581  0.2284460769078908   T   T   T
  0.7796547666494592  0.5920657457690178  0.2225936712940582   T   T   T
  0.5455666170121637  0.6090282060762437  0.2737336890280130   T   T   T
  0.4908114885846526  0.4736277037228531  0.2935756115381444   T   T   T
  0.5698186277266072  0.6373483420469649  0.3031315936828634   T   T   T
  0.3106932614317109  0.3802862629465850  0.3096039580156945   T   T   T
  0.4226963085957091  0.2551912863797557  0.3026557726686839   T   T   T
  0.6517136188863865  0.7335039881945201  0.3334189414860844   T   T   T
  0.4866403872521514  0.7620316771991438  0.3307496291792341   T   T   T
  0.5188236397853726  0.7856807918001080  0.2523766160837569   T   T   T
  0.5858127646993807  0.6401698242373537  0.2386863705628093   T   T   T
  0.1691740998302479  0.3317062282314924  0.0338279344323548   T   T   T
  0.5030103173836932  0.3320950014265419  0.0340256012862115   T   T   T
  0.8348402243913017  0.3319248325375761  0.0339606751518501   T   T   T
  0.1695715664166769  0.8319276807451285  0.0339614206105338   T   T   T
  0.5027180730832670  0.8322720313093830  0.0340832070242973   T   T   T
  0.8349989991773418  0.8319901991556621  0.0339656685472399   T   T   T
  0.3232853212406885  0.1085965644068236  0.2165041349011951   T   T   T
  0.6720516209293613  0.0759701247843095  0.2195530345611897   T   T   T
  0.9875830469605680  0.0816470491350244  0.2185768181786797   T   T   T
  0.2943023139605990  0.5832137596515689  0.2184781237094109   T   T   T
  0.6763298020647948  0.5803684913343917  0.2191847870378976   T   T   T
  0.9875115691895441  0.5799045700401384  0.2183215861957596   T   T   T
  0.5678893127795775  0.5567059242063516  0.2899952954942642   T   T   T
  0.3794840534192472  0.3512054675156077  0.2976703546372367   T   T   T
  0.5768632236721065  0.7569047228911286  0.3221507540263834   T   T   T
  0.5149815514770366  0.6744106212651882  0.2515377166639149   T   T   T
  0.4938186429935700  0.2432923787411039  0.0601468927170174   T   T   T
  0.8268732096154185  0.2432188048246209  0.0600809377225928   T   T   T
  0.1604750090450291  0.7431231500823985  0.0600730242134618   T   T   T
  0.4938426366885437  0.7431795742849726  0.0601792770385745   T   T   T
  0.8268807637169262  0.7433078966367624  0.0600852690732256   T   T   T
  0.1604611403416714  0.2432703818378901  0.0599810193474525   T   T   T
  0.9926479931319925  0.9954954747773898  0.1397323459800264   T   T   T
  0.3267455155039816  0.9967318279857141  0.1397015447047614   T   T   T
  0.6587303831423361  0.9967307104469536  0.1401203856135667   T   T   T
  0.9930651302986667  0.4962664448584444  0.1397214019420082   T   T   T
  0.3269838305170459  0.4963948770603021  0.1401097290288856   T   T   T
  0.6585515220876266  0.4961069651338222  0.1401517936972105   T   T   T
  0.1594926360236258  0.2451766933761621  0.1657613750165768   T   T   T
  0.4923525654785215  0.2506690181260505  0.1674995248011717   T   T   T
  0.8257244208081878  0.2447675981955857  0.1660009503423865   T   T   T
  0.1607406557914248  0.7463438632529789  0.1662102833038440   T   T   T
  0.4927716329665898  0.7455333759450773  0.1665163573251780   T   T   T
  0.8256887811007823  0.7446926487634796  0.1660995299914865   T   T   T
  0.3269809146605214  0.9990296881086594  0.1923897123880354   T   T   T
  0.6616405157222033  0.9938262949411636  0.1931338489305976   T   T   T
  0.9940229253952108  0.9922288632725520  0.1923816783384602   T   T   T
  0.3272215768847346  0.4884529665328221  0.1930758060525523   T   T   T
  0.9917517548638033  0.4910055260834428  0.1920909710571805   T   T   T
  0.6536260329905379  0.4839961949382380  0.1930832247689541   T   T   T
  0.9929128412484305  0.9958447893274219  0.0866740760398595   T   T   T
  0.3263463814136517  0.9960166968160390  0.0866541216231679   T   T   T
  0.6594707791494311  0.9959267863946297  0.0868453254847444   T   T   T
  0.9928864791116574  0.4958776158197666  0.0866633064217152   T   T   T
  0.3263745894669591  0.4958398677813893  0.0868095625699200   T   T   T
  0.6594524466826558  0.4958203247738318  0.0868366209829775   T   T   T
  0.1596465434407666  0.2465292366182145  0.1129173269695433   T   T   T
  0.4928206540238745  0.2469518346140451  0.1132229040870342   T   T   T
  0.8258926095345756  0.2465116696603865  0.1130261747977162   T   T   T
  0.1597097786460453  0.7464575020396025  0.1130252300688773   T   T   T
  0.4928146253993950  0.7463596055026904  0.1131510795800447   T   T   T
  0.8257824581782320  0.7464744441702756  0.1130303970983691   T   T   T
 
  0.00000000E+00  0.00000000E+00  0.00000000E+00
  0.00000000E+00  0.00000000E+00  0.00000000E+00
  0.00000000E+00  0.00000000E+00  0.00000000E+00
  0.00000000E+00  0.00000000E+00  0.00000000E+00
  0.00000000E+00  0.00000000E+00  0.00000000E+00
  0.00000000E+00  0.00000000E+00  0.00000000E+00
  0.00000000E+00  0.00000000E+00  0.00000000E+00
  0.00000000E+00  0.00000000E+00  0.00000000E+00
  0.00000000E+00  0.00000000E+00  0.00000000E+00
  0.00000000E+00  0.00000000E+00  0.00000000E+00
  0.00000000E+00  0.00000000E+00  0.00000000E+00
  0.00000000E+00  0.00000000E+00  0.00000000E+00
  0.00000000E+00  0.00000000E+00  0.00000000E+00
  0.00000000E+00  0.00000000E+00  0.00000000E+00
  0.00000000E+00  0.00000000E+00  0.00000000E+00
  0.00000000E+00  0.00000000E+00  0.00000000E+00
  0.00000000E+00  0.00000000E+00  0.00000000E+00
  0.00000000E+00  0.00000000E+00  0.00000000E+00
  0.00000000E+00  0.00000000E+00  0.00000000E+00
  0.00000000E+00  0.00000000E+00  0.00000000E+00
  0.00000000E+00  0.00000000E+00  0.00000000E+00
  0.00000000E+00  0.00000000E+00  0.00000000E+00
  0.00000000E+00  0.00000000E+00  0.00000000E+00
  0.00000000E+00  0.00000000E+00  0.00000000E+00
  0.00000000E+00  0.00000000E+00  0.00000000E+00
  0.00000000E+00  0.00000000E+00  0.00000000E+00
  0.00000000E+00  0.00000000E+00  0.00000000E+00
  0.00000000E+00  0.00000000E+00  0.00000000E+00
  0.00000000E+00  0.00000000E+00  0.00000000E+00
  0.00000000E+00  0.00000000E+00  0.00000000E+00
  0.00000000E+00  0.00000000E+00  0.00000000E+00
  0.00000000E+00  0.00000000E+00  0.00000000E+00
  0.00000000E+00  0.00000000E+00  0.00000000E+00
  0.00000000E+00  0.00000000E+00  0.00000000E+00
  0.00000000E+00  0.00000000E+00  0.00000000E+00
  0.00000000E+00  0.00000000E+00  0.00000000E+00
  0.00000000E+00  0.00000000E+00  0.00000000E+00
  0.00000000E+00  0.00000000E+00  0.00000000E+00
  0.00000000E+00  0.00000000E+00  0.00000000E+00
  0.00000000E+00  0.00000000E+00  0.00000000E+00
  0.00000000E+00  0.00000000E+00  0.00000000E+00
  0.00000000E+00  0.00000000E+00  0.00000000E+00
  0.00000000E+00  0.00000000E+00  0.00000000E+00
  0.00000000E+00  0.00000000E+00  0.00000000E+00
  0.00000000E+00  0.00000000E+00  0.00000000E+00
  0.00000000E+00  0.00000000E+00  0.00000000E+00
  0.00000000E+00  0.00000000E+00  0.00000000E+00
  0.00000000E+00  0.00000000E+00  0.00000000E+00
  0.00000000E+00  0.00000000E+00  0.00000000E+00
  0.00000000E+00  0.00000000E+00  0.00000000E+00
  0.00000000E+00  0.00000000E+00  0.00000000E+00
  0.00000000E+00  0.00000000E+00  0.00000000E+00
  0.00000000E+00  0.00000000E+00  0.00000000E+00
  0.00000000E+00  0.00000000E+00  0.00000000E+00
  0.00000000E+00  0.00000000E+00  0.00000000E+00
  0.00000000E+00  0.00000000E+00  0.00000000E+00
  0.00000000E+00  0.00000000E+00  0.00000000E+00
  0.00000000E+00  0.00000000E+00  0.00000000E+00
  0.00000000E+00  0.00000000E+00  0.00000000E+00
  0.00000000E+00  0.00000000E+00  0.00000000E+00
  0.00000000E+00  0.00000000E+00  0.00000000E+00
  0.00000000E+00  0.00000000E+00  0.00000000E+00
  0.00000000E+00  0.00000000E+00  0.00000000E+00
  0.00000000E+00  0.00000000E+00  0.00000000E+00
  0.00000000E+00  0.00000000E+00  0.00000000E+00
  0.00000000E+00  0.00000000E+00  0.00000000E+00
  0.00000000E+00  0.00000000E+00  0.00000000E+00
  0.00000000E+00  0.00000000E+00  0.00000000E+00
  0.00000000E+00  0.00000000E+00  0.00000000E+00
  0.00000000E+00  0.00000000E+00  0.00000000E+00
  0.00000000E+00  0.00000000E+00  0.00000000E+00
  0.00000000E+00  0.00000000E+00  0.00000000E+00
  0.00000000E+00  0.00000000E+00  0.00000000E+00
  0.00000000E+00  0.00000000E+00  0.00000000E+00
  0.00000000E+00  0.00000000E+00  0.00000000E+00
  0.00000000E+00  0.00000000E+00  0.00000000E+00
  0.00000000E+00  0.00000000E+00  0.00000000E+00
  0.00000000E+00  0.00000000E+00  0.00000000E+00
  0.00000000E+00  0.00000000E+00  0.00000000E+00
  0.00000000E+00  0.00000000E+00  0.00000000E+00
  0.00000000E+00  0.00000000E+00  0.00000000E+00
  0.00000000E+00  0.00000000E+00  0.00000000E+00
  0.00000000E+00  0.00000000E+00  0.00000000E+00
  0.00000000E+00  0.00000000E+00  0.00000000E+00
  0.00000000E+00  0.00000000E+00  0.00000000E+00
  0.00000000E+00  0.00000000E+00  0.00000000E+00
  0.00000000E+00  0.00000000E+00  0.00000000E+00
  0.00000000E+00  0.00000000E+00  0.00000000E+00
  0.00000000E+00  0.00000000E+00  0.00000000E+00
  0.00000000E+00  0.00000000E+00  0.00000000E+00
  0.00000000E+00  0.00000000E+00  0.00000000E+00
  0.00000000E+00  0.00000000E+00  0.00000000E+00
  0.00000000E+00  0.00000000E+00  0.00000000E+00
  0.00000000E+00  0.00000000E+00  0.00000000E+00
  0.00000000E+00  0.00000000E+00  0.00000000E+00
  0.00000000E+00  0.00000000E+00  0.00000000E+00
  0.00000000E+00  0.00000000E+00  0.00000000E+00
  0.00000000E+00  0.00000000E+00  0.00000000E+00
  0.00000000E+00  0.00000000E+00  0.00000000E+00
  0.00000000E+00  0.00000000E+00  0.00000000E+00
  0.00000000E+00  0.00000000E+00  0.00000000E+00
  0.00000000E+00  0.00000000E+00  0.00000000E+00
  0.00000000E+00  0.00000000E+00  0.00000000E+00
  0.00000000E+00  0.00000000E+00  0.00000000E+00
  0.00000000E+00  0.00000000E+00  0.00000000E+00
  0.00000000E+00  0.00000000E+00  0.00000000E+00
  0.00000000E+00  0.00000000E+00  0.00000000E+00
  0.00000000E+00  0.00000000E+00  0.00000000E+00
  0.00000000E+00  0.00000000E+00  0.00000000E+00
  0.00000000E+00  0.00000000E+00  0.00000000E+00
  0.00000000E+00  0.00000000E+00  0.00000000E+00
  0.00000000E+00  0.00000000E+00  0.00000000E+00
  0.00000000E+00  0.00000000E+00  0.00000000E+00
  0.00000000E+00  0.00000000E+00  0.00000000E+00
  0.00000000E+00  0.00000000E+00  0.00000000E+00
  0.00000000E+00  0.00000000E+00  0.00000000E+00
  0.00000000E+00  0.00000000E+00  0.00000000E+00
  0.00000000E+00  0.00000000E+00  0.00000000E+00
  0.00000000E+00  0.00000000E+00  0.00000000E+00
  0.00000000E+00  0.00000000E+00  0.00000000E+00
