C H O Si                                
   1.00000000000000     
     9.2874599999999994    0.0000000000000000    0.0000000000000000
     0.0000000000000000    8.7563099999999991    0.0000000000000000
     0.0000000000000000    0.0000000000000000   58.0000000000000000
   C    H    O    Si
    36    31    16    36
Selective dynamics
Direct
  0.9958151778532311  0.1302975860328459  0.0594946496695954   T   T   T
  0.3292317279795114  0.1304989550147226  0.0595368782734695   T   T   T
  0.6624735815812457  0.1303695775003177  0.0595866542211070   T   T   T
  0.9957121513065772  0.6305679240000828  0.0595077816905061   T   T   T
  0.3291502683133558  0.6302229769358050  0.0595319382950521   T   T   T
  0.6625342694531753  0.6301845299292879  0.0595591951012864   T   T   T
  0.1617586210428712  0.3759793704902137  0.1382829778421524   T   T   T
  0.4949376580819518  0.3762423269256487  0.1386821994312442   T   T   T
  0.8283834075559611  0.3761581518973216  0.1383097545081498   T   T   T
  0.1619827325884771  0.8760911637537632  0.1384052530872779   T   T   T
  0.4950125592156454  0.8746747154554910  0.1382913106099721   T   T   T
  0.8279364725983314  0.8760883390086605  0.1384659505177126   T   T   T
  0.3284752013727257  0.1267926534629993  0.1656794164250996   T   T   T
  0.6619626554268194  0.1269489049141654  0.1657858016567531   T   T   T
  0.9949917088131102  0.1254949260634604  0.1654116402006665   T   T   T
  0.3280085349800217  0.6264549247365778  0.1656595101467957   T   T   T
  0.6623333758338887  0.6262467145724955  0.1656842111831622   T   T   T
  0.9951275895019123  0.6261589465604231  0.1654406345994204   T   T   T
  0.1620437101083283  0.3783611446664565  0.1904750984764263   T   T   T
  0.4948095837537139  0.3845557825235204  0.1917475914739768   T   T   T
  0.8291780034669785  0.3789741481244988  0.1906347016110814   T   T   T
  0.1616456770338601  0.8805456332931101  0.1908602145931084   T   T   T
  0.4954881002386529  0.8824894355961987  0.1902574360011826   T   T   T
  0.8292300823320602  0.8805055283838072  0.1910170005005298   T   T   T
  0.1619891089124863  0.3761914340312984  0.0848234833218413   T   T   T
  0.4952316178897149  0.3761315584465450  0.0849891017567401   T   T   T
  0.8286880028582857  0.3761611385665020  0.0848668350221118   T   T   T
  0.1621383862028338  0.8762664065504353  0.0848550539841710   T   T   T
  0.4952723682708253  0.8760190618539312  0.0848025049675272   T   T   T
  0.8285030200391290  0.8763385364145790  0.0849144175175596   T   T   T
  0.3285264369849230  0.1258720808756237  0.1121000304599207   T   T   T
  0.6617563864489355  0.1258589237555938  0.1121357650699366   T   T   T
  0.9950069626878602  0.1258131467836279  0.1120292406033698   T   T   T
  0.3283893812961267  0.6257010548720956  0.1120595431217666   T   T   T
  0.6618406207552781  0.6257441266352828  0.1120827167544292   T   T   T
  0.9950213152876017  0.6262139401597508  0.1120053593125547   T   T   T
  0.0787859545143661  0.3617105091194475  0.0262212831562394   T   T   T
  0.4123557367690296  0.3618843531053315  0.0263242519641196   T   T   T
  0.7444191611310274  0.3611554148808125  0.0263212446580567   T   T   T
  0.0788384232127655  0.8616855550609088  0.0262666950845443   T   T   T
  0.4121415695588837  0.8613606072383817  0.0261969024884934   T   T   T
  0.7443838490154135  0.8612796794919433  0.0263242356117814   T   T   T
  0.3270333041384248  0.0578272872907775  0.0440411107451695   T   T   T
  0.6596748844136044  0.0576691262297189  0.0441017872860883   T   T   T
  0.9932159826171656  0.0577135921985175  0.0439882860050957   T   T   T
  0.3264685033471864  0.5575458521173360  0.0440410267804552   T   T   T
  0.6601884203431752  0.5575322634669178  0.0440714246426097   T   T   T
  0.9931009556332455  0.5581278630061135  0.0439852780650014   T   T   T
  0.8314536765536147  0.8075824486590975  0.2064705476102660   T   T   T
  0.8316332248834541  0.3063595495332976  0.2061319822913674   T   T   T
  0.1640745741561886  0.3063172645059566  0.2060374255449560   T   T   T
  0.4968455542224746  0.3105329008500135  0.2071060811866801   T   T   T
  0.1637535295751604  0.8073738532663057  0.2062865262125229   T   T   T
  0.0861349774285785  0.1102184567509354  0.2234672071350587   T   T   T
  0.4168822048857521  0.1031120379636477  0.2241816474887770   T   T   T
  0.7531706125678852  0.1121522472217649  0.2233437123863311   T   T   T
  0.0920175780056738  0.6036562291697152  0.2224326338726783   T   T   T
  0.3671300945885463  0.5700649736347998  0.2301691015731180   T   T   T
  0.7795193770054425  0.5948370176254301  0.2226224035815960   T   T   T
  0.5001107089741339  0.5448949648807115  0.2661887600567923   T   T   T
  0.4729511361558494  0.4556728516301547  0.3006259050612954   T   T   T
  0.5215226683219640  0.6235882170982165  0.3087195147679367   T   T   T
  0.2899530506880836  0.2737677443083584  0.2967563355124554   T   T   T
  0.4389712646141462  0.2146861701108591  0.2889330932137355   T   T   T
  0.6384396622147861  0.7725489024714491  0.3350117343743548   T   T   T
  0.5022117597056948  0.8616424981025546  0.3274369293225163   T   T   T
  0.5669632213572129  0.5405330965670032  0.2406004669187922   T   T   T
  0.1723261470058333  0.3371875104278743  0.0329765959139294   T   T   T
  0.5058170902443493  0.3374689058249984  0.0331139043273367   T   T   T
  0.8383110248494319  0.3371490050397554  0.0329962660649414   T   T   T
  0.1723957230914550  0.8372313377953162  0.0330135310496473   T   T   T
  0.5056934411922001  0.8367239405534690  0.0329384082906188   T   T   T
  0.8382126067124247  0.8377035700249067  0.0330628841962977   T   T   T
  0.3214897447741691  0.0884886364446160  0.2174151758476626   T   T   T
  0.6567953564236291  0.0887890049526945  0.2175696002290337   T   T   T
  0.9900962420251673  0.0880142544054223  0.2174067046858355   T   T   T
  0.3024706707596678  0.5961535569499006  0.2169333858760041   T   T   T
  0.6782502274930735  0.5869091944192135  0.2178588139698832   T   T   T
  0.9923743859667340  0.5845757805380316  0.2172225100383329   T   T   T
  0.5283392058251977  0.5476083719560236  0.2960821721740885   T   T   T
  0.3905722799037576  0.2680985626686265  0.3014932898309368   T   T   T
  0.5364724850538565  0.7599355570301753  0.3315007832374803   T   T   T
  0.4828938133749361  0.5095813664302824  0.2501503040613855   T   T   T
  0.4960501704323761  0.2477346088744170  0.0589358577171737   T   T   T
  0.8292941574890094  0.2476624840752066  0.0588440341157082   T   T   T
  0.1627409946331326  0.7476820429072220  0.0588430985021020   T   T   T
  0.4960212811713944  0.7475548984473193  0.0588141605622070   T   T   T
  0.8291418589671551  0.7478391529084547  0.0588763417462488   T   T   T
  0.1626940604990565  0.2476912510033316  0.0588135617494814   T   T   T
  0.9948632032179816  0.0003205228795267  0.1387043514472026   T   T   T
  0.3294531896956201  0.0007060956105178  0.1389025272267048   T   T   T
  0.6605206476231160  0.0008284687478479  0.1389633271050315   T   T   T
  0.9950893433947954  0.5007624504594830  0.1386391601695038   T   T   T
  0.3283643303047086  0.5012740301804328  0.1388786894237413   T   T   T
  0.6615332882684015  0.5011961091821249  0.1388672581538941   T   T   T
  0.1620478199780351  0.2491598710609821  0.1648379245342895   T   T   T
  0.4949630902886142  0.2513668759586807  0.1655616516094014   T   T   T
  0.8283924468965864  0.2493725033505854  0.1648828907188573   T   T   T
  0.1620253494307420  0.7506501343083443  0.1650561493641121   T   T   T
  0.4950535715510398  0.7520764294793878  0.1658529467830547   T   T   T
  0.8283994377311714  0.7506345384541788  0.1651441992623290   T   T   T
  0.3316749699971098  0.9933532192289007  0.1918346149507428   T   T   T
  0.6588216959908877  0.9935884083695612  0.1920018725001071   T   T   T
  0.9955080725861123  0.9974622343883723  0.1915409600510429   T   T   T
  0.3258978243934223  0.5009030166067845  0.1920307890837378   T   T   T
  0.9958392029429604  0.4955050739261750  0.1912416550515772   T   T   T
  0.6638922834009406  0.4987591060432521  0.1917843820705158   T   T   T
  0.9953027349043779  0.0004416759247050  0.0854884448799993   T   T   T
  0.3288649536007497  0.0005677441604419  0.0855293689390990   T   T   T
  0.6617056342796559  0.0005405197599089  0.0855717297007033   T   T   T
  0.9952868620112838  0.5005588983673306  0.0854737822503537   T   T   T
  0.3286538806208839  0.5004475023881980  0.0855356900618673   T   T   T
  0.6619775436941353  0.5004218126290851  0.0855567127678967   T   T   T
  0.1618676470411060  0.2507530556879232  0.1118097193073595   T   T   T
  0.4950959104503383  0.2508923942994699  0.1120422029868848   T   T   T
  0.8283142594603632  0.2507387988258358  0.1118331453033932   T   T   T
  0.1619781690002355  0.7509772524816967  0.1118550823791864   T   T   T
  0.4950677887976553  0.7506993584117367  0.1118606287494757   T   T   T
  0.8281750505925416  0.7510633184087183  0.1119003004187604   T   T   T
 
  0.00000000E+00  0.00000000E+00  0.00000000E+00
  0.00000000E+00  0.00000000E+00  0.00000000E+00
  0.00000000E+00  0.00000000E+00  0.00000000E+00
  0.00000000E+00  0.00000000E+00  0.00000000E+00
  0.00000000E+00  0.00000000E+00  0.00000000E+00
  0.00000000E+00  0.00000000E+00  0.00000000E+00
  0.00000000E+00  0.00000000E+00  0.00000000E+00
  0.00000000E+00  0.00000000E+00  0.00000000E+00
  0.00000000E+00  0.00000000E+00  0.00000000E+00
  0.00000000E+00  0.00000000E+00  0.00000000E+00
  0.00000000E+00  0.00000000E+00  0.00000000E+00
  0.00000000E+00  0.00000000E+00  0.00000000E+00
  0.00000000E+00  0.00000000E+00  0.00000000E+00
  0.00000000E+00  0.00000000E+00  0.00000000E+00
  0.00000000E+00  0.00000000E+00  0.00000000E+00
  0.00000000E+00  0.00000000E+00  0.00000000E+00
  0.00000000E+00  0.00000000E+00  0.00000000E+00
  0.00000000E+00  0.00000000E+00  0.00000000E+00
  0.00000000E+00  0.00000000E+00  0.00000000E+00
  0.00000000E+00  0.00000000E+00  0.00000000E+00
  0.00000000E+00  0.00000000E+00  0.00000000E+00
  0.00000000E+00  0.00000000E+00  0.00000000E+00
  0.00000000E+00  0.00000000E+00  0.00000000E+00
  0.00000000E+00  0.00000000E+00  0.00000000E+00
  0.00000000E+00  0.00000000E+00  0.00000000E+00
  0.00000000E+00  0.00000000E+00  0.00000000E+00
  0.00000000E+00  0.00000000E+00  0.00000000E+00
  0.00000000E+00  0.00000000E+00  0.00000000E+00
  0.00000000E+00  0.00000000E+00  0.00000000E+00
  0.00000000E+00  0.00000000E+00  0.00000000E+00
  0.00000000E+00  0.00000000E+00  0.00000000E+00
  0.00000000E+00  0.00000000E+00  0.00000000E+00
  0.00000000E+00  0.00000000E+00  0.00000000E+00
  0.00000000E+00  0.00000000E+00  0.00000000E+00
  0.00000000E+00  0.00000000E+00  0.00000000E+00
  0.00000000E+00  0.00000000E+00  0.00000000E+00
  0.00000000E+00  0.00000000E+00  0.00000000E+00
  0.00000000E+00  0.00000000E+00  0.00000000E+00
  0.00000000E+00  0.00000000E+00  0.00000000E+00
  0.00000000E+00  0.00000000E+00  0.00000000E+00
  0.00000000E+00  0.00000000E+00  0.00000000E+00
  0.00000000E+00  0.00000000E+00  0.00000000E+00
  0.00000000E+00  0.00000000E+00  0.00000000E+00
  0.00000000E+00  0.00000000E+00  0.00000000E+00
  0.00000000E+00  0.00000000E+00  0.00000000E+00
  0.00000000E+00  0.00000000E+00  0.00000000E+00
  0.00000000E+00  0.00000000E+00  0.00000000E+00
  0.00000000E+00  0.00000000E+00  0.00000000E+00
  0.00000000E+00  0.00000000E+00  0.00000000E+00
  0.00000000E+00  0.00000000E+00  0.00000000E+00
  0.00000000E+00  0.00000000E+00  0.00000000E+00
  0.00000000E+00  0.00000000E+00  0.00000000E+00
  0.00000000E+00  0.00000000E+00  0.00000000E+00
  0.00000000E+00  0.00000000E+00  0.00000000E+00
  0.00000000E+00  0.00000000E+00  0.00000000E+00
  0.00000000E+00  0.00000000E+00  0.00000000E+00
  0.00000000E+00  0.00000000E+00  0.00000000E+00
  0.00000000E+00  0.00000000E+00  0.00000000E+00
  0.00000000E+00  0.00000000E+00  0.00000000E+00
  0.00000000E+00  0.00000000E+00  0.00000000E+00
  0.00000000E+00  0.00000000E+00  0.00000000E+00
  0.00000000E+00  0.00000000E+00  0.00000000E+00
  0.00000000E+00  0.00000000E+00  0.00000000E+00
  0.00000000E+00  0.00000000E+00  0.00000000E+00
  0.00000000E+00  0.00000000E+00  0.00000000E+00
  0.00000000E+00  0.00000000E+00  0.00000000E+00
  0.00000000E+00  0.00000000E+00  0.00000000E+00
  0.00000000E+00  0.00000000E+00  0.00000000E+00
  0.00000000E+00  0.00000000E+00  0.00000000E+00
  0.00000000E+00  0.00000000E+00  0.00000000E+00
  0.00000000E+00  0.00000000E+00  0.00000000E+00
  0.00000000E+00  0.00000000E+00  0.00000000E+00
  0.00000000E+00  0.00000000E+00  0.00000000E+00
  0.00000000E+00  0.00000000E+00  0.00000000E+00
  0.00000000E+00  0.00000000E+00  0.00000000E+00
  0.00000000E+00  0.00000000E+00  0.00000000E+00
  0.00000000E+00  0.00000000E+00  0.00000000E+00
  0.00000000E+00  0.00000000E+00  0.00000000E+00
  0.00000000E+00  0.00000000E+00  0.00000000E+00
  0.00000000E+00  0.00000000E+00  0.00000000E+00
  0.00000000E+00  0.00000000E+00  0.00000000E+00
  0.00000000E+00  0.00000000E+00  0.00000000E+00
  0.00000000E+00  0.00000000E+00  0.00000000E+00
  0.00000000E+00  0.00000000E+00  0.00000000E+00
  0.00000000E+00  0.00000000E+00  0.00000000E+00
  0.00000000E+00  0.00000000E+00  0.00000000E+00
  0.00000000E+00  0.00000000E+00  0.00000000E+00
  0.00000000E+00  0.00000000E+00  0.00000000E+00
  0.00000000E+00  0.00000000E+00  0.00000000E+00
  0.00000000E+00  0.00000000E+00  0.00000000E+00
  0.00000000E+00  0.00000000E+00  0.00000000E+00
  0.00000000E+00  0.00000000E+00  0.00000000E+00
  0.00000000E+00  0.00000000E+00  0.00000000E+00
  0.00000000E+00  0.00000000E+00  0.00000000E+00
  0.00000000E+00  0.00000000E+00  0.00000000E+00
  0.00000000E+00  0.00000000E+00  0.00000000E+00
  0.00000000E+00  0.00000000E+00  0.00000000E+00
  0.00000000E+00  0.00000000E+00  0.00000000E+00
  0.00000000E+00  0.00000000E+00  0.00000000E+00
  0.00000000E+00  0.00000000E+00  0.00000000E+00
  0.00000000E+00  0.00000000E+00  0.00000000E+00
  0.00000000E+00  0.00000000E+00  0.00000000E+00
  0.00000000E+00  0.00000000E+00  0.00000000E+00
  0.00000000E+00  0.00000000E+00  0.00000000E+00
  0.00000000E+00  0.00000000E+00  0.00000000E+00
  0.00000000E+00  0.00000000E+00  0.00000000E+00
  0.00000000E+00  0.00000000E+00  0.00000000E+00
  0.00000000E+00  0.00000000E+00  0.00000000E+00
  0.00000000E+00  0.00000000E+00  0.00000000E+00
  0.00000000E+00  0.00000000E+00  0.00000000E+00
  0.00000000E+00  0.00000000E+00  0.00000000E+00
  0.00000000E+00  0.00000000E+00  0.00000000E+00
  0.00000000E+00  0.00000000E+00  0.00000000E+00
  0.00000000E+00  0.00000000E+00  0.00000000E+00
  0.00000000E+00  0.00000000E+00  0.00000000E+00
  0.00000000E+00  0.00000000E+00  0.00000000E+00
  0.00000000E+00  0.00000000E+00  0.00000000E+00
  0.00000000E+00  0.00000000E+00  0.00000000E+00
  0.00000000E+00  0.00000000E+00  0.00000000E+00
