C H O Si                                
   1.00000000000000     
    18.5749199999999988    0.0000000000000000    0.0000000000000000
     0.0000000000000000   17.5126199999999983    0.0000000000000000
     0.0000000000000000    0.0000000000000000   58.0000000000000000
   C    H    O    Si
   144   105    52   144
Selective dynamics
Direct
  0.4967335224812974  0.0630459890708179  0.0605349484643323   T   T   T
  0.1633818262990872  0.0630789388043815  0.0605126610108503   T   T   T
  0.3300921247232164  0.0630781530427089  0.0605336103546683   T   T   T
  0.4966868053324650  0.3130230174543634  0.0605254377284544   T   T   T
  0.1632810636954376  0.3130448107366272  0.0605203864282128   T   T   T
  0.3299882556086309  0.3130168272474275  0.0605352328454252   T   T   T
  0.0797648865597978  0.1857634101743038  0.1394234301604920   T   T   T
  0.2464506077021553  0.1857845589061048  0.1394586871051662   T   T   T
  0.4131103978317157  0.1857629190200659  0.1394669946579108   T   T   T
  0.0797651991101796  0.4357663638925383  0.1394325176168529   T   T   T
  0.2464357392080921  0.4357921742137001  0.1394558966687550   T   T   T
  0.4130912494913921  0.4357799454190006  0.1394630791256059   T   T   T
  0.1632330564337868  0.0609804180212782  0.1665991498001354   T   T   T
  0.3299018889466724  0.0608540254180160  0.1665946397808705   T   T   T
  0.4964983373582579  0.0607936163763443  0.1665768364906055   T   T   T
  0.1632478114212595  0.3109136268480748  0.1665782723419467   T   T   T
  0.3299203910783272  0.3109416603815969  0.1665886086702824   T   T   T
  0.4965102491255702  0.3109524404364151  0.1665871178482203   T   T   T
  0.0800089011196258  0.1882873000660224  0.1920112333808043   T   T   T
  0.2466288407937168  0.1879795705226323  0.1919580985099788   T   T   T
  0.4130866659773393  0.1879462925869899  0.1919617662644937   T   T   T
  0.0799977429296458  0.4379975486183378  0.1919643948331332   T   T   T
  0.2467227532671857  0.4379873465725751  0.1919620096339711   T   T   T
  0.4133843905503705  0.4381873250905179  0.1919590720102499   T   T   T
  0.0797838557660332  0.1858932607644211  0.0858636614018086   T   T   T
  0.2464643404819346  0.1858694918956142  0.0859132490783520   T   T   T
  0.4131530228500062  0.1858983426756024  0.0859176021653283   T   T   T
  0.0798207337702669  0.4358912912538080  0.0858832923752931   T   T   T
  0.2464852433970207  0.4358746192303298  0.0859210409854293   T   T   T
  0.4131381898987269  0.4358987679775637  0.0859284037404979   T   T   T
  0.1630903054401221  0.0607622657847263  0.1130586225464888   T   T   T
  0.3297973561386195  0.0607511925610372  0.1130854737921540   T   T   T
  0.4964554851730797  0.0607497472864118  0.1130801508606223   T   T   T
  0.1631014842282720  0.3107247222905379  0.1130654395331169   T   T   T
  0.3298109384462249  0.3107566341372170  0.1130721248279704   T   T   T
  0.4964527859287191  0.3107476534638507  0.1130751547760510   T   T   T
  0.4967392787999786  0.5630166439823738  0.0605361363801133   T   T   T
  0.1633640401744161  0.5631001240615162  0.0605083447440174   T   T   T
  0.3300887656364830  0.5630872102876051  0.0605225475572484   T   T   T
  0.4967106202711710  0.8130749550995106  0.0605502431840163   T   T   T
  0.1633314592664824  0.8130253903235822  0.0605087011544849   T   T   T
  0.3300518112522787  0.8130821304985603  0.0605233226717690   T   T   T
  0.0797745047596455  0.6858045569427387  0.1394268934027564   T   T   T
  0.2464443758062844  0.6857869110174543  0.1394511216695009   T   T   T
  0.4130920791329034  0.6858259329797691  0.1394540484624775   T   T   T
  0.0798021265678446  0.9356737043654620  0.1394192589165116   T   T   T
  0.2464209463808009  0.9358055643157253  0.1394576475532551   T   T   T
  0.4131072682092548  0.9356779675429715  0.1394673167904455   T   T   T
  0.1632811319864435  0.5609127494890818  0.1665863432874934   T   T   T
  0.3299688461559783  0.5609467428470306  0.1665849896396005   T   T   T
  0.4965596212952834  0.5611044813558642  0.1665655921983646   T   T   T
  0.1632886355857577  0.8109153989352832  0.1665771206273661   T   T   T
  0.3299538208596431  0.8109422943636238  0.1665809716773330   T   T   T
  0.4966644686317837  0.8109231482447692  0.1666280156349813   T   T   T
  0.0801127655190252  0.6881506411197587  0.1919449329004031   T   T   T
  0.2467470305619505  0.6880678524529970  0.1919641172041506   T   T   T
  0.4133626216099276  0.6881594067329398  0.1919663350106318   T   T   T
  0.0800991869145181  0.9381018545614231  0.1919431417957344   T   T   T
  0.2467139625114040  0.9379824367430923  0.1919699479630072   T   T   T
  0.4134112485261273  0.9380170574327652  0.1919768702435177   T   T   T
  0.0798134509044567  0.6859036368785651  0.0858830421126983   T   T   T
  0.2464826640612494  0.6858634140328471  0.0859022636655405   T   T   T
  0.4131656944373762  0.6859048701605008  0.0859088285485501   T   T   T
  0.0798397093715471  0.9358714790207464  0.0858719212186310   T   T   T
  0.2465058605604943  0.9358684697476832  0.0859154286651572   T   T   T
  0.4131756850852074  0.9359016542078026  0.0859254055710685   T   T   T
  0.1630926855197791  0.5607686120696950  0.1130648999886285   T   T   T
  0.3298125059240568  0.5607773148948589  0.1130676404253012   T   T   T
  0.4964464307752555  0.5607812558545006  0.1130697728486386   T   T   T
  0.1631120207468485  0.8107307471160773  0.1130491488835912   T   T   T
  0.3297853130101031  0.8107614263284855  0.1130632814501521   T   T   T
  0.4964983040330899  0.8107530068358005  0.1130947565172234   T   T   T
  0.9966790153580585  0.0630618261619039  0.0604598326620007   T   T   T
  0.6633147494073712  0.0630331437568942  0.0606225846347097   T   T   T
  0.8299414687229067  0.0630613656580263  0.0605504205794871   T   T   T
  0.9966270778521057  0.3131050431508642  0.0604447448846393   T   T   T
  0.6632864578798816  0.3129681847799062  0.0606162855956483   T   T   T
  0.8299180171203441  0.3129968738024178  0.0605564954635002   T   T   T
  0.5797327494567428  0.1857804249460403  0.1394696492801126   T   T   T
  0.7463827598924657  0.1860689331106751  0.1396469098237374   T   T   T
  0.9131054681506361  0.1857368267560752  0.1393109250072130   T   T   T
  0.5797217920119109  0.4358249636356715  0.1394932148302705   T   T   T
  0.7464258975353679  0.4357693786927161  0.1394962705420210   T   T   T
  0.9131399658400268  0.4358443593637636  0.1393989977523157   T   T   T
  0.6634212401576309  0.0611959251547597  0.1667281051622996   T   T   T
  0.8296693082737159  0.0611071190375883  0.1666442683723124   T   T   T
  0.9967399820847854  0.0607219500275451  0.1664492727862275   T   T   T
  0.6630773982817373  0.3110262503157235  0.1668024948359713   T   T   T
  0.8300707481412922  0.3110712241180120  0.1665977758875616   T   T   T
  0.9965884622957477  0.3109959275281359  0.1664864748271746   T   T   T
  0.5797253559181714  0.1874617327301130  0.1918161498636293   T   T   T
  0.7466568060814888  0.1898246552588962  0.1926756886449406   T   T   T
  0.9137320482073392  0.1869486392275587  0.1914823491734099   T   T   T
  0.5798796785425651  0.4385058222532219  0.1919870220887980   T   T   T
  0.7467034093691408  0.4379325163747433  0.1919708530492769   T   T   T
  0.9134641002277990  0.4385256887566951  0.1918700179510101   T   T   T
  0.5798002136775368  0.1858817282517233  0.0859367007070072   T   T   T
  0.7464212722998360  0.1858801466591714  0.0860193606182126   T   T   T
  0.9131388141109787  0.1859189597054689  0.0858281597513770   T   T   T
  0.5798147776017255  0.4358729719700190  0.0859460925956166   T   T   T
  0.7464296689057720  0.4358488422708208  0.0859712651551693   T   T   T
  0.9130987489230391  0.4359145899418571  0.0858845165734387   T   T   T
  0.6631044702006607  0.0608679086883372  0.1131532821411548   T   T   T
  0.8297648796908627  0.0608552773758959  0.1130945533560256   T   T   T
  0.9964553883493426  0.0606890301785221  0.1129949649420085   T   T   T
  0.6630624100424301  0.3107771318999451  0.1131716193637050   T   T   T
  0.8298003958824254  0.3107894701279282  0.1130644850400793   T   T   T
  0.9964471877773283  0.3107855978460326  0.1129873243390192   T   T   T
  0.9966903023494065  0.5630638277944610  0.0604955867597664   T   T   T
  0.6633717022941904  0.5630500211885138  0.0605598670458730   T   T   T
  0.8299904476940568  0.5630642686195085  0.0605348899628140   T   T   T
  0.9966612663074613  0.8130765891345597  0.0605027650262766   T   T   T
  0.6632730310288731  0.8130089607583535  0.0605779318055599   T   T   T
  0.8299298888308432  0.8130372889629285  0.0605433256626546   T   T   T
  0.5797898074201052  0.6858186573970303  0.1394807954031341   T   T   T
  0.7464568790422211  0.6858898362796308  0.1394727329064029   T   T   T
  0.9130997374045874  0.6857956496367494  0.1394408176022448   T   T   T
  0.5798341043323588  0.9358860550541640  0.1395355977580552   T   T   T
  0.7463903133716298  0.9357988075681890  0.1394936739243148   T   T   T
  0.9129939103541468  0.9358601048727562  0.1394663415789716   T   T   T
  0.6633142650599845  0.5610047337458397  0.1665948350828883   T   T   T
  0.8299321835131314  0.5609898652699060  0.1665606545249393   T   T   T
  0.9967256287733276  0.5610458547983509  0.1665224242330247   T   T   T
  0.6633113354419010  0.8109471692079261  0.1666361195850635   T   T   T
  0.8299941178219264  0.8109716521191306  0.1666095539553267   T   T   T
  0.9966288139889049  0.8109474106613762  0.1665669357237956   T   T   T
  0.5801345483466904  0.6880501634137663  0.1920028413410095   T   T   T
  0.7468019550925817  0.6880216345304865  0.1919815288497463   T   T   T
  0.9134327758021179  0.6880816503719098  0.1919324502648097   T   T   T
  0.5801126175285152  0.9381433217041918  0.1920399180118920   T   T   T
  0.7468010637615632  0.9379940375134289  0.1920193943798950   T   T   T
  0.9134829139363145  0.9381919914061013  0.1919483616727657   T   T   T
  0.5798338536316417  0.6858734036115287  0.0859355371600806   T   T   T
  0.7464744208043687  0.6859005367971444  0.0859427192938107   T   T   T
  0.9131305383346898  0.6859147163819481  0.0859003648651463   T   T   T
  0.5798335100409110  0.9358809771874446  0.0859612034394596   T   T   T
  0.7464313443168571  0.9358587463688661  0.0859699370993355   T   T   T
  0.9130996998029213  0.9359193830957777  0.0859095517724317   T   T   T
  0.6630951088054118  0.5607832835487284  0.1131005245378379   T   T   T
  0.8297835451793738  0.5607816859430206  0.1130647531059595   T   T   T
  0.9964465857950822  0.5607734900977817  0.1130277370470580   T   T   T
  0.6631042747273775  0.8107870969407849  0.1131111363757211   T   T   T
  0.8297847283468824  0.8108048821264303  0.1130787485610357   T   T   T
  0.9964114101138163  0.8107936691444405  0.1130461876173388   T   T   T
  0.0395449087933276  0.1780192549061660  0.0265672771158644   T   T   T
  0.2059135413851415  0.1778991698272298  0.0266629907729781   T   T   T
  0.3726230010743486  0.1778939148224649  0.0266733777957709   T   T   T
  0.0395482473950880  0.4280079032726229  0.0265311381259165   T   T   T
  0.2057211016080749  0.4277733639723936  0.0266658105971493   T   T   T
  0.3723465136415827  0.4277455388718734  0.0266653192494713   T   T   T
  0.1619215611864975  0.0267582842590757  0.0450032718774098   T   T   T
  0.3286374818102013  0.0267634377480289  0.0450317436460854   T   T   T
  0.4953058978325565  0.0267352645623953  0.0450319748616981   T   T   T
  0.1618782471772708  0.2767583286918046  0.0450113556553761   T   T   T
  0.3286104500625441  0.2767771546112617  0.0450154085213780   T   T   T
  0.4952847586309049  0.2767244851803335  0.0450144474621012   T   T   T
  0.4145850047770082  0.4019510482516990  0.2074867534111357   T   T   T
  0.4142078486940080  0.1517928753984675  0.2075071808998642   T   T   T
  0.0807575889598686  0.1520400447776893  0.2075392780079480   T   T   T
  0.2477528285964261  0.1518390793087044  0.2075073110703352   T   T   T
  0.0810913098706911  0.4016944228285009  0.2074892058367297   T   T   T
  0.2478157001363412  0.4017578483578328  0.2074911911439803   T   T   T
  0.0391956248612260  0.0509790164741327  0.2256045087427638   T   T   T
  0.2054115566698586  0.0511763586456005  0.2257333381558696   T   T   T
  0.3722844066558000  0.0510536826561383  0.2256762282363305   T   T   T
  0.0318552148494999  0.3022474151896005  0.2268216618377202   T   T   T
  0.2061803134530909  0.3011383686101243  0.2256061301889502   T   T   T
  0.3722030132618423  0.3011108444831071  0.2256952187191975   T   T   T
  0.0393478684985314  0.6780087889429834  0.0266051475076477   T   T   T
  0.2059990530621536  0.6779513420714849  0.0266389293088699   T   T   T
  0.3726739767725896  0.6779233510413692  0.0266613614961335   T   T   T
  0.0393240391732553  0.9278265334336244  0.0265718485765733   T   T   T
  0.2057504792047182  0.9277100883798439  0.0266459987665806   T   T   T
  0.3726234225735253  0.9277841859432132  0.0266435057080080   T   T   T
  0.1618902418723616  0.5267794110997689  0.0450069172114701   T   T   T
  0.3286541632107374  0.5267728162070807  0.0450188260063045   T   T   T
  0.4952685429449052  0.5267382528569333  0.0450243927556941   T   T   T
  0.1618982807433447  0.7767516937346381  0.0449931744143673   T   T   T
  0.3286275099757153  0.7767861994741999  0.0450033321600551   T   T   T
  0.4953206469160420  0.7767533421649275  0.0450470831199436   T   T   T
  0.4144178131763141  0.9017767813092542  0.2075090001409703   T   T   T
  0.4143603367572488  0.6519052578656335  0.2074931079098844   T   T   T
  0.0811965909742146  0.6518857424050529  0.2074641376877628   T   T   T
  0.2478553560226494  0.6518892627190449  0.2075065773737348   T   T   T
  0.0810711678166350  0.9018649482860622  0.2074691997110367   T   T   T
  0.2477174213343850  0.9017535592739597  0.2075049265138041   T   T   T
  0.0389636917819276  0.5514947685898505  0.2256277140663595   T   T   T
  0.2055603359685603  0.5512206639980864  0.2256776219755442   T   T   T
  0.3721593021361075  0.5514132811613827  0.2256508223578846   T   T   T
  0.0387918822738492  0.8012433524768082  0.2257008257173794   T   T   T
  0.2054269563156481  0.8013587641185074  0.2257150886490215   T   T   T
  0.3724745759115166  0.8010915034476378  0.2256434720718583   T   T   T
  0.5396469323354073  0.1780187894148306  0.0266521260612047   T   T   T
  0.7057688836288137  0.1779967127402963  0.0267539552255257   T   T   T
  0.8722351954901154  0.1777416824607903  0.0266371744079862   T   T   T
  0.5397613277945287  0.4279787106168519  0.0266174969598525   T   T   T
  0.7055597144346776  0.4277052299589127  0.0267124534748853   T   T   T
  0.8715982158698012  0.4274686259186337  0.0267405588731073   T   T   T
  0.6620062830271473  0.0267895270001936  0.0451016322275527   T   T   T
  0.8283794856405855  0.0267786402996446  0.0450440208206013   T   T   T
  0.9952854997245439  0.0267896828530981  0.0449477485601251   T   T   T
  0.6618839333858029  0.2766369588198412  0.0451142094871178   T   T   T
  0.8284525717463523  0.2767324469006477  0.0450387179870279   T   T   T
  0.9951650955526745  0.2768547842229040  0.0449229535555597   T   T   T
  0.9143763587600399  0.4025459191325580  0.2074275970784874   T   T   T
  0.9147564358152609  0.1509702323948533  0.2070571968724030   T   T   T
  0.5805369447483837  0.1514982852207356  0.2073948913695543   T   T   T
  0.7479559694650321  0.1530082289478928  0.2080881461950089   T   T   T
  0.5807647122617324  0.4021845051003577  0.2074890665492868   T   T   T
  0.7470683642070705  0.4017244382634875  0.2075011192978136   T   T   T
  0.5386200463876099  0.0513201080993397  0.2257279244530271   T   T   T
  0.7057697426744460  0.0506318703865827  0.2258632548386604   T   T   T
  0.8723644681561938  0.0510295179461139  0.2257405415748661   T   T   T
  0.5415949957005421  0.3004335405060287  0.2246491822649789   T   T   T
  0.6878742829171621  0.3097598653884499  0.2289971892977743   T   T   T
  0.8897548753130345  0.2952957078768026  0.2231360730584834   T   T   T
  0.7707553236653829  0.3053597368302286  0.2742875475769537   T   T   T
  0.7440185501995148  0.2373023577902730  0.2934802114690095   T   T   T
  0.7844968486352875  0.3194762766409224  0.3032620090246568   T   T   T
  0.6556510655998327  0.1930326038209910  0.3096773261309636   T   T   T
  0.7105005622618199  0.1296028630793756  0.3023789527572387   T   T   T
  0.8258370792918039  0.3655629607588421  0.3333196167170426   T   T   T
  0.7429220481578728  0.3787749560855883  0.3308507267931380   T   T   T
  0.7552726261304107  0.3964666401903604  0.2524476799547699   T   T   T
  0.7909968923178800  0.3256678235670855  0.2391878464593499   T   T   T
  0.5395152708071719  0.6780276999431899  0.0266493444025408   T   T   T
  0.7059523850421975  0.6779941037863828  0.0266736909113178   T   T   T
  0.8723180367093288  0.6778542172215962  0.0266782086551326   T   T   T
  0.5395047065329499  0.9279639400034023  0.0266548143889066   T   T   T
  0.7055681126320597  0.9277800237868998  0.0267023257066980   T   T   T
  0.8721302111277436  0.9277435357576783  0.0266620726497409   T   T   T
  0.6619291288304254  0.5267243080595495  0.0450615676835228   T   T   T
  0.8285576655811214  0.5267921842162645  0.0450281442943580   T   T   T
  0.9952029390466727  0.5268052282919468  0.0449733088021302   T   T   T
  0.6618746186638421  0.7767560487357064  0.0450562961325806   T   T   T
  0.8284803220614679  0.7768140941013996  0.0450190828645783   T   T   T
  0.9951596178951952  0.7767828085429932  0.0449878543459670   T   T   T
  0.9146279919278668  0.9019690449712779  0.2074852889096761   T   T   T
  0.9145961348306165  0.6519031315665454  0.2074710180684153   T   T   T
  0.5811652500913189  0.6518352701218242  0.2075363344965611   T   T   T
  0.7479996926500211  0.6518702270619892  0.2075347593247697   T   T   T
  0.5811100934740269  0.9018590943738951  0.2075618814108777   T   T   T
  0.7478477234562159  0.9017594466221196  0.2075429270397869   T   T   T
  0.5385015987870587  0.5517250050630688  0.2256950122253084   T   T   T
  0.7057121377643213  0.5523886099735977  0.2255411717769752   T   T   T
  0.8721234216277838  0.5518902978849859  0.2255996916364716   T   T   T
  0.5389327879699275  0.8010680722514304  0.2257389987714218   T   T   T
  0.7056330101382873  0.8012051953875435  0.2257407435384461   T   T   T
  0.8725727575402512  0.8010859941827483  0.2256521916912259   T   T   T
  0.0854337569692877  0.1672796540965516  0.0341135198637211   T   T   T
  0.2519474425887003  0.1671128703053822  0.0341190508879035   T   T   T
  0.4186416817011688  0.1670906700036669  0.0341356359430198   T   T   T
  0.0853776244509284  0.4172958526249815  0.0341171137200379   T   T   T
  0.2517449658867096  0.4170601172008478  0.0341454218999248   T   T   T
  0.4183261417038541  0.4170385587770224  0.0341651590993146   T   T   T
  0.1589801742970280  0.0422910108718389  0.2182940893753662   T   T   T
  0.3257444262841496  0.0420972875657640  0.2183080121250381   T   T   T
  0.4921590483208795  0.0422877838842109  0.2183237663868864   T   T   T
  0.1595086986425541  0.2923832871489673  0.2183053303266798   T   T   T
  0.3257144046051963  0.2922846941229349  0.2182862729563680   T   T   T
  0.4932862292546493  0.2918329486849566  0.2182694766582066   T   T   T
  0.0852939554492360  0.6672458848231512  0.0341165311769976   T   T   T
  0.2519914648575092  0.6671137681582907  0.0341131903185736   T   T   T
  0.4186718601207298  0.6671009555509086  0.0341318898951130   T   T   T
  0.0852586865012276  0.9172370647749921  0.0341134029695655   T   T   T
  0.2517727535466474  0.9170997212360332  0.0341361679368734   T   T   T
  0.4186126639415458  0.9171080906239912  0.0341399220031126   T   T   T
  0.1590620699177451  0.5421264764648932  0.2182978416187203   T   T   T
  0.3256168265268723  0.5422204886984957  0.2183128254540481   T   T   T
  0.4920724476574133  0.5427462580751172  0.2182682309844046   T   T   T
  0.1589941469428796  0.7923039151012287  0.2182982220081691   T   T   T
  0.3258675384060215  0.7924428673170105  0.2182862062367174   T   T   T
  0.4924445538541403  0.7922118466545189  0.2183325049349523   T   T   T
  0.5855498820845580  0.1671547191817386  0.0341757549283185   T   T   T
  0.7517366375458273  0.1672018321482573  0.0342513883843862   T   T   T
  0.9183208412956148  0.1669856104758271  0.0340650238199836   T   T   T
  0.5855746595490003  0.4171254093717325  0.0341887263166218   T   T   T
  0.7515676023613304  0.4170143539844396  0.0342062095380861   T   T   T
  0.9178248012870499  0.4170751586080393  0.0341296556703069   T   T   T
  0.6592993512698642  0.0422335593094073  0.2183975870452339   T   T   T
  0.8258574132220314  0.0423102458924773  0.2183302582324920   T   T   T
  0.9926417755987625  0.0427720930262458  0.2181682106790440   T   T   T
  0.6495606646166864  0.2927767593428160  0.2184010620408679   T   T   T
  0.8386340200725910  0.2921919858667766  0.2183798644747720   T   T   T
  0.9882655500343270  0.2914209903509399  0.2180523550663739   T   T   T
  0.7830051981996654  0.2792612216163794  0.2898419932684281   T   T   T
  0.6892727759958894  0.1780378294620576  0.2975591020600575   T   T   T
  0.7878716506833482  0.3764389200979938  0.3221762938857607   T   T   T
  0.7530548180225444  0.3409867554435123  0.2507844680633957   T   T   T
  0.5854099195787669  0.6671367350227767  0.0341743186020309   T   T   T
  0.7519239812095861  0.6670901449081282  0.0341489281989316   T   T   T
  0.9183827853455119  0.6670926007355071  0.0341223305050298   T   T   T
  0.5854136639913172  0.9172038599942181  0.0341820695664992   T   T   T
  0.7515855232201225  0.9171163817708154  0.0341947931139022   T   T   T
  0.9181341955608318  0.9170514588128397  0.0341495757372504   T   T   T
  0.6591812346391108  0.5421654341405566  0.2183266391697250   T   T   T
  0.8256206631205648  0.5422464707197630  0.2182906477688197   T   T   T
  0.9924654388618100  0.5426446567842639  0.2182242071365459   T   T   T
  0.6591696337207672  0.7921639404459745  0.2183406893599653   T   T   T
  0.8259699423658646  0.7922264736948568  0.2183076906835487   T   T   T
  0.9923344794412358  0.7923191767914157  0.2182778661907193   T   T   T
  0.2468083638999131  0.1217653378806202  0.0596923039485876   T   T   T
  0.4134866198197901  0.1217833194670941  0.0597113276631030   T   T   T
  0.0800611565324977  0.3718219827245183  0.0596583383754746   T   T   T
  0.2467083878686545  0.3717242347997191  0.0597189959196498   T   T   T
  0.4133716750485452  0.3717252668544613  0.0597294690779789   T   T   T
  0.0801131821830148  0.1217774312191181  0.0596553311104837   T   T   T
  0.4963806736157927  0.4983484446913559  0.1397226137288398   T   T   T
  0.1630902173230852  0.4983057140567703  0.1397160704285498   T   T   T
  0.3297903658809149  0.4983030006324644  0.1397165148450700   T   T   T
  0.4964128788297110  0.2483033194547705  0.1397299854085826   T   T   T
  0.1631069398654776  0.2482640706721537  0.1397159086889888   T   T   T
  0.3297999714182051  0.2483044941595004  0.1397223459053010   T   T   T
  0.0799020468421850  0.1231614700237910  0.1660642591567048   T   T   T
  0.2465939168313310  0.1230652513786849  0.1660774336622882   T   T   T
  0.4131746588921620  0.1230262317759573  0.1660861417798262   T   T   T
  0.0799800059430857  0.3731342612488983  0.1660565388366815   T   T   T
  0.2465977316117370  0.3731049904321995  0.1660703238506912   T   T   T
  0.4132315118611447  0.3731523125825940  0.1661043064724235   T   T   T
  0.1633819922384923  0.4966558332574982  0.1927353263735217   T   T   T
  0.3299689967264386  0.4967445061569009  0.1927420096807060   T   T   T
  0.4965441499975424  0.4970777696883885  0.1927343798953525   T   T   T
  0.1634130200539838  0.2468843375727352  0.1927746773839497   T   T   T
  0.4964439582522809  0.2464542404412021  0.1926876453093216   T   T   T
  0.3298748012257645  0.2466934841472939  0.1927271801561204   T   T   T
  0.4965067167505088  0.4980741390126714  0.0864379484195931   T   T   T
  0.1631877551077210  0.4981126382833874  0.0864133427747992   T   T   T
  0.3298530530794736  0.4981254810742140  0.0864224797802796   T   T   T
  0.4965002515914771  0.2480961229250672  0.0864334246863550   T   T   T
  0.1631482888111044  0.2480676025851849  0.0864088298451466   T   T   T
  0.3298058339346097  0.2480843012675956  0.0864275518452874   T   T   T
  0.0797653751674001  0.1232477888000266  0.1127455549324415   T   T   T
  0.2464463110616568  0.1232708714827405  0.1127994038953151   T   T   T
  0.4131375678710632  0.1232904449651261  0.1128019432344841   T   T   T
  0.0798030409195878  0.3732799012337511  0.1127625856743331   T   T   T
  0.2464536470322385  0.3732524020121080  0.1128042747030780   T   T   T
  0.4131352167714277  0.3732887270654829  0.1128050995642977   T   T   T
  0.2468028195795220  0.6217724981934898  0.0596894367365348   T   T   T
  0.4135023747746647  0.6217862235247068  0.0597096201090010   T   T   T
  0.0800760383459463  0.8717641916414801  0.0596649296423599   T   T   T
  0.2467474977118122  0.8717354378939256  0.0597057167587622   T   T   T
  0.4134391472858500  0.8717923335341768  0.0597138031511762   T   T   T
  0.0800886594722000  0.6218091702833328  0.0596734972837008   T   T   T
  0.4963774032610671  0.9982426079226511  0.1397330103761585   T   T   T
  0.1630642361477740  0.9982932652055492  0.1397143241715413   T   T   T
  0.3297915412385224  0.9982523465377654  0.1397288886466336   T   T   T
  0.4964409824759933  0.7483057809134726  0.1397484476943979   T   T   T
  0.1631049711537074  0.7482770594972741  0.1397057255288081   T   T   T
  0.3297782528095319  0.7483110176890780  0.1397171473057323   T   T   T
  0.0800205409137690  0.6232239232839352  0.1660546514965212   T   T   T
  0.2466372117514117  0.6231020619660540  0.1660717612822448   T   T   T
  0.4132244135572550  0.6232103689709513  0.1660830818617677   T   T   T
  0.0799508984291770  0.8730849664604613  0.1660687619491511   T   T   T
  0.2465862502234884  0.8730780152400698  0.1660686508862722   T   T   T
  0.4132885398789075  0.8730569858099511  0.1661082739178307   T   T   T
  0.1634064433841985  0.9967326858374007  0.1927439476622672   T   T   T
  0.3300168492933331  0.9966368426633420  0.1927404943993540   T   T   T
  0.4966504222056624  0.9967591560977316  0.1927697589569100   T   T   T
  0.1634129703267414  0.7467875921204222  0.1927421035792818   T   T   T
  0.4967381502046451  0.7466973823610799  0.1927711683569594   T   T   T
  0.3300027304735492  0.7468121343598971  0.1927444450230245   T   T   T
  0.4965291519042672  0.9980794752218421  0.0864432746605590   T   T   T
  0.1632020382068857  0.9980745725602532  0.0864033175386328   T   T   T
  0.3298626143007627  0.9981137925525696  0.0864376314693937   T   T   T
  0.4965391974055676  0.7480844101303966  0.0864492245299856   T   T   T
  0.1631733372751103  0.7480714138958507  0.0864009724206089   T   T   T
  0.3298219602402483  0.7481059519114934  0.0864134236082964   T   T   T
  0.0797730021500707  0.6233040308041585  0.1127689377131327   T   T   T
  0.2464611382425406  0.6232732426674501  0.1127962707057803   T   T   T
  0.4131383226229360  0.6233246353670930  0.1127963731803912   T   T   T
  0.0797918793712605  0.8732412443091051  0.1127631019633828   T   T   T
  0.2464322679184464  0.8732670800711285  0.1128005793022470   T   T   T
  0.4131389989760423  0.8732404222660514  0.1128072052601758   T   T   T
  0.7466559657316136  0.1217348611220059  0.0598015005373646   T   T   T
  0.9133627460108857  0.1217409551366421  0.0596454045286723   T   T   T
  0.5800880516409955  0.3717305137009194  0.0597439910489497   T   T   T
  0.7466360130715594  0.3716814985485236  0.0597787682229110   T   T   T
  0.9132812693226444  0.3717273026862528  0.0597015008696758   T   T   T
  0.5801124681574383  0.1217764985203415  0.0597381501633968   T   T   T
  0.9964897294888512  0.4983434161310726  0.1396734846734293   T   T   T
  0.6630435272078881  0.4983228950906676  0.1397428800909348   T   T   T
  0.8297733941650045  0.4983151796707383  0.1397057917063563   T   T   T
  0.9964299577319089  0.2482494480342379  0.1395976827857882   T   T   T
  0.6629185084173187  0.2484314798019381  0.1398690199940600   T   T   T
  0.8298413023469983  0.2483350533407243  0.1396897267194993   T   T   T
  0.5797973215068006  0.1229103171567420  0.1660575536582628   T   T   T
  0.7464828558122790  0.1238884925170816  0.1664073088090025   T   T   T
  0.9133404466639549  0.1224695000972188  0.1657776922107373   T   T   T
  0.5797328542606902  0.3732925245997738  0.1661614206668061   T   T   T
  0.7464385858635602  0.3729805217677897  0.1660916951808275   T   T   T
  0.9133688471936353  0.3734170870854435  0.1660304966345360   T   T   T
  0.6632653987414401  0.4968845369204669  0.1927299178163933   T   T   T
  0.8300273822703274  0.4969258916453225  0.1927026144575957   T   T   T
  0.9968038580602104  0.4970108513184738  0.1926853311021326   T   T   T
  0.6620771239805368  0.2475276651932828  0.1932113038630761   T   T   T
  0.9965233964735143  0.2462405010100883  0.1924176204145027   T   T   T
  0.8312696185123665  0.2465031510147788  0.1925625886656933   T   T   T
  0.9965204261783293  0.4980633030482458  0.0863890951302456   T   T   T
  0.6631424277041742  0.4981015790301657  0.0864639730863438   T   T   T
  0.8297671493448492  0.4981060479741150  0.0864239570058778   T   T   T
  0.9965019545630484  0.2480949544761513  0.0863350992482583   T   T   T
  0.6631282914319376  0.2480653116086268  0.0865154413918323   T   T   T
  0.8297815376359000  0.2480478481189910  0.0864269054613394   T   T   T
  0.5797371522030327  0.1233520230352042  0.1128161580812665   T   T   T
  0.7464009379255208  0.1233973384522947  0.1129261529335275   T   T   T
  0.9131636037127389  0.1232608121301410  0.1126810983646489   T   T   T