C H O Si                                
   1.00000000000000     
    18.5749199999999988    0.0000000000000000    0.0000000000000000
     0.0000000000000000   17.5126199999999983    0.0000000000000000
     0.0000000000000000    0.0000000000000000   58.0000000000000000
   C    H    O    Si
   144   105    52   144
Selective dynamics
Direct
  0.4966376566199129  0.0629711037096632  0.0605491879725835   T   T   T
  0.1632033847288513  0.0629713360201461  0.0605126519597401   T   T   T
  0.3299318716023207  0.0629426937558629  0.0605315294387922   T   T   T
  0.4965840864040076  0.3129941592937815  0.0605264632808915   T   T   T
  0.1632059271785323  0.3129965113340153  0.0605024820329469   T   T   T
  0.3299141248801570  0.3130031637462223  0.0605024220656101   T   T   T
  0.0796045249350219  0.1858591564740106  0.1394102360056458   T   T   T
  0.2462232792943867  0.1858401000454819  0.1394247399669443   T   T   T
  0.4128959426942672  0.1858279089172025  0.1394357167255422   T   T   T
  0.0796033538326756  0.4358972738321919  0.1393938211331915   T   T   T
  0.2462488292662142  0.4358683904183302  0.1394170834607852   T   T   T
  0.4129047386622554  0.4359115831523248  0.1394185338148520   T   T   T
  0.1630667109018785  0.0609558835962587  0.1666134831882026   T   T   T
  0.3296889661974786  0.0608853312655683  0.1666434199410963   T   T   T
  0.4963410628484727  0.0607555160417904  0.1666015534631796   T   T   T
  0.1630376774456462  0.3109414376661246  0.1666204768994967   T   T   T
  0.3297093852055035  0.3109768135418627  0.1665908562481675   T   T   T
  0.4963556667078289  0.3110242488636035  0.1666099032334463   T   T   T
  0.0799183478736231  0.1882321689625692  0.1920222724265106   T   T   T
  0.2465870914025032  0.1881084101919181  0.1919705778756565   T   T   T
  0.4131021568397101  0.1880364372079586  0.1919507019202095   T   T   T
  0.0799699742668283  0.4380281893415650  0.1919753797644785   T   T   T
  0.2466870676749374  0.4380532206060617  0.1919654891523292   T   T   T
  0.4133693529936766  0.4381653689310012  0.1919616832014518   T   T   T
  0.0795686665163966  0.1859233042120750  0.0858556953115911   T   T   T
  0.2462651571422038  0.1858804142651972  0.0858897344711238   T   T   T
  0.4129537960765574  0.1858607252337499  0.0858969867605681   T   T   T
  0.0795728073607206  0.4359185316734826  0.0858512102643053   T   T   T
  0.2462448990590399  0.4358922361259441  0.0858597931089888   T   T   T
  0.4129374856205973  0.4358817820593800  0.0858695673989416   T   T   T
  0.1628253652028200  0.0608379243767747  0.1130121344121130   T   T   T
  0.3294924730250413  0.0608181504929064  0.1130301436966648   T   T   T
  0.4961626416277341  0.0608036846016094  0.1130501756628446   T   T   T
  0.1628310430567214  0.3108706970023259  0.1130138675931456   T   T   T
  0.3294985432583752  0.3108567214097547  0.1130167595285156   T   T   T
  0.4961622676588241  0.3108544110976493  0.1130395341528068   T   T   T
  0.4966087783317655  0.5629309499253967  0.0605249377191368   T   T   T
  0.1632208111694102  0.5629692769141955  0.0605090071985426   T   T   T
  0.3299320577205053  0.5629422387310981  0.0605276022479362   T   T   T
  0.4966176486026534  0.8129656658956425  0.0605467829769468   T   T   T
  0.1632142246028435  0.8129797719245946  0.0604967154755201   T   T   T
  0.3299166299347974  0.8129759165677595  0.0605052032232484   T   T   T
  0.0796436045303910  0.6858996016537990  0.1394051410108834   T   T   T
  0.2462513405560362  0.6858428196618361  0.1394223987152427   T   T   T
  0.4129221476093939  0.6859119975538845  0.1394217227232975   T   T   T
  0.0796682166527610  0.9357376770813199  0.1393730999360187   T   T   T
  0.2462520610132758  0.9358429228264571  0.1394097322948740   T   T   T
  0.4128860593823341  0.9357932699247153  0.1394218751340929   T   T   T
  0.1630763486261627  0.5609013013696253  0.1666230967727493   T   T   T
  0.3297456840076211  0.5609890049219373  0.1666225589428377   T   T   T
  0.4963931591323989  0.5611129666216708  0.1665799450574881   T   T   T
  0.1631401605556806  0.8109654300933560  0.1666049726946793   T   T   T
  0.3297537228167324  0.8109738523037375  0.1665841325509439   T   T   T
  0.4964356393853121  0.8109514401579504  0.1666517651982028   T   T   T
  0.0800769645135606  0.6880855650529729  0.1919617495097222   T   T   T
  0.2467277634249801  0.6881351071616220  0.1919851142409486   T   T   T
  0.4133574300490483  0.6881424209853061  0.1919813312622577   T   T   T
  0.0800221538319805  0.9381001320232563  0.1919520349011082   T   T   T
  0.2466809904316860  0.9380993084712093  0.1919833184848453   T   T   T
  0.4133529375150711  0.9380332676673148  0.1919887543724609   T   T   T
  0.0795692292765353  0.6859196846642159  0.0858547104666857   T   T   T
  0.2462600206756708  0.6858700109688444  0.0858766400760385   T   T   T
  0.4129461547361821  0.6858804867388276  0.0858880173084483   T   T   T
  0.0795752436925029  0.9358816680572944  0.0858519382715926   T   T   T
  0.2462447567083309  0.9358976887142686  0.0858643973017070   T   T   T
  0.4129417849378427  0.9358590806746827  0.0858910750180484   T   T   T
  0.1628284306152149  0.5608525335590683  0.1130089126339784   T   T   T
  0.3294819649488157  0.5608507340649090  0.1130249687303023   T   T   T
  0.4961667888865841  0.5608446027256007  0.1130251243769817   T   T   T
  0.1628808126051908  0.8108323572275687  0.1129966641917404   T   T   T
  0.3295013528873879  0.8108460479072064  0.1130037991477355   T   T   T
  0.4961931923845337  0.8108753127916607  0.1130527109967556   T   T   T
  0.9965512371474018  0.0629685097499418  0.0604542446292587   T   T   T
  0.6632956582126429  0.0630509404588792  0.0605898361167064   T   T   T
  0.8298808592321820  0.0629661586625751  0.0605350196768033   T   T   T
  0.9964284839292630  0.3131117896442507  0.0604416773683882   T   T   T
  0.6632197935500155  0.3129873334652253  0.0606023369063912   T   T   T
  0.8297956131130140  0.3129613777184646  0.0605338316636619   T   T   T
  0.5795449537819980  0.1858322909708986  0.1394457061721948   T   T   T
  0.7462493308303177  0.1859762391475956  0.1396215685397816   T   T   T
  0.9129126790039258  0.1857637962120834  0.1392859383716663   T   T   T
  0.5795874347695481  0.4359439669150338  0.1394577852736649   T   T   T
  0.7462672613618282  0.4358518898128840  0.1394643929529382   T   T   T
  0.9129269327758116  0.4359399617470266  0.1393749855645582   T   T   T
  0.6632115208773788  0.0612555414692574  0.1667655836847645   T   T   T
  0.8294625362898421  0.0611398093490026  0.1666886667526515   T   T   T
  0.9965711622554623  0.0606798863018552  0.1664617114663829   T   T   T
  0.6629918089600404  0.3111189520875844  0.1667875794526044   T   T   T
  0.8298061604859013  0.3110817884687865  0.1666124806388563   T   T   T
  0.9964000461724020  0.3110194731619503  0.1664743150717211   T   T   T
  0.5796364917600437  0.1876427645003132  0.1918045303884622   T   T   T
  0.7464813333011819  0.1897914302520530  0.1926645002121798   T   T   T
  0.9135358925297933  0.1870163137111045  0.1914545252411437   T   T   T
  0.5798974737013001  0.4385174767354232  0.1919895754117357   T   T   T
  0.7466972667080062  0.4380119549854812  0.1919854824430368   T   T   T
  0.9134919503582906  0.4384845016626449  0.1918589919731506   T   T   T
  0.5796047188794213  0.1858789147229245  0.0859177401891029   T   T   T
  0.7462649537639524  0.1858925273378736  0.0859910859699579   T   T   T
  0.9129012654731663  0.1858885529029659  0.0858048871657283   T   T   T
  0.5796407550738265  0.4358386953568967  0.0859217661023832   T   T   T
  0.7462712333043192  0.4358722909295312  0.0859100600235919   T   T   T
  0.9129015933630663  0.4359140603853636  0.0858427676788615   T   T   T
  0.6628605653297364  0.0608615285600838  0.1131157946480150   T   T   T
  0.8294522022619383  0.0608075548016489  0.1130495917819760   T   T   T
  0.9961733253969461  0.0608064935690673  0.1129632168968619   T   T   T
  0.6628330249417135  0.3108484238650789  0.1131383937229077   T   T   T
  0.8295135605331428  0.3108601945374227  0.1130387319827863   T   T   T
  0.9961678066468268  0.3108759222674287  0.1129552189418388   T   T   T
  0.9965281655516387  0.5629848345799053  0.0604781117665329   T   T   T
  0.6632621950701947  0.5629640379634383  0.0605541387396708   T   T   T
  0.8298882727940460  0.5629597190581354  0.0605338820887180   T   T   T
  0.9964702341694552  0.8130138595664115  0.0604697263194943   T   T   T
  0.6632774960991422  0.8129652767855150  0.0605507098434401   T   T   T
  0.8298371794225450  0.8130258925382648  0.0605059886864093   T   T   T
  0.5796194012785508  0.6858947062164784  0.1394541301440811   T   T   T
  0.7462677291903710  0.6859200051088208  0.1394432568279193   T   T   T
  0.9129431319222697  0.6858766955000400  0.1394094795758094   T   T   T
  0.5796683052263836  0.9359287209586452  0.1394879781110136   T   T   T
  0.7462174438194318  0.9357990232559114  0.1394596634403624   T   T   T
  0.9128694870699200  0.9359468693613759  0.1394223788213256   T   T   T
  0.6631430099961582  0.5610372658421175  0.1666506431870552   T   T   T
  0.8296866013288099  0.5610103792350276  0.1666020669217662   T   T   T
  0.9964758691643192  0.5610539716372623  0.1665302204473984   T   T   T
  0.6631180095077136  0.8109419053750021  0.1666692351939224   T   T   T
  0.8297995933137727  0.8109867653683680  0.1666217137875137   T   T   T
  0.9964675081043777  0.8109660901508187  0.1665976134951906   T   T   T
  0.5800737460432200  0.6881156634541120  0.1920147533498753   T   T   T
  0.7467647498165325  0.6881638906837289  0.1919957926996804   T   T   T
  0.9134203871939898  0.6880827602785357  0.1919549304760642   T   T   T
  0.5800371126852750  0.9380896682786655  0.1920209921610351   T   T   T
  0.7466972403095212  0.9380738295578886  0.1920210437244232   T   T   T
  0.9134252134840967  0.9381461446736584  0.1919648358149592   T   T   T
  0.5796174382607548  0.6858671496365084  0.0859021525426520   T   T   T
  0.7462453973199707  0.6858706772643145  0.0859051232644795   T   T   T
  0.9128985055878327  0.6859189829065714  0.0858538199090307   T   T   T
  0.5796582589921490  0.9359069406692705  0.0859332341891259   T   T   T
  0.7462490522034283  0.9359012169478320  0.0858955483776714   T   T   T
  0.9128907384454390  0.9359238473765236  0.0858523390928087   T   T   T
  0.6628669403653732  0.5608457066115158  0.1130687076189828   T   T   T
  0.8294981670640541  0.5608880295809618  0.1130246419502674   T   T   T
  0.9961710877233776  0.5608864734924425  0.1129828390526366   T   T   T
  0.6628342685827869  0.8108251240962363  0.1130553902697281   T   T   T
  0.8295125326648753  0.8108507395651035  0.1130201397357157   T   T   T
  0.9961611063419907  0.8108758416901313  0.1130047219962783   T   T   T
  0.0402334489779767  0.1779456250748324  0.0265449678916162   T   T   T
  0.2066059504828509  0.1777667657001096  0.0266769371931245   T   T   T
  0.3733163639378413  0.1777768402365476  0.0266749727740884   T   T   T
  0.0401246834487552  0.4278872720156615  0.0265547746043983   T   T   T
  0.2062166261435395  0.4276266779492384  0.0266999508265024   T   T   T
  0.3728519211682530  0.4275981782710419  0.0267102925672731   T   T   T
  0.1617465771284800  0.0267864021804977  0.0449842630919899   T   T   T
  0.3284512201600882  0.0267703540639810  0.0449936835926821   T   T   T
  0.4951560755910637  0.0268265627388823  0.0450089842426930   T   T   T
  0.1616855217120773  0.2768157304220758  0.0449695109440864   T   T   T
  0.3283197747573656  0.2768393423812058  0.0449665330510961   T   T   T
  0.4950392917026404  0.2768287856747039  0.0449930625459049   T   T   T
  0.4144720916007631  0.4019802824219039  0.2074945747122920   T   T   T
  0.4141249155526316  0.1518437146600921  0.2074752556452427   T   T   T
  0.0804541955949436  0.1519775934329597  0.2075312521843644   T   T   T
  0.2476238265339451  0.1518977680910635  0.2074955286725723   T   T   T
  0.0809054286296298  0.4016425393958914  0.2074717912875063   T   T   T
  0.2477737675625602  0.4018231201729234  0.2074829124661303   T   T   T
  0.0397772834865941  0.0510783576154639  0.2256433076167204   T   T   T
  0.2059775044817444  0.0513034282188150  0.2257896368249743   T   T   T
  0.3730248607751228  0.0512756962968080  0.2257770894459871   T   T   T
  0.0316869713468261  0.3022186734214000  0.2268049412189738   T   T   T
  0.2065483289860493  0.3013350271498381  0.2256964783023053   T   T   T
  0.3728470316952833  0.3011392915171581  0.2257192215121758   T   T   T
  0.0400482601250889  0.6778955226912077  0.0266139828759702   T   T   T
  0.2067125418063481  0.6778183284418084  0.0266495258935360   T   T   T
  0.3733889449764634  0.6777994748571312  0.0266653690901812   T   T   T
  0.0399291568650222  0.9277319659629477  0.0265602903303327   T   T   T
  0.2062936152505083  0.9275565848465125  0.0266568875605318   T   T   T
  0.3732496501758274  0.9276340446886707  0.0266546135433774   T   T   T
  0.1617220379702359  0.5267716471704886  0.0449780173270576   T   T   T
  0.3284635252139431  0.5267875019631985  0.0449862917329151   T   T   T
  0.4951151299243718  0.5267783540864743  0.0449841796688812   T   T   T
  0.1617141355890314  0.7767866525430529  0.0449658505598753   T   T   T
  0.3284123586088203  0.7768372045520175  0.0449671575047285   T   T   T
  0.4951237854420784  0.7767857629065313  0.0450111400818206   T   T   T
  0.4143452459047920  0.9017486876853000  0.2074971998515980   T   T   T
  0.4142311997724323  0.6518111174971928  0.2074821123768122   T   T   T
  0.0810744825117986  0.6517928506461954  0.2074719590614035   T   T   T
  0.2477728399324214  0.6518871526534888  0.2075044580661751   T   T   T
  0.0809263485287169  0.9018161142960824  0.2074663921507692   T   T   T
  0.2476505045876083  0.9017711519050765  0.2074814465989226   T   T   T
  0.0395173989028489  0.5516401555432218  0.2256637998722951   T   T   T
  0.2061816487967361  0.5514099962712264  0.2257437554596414   T   T   T
  0.3728040514797019  0.5515824573093676  0.2256861277893867   T   T   T
  0.0393661361587362  0.8013613132052706  0.2257440235192390   T   T   T
  0.2059536281373723  0.8015084099516027  0.2257654674786080   T   T   T
  0.3731382004880704  0.8011634493316359  0.2256686338606036   T   T   T
  0.5402872842508715  0.1780172709741615  0.0265912064701035   T   T   T
  0.7064161037810698  0.1778470621465830  0.0267988802067382   T   T   T
  0.8728193484357277  0.1776551836562293  0.0266259257154908   T   T   T
  0.5403507568910437  0.4279664700606594  0.0265698322035761   T   T   T
  0.7060878665650062  0.4275092585486409  0.0267614577655570   T   T   T
  0.8719144469419740  0.4274373466485054  0.0267358755110474   T   T   T
  0.6618148448038107  0.0267289468335608  0.0450868421920009   T   T   T
  0.8281098317784259  0.0267995450043438  0.0449976148645112   T   T   T
  0.9950510856622271  0.0268136894139525  0.0449145701606261   T   T   T
  0.6616700456419450  0.2766286916711786  0.0451078661244617   T   T   T
  0.8282521026025866  0.2767904948707771  0.0449998899499333   T   T   T
  0.9948790433085073  0.2770253131449691  0.0448901176547583   T   T   T
  0.9142658948701335  0.4025463019766135  0.2074121602177586   T   T   T
  0.9147079088639412  0.1508784167550424  0.2069961812398566   T   T   T
  0.5805484634289598  0.1515492739213068  0.2073560074848697   T   T   T
  0.7477210852560390  0.1529527567335794  0.2080553678518622   T   T   T
  0.5806491222881901  0.4021943062794894  0.2074829514307765   T   T   T
  0.7469498873448474  0.4017177838658879  0.2074940954195351   T   T   T
  0.5392463658930938  0.0514810447927682  0.2258050182220902   T   T   T
  0.7063027931467282  0.0507204675628651  0.2259046553139541   T   T   T
  0.8730798963257183  0.0511394978531131  0.2257784420181049   T   T   T
  0.5418452274046722  0.3005978955733570  0.2247297845051787   T   T   T
  0.6882081409138489  0.3101003755789267  0.2290791466740003   T   T   T
  0.8897558458315896  0.2950933523873195  0.2231632218454394   T   T   T
  0.7707131771255342  0.3054934068850296  0.2742496116055921   T   T   T
  0.7441532477834374  0.2371647102446703  0.2934313706123055   T   T   T
  0.7846909953176405  0.3193742477899839  0.3032301510780911   T   T   T
  0.6559684961513617  0.1934931499950399  0.3096699801102814   T   T   T
  0.7105964127596508  0.1299217698131462  0.3023179205552653   T   T   T
  0.8257089123376122  0.3656082142379400  0.3333971809800321   T   T   T
  0.7428049829694012  0.3783746367889448  0.3308369024450450   T   T   T
  0.7553839456991998  0.3965119406325951  0.2524576810893068   T   T   T
  0.7912271457345516  0.3256260152848682  0.2391382519982615   T   T   T
  0.5401969628147851  0.6779611552132990  0.0266318932531783   T   T   T
  0.7066717222350096  0.6778681645863773  0.0266848264850819   T   T   T
  0.8729375938867724  0.6777465443373950  0.0266814382854640   T   T   T
  0.5401663001727390  0.9278646425744729  0.0266434927156482   T   T   T
  0.7060709774514544  0.9276030264786811  0.0267469852647702   T   T   T
  0.8725774252961278  0.9275956588134435  0.0267018350142024   T   T   T
  0.6617618520404347  0.5267250969926237  0.0450311413475251   T   T   T
  0.8283524543334339  0.5267771678715299  0.0449991000985972   T   T   T
  0.9949926503596704  0.5268340811824279  0.0449398289217166   T   T   T
  0.6616550392328940  0.7767644295550601  0.0450233610683038   T   T   T
  0.8281842875612605  0.7768446062751480  0.0449727884162022   T   T   T
  0.9948641078078819  0.7768175081792895  0.0449414203841758   T   T   T
  0.9145646137266616  0.9019244546420658  0.2074892186883706   T   T   T
  0.9144292785294094  0.6518582211636200  0.2074773367312824   T   T   T
  0.5810508260579299  0.6517610911327535  0.2075082051208383   T   T   T
  0.7478922142242833  0.6519321060312339  0.2075095256854740   T   T   T
  0.5809908344417479  0.9018589589400778  0.2075443232396424   T   T   T
  0.7477727925609635  0.9017777305332177  0.2075336265705658   T   T   T
  0.5391398699694637  0.5518328240192057  0.2257059553771711   T   T   T
  0.7063655071574814  0.5526402844463478  0.2256466780436421   T   T   T
  0.8727401298021055  0.5520775441349235  0.2256535979930784   T   T   T
  0.5396458601631837  0.8012479550889999  0.2257993447774274   T   T   T
  0.7063065712790008  0.8014488100859757  0.2258223918242944   T   T   T
  0.8732425014530361  0.8012034741106397  0.2256935976648698   T   T   T
  0.0859478305063030  0.1670655223600644  0.0341748915485785   T   T   T
  0.2525189640212254  0.1669300545328632  0.0342000969109402   T   T   T
  0.4192105357160097  0.1669131292773609  0.0342086254553627   T   T   T
  0.0858779453403801  0.4170386699375592  0.0341701819844385   T   T   T
  0.2523296663307741  0.4168717049463567  0.0341399353547596   T   T   T
  0.4189812050917809  0.4168875956455983  0.0341275770503970   T   T   T
  0.1595228750696663  0.0420689158115774  0.2184074631475020   T   T   T
  0.3264032260403565  0.0417857542684216  0.2185374470947332   T   T   T
  0.4928222436636990  0.0419958075916490  0.2184336198623231   T   T   T
  0.1598437463770801  0.2920622113059726  0.2184832836154905   T   T   T
  0.3262533581021395  0.2921575122859148  0.2183850562168434   T   T   T
  0.4934849884203573  0.2916632231205096  0.2184448554299478   T   T   T
  0.0858635562938236  0.6670585554394592  0.0341909667085819   T   T   T
  0.2525824918704063  0.6669521610040450  0.0341944492540437   T   T   T
  0.4192462699305659  0.6669170834402315  0.0341974418768345   T   T   T
  0.0857489400969906  0.9171281346734346  0.0341729351161333   T   T   T
  0.2523296089029178  0.9170007383843131  0.0341496041582114   T   T   T
  0.4191648019907601  0.9169526472659117  0.0342038421704211   T   T   T
  0.1596327182923475  0.5418969025343682  0.2184583161738846   T   T   T
  0.3261958599546202  0.5418824409633092  0.2184451831686310   T   T   T
  0.4926781011590023  0.5427856658540656  0.2183076414867562   T   T   T
  0.1595275503694416  0.7920356332861790  0.2184037748804772   T   T   T
  0.3265198095604558  0.7924272486319601  0.2183358669978450   T   T   T
  0.4930637814067179  0.7918856998410394  0.2185204931372697   T   T   T
  0.5860161624858460  0.1668767313858114  0.0342007148254413   T   T   T
  0.7524692521459168  0.1668894905348710  0.0342322678387848   T   T   T
  0.9188387933292158  0.1669182818680716  0.0341072746298929   T   T   T
  0.5860315506735991  0.4169374044086323  0.0342033884169746   T   T   T
  0.7522411610500391  0.4169749310834378  0.0341949707216719   T   T   T
  0.9182156295256406  0.4169300205645777  0.0340686935593662   T   T   T
  0.6597479154544816  0.0420454868697775  0.2185323951675119   T   T   T
  0.8264455032692115  0.0418553884203584  0.2185058857862030   T   T   T
  0.9932400739408345  0.0430006612683729  0.2181892878194071   T   T   T
  0.6502500398424907  0.2923135767217879  0.2184980347290335   T   T   T
  0.8386370403056840  0.2924887442011047  0.2183712406186834   T   T   T
  0.9881874504124816  0.2917719806805663  0.2179547023317997   T   T   T
  0.7830944971149263  0.2792949929923938  0.2898073116177757   T   T   T
  0.6894604401408455  0.1784261934745835  0.2975273822724589   T   T   T
  0.7879260607853297  0.3767536524864841  0.3221944659159272   T   T   T
  0.7534999623453054  0.3410024790359381  0.2508266133295353   T   T   T
  0.5860157481715105  0.6668868323576344  0.0341926289194200   T   T   T
  0.7525396366635804  0.6669140982708990  0.0342103748503410   T   T   T
  0.9189491026714040  0.6669615941564446  0.0341580902458337   T   T   T
  0.5859555937927922  0.9168522685631448  0.0342089777801414   T   T   T
  0.7522509141953106  0.9170172523639041  0.0341709180296771   T   T   T
  0.9187693425102683  0.9169424029777785  0.0340896840177399   T   T   T
  0.6598061576862335  0.5418434426441261  0.2185343374986413   T   T   T
  0.8262553575106264  0.5420153881956272  0.2184024395704743   T   T   T
  0.9930691306585480  0.5427936197402315  0.2182589103154151   T   T   T
  0.6597654082569715  0.7918254403704004  0.2185455403320105   T   T   T
  0.8265532941732523  0.7918171442546644  0.2184794106612284   T   T   T
  0.9928655438931958  0.7920376197353202  0.2184016482918530   T   T   T
  0.2466711122818404  0.1215899577460189  0.0597324049939865   T   T   T
  0.4133717491986095  0.1215997118623357  0.0597413191540174   T   T   T
  0.0799579382981113  0.3716787403660751  0.0596875388420861   T   T   T
  0.2466572930096961  0.3716406102823391  0.0597037567382329   T   T   T
  0.4133518422444727  0.3716695513560706  0.0596907161338468   T   T   T
  0.0799788396161562  0.1216640638565165  0.0596907664637461   T   T   T
  0.4962285402140093  0.4984744117781125  0.1397003856926981   T   T   T
  0.1629384698403750  0.4984450321124851  0.1396879713265431   T   T   T
  0.3295735049785724  0.4984445432149727  0.1397048575175605   T   T   T
  0.4962134015549568  0.2484101080447777  0.1397112793408170   T   T   T
  0.1629289406454568  0.2484225310390714  0.1396941062835207   T   T   T
  0.3295668021366745  0.2483898438069176  0.1396892555028013   T   T   T
  0.0797596719913742  0.1231280580072213  0.1660417937391306   T   T   T
  0.2463947261420510  0.1231592442371142  0.1660748013816422   T   T   T
  0.4130175371671383  0.1230491880628895  0.1660698004549846   T   T   T
  0.0798062365834215  0.3732215860794690  0.1660314367035098   T   T   T
  0.2463933524532859  0.3731607571071163  0.1660549917523645   T   T   T
  0.4130533052923031  0.3732141737370693  0.1660657912628441   T   T   T
  0.1633767876138974  0.4966943722091627  0.1928192115541457   T   T   T
  0.3299947294181452  0.4967407933920751  0.1927978180224037   T   T   T
  0.4965578750486562  0.4970697970794547  0.1927618717802880   T   T   T
  0.1633336484168632  0.2469149895924751  0.1928657206734125   T   T   T
  0.4963999871169767  0.2466192237155348  0.1927677126931024   T   T   T
  0.3298979810485397  0.2467698618632618  0.1927630608667389   T   T   T
  0.4963389033709452  0.4980162017448724  0.0864052480578617   T   T   T
  0.1629682313103907  0.4980468868820105  0.0863812605995588   T   T   T
  0.3296530671694545  0.4980247068877146  0.0863978497427998   T   T   T
  0.4962956037109237  0.2480640897589632  0.0864124160467486   T   T   T
  0.1629832869144662  0.2480604775310136  0.0863782830925960   T   T   T
  0.3296449213675755  0.2480595450869614  0.0863836413909489   T   T   T
  0.0795063421623867  0.1233561185004363  0.1127343638608304   T   T   T
  0.2461785711011761  0.1233534681464922  0.1127599379650966   T   T   T
  0.4128383854939898  0.1233556488166912  0.1127735019803572   T   T   T
  0.0795133076258943  0.3734094111894687  0.1127216158358703   T   T   T
  0.2461801997561020  0.3733991640307942  0.1127430208036026   T   T   T
  0.4128298348415188  0.3733922102867795  0.1127509642860475   T   T   T
  0.2466803755038075  0.6215972284269943  0.0597268782073461   T   T   T
  0.4133752719319860  0.6216163092090917  0.0597399354265621   T   T   T
  0.0799277113397197  0.8716546277882037  0.0596866575743758   T   T   T
  0.2466554352143746  0.8716642116485422  0.0596987759357918   T   T   T
  0.4133627016365117  0.8716261855017808  0.0597310890707970   T   T   T
  0.0799727772264611  0.6216487870383609  0.0597078731942311   T   T   T
  0.4962105601484231  0.9983128235093512  0.1397113676438072   T   T   T
  0.1629275635656993  0.9983753284375547  0.1396761681552773   T   T   T
  0.3295600128853731  0.9983894915023052  0.1397095779836338   T   T   T
  0.4962684238852662  0.7484322555485049  0.1397267608518360   T   T   T
  0.1629688227518837  0.7484395199577125  0.1396841227278724   T   T   T
  0.3295827845190680  0.7484196801552070  0.1396823186818841   T   T   T
  0.0798052724032535  0.6232226911820163  0.1660439991510672   T   T   T
  0.2464086217100615  0.6231869940354813  0.1660794774056466   T   T   T
  0.4130619611608523  0.6232461162425834  0.1660649426607380   T   T   T
  0.0797971088306940  0.8731511724499312  0.1660447917921098   T   T   T
  0.2464366714662819  0.8731911744061093  0.1660597050745597   T   T   T
  0.4130758344932602  0.8731573515425263  0.1660734950358925   T   T   T
  0.1633558449790994  0.9967512297627210  0.1927953259136428   T   T   T
  0.3300184685848592  0.9967290129933440  0.1928555257527868   T   T   T
  0.4966473887932870  0.9967251062303309  0.1928164492337206   T   T   T
  0.1633863319809087  0.7467806247715325  0.1927907539624328   T   T   T
  0.4967128269396801  0.7467659506565931  0.1928526630482815   T   T   T
  0.3300482306202697  0.7468490689708572  0.1927734958762788   T   T   T
  0.4963140983647892  0.9980227766107423  0.0864222578319618   T   T   T
  0.1629483820913249  0.9980324236263266  0.0863781912050669   T   T   T
  0.3296373294731880  0.9980182333783673  0.0863997448902798   T   T   T
  0.4963330741819584  0.7480384163875837  0.0864276289837290   T   T   T
  0.1629697114836606  0.7480525470805405  0.0863691703304053   T   T   T
  0.3296278663247378  0.7480506985005824  0.0863804502460685   T   T   T
  0.0795135439254544  0.6234197474326827  0.1127359798694283   T   T   T
  0.2461681771016419  0.6233790053252796  0.1127552975883821   T   T   T
  0.4128294676126936  0.6233854589750673  0.1127646571146121   T   T   T
  0.0795474394464384  0.8733085231828025  0.1127181278248957   T   T   T
  0.2461821726695920  0.8733805969512919  0.1127362527912028   T   T   T
  0.4128234185473680  0.8733555419964759  0.1127620320402349   T   T   T
  0.7467103143108930  0.1216784044368014  0.0597999185662653   T   T   T
  0.9132932746949279  0.1216288478366234  0.0596443544130254   T   T   T
  0.5800060150271722  0.3716517660054640  0.0597461341633896   T   T   T
  0.7466084718285995  0.3716444865030881  0.0597507196915758   T   T   T
  0.9131410361059646  0.3717278425837481  0.0596587534119266   T   T   T
  0.5800324140232757  0.1216764584362441  0.0597526686846469   T   T   T
  0.9962907213184574  0.4984778358437725  0.1396495825175732   T   T   T
  0.6629229162688485  0.4984463629755578  0.1397376906432894   T   T   T
  0.8295633476496760  0.4984737214977707  0.1396929719750254   T   T   T
  0.9962419417698393  0.2483388979739691  0.1395765043004215   T   T   T
  0.6628157295145466  0.2484495624713048  0.1398405394117665   T   T   T
  0.8296386202755335  0.2483781479990966  0.1396810297715409   T   T   T
  0.5795732648397858  0.1229964151143434  0.1660516224052017   T   T   T
  0.7462870979533400  0.1239158640208032  0.1664135276185346   T   T   T
  0.9131627867103784  0.1224666670687711  0.1657614178832484   T   T   T
  0.5796198977919631  0.3733599789119222  0.1661224018953242   T   T   T
  0.7462978684962148  0.3731289094792657  0.1660768262487956   T   T   T
  0.9131632648122590  0.3733990503787752  0.1660057392666804   T   T   T
  0.6632958519078523  0.4969560626734780  0.1928332833553517   T   T   T
  0.8301046431063013  0.4968998342000316  0.1927610817708288   T   T   T
  0.9968142321646873  0.4970278354196285  0.1927162059391269   T   T   T
  0.6620406248997307  0.2475989407075954  0.1931972902477573   T   T   T
  0.9964125744264437  0.2462010860228215  0.1923846587407619   T   T   T
  0.8310445623726871  0.2465353790261146  0.1925894558256837   T   T   T
  0.9962919500711134  0.4980714252114920  0.0863588570163444   T   T   T
  0.6629795122806293  0.4980566624188484  0.0864378627020901   T   T   T
  0.8296224292750323  0.4980742202876255  0.0864032461227993   T   T   T
  0.9962573926963659  0.2480768003372341  0.0863170998992614   T   T   T
  0.6629619690063145  0.2480604777224018  0.0864927625781215   T   T   T
  0.8296114746715063  0.2480592757371973  0.0864084579060921   T   T   T
  0.5794792651889241  0.1233672871334955  0.1127926164713400   T   T   T
  0.7461395665136787  0.1233669022664192  0.1128861841244621   T   T   T
  0.9128049015307095  0.1232867527981976  0.1126520371868923   T   T   T