C H O Si                                
   1.00000000000000     
     9.2874599999999994    0.0000000000000000    0.0000000000000000
     0.0000000000000000    8.7562999999999995    0.0000000000000000
     0.0000000000000000    0.0000000000000000   90.0000000000000000
   C    H    O    Si
    36    33    16    36
Selective dynamics
Direct
  0.0025648693042619  0.1351002646203256  0.4231686556209913   T   T   T
  0.0025537497065759  0.6352252093291786  0.4231832470179577   T   T   T
  0.3358641187509760  0.1352924416512828  0.4232145033468362   T   T   T
  0.3358745565401511  0.6351524406266565  0.4232173363747350   T   T   T
  0.6690420402545716  0.1351064471168177  0.4232264113546939   T   T   T
  0.6690581987515201  0.6350762774468911  0.4232246276681189   T   T   T
  0.1692545462151201  0.3805286713506698  0.4395850335061691   T   T   T
  0.1693357748120613  0.8805647335004374  0.4395937822857168   T   T   T
  0.5025483020166933  0.3805061826125197  0.4396497864662807   T   T   T
  0.5025375864946754  0.8804963059706005  0.4396117915268526   T   T   T
  0.8359212410785745  0.3804373443376886  0.4395461967635522   T   T   T
  0.8358974848458384  0.8804370911773131  0.4395747084217560   T   T   T
  0.0027688194423815  0.1303959214550947  0.4570482864535251   T   T   T
  0.0027869445702882  0.6306549120170016  0.4570715330633592   T   T   T
  0.3361324720643855  0.1305306425527352  0.4571167843771911   T   T   T
  0.3360613641009266  0.6304047556970643  0.4571197172325584   T   T   T
  0.6693492919835964  0.1304939434255681  0.4571076488298559   T   T   T
  0.6694252651119530  0.6305256573441054  0.4571011282891304   T   T   T
  0.1694610647962768  0.3804734529716508  0.4740767294269672   T   T   T
  0.1697302398914058  0.8805037602770155  0.4741008679260674   T   T   T
  0.5028101193862630  0.3808586505909402  0.4742174576094055   T   T   T
  0.5027787944968299  0.8802093338038477  0.4741311771620361   T   T   T
  0.8361583742235547  0.3803094998633382  0.4740340051269261   T   T   T
  0.8359658681026564  0.8804576428031921  0.4741064868791932   T   T   T
  0.0030757850120322  0.1297998127475169  0.4914785047439054   T   T   T
  0.0028683986091728  0.6305189965940317  0.4915762263344033   T   T   T
  0.3366863084085649  0.1310293835519303  0.4916530218706335   T   T   T
  0.3359039216661304  0.6303870201801578  0.4916876900507994   T   T   T
  0.6687418165517476  0.1307945712599418  0.4916343903738617   T   T   T
  0.6696748790137442  0.6306520262506854  0.4916503090308214   T   T   T
  0.1695252588976714  0.3835432253737894  0.5078760380884100   T   T   T
  0.1689425523160688  0.8856079594543894  0.5079864146477673   T   T   T
  0.5031048172830089  0.3885758873233773  0.5084372324745506   T   T   T
  0.5024971953973503  0.8849023876712507  0.5080143151548248   T   T   T
  0.8370599930415026  0.3823756870742556  0.5076885866073525   T   T   T
  0.8360662440455626  0.8858358457352767  0.5079389442734137   T   T   T
  0.0055245452457034  0.0628807257346854  0.4131440818650781   T   T   T
  0.0054001278280778  0.5629719598057643  0.4131597478509508   T   T   T
  0.3388461791079543  0.0629139952994999  0.4132006570332203   T   T   T
  0.3387118411269606  0.5626947759144437  0.4132091742195773   T   T   T
  0.6715274749132085  0.0627647056808958  0.4132093885749704   T   T   T
  0.6717403817498502  0.5627417962851742  0.4132079029678022   T   T   T
  0.1712718280402620  0.3115591140426960  0.5179138764263268   T   T   T
  0.1716595045246551  0.8130598417189673  0.5179853299380938   T   T   T
  0.5062370996899519  0.3151967672268668  0.5183802592830645   T   T   T
  0.5035564829622396  0.8127098948360612  0.5180365584844061   T   T   T
  0.8396268940864358  0.3105355315588380  0.5177350373582525   T   T   T
  0.8386037362205968  0.8144718474724681  0.5180048513765781   T   T   T
  0.0805676042132457  0.1119958202297853  0.5302752576441550   T   T   T
  0.0793411059403714  0.6105543848689803  0.5300233048234256   T   T   T
  0.4143715318925235  0.1136852147075300  0.5302569430633297   T   T   T
  0.3825348682105432  0.6309757722540571  0.5320104592123501   T   T   T
  0.7483274091923726  0.1120601835121970  0.5302569988786505   T   T   T
  0.7880817340973206  0.5991226726175919  0.5283842543568635   T   T   T
  0.2486590766303619  0.3611840907276989  0.4009092182847278   T   T   T
  0.2489467464624341  0.8610874546484638  0.4009313427008680   T   T   T
  0.5813008371735722  0.3613897166485238  0.4009337687331264   T   T   T
  0.5811154358758186  0.8612740882360036  0.4008973964653696   T   T   T
  0.9133432662073372  0.3613822717835121  0.4007930526656139   T   T   T
  0.9133163299046126  0.8614819565077760  0.4008152123385214   T   T   T
  0.5388583963108716  0.6121765810452753  0.5604854521305828   T   T   T
  0.4849672113015618  0.4739148204733894  0.5725808040002984   T   T   T
  0.5653688445745271  0.6399937317635129  0.5790384974941032   T   T   T
  0.3053791366444643  0.3807448253309537  0.5821053705282537   T   T   T
  0.4224115049550018  0.2579635761269211  0.5783756232594720   T   T   T
  0.6480836971132675  0.7345092937222377  0.5980842811528403   T   T   T
  0.4840744699875203  0.7695846133476955  0.5960426722254377   T   T   T
  0.5121687164831993  0.8006933504685015  0.5469038778048194   T   T   T
  0.5877591009105919  0.6620832053759386  0.5382995554780191   T   T   T
  0.1590953740953831  0.3471604451532896  0.4064180419651333   T   T   T
  0.1592982996420369  0.8471383563207576  0.4064277310949772   T   T   T
  0.4919582311079065  0.3472649701948908  0.4064793289612853   T   T   T
  0.4918118284510279  0.8469991976453024  0.4064452924760531   T   T   T
  0.8244556800097790  0.3466914759747934  0.4063968891521641   T   T   T
  0.8244735876975361  0.8469477228433211  0.4064303473152458   T   T   T
  0.9915010176291591  0.0975828319922368  0.5246933936848219   T   T   T
  0.9889784042761735  0.5922105549699318  0.5247135681572351   T   T   T
  0.3249568699411946  0.0963840648631338  0.5248149720225843   T   T   T
  0.3086084545310397  0.5977932730819809  0.5247489767007154   T   T   T
  0.6587039861562595  0.0966454452174926  0.5247907404465891   T   T   T
  0.6871539930271777  0.5951250887057141  0.5249040968280991   T   T   T
  0.5623348073625066  0.5589612654726925  0.5704046952915168   T   T   T
  0.3782353095497906  0.3522017608343523  0.5747992415459011   T   T   T
  0.5746928810091719  0.7580219408632122  0.5906637236056124   T   T   T
  0.5080695476786421  0.6902638023367714  0.5453538271154564   T   T   T
  0.1691812639095438  0.2532752308369841  0.4225625548734695   T   T   T
  0.1692483411752410  0.7532472376842303  0.4225737610065557   T   T   T
  0.5024338825240185  0.2532705776893334  0.4226168971022780   T   T   T
  0.5024085125720953  0.7531824827903549  0.4225922546027089   T   T   T
  0.8356917654998236  0.2530038141796960  0.4225436157530306   T   T   T
  0.8356615976732932  0.7530631205135487  0.4225667015721237   T   T   T
  0.0026068595820178  0.0058023024683967  0.4398122311401470   T   T   T
  0.0025818396326350  0.5058625870153139  0.4398251157847303   T   T   T
  0.3359436665220520  0.0059788126678092  0.4398603796956482   T   T   T
  0.3358856970237070  0.5059160390789141  0.4398721176436479   T   T   T
  0.6691560539950965  0.0058040509495512  0.4398614465562049   T   T   T
  0.6691980852784998  0.5057609613226289  0.4398609156226976   T   T   T
  0.1694150226858839  0.2561466868210033  0.4568799354388879   T   T   T
  0.1695915403236616  0.7561840824972378  0.4568969809079290   T   T   T
  0.5027473183053633  0.2562751181168441  0.4569736031578968   T   T   T
  0.5026809378216129  0.7560664456422844  0.4569131397361998   T   T   T
  0.8361082240445857  0.2560691963496156  0.4568463022305675   T   T   T
  0.8360334292745207  0.7562048452771987  0.4568910263773900   T   T   T
  0.0029561971993846  0.0056693069800428  0.4742283382949771   T   T   T
  0.0028458003403701  0.5060628475544898  0.4742437841023233   T   T   T
  0.3364539567545508  0.0062792795414855  0.4743189588427206   T   T   T
  0.3360068867418733  0.5062220072209800  0.4743492604433340   T   T   T
  0.6691228312541355  0.0061456520707045  0.4743113919583688   T   T   T
  0.6696161877415803  0.5061480441576499  0.4742970980201613   T   T   T
  0.1694380187661904  0.2551762487248763  0.4912536784904523   T   T   T
  0.1694362489434603  0.7559887040776204  0.4913494491131553   T   T   T
  0.5027046939365063  0.2574493144206437  0.4915466783818865   T   T   T
  0.5024568298458262  0.7554053638445337  0.4913562869540032   T   T   T
  0.8364215489060528  0.2542166179120468  0.4911439818140355   T   T   T
  0.8362757100001587  0.7559903530678622  0.4913356788640266   T   T   T
  0.0025298871703693  0.0036794195047439  0.5085490367208474   T   T   T
  0.0029949540010492  0.5007808080072556  0.5083675696460794   T   T   T
  0.3355565798098295  0.0033357221104203  0.5086270798444051   T   T   T
  0.3340179599497586  0.5046064342038674  0.5088669301810226   T   T   T
  0.6692712768349611  0.0033223849945596  0.5086138881562008   T   T   T
  0.6724815903660550  0.5021005211009777  0.5084919695736458   T   T   T
 
  0.00000000E+00  0.00000000E+00  0.00000000E+00
  0.00000000E+00  0.00000000E+00  0.00000000E+00
  0.00000000E+00  0.00000000E+00  0.00000000E+00
  0.00000000E+00  0.00000000E+00  0.00000000E+00
  0.00000000E+00  0.00000000E+00  0.00000000E+00
  0.00000000E+00  0.00000000E+00  0.00000000E+00
  0.00000000E+00  0.00000000E+00  0.00000000E+00
  0.00000000E+00  0.00000000E+00  0.00000000E+00
  0.00000000E+00  0.00000000E+00  0.00000000E+00
  0.00000000E+00  0.00000000E+00  0.00000000E+00
  0.00000000E+00  0.00000000E+00  0.00000000E+00
  0.00000000E+00  0.00000000E+00  0.00000000E+00
  0.00000000E+00  0.00000000E+00  0.00000000E+00
  0.00000000E+00  0.00000000E+00  0.00000000E+00
  0.00000000E+00  0.00000000E+00  0.00000000E+00
  0.00000000E+00  0.00000000E+00  0.00000000E+00
  0.00000000E+00  0.00000000E+00  0.00000000E+00
  0.00000000E+00  0.00000000E+00  0.00000000E+00
  0.00000000E+00  0.00000000E+00  0.00000000E+00
  0.00000000E+00  0.00000000E+00  0.00000000E+00
  0.00000000E+00  0.00000000E+00  0.00000000E+00
  0.00000000E+00  0.00000000E+00  0.00000000E+00
  0.00000000E+00  0.00000000E+00  0.00000000E+00
  0.00000000E+00  0.00000000E+00  0.00000000E+00
  0.00000000E+00  0.00000000E+00  0.00000000E+00
  0.00000000E+00  0.00000000E+00  0.00000000E+00
  0.00000000E+00  0.00000000E+00  0.00000000E+00
  0.00000000E+00  0.00000000E+00  0.00000000E+00
  0.00000000E+00  0.00000000E+00  0.00000000E+00
  0.00000000E+00  0.00000000E+00  0.00000000E+00
  0.00000000E+00  0.00000000E+00  0.00000000E+00
  0.00000000E+00  0.00000000E+00  0.00000000E+00
  0.00000000E+00  0.00000000E+00  0.00000000E+00
  0.00000000E+00  0.00000000E+00  0.00000000E+00
  0.00000000E+00  0.00000000E+00  0.00000000E+00
  0.00000000E+00  0.00000000E+00  0.00000000E+00
  0.00000000E+00  0.00000000E+00  0.00000000E+00
  0.00000000E+00  0.00000000E+00  0.00000000E+00
  0.00000000E+00  0.00000000E+00  0.00000000E+00
  0.00000000E+00  0.00000000E+00  0.00000000E+00
  0.00000000E+00  0.00000000E+00  0.00000000E+00
  0.00000000E+00  0.00000000E+00  0.00000000E+00
  0.00000000E+00  0.00000000E+00  0.00000000E+00
  0.00000000E+00  0.00000000E+00  0.00000000E+00
  0.00000000E+00  0.00000000E+00  0.00000000E+00
  0.00000000E+00  0.00000000E+00  0.00000000E+00
  0.00000000E+00  0.00000000E+00  0.00000000E+00
  0.00000000E+00  0.00000000E+00  0.00000000E+00
  0.00000000E+00  0.00000000E+00  0.00000000E+00
  0.00000000E+00  0.00000000E+00  0.00000000E+00
  0.00000000E+00  0.00000000E+00  0.00000000E+00
  0.00000000E+00  0.00000000E+00  0.00000000E+00
  0.00000000E+00  0.00000000E+00  0.00000000E+00
  0.00000000E+00  0.00000000E+00  0.00000000E+00
  0.00000000E+00  0.00000000E+00  0.00000000E+00
  0.00000000E+00  0.00000000E+00  0.00000000E+00
  0.00000000E+00  0.00000000E+00  0.00000000E+00
  0.00000000E+00  0.00000000E+00  0.00000000E+00
  0.00000000E+00  0.00000000E+00  0.00000000E+00
  0.00000000E+00  0.00000000E+00  0.00000000E+00
  0.00000000E+00  0.00000000E+00  0.00000000E+00
  0.00000000E+00  0.00000000E+00  0.00000000E+00
  0.00000000E+00  0.00000000E+00  0.00000000E+00
  0.00000000E+00  0.00000000E+00  0.00000000E+00
  0.00000000E+00  0.00000000E+00  0.00000000E+00
  0.00000000E+00  0.00000000E+00  0.00000000E+00
  0.00000000E+00  0.00000000E+00  0.00000000E+00
  0.00000000E+00  0.00000000E+00  0.00000000E+00
  0.00000000E+00  0.00000000E+00  0.00000000E+00
  0.00000000E+00  0.00000000E+00  0.00000000E+00
  0.00000000E+00  0.00000000E+00  0.00000000E+00
  0.00000000E+00  0.00000000E+00  0.00000000E+00
  0.00000000E+00  0.00000000E+00  0.00000000E+00
  0.00000000E+00  0.00000000E+00  0.00000000E+00
  0.00000000E+00  0.00000000E+00  0.00000000E+00
  0.00000000E+00  0.00000000E+00  0.00000000E+00
  0.00000000E+00  0.00000000E+00  0.00000000E+00
  0.00000000E+00  0.00000000E+00  0.00000000E+00
  0.00000000E+00  0.00000000E+00  0.00000000E+00
  0.00000000E+00  0.00000000E+00  0.00000000E+00
  0.00000000E+00  0.00000000E+00  0.00000000E+00
  0.00000000E+00  0.00000000E+00  0.00000000E+00
  0.00000000E+00  0.00000000E+00  0.00000000E+00
  0.00000000E+00  0.00000000E+00  0.00000000E+00
  0.00000000E+00  0.00000000E+00  0.00000000E+00
  0.00000000E+00  0.00000000E+00  0.00000000E+00
  0.00000000E+00  0.00000000E+00  0.00000000E+00
  0.00000000E+00  0.00000000E+00  0.00000000E+00
  0.00000000E+00  0.00000000E+00  0.00000000E+00
  0.00000000E+00  0.00000000E+00  0.00000000E+00
  0.00000000E+00  0.00000000E+00  0.00000000E+00
  0.00000000E+00  0.00000000E+00  0.00000000E+00
  0.00000000E+00  0.00000000E+00  0.00000000E+00
  0.00000000E+00  0.00000000E+00  0.00000000E+00
  0.00000000E+00  0.00000000E+00  0.00000000E+00
  0.00000000E+00  0.00000000E+00  0.00000000E+00
  0.00000000E+00  0.00000000E+00  0.00000000E+00
  0.00000000E+00  0.00000000E+00  0.00000000E+00
  0.00000000E+00  0.00000000E+00  0.00000000E+00
  0.00000000E+00  0.00000000E+00  0.00000000E+00
  0.00000000E+00  0.00000000E+00  0.00000000E+00
  0.00000000E+00  0.00000000E+00  0.00000000E+00
  0.00000000E+00  0.00000000E+00  0.00000000E+00
  0.00000000E+00  0.00000000E+00  0.00000000E+00
  0.00000000E+00  0.00000000E+00  0.00000000E+00
  0.00000000E+00  0.00000000E+00  0.00000000E+00
  0.00000000E+00  0.00000000E+00  0.00000000E+00
  0.00000000E+00  0.00000000E+00  0.00000000E+00
  0.00000000E+00  0.00000000E+00  0.00000000E+00
  0.00000000E+00  0.00000000E+00  0.00000000E+00
  0.00000000E+00  0.00000000E+00  0.00000000E+00
  0.00000000E+00  0.00000000E+00  0.00000000E+00
  0.00000000E+00  0.00000000E+00  0.00000000E+00
  0.00000000E+00  0.00000000E+00  0.00000000E+00
  0.00000000E+00  0.00000000E+00  0.00000000E+00
  0.00000000E+00  0.00000000E+00  0.00000000E+00
  0.00000000E+00  0.00000000E+00  0.00000000E+00
  0.00000000E+00  0.00000000E+00  0.00000000E+00
  0.00000000E+00  0.00000000E+00  0.00000000E+00
  0.00000000E+00  0.00000000E+00  0.00000000E+00
  0.00000000E+00  0.00000000E+00  0.00000000E+00
