C H O Si                                
   1.00000000000000     
     9.2874599999999994    0.0000000000000000    0.0000000000000000
     0.0000000000000000    8.7563099999999991    0.0000000000000000
     0.0000000000000000    0.0000000000000000   58.0000000000000000
   C    H    O    Si
    36    32    16    36
Selective dynamics
Direct
  0.9943242830658636  0.1258484395320945  0.0605652740165949   T   T   T
  0.3276836097631506  0.1259241244221324  0.0605849655580234   T   T   T
  0.6610924505680266  0.1257541983474616  0.0605804243527089   T   T   T
  0.9943468306522107  0.6258501762361571  0.0605626139547197   T   T   T
  0.3276162035437227  0.6259576216339742  0.0606579726011153   T   T   T
  0.6611550853008141  0.6257878013348944  0.0606159045369810   T   T   T
  0.1603404336610729  0.3719091838769062  0.1394362276762739   T   T   T
  0.4936640057518839  0.3722513462127360  0.1394052200965008   T   T   T
  0.8269625831071775  0.3718508179690996  0.1393633982747947   T   T   T
  0.1607298316839749  0.8717948560956550  0.1395304872390915   T   T   T
  0.4936708121928781  0.8713490216256266  0.1395833422032061   T   T   T
  0.8267665725874872  0.8718120181060742  0.1394327163357957   T   T   T
  0.3273405608815543  0.1226468220814655  0.1665364687105386   T   T   T
  0.6600271571456057  0.1223691770499929  0.1665582981129071   T   T   T
  0.9939341237255812  0.1214135408767286  0.1664405434220775   T   T   T
  0.3267086161315347  0.6224565482531290  0.1668613954317528   T   T   T
  0.6608278709582296  0.6223288910190604  0.1667370122183020   T   T   T
  0.9939016502659640  0.6224873796797090  0.1665438967464914   T   T   T
  0.1594259949173287  0.3746506990744503  0.1918381720730761   T   T   T
  0.4934123724640566  0.3880052507742880  0.1906264115865924   T   T   T
  0.8285333224339078  0.3734838865363305  0.1915625522994971   T   T   T
  0.1602877635762975  0.8776016840176666  0.1921793317318986   T   T   T
  0.4932645005088343  0.8777618219584636  0.1922214455633629   T   T   T
  0.8266905796550299  0.8770707416851122  0.1918535235325440   T   T   T
  0.1607023439489726  0.3716321899597814  0.0859326948256578   T   T   T
  0.4939421974428591  0.3717285499923440  0.0859536829209895   T   T   T
  0.8273053173783492  0.3715976753007000  0.0859169226792554   T   T   T
  0.1607010085658611  0.8715826752997751  0.0859652229853742   T   T   T
  0.4939423194966033  0.8714905603593464  0.0860100258689501   T   T   T
  0.8273030632112075  0.8715801727775134  0.0859431196400915   T   T   T
  0.3273055192612779  0.1214892302320416  0.1130862211571800   T   T   T
  0.6605212298600928  0.1214683220900233  0.1130836418465470   T   T   T
  0.9939328283833565  0.1214440609806185  0.1130677428980376   T   T   T
  0.3272003222470148  0.6215399097061201  0.1131990662582226   T   T   T
  0.6605782810430796  0.6216134019486409  0.1131434929953534   T   T   T
  0.9938798941678103  0.6217712407139946  0.1130688305460783   T   T   T
  0.0795186217220926  0.3535986097147146  0.0265351902655197   T   T   T
  0.4128857749567087  0.3537002889361482  0.0265420437773138   T   T   T
  0.7456585807350882  0.3534437412460014  0.0265589995407587   T   T   T
  0.0797723738662908  0.8536101157323260  0.0265486835806593   T   T   T
  0.4125084667201566  0.8536536186517598  0.0266078563858497   T   T   T
  0.7458050202210269  0.8535514047965612  0.0265524610017475   T   T   T
  0.3250674508194558  0.0535392037437488  0.0450529840586783   T   T   T
  0.6583872166531989  0.0534313384728655  0.0450421895704295   T   T   T
  0.9917468112389854  0.0535035795004344  0.0450298142007442   T   T   T
  0.3250877495413312  0.5533808380840195  0.0451433421433582   T   T   T
  0.6584312175011388  0.5534039385180977  0.0450861127475541   T   T   T
  0.9917277907475297  0.5535005471849236  0.0450265588296654   T   T   T
  0.8285472749781095  0.8053666963621564  0.2074315060965646   T   T   T
  0.8321785528091905  0.3014790210733929  0.2071052731656012   T   T   T
  0.1600531833311649  0.3023024580093958  0.2073559608723226   T   T   T
  0.1628083497091737  0.8048655207782693  0.2076690306274981   T   T   T
  0.4935930244822189  0.8059720538108146  0.2078180562772583   T   T   T
  0.0709472522367514  0.1087474930272405  0.2260122209244290   T   T   T
  0.3979451300204688  0.1497369935552670  0.2227753095831702   T   T   T
  0.7511159037381672  0.1051546527972929  0.2249134810385635   T   T   T
  0.0728292540831068  0.6023279909667533  0.2257159111670546   T   T   T
  0.3751470874900063  0.6160367553254766  0.2295399164744433   T   T   T
  0.7798699000945616  0.5893005079719715  0.2236841236592316   T   T   T
  0.5362684787583956  0.6043175224605287  0.2747405337762518   T   T   T
  0.4849740308390381  0.4688398502174267  0.2941865666824313   T   T   T
  0.5657310758899283  0.6361534595696202  0.3035354369281282   T   T   T
  0.3072604153812235  0.3744780489762218  0.3095284387510137   T   T   T
  0.4240007907832911  0.2520781951458931  0.3032849953867262   T   T   T
  0.6535119709018585  0.7323209006545058  0.3328303959345500   T   T   T
  0.4886068530659203  0.7655233699151058  0.3305328682767160   T   T   T
  0.5014803788865535  0.7858371683925698  0.2526429058112500   T   T   T
  0.5797580605822779  0.6471990912305235  0.2396328908192952   T   T   T
  0.1713739843143836  0.3344379205114235  0.0342013474961632   T   T   T
  0.5046934192598589  0.3343421977545273  0.0342157756113100   T   T   T
  0.8376654758283366  0.3342051582656984  0.0341839183238576   T   T   T
  0.1716166009458885  0.8343978778133331  0.0342187687217792   T   T   T
  0.5043247543668117  0.8342408984654758  0.0342789474091197   T   T   T
  0.8376431362839909  0.8342204244760709  0.0342173275340768   T   T   T
  0.3137327571996493  0.0914466786900293  0.2178978402582104   T   T   T
  0.6557632738916227  0.0887478902708296  0.2181634852149084   T   T   T
  0.9802529301833465  0.0853779312074834  0.2182650213855301   T   T   T
  0.2988698475850370  0.5848822578467088  0.2186191333754643   T   T   T
  0.6781664192109909  0.5836285179274806  0.2186968715164384   T   T   T
  0.9805287704894239  0.5822544961553492  0.2181239590199576   T   T   T
  0.5612716192277114  0.5540102854543963  0.2903618125525815   T   T   T
  0.3790892025701062  0.3465405865165479  0.2979909918336430   T   T   T
  0.5774530006439836  0.7543983353430509  0.3217069127911513   T   T   T
  0.5018604649284102  0.6747422207632435  0.2510149412654334   T   T   T
  0.4945523450598322  0.2432465493835499  0.0597264739888850   T   T   T
  0.8278058501918358  0.2432591667171565  0.0597054601781962   T   T   T
  0.1611568043564027  0.7433155533449113  0.0597330824445954   T   T   T
  0.4945059956790249  0.7431132917579922  0.0597904801601289   T   T   T
  0.8278347817944589  0.7432456568940362  0.0597324826533402   T   T   T
  0.1611436510658783  0.2433099076970863  0.0597091282342207   T   T   T
  0.9938209620365547  0.9963524390509766  0.1396692144169189   T   T   T
  0.3273983833715872  0.9968584659025781  0.1397257524920257   T   T   T
  0.6599526921506491  0.9967157951659592  0.1397198231502122   T   T   T
  0.9937246408550466  0.4969049953539690  0.1396506282266312   T   T   T
  0.3268813740914526  0.4969824673296357  0.1398875631981555   T   T   T
  0.6603638582071507  0.4968692937830247  0.1397785795009685   T   T   T
  0.1602503371854424  0.2460645514133107  0.1659487106132781   T   T   T
  0.4937155107769249  0.2471304892151532  0.1662619667812374   T   T   T
  0.8273652557443089  0.2452130713933225  0.1657737565147193   T   T   T
  0.1601975089678374  0.7473657612004734  0.1662614491563296   T   T   T
  0.4935720383145709  0.7466019041079136  0.1663507322387784   T   T   T
  0.8274329476135661  0.7470699521346276  0.1660897496875986   T   T   T
  0.3263246967673971  0.9961779342033887  0.1928170270877563   T   T   T
  0.6604028100282491  0.9953673004836772  0.1928590971783335   T   T   T
  0.9930790547075600  0.9943758111033004  0.1927623840085090   T   T   T
  0.3233470909616000  0.4948793949181130  0.1935480699072255   T   T   T
  0.9936376306309607  0.4924581172723547  0.1924330188763810   T   T   T
  0.6643346647384862  0.4922219770944708  0.1929557186046814   T   T   T
  0.9940549594365221  0.9958699375266015  0.0864290136609362   T   T   T
  0.3273817616063269  0.9959360677586605  0.0864472098077400   T   T   T
  0.6606547132405848  0.9958391538481723  0.0864468219367757   T   T   T
  0.9940682993013192  0.4959675662445828  0.0864318990925059   T   T   T
  0.3273103215302341  0.4960640893309124  0.0865143350065675   T   T   T
  0.6606977207009611  0.4959437578459034  0.0864813372646541   T   T   T
  0.1606471268446305  0.2465817569568945  0.1127829092186875   T   T   T
  0.4939150503365446  0.2464082513346847  0.1127736041735792   T   T   T
  0.8272213233552824  0.2465057042671782  0.1127423810272915   T   T   T
  0.1606822181389011  0.7466466937054103  0.1128535538900608   T   T   T
  0.4938573013494282  0.7464496788167094  0.1128856250209463   T   T   T
  0.8271497163339688  0.7466433880664732  0.1127920447415749   T   T   T
 
  0.00000000E+00  0.00000000E+00  0.00000000E+00
  0.00000000E+00  0.00000000E+00  0.00000000E+00
  0.00000000E+00  0.00000000E+00  0.00000000E+00
  0.00000000E+00  0.00000000E+00  0.00000000E+00
  0.00000000E+00  0.00000000E+00  0.00000000E+00
  0.00000000E+00  0.00000000E+00  0.00000000E+00
  0.00000000E+00  0.00000000E+00  0.00000000E+00
  0.00000000E+00  0.00000000E+00  0.00000000E+00
  0.00000000E+00  0.00000000E+00  0.00000000E+00
  0.00000000E+00  0.00000000E+00  0.00000000E+00
  0.00000000E+00  0.00000000E+00  0.00000000E+00
  0.00000000E+00  0.00000000E+00  0.00000000E+00
  0.00000000E+00  0.00000000E+00  0.00000000E+00
  0.00000000E+00  0.00000000E+00  0.00000000E+00
  0.00000000E+00  0.00000000E+00  0.00000000E+00
  0.00000000E+00  0.00000000E+00  0.00000000E+00
  0.00000000E+00  0.00000000E+00  0.00000000E+00
  0.00000000E+00  0.00000000E+00  0.00000000E+00
  0.00000000E+00  0.00000000E+00  0.00000000E+00
  0.00000000E+00  0.00000000E+00  0.00000000E+00
  0.00000000E+00  0.00000000E+00  0.00000000E+00
  0.00000000E+00  0.00000000E+00  0.00000000E+00
  0.00000000E+00  0.00000000E+00  0.00000000E+00
  0.00000000E+00  0.00000000E+00  0.00000000E+00
  0.00000000E+00  0.00000000E+00  0.00000000E+00
  0.00000000E+00  0.00000000E+00  0.00000000E+00
  0.00000000E+00  0.00000000E+00  0.00000000E+00
  0.00000000E+00  0.00000000E+00  0.00000000E+00
  0.00000000E+00  0.00000000E+00  0.00000000E+00
  0.00000000E+00  0.00000000E+00  0.00000000E+00
  0.00000000E+00  0.00000000E+00  0.00000000E+00
  0.00000000E+00  0.00000000E+00  0.00000000E+00
  0.00000000E+00  0.00000000E+00  0.00000000E+00
  0.00000000E+00  0.00000000E+00  0.00000000E+00
  0.00000000E+00  0.00000000E+00  0.00000000E+00
  0.00000000E+00  0.00000000E+00  0.00000000E+00
  0.00000000E+00  0.00000000E+00  0.00000000E+00
  0.00000000E+00  0.00000000E+00  0.00000000E+00
  0.00000000E+00  0.00000000E+00  0.00000000E+00
  0.00000000E+00  0.00000000E+00  0.00000000E+00
  0.00000000E+00  0.00000000E+00  0.00000000E+00
  0.00000000E+00  0.00000000E+00  0.00000000E+00
  0.00000000E+00  0.00000000E+00  0.00000000E+00
  0.00000000E+00  0.00000000E+00  0.00000000E+00
  0.00000000E+00  0.00000000E+00  0.00000000E+00
  0.00000000E+00  0.00000000E+00  0.00000000E+00
  0.00000000E+00  0.00000000E+00  0.00000000E+00
  0.00000000E+00  0.00000000E+00  0.00000000E+00
  0.00000000E+00  0.00000000E+00  0.00000000E+00
  0.00000000E+00  0.00000000E+00  0.00000000E+00
  0.00000000E+00  0.00000000E+00  0.00000000E+00
  0.00000000E+00  0.00000000E+00  0.00000000E+00
  0.00000000E+00  0.00000000E+00  0.00000000E+00
  0.00000000E+00  0.00000000E+00  0.00000000E+00
  0.00000000E+00  0.00000000E+00  0.00000000E+00
  0.00000000E+00  0.00000000E+00  0.00000000E+00
  0.00000000E+00  0.00000000E+00  0.00000000E+00
  0.00000000E+00  0.00000000E+00  0.00000000E+00
  0.00000000E+00  0.00000000E+00  0.00000000E+00
  0.00000000E+00  0.00000000E+00  0.00000000E+00
  0.00000000E+00  0.00000000E+00  0.00000000E+00
  0.00000000E+00  0.00000000E+00  0.00000000E+00
  0.00000000E+00  0.00000000E+00  0.00000000E+00
  0.00000000E+00  0.00000000E+00  0.00000000E+00
  0.00000000E+00  0.00000000E+00  0.00000000E+00
  0.00000000E+00  0.00000000E+00  0.00000000E+00
  0.00000000E+00  0.00000000E+00  0.00000000E+00
  0.00000000E+00  0.00000000E+00  0.00000000E+00
  0.00000000E+00  0.00000000E+00  0.00000000E+00
  0.00000000E+00  0.00000000E+00  0.00000000E+00
  0.00000000E+00  0.00000000E+00  0.00000000E+00
  0.00000000E+00  0.00000000E+00  0.00000000E+00
  0.00000000E+00  0.00000000E+00  0.00000000E+00
  0.00000000E+00  0.00000000E+00  0.00000000E+00
  0.00000000E+00  0.00000000E+00  0.00000000E+00
  0.00000000E+00  0.00000000E+00  0.00000000E+00
  0.00000000E+00  0.00000000E+00  0.00000000E+00
  0.00000000E+00  0.00000000E+00  0.00000000E+00
  0.00000000E+00  0.00000000E+00  0.00000000E+00
  0.00000000E+00  0.00000000E+00  0.00000000E+00
  0.00000000E+00  0.00000000E+00  0.00000000E+00
  0.00000000E+00  0.00000000E+00  0.00000000E+00
  0.00000000E+00  0.00000000E+00  0.00000000E+00
  0.00000000E+00  0.00000000E+00  0.00000000E+00
  0.00000000E+00  0.00000000E+00  0.00000000E+00
  0.00000000E+00  0.00000000E+00  0.00000000E+00
  0.00000000E+00  0.00000000E+00  0.00000000E+00
  0.00000000E+00  0.00000000E+00  0.00000000E+00
  0.00000000E+00  0.00000000E+00  0.00000000E+00
  0.00000000E+00  0.00000000E+00  0.00000000E+00
  0.00000000E+00  0.00000000E+00  0.00000000E+00
  0.00000000E+00  0.00000000E+00  0.00000000E+00
  0.00000000E+00  0.00000000E+00  0.00000000E+00
  0.00000000E+00  0.00000000E+00  0.00000000E+00
  0.00000000E+00  0.00000000E+00  0.00000000E+00
  0.00000000E+00  0.00000000E+00  0.00000000E+00
  0.00000000E+00  0.00000000E+00  0.00000000E+00
  0.00000000E+00  0.00000000E+00  0.00000000E+00
  0.00000000E+00  0.00000000E+00  0.00000000E+00
  0.00000000E+00  0.00000000E+00  0.00000000E+00
  0.00000000E+00  0.00000000E+00  0.00000000E+00
  0.00000000E+00  0.00000000E+00  0.00000000E+00
  0.00000000E+00  0.00000000E+00  0.00000000E+00
  0.00000000E+00  0.00000000E+00  0.00000000E+00
  0.00000000E+00  0.00000000E+00  0.00000000E+00
  0.00000000E+00  0.00000000E+00  0.00000000E+00
  0.00000000E+00  0.00000000E+00  0.00000000E+00
  0.00000000E+00  0.00000000E+00  0.00000000E+00
  0.00000000E+00  0.00000000E+00  0.00000000E+00
  0.00000000E+00  0.00000000E+00  0.00000000E+00
  0.00000000E+00  0.00000000E+00  0.00000000E+00
  0.00000000E+00  0.00000000E+00  0.00000000E+00
  0.00000000E+00  0.00000000E+00  0.00000000E+00
  0.00000000E+00  0.00000000E+00  0.00000000E+00
  0.00000000E+00  0.00000000E+00  0.00000000E+00
  0.00000000E+00  0.00000000E+00  0.00000000E+00
  0.00000000E+00  0.00000000E+00  0.00000000E+00
  0.00000000E+00  0.00000000E+00  0.00000000E+00
  0.00000000E+00  0.00000000E+00  0.00000000E+00
  0.00000000E+00  0.00000000E+00  0.00000000E+00
