C H O Si                                
   1.00000000000000     
     9.2874599999999994    0.0000000000000000    0.0000000000000000
     0.0000000000000000    8.7563099999999991    0.0000000000000000
     0.0000000000000000    0.0000000000000000   58.0000000000000000
   C    H    O    Si
    36    32    16    36
Selective dynamics
Direct
  0.9943716529919934  0.1258634334056382  0.0605730536342559   T   T   T
  0.3277023047642280  0.1258645051402189  0.0605860744229546   T   T   T
  0.6609938666713808  0.1258577700485179  0.0605882586118975   T   T   T
  0.9943241082784732  0.6258780859242231  0.0605736348117046   T   T   T
  0.3277401452297363  0.6258636112227169  0.0606167888397372   T   T   T
  0.6610545560347685  0.6259255064664686  0.0605947100469094   T   T   T
  0.1602391694240224  0.3719960789347616  0.1394307593687561   T   T   T
  0.4933527278815422  0.3724415378081854  0.1393845587275319   T   T   T
  0.8267645967202317  0.3718236050364095  0.1393825260203349   T   T   T
  0.1604432699201803  0.8719026819922677  0.1394896239181888   T   T   T
  0.4934000255384122  0.8713158675633736  0.1395609411235208   T   T   T
  0.8266511647832777  0.8718398937226439  0.1394273856940617   T   T   T
  0.3274160680551156  0.1228525520085273  0.1665492508502203   T   T   T
  0.6597379400259250  0.1221919285618683  0.1665507767323360   T   T   T
  0.9938644377274053  0.1213829079771943  0.1664678164705423   T   T   T
  0.3265589394951224  0.6227107613464914  0.1668747682609070   T   T   T
  0.6606867776275065  0.6224128056421036  0.1667618690100396   T   T   T
  0.9938370813627556  0.6222970617824994  0.1665321770957238   T   T   T
  0.1597243721186836  0.3746461496923437  0.1918476485973615   T   T   T
  0.4938501066449245  0.3881543189455412  0.1905814546853452   T   T   T
  0.8286417225425453  0.3731891760874914  0.1915843600462107   T   T   T
  0.1603841731451237  0.8779240891223137  0.1921837853787425   T   T   T
  0.4932901849932514  0.8778834591850384  0.1922189036837463   T   T   T
  0.8268396491672598  0.8767413865839484  0.1918523618175040   T   T   T
  0.1604072828001464  0.3717978902414319  0.0859331666218882   T   T   T
  0.4937285928754714  0.3717904977167986  0.0859406303884848   T   T   T
  0.8270238834443572  0.3717529927526669  0.0859154086232457   T   T   T
  0.1603924839187985  0.8717864524110197  0.0859454736060277   T   T   T
  0.4936934900483373  0.8716648499276430  0.0859668677176123   T   T   T
  0.8270520004869328  0.8718233058692705  0.0859220665584359   T   T   T
  0.3266512803418417  0.1216852489013271  0.1130523214180376   T   T   T
  0.6598710474941437  0.1216661590693865  0.1130606528821546   T   T   T
  0.9933182267834763  0.1218184102064481  0.1130351303693389   T   T   T
  0.3266707928867725  0.6217002714754388  0.1131370826358646   T   T   T
  0.6600287298293235  0.6217466211747147  0.1131041611568946   T   T   T
  0.9933594022088572  0.6218169491506739  0.1130300269937011   T   T   T
  0.0802948380405533  0.3530552716344725  0.0265910416485973   T   T   T
  0.4137270733475116  0.3531339084201000  0.0265971283506621   T   T   T
  0.7464440087147077  0.3527506010748690  0.0266512835607795   T   T   T
  0.0805067765004639  0.8531379644206922  0.0265794674200786   T   T   T
  0.4132565586713831  0.8529819477589040  0.0267042033439362   T   T   T
  0.7465754284288182  0.8528104660845842  0.0266594240777957   T   T   T
  0.3248066531577929  0.0535995014906858  0.0450372867810593   T   T   T
  0.6580826396912376  0.0535587262462650  0.0450455711072881   T   T   T
  0.9915213214884604  0.0536650827094914  0.0450203631278517   T   T   T
  0.3248511267269665  0.5533098861328870  0.0450980650635251   T   T   T
  0.6580636448952756  0.5534738733600212  0.0450635459490207   T   T   T
  0.9915216313085583  0.5536774471514689  0.0450197641903922   T   T   T
  0.8285581525030489  0.8051999230056845  0.2074603351896428   T   T   T
  0.8318808534678056  0.3013672606192614  0.2071531516461122   T   T   T
  0.1599556597103898  0.3022522932295053  0.2073659151162331   T   T   T
  0.1628881386431587  0.8049047358969802  0.2076488007233999   T   T   T
  0.4936503693760740  0.8060095177259959  0.2078146974150525   T   T   T
  0.0702294737369858  0.1083782480119009  0.2260014246587099   T   T   T
  0.3969883853482467  0.1516392572089918  0.2226689875361898   T   T   T
  0.7516618771772251  0.1050012607626525  0.2248984183300598   T   T   T
  0.0721731023267979  0.6020632754194721  0.2256901212750681   T   T   T
  0.3761485868925522  0.6168919607779283  0.2296666681734700   T   T   T
  0.7806466200362402  0.5893909742050366  0.2237315223288064   T   T   T
  0.5361688692983501  0.6044384423047054  0.2747746319396012   T   T   T
  0.4850375351691227  0.4687547249198729  0.2941663633633305   T   T   T
  0.5658440491948290  0.6361567807942436  0.3035285363939411   T   T   T
  0.3076194807979153  0.3748796256180364  0.3095046476979580   T   T   T
  0.4240057393393933  0.2524186127228361  0.3032281491547086   T   T   T
  0.6534045287231035  0.7323658761762739  0.3329192042517923   T   T   T
  0.4886529330289779  0.7650920279635166  0.3305475870308752   T   T   T
  0.5012295443007495  0.7855654210168518  0.2526700004974415   T   T   T
  0.5796727507544276  0.6472479192626855  0.2396047953000531   T   T   T
  0.1721037947807154  0.3336326425485953  0.0342447683347263   T   T   T
  0.5055268730708411  0.3338094404293341  0.0342647029058349   T   T   T
  0.8385953848094364  0.3336451366437344  0.0342414690496758   T   T   T
  0.1721864645430023  0.8335483910166332  0.0342767303090623   T   T   T
  0.5054204994775934  0.8338100460064082  0.0342738920034910   T   T   T
  0.8387337864163023  0.8337061776129827  0.0342361207955733   T   T   T
  0.3137062006552175  0.0911217644746076  0.2179974881953855   T   T   T
  0.6564122722741295  0.0885853304503235  0.2181078745300449   T   T   T
  0.9793765952952610  0.0853260708602990  0.2182749329533833   T   T   T
  0.3010128224874208  0.5840950114735319  0.2186655123777432   T   T   T
  0.6788815876637745  0.5833671626965820  0.2187615773548962   T   T   T
  0.9803401729766877  0.5826099468856925  0.2179365178586632   T   T   T
  0.5615016729027013  0.5541642988953418  0.2903489012050032   T   T   T
  0.3794735162619101  0.3471999462002509  0.2979555418054112   T   T   T
  0.5777676455163374  0.7551425469132761  0.3217376658903621   T   T   T
  0.5012219751395083  0.6745629151188903  0.2509125945714619   T   T   T
  0.4945490148115892  0.2431372616137389  0.0597757633672907   T   T   T
  0.8278790758210250  0.2430911393167614  0.0597705551372923   T   T   T
  0.1612235619753713  0.7430487740445529  0.0597939650738458   T   T   T
  0.4945796061367907  0.7431459337448981  0.0598042576422134   T   T   T
  0.8279180112300557  0.7431681688820667  0.0597640219620471   T   T   T
  0.1612398383360611  0.2431448996202168  0.0597727435925853   T   T   T
  0.9936357824014244  0.9966269990438608  0.1396549438918233   T   T   T
  0.3271831709611882  0.9970005639828504  0.1397100593762484   T   T   T
  0.6597935821624858  0.9967606146660020  0.1397036079595577   T   T   T
  0.9936287524983287  0.4969655130048962  0.1396398849316204   T   T   T
  0.3266242793454563  0.4973480104953575  0.1398793471938022   T   T   T
  0.6602122932011745  0.4969891455265988  0.1397761388365707   T   T   T
  0.1602875755872726  0.2460716834772263  0.1659590972447397   T   T   T
  0.4937442833297095  0.2474288481505516  0.1662385718987494   T   T   T
  0.8271155612089867  0.2449533629077975  0.1658019014417767   T   T   T
  0.1600026949000334  0.7475817512196553  0.1662534997351099   T   T   T
  0.4934454411927432  0.7467359779361895  0.1663584334511089   T   T   T
  0.8273659562015976  0.7469504450332569  0.1660919577549828   T   T   T
  0.3264438085293917  0.9964467219097008  0.1928499034528408   T   T   T
  0.6606410664774631  0.9950293047110302  0.1928340709708610   T   T   T
  0.9929945275057257  0.9942616796598365  0.1927780005618766   T   T   T
  0.3238269954276903  0.4949035107470837  0.1935493090510899   T   T   T
  0.9938188964156024  0.4919828246902578  0.1923575858237312   T   T   T
  0.6647777591274723  0.4922857803795913  0.1929930294411394   T   T   T
  0.9938002256023896  0.9960885546243353  0.0864071048267405   T   T   T
  0.3271464601448556  0.9959923820244981  0.0864226139416736   T   T   T
  0.6603899041213704  0.9960161216190643  0.0864233833189794   T   T   T
  0.9937733485023459  0.4960709482793959  0.0864030953830328   T   T   T
  0.3271378273902864  0.4960810856943164  0.0864721149885817   T   T   T
  0.6604656604100929  0.4960864718691759  0.0864358259597604   T   T   T
  0.1600693893518212  0.2468631144057772  0.1127680945092537   T   T   T
  0.4932568317686756  0.2466221702735691  0.1127566308990857   T   T   T
  0.8265460999455179  0.2467947623881417  0.1127356202894179   T   T   T
  0.1600902863999589  0.7468315907527251  0.1128023610070364   T   T   T
  0.4933235334245027  0.7466107763357694  0.1128351151258533   T   T   T
  0.8266656655573297  0.7468632241852107  0.1127619800547250   T   T   T
 
  0.00000000E+00  0.00000000E+00  0.00000000E+00
  0.00000000E+00  0.00000000E+00  0.00000000E+00
  0.00000000E+00  0.00000000E+00  0.00000000E+00
  0.00000000E+00  0.00000000E+00  0.00000000E+00
  0.00000000E+00  0.00000000E+00  0.00000000E+00
  0.00000000E+00  0.00000000E+00  0.00000000E+00
  0.00000000E+00  0.00000000E+00  0.00000000E+00
  0.00000000E+00  0.00000000E+00  0.00000000E+00
  0.00000000E+00  0.00000000E+00  0.00000000E+00
  0.00000000E+00  0.00000000E+00  0.00000000E+00
  0.00000000E+00  0.00000000E+00  0.00000000E+00
  0.00000000E+00  0.00000000E+00  0.00000000E+00
  0.00000000E+00  0.00000000E+00  0.00000000E+00
  0.00000000E+00  0.00000000E+00  0.00000000E+00
  0.00000000E+00  0.00000000E+00  0.00000000E+00
  0.00000000E+00  0.00000000E+00  0.00000000E+00
  0.00000000E+00  0.00000000E+00  0.00000000E+00
  0.00000000E+00  0.00000000E+00  0.00000000E+00
  0.00000000E+00  0.00000000E+00  0.00000000E+00
  0.00000000E+00  0.00000000E+00  0.00000000E+00
  0.00000000E+00  0.00000000E+00  0.00000000E+00
  0.00000000E+00  0.00000000E+00  0.00000000E+00
  0.00000000E+00  0.00000000E+00  0.00000000E+00
  0.00000000E+00  0.00000000E+00  0.00000000E+00
  0.00000000E+00  0.00000000E+00  0.00000000E+00
  0.00000000E+00  0.00000000E+00  0.00000000E+00
  0.00000000E+00  0.00000000E+00  0.00000000E+00
  0.00000000E+00  0.00000000E+00  0.00000000E+00
  0.00000000E+00  0.00000000E+00  0.00000000E+00
  0.00000000E+00  0.00000000E+00  0.00000000E+00
  0.00000000E+00  0.00000000E+00  0.00000000E+00
  0.00000000E+00  0.00000000E+00  0.00000000E+00
  0.00000000E+00  0.00000000E+00  0.00000000E+00
  0.00000000E+00  0.00000000E+00  0.00000000E+00
  0.00000000E+00  0.00000000E+00  0.00000000E+00
  0.00000000E+00  0.00000000E+00  0.00000000E+00
  0.00000000E+00  0.00000000E+00  0.00000000E+00
  0.00000000E+00  0.00000000E+00  0.00000000E+00
  0.00000000E+00  0.00000000E+00  0.00000000E+00
  0.00000000E+00  0.00000000E+00  0.00000000E+00
  0.00000000E+00  0.00000000E+00  0.00000000E+00
  0.00000000E+00  0.00000000E+00  0.00000000E+00
  0.00000000E+00  0.00000000E+00  0.00000000E+00
  0.00000000E+00  0.00000000E+00  0.00000000E+00
  0.00000000E+00  0.00000000E+00  0.00000000E+00
  0.00000000E+00  0.00000000E+00  0.00000000E+00
  0.00000000E+00  0.00000000E+00  0.00000000E+00
  0.00000000E+00  0.00000000E+00  0.00000000E+00
  0.00000000E+00  0.00000000E+00  0.00000000E+00
  0.00000000E+00  0.00000000E+00  0.00000000E+00
  0.00000000E+00  0.00000000E+00  0.00000000E+00
  0.00000000E+00  0.00000000E+00  0.00000000E+00
  0.00000000E+00  0.00000000E+00  0.00000000E+00
  0.00000000E+00  0.00000000E+00  0.00000000E+00
  0.00000000E+00  0.00000000E+00  0.00000000E+00
  0.00000000E+00  0.00000000E+00  0.00000000E+00
  0.00000000E+00  0.00000000E+00  0.00000000E+00
  0.00000000E+00  0.00000000E+00  0.00000000E+00
  0.00000000E+00  0.00000000E+00  0.00000000E+00
  0.00000000E+00  0.00000000E+00  0.00000000E+00
  0.00000000E+00  0.00000000E+00  0.00000000E+00
  0.00000000E+00  0.00000000E+00  0.00000000E+00
  0.00000000E+00  0.00000000E+00  0.00000000E+00
  0.00000000E+00  0.00000000E+00  0.00000000E+00
  0.00000000E+00  0.00000000E+00  0.00000000E+00
  0.00000000E+00  0.00000000E+00  0.00000000E+00
  0.00000000E+00  0.00000000E+00  0.00000000E+00
  0.00000000E+00  0.00000000E+00  0.00000000E+00
  0.00000000E+00  0.00000000E+00  0.00000000E+00
  0.00000000E+00  0.00000000E+00  0.00000000E+00
  0.00000000E+00  0.00000000E+00  0.00000000E+00
  0.00000000E+00  0.00000000E+00  0.00000000E+00
  0.00000000E+00  0.00000000E+00  0.00000000E+00
  0.00000000E+00  0.00000000E+00  0.00000000E+00
  0.00000000E+00  0.00000000E+00  0.00000000E+00
  0.00000000E+00  0.00000000E+00  0.00000000E+00
  0.00000000E+00  0.00000000E+00  0.00000000E+00
  0.00000000E+00  0.00000000E+00  0.00000000E+00
  0.00000000E+00  0.00000000E+00  0.00000000E+00
  0.00000000E+00  0.00000000E+00  0.00000000E+00
  0.00000000E+00  0.00000000E+00  0.00000000E+00
  0.00000000E+00  0.00000000E+00  0.00000000E+00
  0.00000000E+00  0.00000000E+00  0.00000000E+00
  0.00000000E+00  0.00000000E+00  0.00000000E+00
  0.00000000E+00  0.00000000E+00  0.00000000E+00
  0.00000000E+00  0.00000000E+00  0.00000000E+00
  0.00000000E+00  0.00000000E+00  0.00000000E+00
  0.00000000E+00  0.00000000E+00  0.00000000E+00
  0.00000000E+00  0.00000000E+00  0.00000000E+00
  0.00000000E+00  0.00000000E+00  0.00000000E+00
  0.00000000E+00  0.00000000E+00  0.00000000E+00
  0.00000000E+00  0.00000000E+00  0.00000000E+00
  0.00000000E+00  0.00000000E+00  0.00000000E+00
  0.00000000E+00  0.00000000E+00  0.00000000E+00
  0.00000000E+00  0.00000000E+00  0.00000000E+00
  0.00000000E+00  0.00000000E+00  0.00000000E+00
  0.00000000E+00  0.00000000E+00  0.00000000E+00
  0.00000000E+00  0.00000000E+00  0.00000000E+00
  0.00000000E+00  0.00000000E+00  0.00000000E+00
  0.00000000E+00  0.00000000E+00  0.00000000E+00
  0.00000000E+00  0.00000000E+00  0.00000000E+00
  0.00000000E+00  0.00000000E+00  0.00000000E+00
  0.00000000E+00  0.00000000E+00  0.00000000E+00
  0.00000000E+00  0.00000000E+00  0.00000000E+00
  0.00000000E+00  0.00000000E+00  0.00000000E+00
  0.00000000E+00  0.00000000E+00  0.00000000E+00
  0.00000000E+00  0.00000000E+00  0.00000000E+00
  0.00000000E+00  0.00000000E+00  0.00000000E+00
  0.00000000E+00  0.00000000E+00  0.00000000E+00
  0.00000000E+00  0.00000000E+00  0.00000000E+00
  0.00000000E+00  0.00000000E+00  0.00000000E+00
  0.00000000E+00  0.00000000E+00  0.00000000E+00
  0.00000000E+00  0.00000000E+00  0.00000000E+00
  0.00000000E+00  0.00000000E+00  0.00000000E+00
  0.00000000E+00  0.00000000E+00  0.00000000E+00
  0.00000000E+00  0.00000000E+00  0.00000000E+00
  0.00000000E+00  0.00000000E+00  0.00000000E+00
  0.00000000E+00  0.00000000E+00  0.00000000E+00
  0.00000000E+00  0.00000000E+00  0.00000000E+00
  0.00000000E+00  0.00000000E+00  0.00000000E+00
