C H O Si                                
   1.00000000000000     
    18.5749199999999988    0.0000000000000000    0.0000000000000000
     0.0000000000000000   17.5126199999999983    0.0000000000000000
     0.0000000000000000    0.0000000000000000   58.0000000000000000
   C    H    O    Si
   144   105    52   144
Selective dynamics
Direct
  0.4998811144691319  0.0653242931741234  0.0600596595420043   T   T   T
  0.1665836787513385  0.0653906738982229  0.0601071997310447   T   T   T
  0.3331301634802044  0.0653694768997907  0.0600944384123314   T   T   T
  0.4999054687377336  0.3153584295970906  0.0600336161010228   T   T   T
  0.1666029778241442  0.3154033642846636  0.0601098576095436   T   T   T
  0.3331776276040348  0.3153953744495490  0.0600955317647611   T   T   T
  0.0827509204014239  0.1883538728987795  0.1389858962692005   T   T   T
  0.2493999407661931  0.1884195181647149  0.1390069285030173   T   T   T
  0.4160413625554564  0.1883505153563521  0.1389563744813039   T   T   T
  0.0827036128799983  0.4383986598521045  0.1390303726702418   T   T   T
  0.2493849305971648  0.4384409959358126  0.1390192114677715   T   T   T
  0.4160765719568487  0.4384603157008429  0.1389801434653803   T   T   T
  0.1659622902943368  0.0633663077359359  0.1661754294807031   T   T   T
  0.3325248689227441  0.0633804258596046  0.1661707848087960   T   T   T
  0.4990078687811478  0.0630876899014971  0.1660513346244882   T   T   T
  0.1659099538779702  0.3134896260760140  0.1661990869196550   T   T   T
  0.3325709082257400  0.3135292172070377  0.1661939224347104   T   T   T
  0.4990612265359060  0.3134330772558680  0.1660296210001243   T   T   T
  0.0826573806660166  0.1900739603092844  0.1914928698845559   T   T   T
  0.2491057564008788  0.1903367812030124  0.1915306845927278   T   T   T
  0.4156098654038935  0.1902980863934604  0.1915059115035658   T   T   T
  0.0822366824259311  0.4403742453193840  0.1915700653350679   T   T   T
  0.2491002891801850  0.4404389014613149  0.1915547245616219   T   T   T
  0.4160133457651960  0.4405652769708011  0.1915467471321106   T   T   T
  0.0830223627568776  0.1884919123631889  0.0854312346195531   T   T   T
  0.2496890158103562  0.1885125972542354  0.0854509037982604   T   T   T
  0.4163871834678855  0.1884618897394313  0.0854030060010328   T   T   T
  0.0830052724424599  0.4384937849714233  0.0854363405774966   T   T   T
  0.2496901342795232  0.4385325083941279  0.0854388664284287   T   T   T
  0.4164127530824339  0.4385141274457166  0.0853981684797002   T   T   T
  0.1662327327785099  0.0633309028468491  0.1126264978200820   T   T   T
  0.3328285673905365  0.0633040350291517  0.1126110939617250   T   T   T
  0.4995122990362825  0.0633067265273592  0.1125846716139918   T   T   T
  0.1662179847591608  0.3134055445055750  0.1126345257502731   T   T   T
  0.3328664767108803  0.3133996599204806  0.1126193421031443   T   T   T
  0.4995085509644631  0.3133978831892940  0.1125528461220700   T   T   T
  0.4999013709139861  0.5654223964824540  0.0600689858511492   T   T   T
  0.1665391794880169  0.5654140103170595  0.0601270657492430   T   T   T
  0.3331497457103618  0.5654284317380764  0.0601077866961688   T   T   T
  0.4999659630816857  0.8154219001974362  0.0600774188821175   T   T   T
  0.1665920849258608  0.8153162352455978  0.0601132254132170   T   T   T
  0.3331785804613486  0.8153250108474110  0.0600872170940951   T   T   T
  0.0827252613572943  0.6883896398649865  0.1390360389114499   T   T   T
  0.2493644568092764  0.6883881517684252  0.1390235260818817   T   T   T
  0.4160295794818223  0.6884685953645826  0.1389724625011821   T   T   T
  0.0827673256398245  0.9382865124744827  0.1390012955450221   T   T   T
  0.2493859955483246  0.9383131737049413  0.1390043253560520   T   T   T
  0.4159900034890976  0.9382353802898019  0.1389615127128780   T   T   T
  0.1658428227748508  0.5634673069308069  0.1662168105412891   T   T   T
  0.3325599296327764  0.5634798699272119  0.1661966575776622   T   T   T
  0.4991330335335745  0.5636956643292078  0.1661133449422399   T   T   T
  0.1658751791297526  0.8134207583494569  0.1662090883774745   T   T   T
  0.3325231587891253  0.8133859738429126  0.1661923400742963   T   T   T
  0.4991682725795140  0.8134631038170796  0.1661702195204253   T   T   T
  0.0823986438248584  0.6903429907102611  0.1915729554612408   T   T   T
  0.2490552150085752  0.6903319877715430  0.1915640480388569   T   T   T
  0.4157398181111557  0.6903188832315383  0.1915238764556587   T   T   T
  0.0824137629882417  0.9403144972758325  0.1915545811049715   T   T   T
  0.2490609269472404  0.9403013030218726  0.1915459283547791   T   T   T
  0.4157073524217799  0.9402953182813156  0.1915309712388524   T   T   T
  0.0829782887727933  0.6884788943724590  0.0854637855299945   T   T   T
  0.2496706101215192  0.6884751013822382  0.0854572616461800   T   T   T
  0.4164220868181942  0.6885317457647244  0.0854187811690630   T   T   T
  0.0830246643655019  0.9384778851615970  0.0854221203693636   T   T   T
  0.2496726575541835  0.9384638232907249  0.0854210598506041   T   T   T
  0.4163708874143368  0.9384578465869274  0.0853923590596901   T   T   T
  0.1661948997361219  0.5633709474738797  0.1126489765712596   T   T   T
  0.3328687346095003  0.5633838172758000  0.1126265131713801   T   T   T
  0.4995264762895678  0.5634195913659666  0.1125911428754296   T   T   T
  0.1662130524733717  0.8133482294773128  0.1126328425833466   T   T   T
  0.3328108469189469  0.8133243723906612  0.1126062814093563   T   T   T
  0.4995079217067231  0.8135121194632827  0.1126034361130977   T   T   T
  0.9998523515755350  0.0653700665690614  0.0601031410944525   T   T   T
  0.6666155336418572  0.0654058503120690  0.0601443148688451   T   T   T
  0.8331790779601354  0.0654120417775884  0.0601661340210642   T   T   T
  0.9998716805675324  0.3153941736925992  0.0600982978702200   T   T   T
  0.6665625121008466  0.3152554646989392  0.0600764328085841   T   T   T
  0.8332430457472200  0.3152570741344831  0.0601187489382259   T   T   T
  0.5827071103244359  0.1883566178041280  0.1388544022559636   T   T   T
  0.7492868615137143  0.1887849684652919  0.1392439158174214   T   T   T
  0.9159904730122796  0.1884685955389026  0.1389378448755286   T   T   T
  0.5826882358813911  0.4384626940044630  0.1389300136388144   T   T   T
  0.7493200078222634  0.4375669852261350  0.1389635791673011   T   T   T
  0.9160051624579835  0.4383675492883317  0.1390591159401603   T   T   T
  0.6661482913616276  0.0636946061061878  0.1662694600095830   T   T   T
  0.8321938539367084  0.0639507472142163  0.1663257220342942   T   T   T
  0.9993288894976242  0.0632471574383938  0.1661138295743510   T   T   T
  0.6655735109337976  0.3137789498787843  0.1662618051276391   T   T   T
  0.8325809989971548  0.3137224931616266  0.1663124009515771   T   T   T
  0.9992875050740524  0.3134684452594261  0.1661504823991971   T   T   T
  0.5820793284461874  0.1892736860331038  0.1909279265331998   T   T   T
  0.7486354526866623  0.1927588765300248  0.1923374688353680   T   T   T
  0.9160118339741463  0.1896540936240634  0.1911778385647301   T   T   T
  0.5824777503592434  0.4405945119868440  0.1913528894976193   T   T   T
  0.7488277581626896  0.4391132213012073  0.1919626570811115   T   T   T
  0.9154947563169240  0.4404351715894471  0.1915859165761095   T   T   T
  0.5830012909735668  0.1884579200726822  0.0853605020392941   T   T   T
  0.7496848785298827  0.1885425861321157  0.0855609510008145   T   T   T
  0.9163815487480822  0.1884882391699170  0.0854262970221111   T   T   T
  0.5830319654130405  0.4384875582380703  0.0853698599323429   T   T   T
  0.7496659993898993  0.4383863057577071  0.0853057507945042   T   T   T
  0.9163491246999350  0.4384569212116902  0.0854589968156941   T   T   T
  0.6662776860576636  0.0634465738023386  0.1126752695005947   T   T   T
  0.8327848577935548  0.0634901131250233  0.1127054788874128   T   T   T
  0.9995309442110065  0.0633723099714650  0.1126317475154301   T   T   T
  0.6661781476282743  0.3133488215692998  0.1126187856596168   T   T   T
  0.8328096362266435  0.3133565687746026  0.1126567656972979   T   T   T
  0.9995244945810074  0.3134276251771990  0.1126261681651207   T   T   T
  0.9998135968332543  0.5653806176652022  0.0601337215680117   T   T   T
  0.6665582033928046  0.5654120722935687  0.0600576433909302   T   T   T
  0.8331859912237423  0.5653853817018515  0.0601082837509277   T   T   T
  0.9998213614440015  0.8154003550226484  0.0601326318217044   T   T   T
  0.6666126578640093  0.8154318074168222  0.0601093592653951   T   T   T
  0.8332237673691020  0.8154122336282810  0.0601408997544570   T   T   T
  0.5825734953508714  0.6885653422915901  0.1389426887475733   T   T   T
  0.7494047552818960  0.6883016225786620  0.1390271425173156   T   T   T
  0.9161974093963563  0.6884625619262852  0.1390186136183625   T   T   T
  0.5828154067758820  0.9384427337607099  0.1390275938446385   T   T   T
  0.7494046735011218  0.9383850925343610  0.1390409859351160   T   T   T
  0.9159338532559882  0.9385194177587430  0.1390662624896210   T   T   T
  0.6654385189189818  0.5636299216239058  0.1662102037848767   T   T   T
  0.8328282481979217  0.5634228897259613  0.1663392507619182   T   T   T
  0.9991841236876950  0.5635333100672824  0.1662168370638486   T   T   T
  0.6659104321226136  0.8134057499000441  0.1661930602018302   T   T   T
  0.8325253257983755  0.8133770109966917  0.1662169963271927   T   T   T
  0.9992062420616709  0.8135049681560697  0.1662026544631769   T   T   T
  0.5823246097066734  0.6904159673128225  0.1914948153854418   T   T   T
  0.7490459788278376  0.6902281137572200  0.1915504853246761   T   T   T
  0.9158409734243638  0.6904855592058659  0.1915486436240731   T   T   T
  0.5823731791073941  0.9403462502399726  0.1915334846094058   T   T   T
  0.7490361387253680  0.9403534793894331  0.1915646006111240   T   T   T
  0.9157190028472308  0.9404789461263126  0.1915572836854305   T   T   T
  0.5830410260021179  0.6884935804644066  0.0854123857975518   T   T   T
  0.7496861767668314  0.6884768358395704  0.0854395033762568   T   T   T
  0.9163615802066837  0.6884586191282195  0.0854798917660292   T   T   T
  0.5830672134269455  0.9385296420753838  0.0854332927815985   T   T   T
  0.7496993892870615  0.9385419963965694  0.0854680238660046   T   T   T
  0.9163456467438087  0.9385601333527472  0.0854862447619495   T   T   T
  0.6662425999084667  0.5632352289657736  0.1126030363349356   T   T   T
  0.8327988704003533  0.5631696536169928  0.1126688086674808   T   T   T
  0.9995031111849318  0.5633333826310128  0.1126670882257645   T   T   T
  0.6662564273408617  0.8134040213636011  0.1126273669943921   T   T   T
  0.8328377111294911  0.8133734993895791  0.1126511302790129   T   T   T
  0.9995251233718373  0.8134865116203994  0.1126513936692785   T   T   T
  0.0393987214950761  0.1800471789475490  0.0273377267374176   T   T   T
  0.2059367904145367  0.1800541571897799  0.0273451218233718   T   T   T
  0.3725547598477756  0.1799903417868257  0.0273361053464773   T   T   T
  0.0394397716576040  0.4300133500722144  0.0273311256622377   T   T   T
  0.2060053993932519  0.4299830431596418  0.0273178221804194   T   T   T
  0.3725141241095886  0.4299309088689823  0.0273115732788925   T   T   T
  0.1653308858971855  0.0287620577211177  0.0446783559725556   T   T   T
  0.3318301700641634  0.0287386226751714  0.0446670776548956   T   T   T
  0.4985967862802536  0.0286950294658223  0.0446306095725466   T   T   T
  0.1653295950817503  0.2787862561089828  0.0446789927729152   T   T   T
  0.3318812048926457  0.2787731174894336  0.0446650020769629   T   T   T
  0.4986445788046724  0.2787921130212153  0.0445910105825892   T   T   T
  0.4175788202016525  0.4038307390481960  0.2069549313341637   T   T   T
  0.4170468655520322  0.1536866272829255  0.2069368811910675   T   T   T
  0.0837479887483865  0.1535005078508183  0.2069232277389037   T   T   T
  0.2503977178307361  0.1537042397268309  0.2069578067721293   T   T   T
  0.0834999692074202  0.4036526891445673  0.2069781902948411   T   T   T
  0.2503858561333133  0.4037543640779853  0.2069731772705391   T   T   T
  0.0433359394593068  0.0552274669448149  0.2241927929238684   T   T   T
  0.2096844858050823  0.0552564486593243  0.2242440939693245   T   T   T
  0.3762564629174770  0.0555020139350546  0.2241988587692850   T   T   T
  0.0417775510950433  0.3046492166810201  0.2245091111216293   T   T   T
  0.2095590323862405  0.3052496285573258  0.2242348624328716   T   T   T
  0.3759529759167594  0.3058787672327666  0.2242591559179595   T   T   T
  0.0392722365870899  0.6800690763146655  0.0273839175186713   T   T   T
  0.2059009088600333  0.6800224284296262  0.0273512933791866   T   T   T
  0.3725157524143856  0.6800146929089189  0.0273419627354918   T   T   T
  0.0394566113436944  0.9299359806227749  0.0273132504282648   T   T   T
  0.2059716746002737  0.9298755580873661  0.0273122449292466   T   T   T
  0.3726281963907886  0.9298461141057895  0.0273021711200912   T   T   T
  0.1652397383640127  0.5287686094822528  0.0447021531623466   T   T   T
  0.3319024261294590  0.5287840446135725  0.0446816386227816   T   T   T
  0.4986735180293924  0.5288100887136490  0.0446370451267824   T   T   T
  0.1652924737946943  0.7786834112011621  0.0446849264019801   T   T   T
  0.3318984103902162  0.7786998221269513  0.0446582521028155   T   T   T
  0.4988054119476235  0.7788131626189998  0.0446451243727492   T   T   T
  0.4169806393213861  0.9036686094740940  0.2069603673846418   T   T   T
  0.4171115491493270  0.6535649822671190  0.2069261196768769   T   T   T
  0.0835537429371750  0.6536829849927924  0.2069871688096602   T   T   T
  0.2503217676452815  0.6536488181477095  0.2069813852792342   T   T   T
  0.0836504561446557  0.9037319635772542  0.2069866389878818   T   T   T
  0.2503524808408604  0.9037051686541755  0.2069810634712698   T   T   T
  0.0440140003043161  0.5548523494547288  0.2240923572262342   T   T   T
  0.2097949170587473  0.5549185192447391  0.2242820554626267   T   T   T
  0.3765548620586407  0.5551315119880377  0.2242718067756898   T   T   T
  0.0433421568849855  0.8051981732478823  0.2242265434794077   T   T   T
  0.2096238731173393  0.8051659454140696  0.2242910562123462   T   T   T
  0.3766318648045835  0.8049542046522491  0.2242202248753430   T   T   T
  0.5394814977071579  0.1799546769435919  0.0272684898892292   T   T   T
  0.7060301001959496  0.1800647254433302  0.0274530623079820   T   T   T
  0.8725672131871401  0.1799973917460902  0.0273581883419899   T   T   T
  0.5393717076026709  0.4299703367565864  0.0272770636699061   T   T   T
  0.7062137322652167  0.4297154466552843  0.0271911830980805   T   T   T
  0.8724588997304897  0.4298408354800227  0.0273653438660983   T   T   T
  0.6655108573595578  0.0287058721357683  0.0447302943258075   T   T   T
  0.8318228755233934  0.0287172465049534  0.0447525952458196   T   T   T
  0.9985656690471381  0.0287402228722215  0.0446758885863040   T   T   T
  0.6651505294264094  0.2785690210118812  0.0446614987626814   T   T   T
  0.8321864160264482  0.2785586164551382  0.0447060980365960   T   T   T
  0.9985736840891981  0.2787972225721350  0.0446632930941754   T   T   T
  0.9164333441805244  0.4033822799807811  0.2069137631679500   T   T   T
  0.9174185377073959  0.1531850385659702  0.2066389243800514   T   T   T
  0.5832817974148656  0.1533638143621810  0.2065062139323545   T   T   T
  0.7500685039409013  0.1557020781670493  0.2076662081937072   T   T   T
  0.5835596519330648  0.4036374170409134  0.2066810880337957   T   T   T
  0.7696215641361434  0.4649898066381170  0.2621892660960046   T   T   T
  0.5427085172043457  0.0563676644854315  0.2240341172170180   T   T   T
  0.7094483176623716  0.0563588029194003  0.2241184360522950   T   T   T
  0.8758844202314433  0.0562305388852538  0.2242412853044730   T   T   T
  0.5498088528550061  0.3009411949447829  0.2224063441574103   T   T   T
  0.6843069299858661  0.2825708787580691  0.2307972970966624   T   T   T
  0.8918663181489574  0.2958610900699930  0.2231412915085020   T   T   T
  0.7511804144430585  0.2698891092833135  0.2663435800306415   T   T   T
  0.7354593718398059  0.2278199255173316  0.3007056669525184   T   T   T
  0.7593925328080247  0.3120222090743546  0.3087858368807315   T   T   T
  0.6438855101849307  0.1364346641801728  0.2961509122348879   T   T   T
  0.7180306685906707  0.1079060770954250  0.2876311360743031   T   T   T
  0.8179219672672864  0.3865993189221041  0.3347440779279920   T   T   T
  0.7511001220110910  0.4324677978339169  0.3266842143719448   T   T   T
  0.7527188689955078  0.4395070012848601  0.2710812735883909   T   T   T
  0.7847267552037158  0.2666144026199249  0.2407575820144498   T   T   T
  0.5392101253239313  0.6801071683068938  0.0273277281047725   T   T   T
  0.7060512202418209  0.6801228114922078  0.0273437712760108   T   T   T
  0.8727064644330085  0.6801085196197840  0.0273689774598974   T   T   T
  0.5394994767044993  0.9300336228674578  0.0272980930987358   T   T   T
  0.7060898382835210  0.9299638862583277  0.0273546225358583   T   T   T
  0.8725948229762587  0.9300060496765850  0.0273708054202176   T   T   T
  0.6653099931344796  0.5288018259697227  0.0446197686596433   T   T   T
  0.8320050868304479  0.5287728356320905  0.0446738432283607   T   T   T
  0.9985195308046394  0.5287650354532581  0.0447036133625552   T   T   T
  0.6653657261887971  0.7788453540843976  0.0446716079101549   T   T   T
  0.8319929732062211  0.7788318235016140  0.0447019655849611   T   T   T
  0.9984269400678651  0.7787979971427023  0.0447015227141249   T   T   T
  0.9169138996670865  0.9039174091083880  0.2070017931394962   T   T   T
  0.9167394106143402  0.6536367984420631  0.2069216868088202   T   T   T
  0.5840113138641412  0.6533583714586907  0.2068157031015753   T   T   T
  0.7500576303319395  0.6530025611044740  0.2068503095289056   T   T   T
  0.5836400330376602  0.9037718654868359  0.2069692246881784   T   T   T
  0.7503202176135604  0.9037386201781704  0.2069957647207862   T   T   T
  0.5451924526363998  0.5543840590228895  0.2237569446487025   T   T   T
  0.7092933574679746  0.5503381121430060  0.2246618092462734   T   T   T
  0.8795809185206018  0.5555886122955019  0.2231101478598404   T   T   T
  0.5429058573447191  0.8050564343082304  0.2242315419325952   T   T   T
  0.7095814309709727  0.8050974838985296  0.2242334947296291   T   T   T
  0.8767557395925899  0.8049760222790039  0.2241899691426248   T   T   T
  0.0871635207367532  0.1680710539695362  0.0334297313211120   T   T   T
  0.2537219419655067  0.1682212957003604  0.0334441561569867   T   T   T
  0.4203639745466143  0.1679997564430435  0.0333892537366956   T   T   T
  0.0871913270900228  0.4180228081841197  0.0334181451422810   T   T   T
  0.2537930504173095  0.4181201700082448  0.0334173665049689   T   T   T
  0.4203318009942368  0.4180377959667285  0.0333709993742240   T   T   T
  0.1618892915289594  0.0431557516740369  0.2182024532736132   T   T   T
  0.3284631238378165  0.0431282078804279  0.2181953682473586   T   T   T
  0.4949939641901193  0.0430517766246773  0.2181591683720589   T   T   T
  0.1617738445254693  0.2930810959215469  0.2181920916129415   T   T   T
  0.3283978081835306  0.2931197470375091  0.2182000570020213   T   T   T
  0.4988802171533340  0.2928080762881404  0.2179375596224476   T   T   T
  0.0870591617840228  0.6681360974074559  0.0334650245936880   T   T   T
  0.2536828840558222  0.6681630840716218  0.0334437514143618   T   T   T
  0.4203260029190175  0.6681264958136505  0.0334054980431056   T   T   T
  0.0871802427016756  0.9178646918358483  0.0333995751741395   T   T   T
  0.2537615844570149  0.9179731953060866  0.0333991074085205   T   T   T
  0.4204257092294246  0.9179217442733431  0.0333701754729278   T   T   T
  0.1619306445673191  0.5431652785492885  0.2182288610918274   T   T   T
  0.3287369236168427  0.5432447453994151  0.2182192116682324   T   T   T
  0.4965102496752314  0.5435348881661231  0.2181472099641241   T   T   T
  0.1618478410069906  0.7931830235049194  0.2182195934777199   T   T   T
  0.3287239470871644  0.7931769483092066  0.2182053307274544   T   T   T
  0.4950550662385323  0.7932381830279781  0.2181826714412913   T   T   T
  0.5872209852932291  0.1677818139268530  0.0333349360343006   T   T   T
  0.7537967210894411  0.1682000087323289  0.0335448295860254   T   T   T
  0.9203634319576357  0.1679475228032637  0.0333963913499493   T   T   T
  0.5871466300215765  0.4179226351254652  0.0333352144658731   T   T   T
  0.7539104182858309  0.4174342498478776  0.0332533859873107   T   T   T
  0.9203148659523174  0.4180418269345919  0.0334210071690158   T   T   T
  0.6617405652539337  0.0427420476193996  0.2182990589179003   T   T   T
  0.8282754651970997  0.0428544565134431  0.2183017526034404   T   T   T
  0.9954787945042329  0.0432051829603613  0.2181876640935394   T   T   T
  0.6504561159452746  0.2954055490716068  0.2179858961636553   T   T   T
  0.8407555803381158  0.2912486332300582  0.2188852959996725   T   T   T
  0.9946656391581611  0.2914784254607000  0.2181697378201641   T   T   T
  0.7636021015152862  0.2735744721689220  0.2963173662741333   T   T   T
  0.6943528089173797  0.1327173310550167  0.3006352535712768   T   T   T
  0.7669680366678853  0.3814038601848019  0.3310635106945439   T   T   T
  0.7432301628600219  0.2502479519459391  0.2505100367364973   T   T   T
  0.5870275250513735  0.6682488221635833  0.0333922486631826   T   T   T
  0.7538359310577061  0.6681683775632351  0.0334182773881045   T   T   T
  0.9204915380449766  0.6682422758032118  0.0334648150192080   T   T   T
  0.5872328662466983  0.9181691882901306  0.0334112621525739   T   T   T
  0.7538322012716416  0.9181409945630133  0.0334534627556067   T   T   T
  0.9203942137368035  0.9182292588142007  0.0334723407961146   T   T   T
  0.6614144564402228  0.5452975107115650  0.2178227480801904   T   T   T
  0.8303494458878861  0.5449117005994203  0.2181183328588835   T   T   T
  0.9958518252999424  0.5433605306895477  0.2182439440580231   T   T   T
  0.6617293673290991  0.7932181497877014  0.2181882985444843   T   T   T
  0.8287891764684301  0.7933017367597295  0.2182077293563054   T   T   T
  0.9954530557380479  0.7933790959215242  0.2182094166744465   T   T   T
  0.2499510225771128  0.1240094308380192  0.0595849741322979   T   T   T
  0.4166196697109132  0.1239018555608615  0.0595532357845692   T   T   T
  0.0833187630379641  0.3739413379146596  0.0595848281689266   T   T   T
  0.2499883245616883  0.3740058261145150  0.0595741182113982   T   T   T
  0.4166619477639011  0.3739505698615855  0.0595408647866545   T   T   T
  0.0833061943775180  0.1239307654980735  0.0595827712763091   T   T   T
  0.4993366787002854  0.0005482735269457  0.1391776348013666   T   T   T
  0.1661326733807897  0.0006692589081263  0.1392232842393411   T   T   T
  0.3326726539318540  0.0006667917335200  0.1392151962575128   T   T   T
  0.4994708663491151  0.2507931836864180  0.1391779789527874   T   T   T
  0.1661064651761105  0.2507752431181136  0.1392423115275125   T   T   T
  0.3327365247019430  0.2507817810634497  0.1392332133837580   T   T   T
  0.0826194423180754  0.1252861506572560  0.1654329263344019   T   T   T
  0.2492383263783342  0.1254100459282960  0.1654634952858878   T   T   T
  0.4158566713704104  0.1254001194057346  0.1654529037325853   T   T   T
  0.0824490293749717  0.3754806819351398  0.1655162473268557   T   T   T
  0.2492415084651985  0.3754709036996072  0.1654877004565768   T   T   T
  0.4160775617325543  0.3755064259935456  0.1654899121741158   T   T   T
  0.1654891747249891  0.4988049119626480  0.1920815955115922   T   T   T
  0.3325224462407940  0.4988655446357745  0.1920774330630797   T   T   T
  0.4997472048191098  0.4989449756952495  0.1919916456003529   T   T   T
  0.1656751139797409  0.2488604568653814  0.1920491237326989   T   T   T
  0.4991776034322318  0.2485547376058643  0.1918559541928389   T   T   T
  0.3323673330345193  0.2489047779659853  0.1920455845465314   T   T   T
  0.4996635495183781  0.0004716665166552  0.0861364146555356   T   T   T
  0.1663476663954156  0.0004739893934375  0.0861686778388211   T   T   T
  0.3330258475204227  0.0004543786568981  0.0861564830055388   T   T   T
  0.4996905079751107  0.2505191415000191  0.0861140121881473   T   T   T
  0.1663450416391827  0.2505142926418097  0.0861826861821005   T   T   T
  0.3330627195925223  0.2505052376122969  0.0861706812071902   T   T   T
  0.0828603960570892  0.1257311529663581  0.1124063562581959   T   T   T
  0.2495386273425036  0.1257078000815229  0.1124325921453154   T   T   T
  0.4161696075366065  0.1257010584442194  0.1123841173468583   T   T   T
  0.0828044681714970  0.3757837164868726  0.1124330101192852   T   T   T
  0.2495407286121989  0.3757514670180800  0.1124345765301759   T   T   T
  0.4162487621099070  0.3757928648273423  0.1123980831938263   T   T   T
  0.2499292900170443  0.6239874002990408  0.0595900589823676   T   T   T
  0.4166389536399698  0.6239737678430834  0.0595635177401768   T   T   T
  0.0833234415194867  0.8738664913989715  0.0595814298092397   T   T   T
  0.2499782669564004  0.8739102133906796  0.0595626866812344   T   T   T
  0.4166572642301981  0.8738858953453824  0.0595417317209490   T   T   T
  0.0832505807524240  0.6239453457210583  0.0596159525411931   T   T   T
  0.4996302781313346  0.5007761076088352  0.1392354731326387   T   T   T
  0.1660461455870836  0.5007379854909860  0.1392619376909406   T   T   T
  0.3327562844975506  0.5007502087548854  0.1392410104481442   T   T   T
  0.4994729533223662  0.7507515318264686  0.1391961798950608   T   T   T
  0.1660622492883545  0.7507141973717831  0.1392424126337434   T   T   T
  0.3326759029678588  0.7507159225855083  0.1392160111281558   T   T   T
  0.0823490639112274  0.6253730187572620  0.1655171709808891   T   T   T
  0.2491869080533200  0.6253772135195923  0.1654901875752863   T   T   T
  0.4159869239962325  0.6254295203387084  0.1654593069125698   T   T   T
  0.0825212983186236  0.8754129688758581  0.1654909863182391   T   T   T
  0.2491932082912041  0.8753748581015880  0.1654727713772964   T   T   T
  0.4158429554528552  0.8753882202578837  0.1654698768574514   T   T   T
  0.1656271400735947  0.9988532209023970  0.1920631298919438   T   T   T
  0.3323065771309461  0.9988801978011339  0.1920556070848933   T   T   T
  0.4989201945941816  0.9988929226048996  0.1920009929444075   T   T   T
  0.1655839062078525  0.7488259294877343  0.1920829521260549   T   T   T
  0.4990359644170212  0.7487768869819852  0.1920503429842833   T   T   T
  0.3323421763050827  0.7488231581206939  0.1920749684151739   T   T   T
  0.4997560287864444  0.5005251729135425  0.0861432567154975   T   T   T
  0.1663169022698816  0.5005114737139520  0.0861927468189763   T   T   T
  0.3330710843965312  0.5005132912274320  0.0861736837383819   T   T   T
  0.4997480305232793  0.7505292765301811  0.0861554486916324   T   T   T
  0.1663278627976513  0.7504530827905058  0.0861906360485656   T   T   T
  0.3330429485319481  0.7504535786570259  0.0861653507982489   T   T   T
  0.0827604387145139  0.6257144761463566  0.1124472742566059   T   T   T
  0.2495243811843864  0.6257018340147893  0.1124430091789231   T   T   T
  0.4162482549640745  0.6257555252956630  0.1123974953633271   T   T   T
  0.0828604238792931  0.8757301134346425  0.1124049358496314   T   T   T
  0.2495126830987579  0.8756889091808726  0.1124164765542667   T   T   T
  0.4161221438628057  0.8756986438515383  0.1123689860423164   T   T   T
  0.7499898969320261  0.1240256203820024  0.0596960257919695   T   T   T
  0.9166183342700090  0.1239801203099261  0.0595772109334880   T   T   T
  0.5833770679287534  0.3739496598252820  0.0595297257870837   T   T   T
  0.7500016099305187  0.3738601550174018  0.0595245193837996   T   T   T
  0.9165902604773551  0.3739698450533028  0.0595968359431878   T   T   T
  0.5833276939408636  0.1239173007372101  0.0595327342740992   T   T   T
  0.9994106082166675  0.0006217030042302  0.1392139578278675   T   T   T
  0.6662399288774378  0.0009313569906066  0.1393089332717163   T   T   T
  0.8325446247991691  0.0010243146900508  0.1393446501792077   T   T   T
  0.9992885424650759  0.2507749828516903  0.1392256812967007   T   T   T
  0.6659495881079570  0.2514389083588121  0.1394596301385819   T   T   T
  0.8326094713829257  0.2514160695220259  0.1394684255856806   T   T   T
  0.5823959364961848  0.1251346572262513  0.1652564420705165   T   T   T
  0.7489941525036028  0.1269421650214190  0.1659940114658220   T   T   T
  0.9159313171254259  0.1252859979950023  0.1653312825720261   T   T   T
  0.5827194679537879  0.3757509020328154  0.1655138093312307   T   T   T
  0.7489718355683336  0.3775908039208212  0.1669096404920351   T   T   T
  0.9154696349971967  0.3757188839589953  0.1656478177838770   T   T   T
  0.6685556553183691  0.4960733597559164  0.1921972721952448   T   T   T
  0.8289984612809248  0.4959812181694674  0.1924426542583305   T   T   T
  0.9982912117385858  0.4987242559815325  0.1920901519611098   T   T   T
  0.6639216625705942  0.2509618871380334  0.1924787783307537   T   T   T
  0.9991105403140322  0.2482242173465895  0.1917972549154963   T   T   T
  0.8332162738687222  0.2500481324584319  0.1922814879861674   T   T   T
  0.9997188892474489  0.0005098590453746  0.0861810501720253   T   T   T
  0.6664370487349714  0.0005802963517879  0.0862260950682897   T   T   T
  0.8329630752260201  0.0006018286411749  0.0862437793246898   T   T   T
  0.9996920641232092  0.2505317453272305  0.0861790845013396   T   T   T
  0.6663675536594668  0.2506027252685320  0.0862184760655135   T   T   T
  0.8329816136106849  0.2505978870320598  0.0862501879419126   T   T   T
  0.5828536984336671  0.1258227649009983  0.1123843403518471   T   T   T
  0.7494853714872438  0.1260586536352915  0.1126190056271876   T   T   T
  0.9161524726716369  0.1258438093376548  0.1124351795160433   T   T   T