C H O Si                                
   1.00000000000000     
    18.5749199999999988    0.0000000000000000    0.0000000000000000
     0.0000000000000000   17.5126199999999983    0.0000000000000000
     0.0000000000000000    0.0000000000000000   58.0000000000000000
   C    H    O    Si
   144   105    52   144
Selective dynamics
Direct
  0.4998854800049256  0.0653395644142617  0.0600597968648359   T   T   T
  0.1665550844242476  0.0653962451917944  0.0601131416790350   T   T   T
  0.3331576487965961  0.0653996838712224  0.0600963544684197   T   T   T
  0.4999126754504867  0.3153925116116416  0.0600293282884360   T   T   T
  0.1665966116516548  0.3154084611965275  0.0601149181159004   T   T   T
  0.3332146314430087  0.3154076978683965  0.0600962485770031   T   T   T
  0.0827864460262623  0.1883523967475196  0.1389956832689837   T   T   T
  0.2494501963171971  0.1883815602792614  0.1390103919896774   T   T   T
  0.4160453561776817  0.1883133276216483  0.1389683710241081   T   T   T
  0.0827616057306615  0.4383983486272375  0.1390163831698176   T   T   T
  0.2494397460900799  0.4383920009596132  0.1390075973677838   T   T   T
  0.4161015804989593  0.4384333328474276  0.1389911423357171   T   T   T
  0.1659115967463685  0.0633519195198301  0.1661954547512431   T   T   T
  0.3324687626143691  0.0633837878844849  0.1661945742149847   T   T   T
  0.4989271340054806  0.0630907486164706  0.1660671495004837   T   T   T
  0.1658559642977791  0.3134874827106504  0.1662205274268313   T   T   T
  0.3325128645446598  0.3135469961125507  0.1662128327825594   T   T   T
  0.4990102656055966  0.3134339534175800  0.1660456518666472   T   T   T
  0.0826531267630985  0.1900903290760072  0.1914876671782701   T   T   T
  0.2491079903352808  0.1903186497300726  0.1915271447033014   T   T   T
  0.4156106531916281  0.1902972602812153  0.1915136169634211   T   T   T
  0.0821955527415058  0.4403776649848447  0.1915590083259140   T   T   T
  0.2491082976759844  0.4404231550147256  0.1915527570802952   T   T   T
  0.4160154761828918  0.4405370289272624  0.1915386290239144   T   T   T
  0.0830373206069210  0.1885083091564231  0.0854548428554144   T   T   T
  0.2497099394408085  0.1885190154365067  0.0854726814234238   T   T   T
  0.4163631711905166  0.1884809135666816  0.0854260636918529   T   T   T
  0.0830185690514417  0.4385211012132157  0.0854637810085262   T   T   T
  0.2497055465940890  0.4385309399709604  0.0854646579187475   T   T   T
  0.4164042942808336  0.4385193025848645  0.0854214397615512   T   T   T
  0.1661727698274903  0.0633671215527347  0.1126266371728957   T   T   T
  0.3328234927254300  0.0633382116502038  0.1126156882618656   T   T   T
  0.4994677840784527  0.0633171223150595  0.1125851883055929   T   T   T
  0.1661616380983228  0.3134462971437050  0.1126315172538230   T   T   T
  0.3328560574242055  0.3134578943232418  0.1126203570081448   T   T   T
  0.4994847634156418  0.3134302177050958  0.1125401541417122   T   T   T
  0.4999042480495859  0.5654608817292466  0.0600686633200515   T   T   T
  0.1665172745065597  0.5654273385654540  0.0601310552272441   T   T   T
  0.3331740274878393  0.5654479666150752  0.0601105968204191   T   T   T
  0.4999670035931545  0.8154395935844007  0.0600803669728177   T   T   T
  0.1665798496715565  0.8153116196596273  0.0601177567113385   T   T   T
  0.3332202280234449  0.8153330819834743  0.0600894167243045   T   T   T
  0.0827624541768192  0.6883821308759602  0.1390238937265179   T   T   T
  0.2494082862307564  0.6883664314530178  0.1390164835270064   T   T   T
  0.4160443683789112  0.6884441245150678  0.1389817571267663   T   T   T
  0.0828131237574137  0.9382991860805562  0.1390002925021518   T   T   T
  0.2494286139395770  0.9383076143961095  0.1389995556731045   T   T   T
  0.4159957783846186  0.9382125753228330  0.1389671209421287   T   T   T
  0.1657790983011705  0.5634794679850811  0.1662385382820302   T   T   T
  0.3325007486562304  0.5634908224937175  0.1662227478873035   T   T   T
  0.4990900913203182  0.5637052637874029  0.1661309511110719   T   T   T
  0.1658101051144590  0.8134129378911552  0.1662289938673521   T   T   T
  0.3324698653938488  0.8133812373002625  0.1662123958600179   T   T   T
  0.4991131160848759  0.8134537192197548  0.1661924024263775   T   T   T
  0.0823915728615983  0.6903379127178475  0.1915624388281184   T   T   T
  0.2490452964085594  0.6903031555341653  0.1915613527873050   T   T   T
  0.4157220428559190  0.6903125702265117  0.1915288082215064   T   T   T
  0.0824132604711822  0.9403013600911754  0.1915439437213627   T   T   T
  0.2490666867489202  0.9402890656183496  0.1915455437623041   T   T   T
  0.4156947577622012  0.9402825667611726  0.1915352898326521   T   T   T
  0.0829952550571338  0.6885101631849747  0.0854929139062846   T   T   T
  0.2496939093160111  0.6884704535982963  0.0854781362504352   T   T   T
  0.4164177403336918  0.6885399590250704  0.0854416200618089   T   T   T
  0.0830424641246823  0.9384987029703329  0.0854487803888958   T   T   T
  0.2496866167247717  0.9384584331187391  0.0854442905890558   T   T   T
  0.4163590040576657  0.9384574866673104  0.0854187684221402   T   T   T
  0.1661336059455648  0.5634147939567548  0.1126519358521696   T   T   T
  0.3328581400210980  0.5634378162968807  0.1126302887645589   T   T   T
  0.4994990826417611  0.5634367301331032  0.1125947685232853   T   T   T
  0.1661514700255923  0.8134009599490382  0.1126286546110787   T   T   T
  0.3327831361741383  0.8133843962880182  0.1126080177439638   T   T   T
  0.4994745466102342  0.8135438519586283  0.1126016341918650   T   T   T
  0.9998537074961470  0.0653928021134594  0.0601075588303195   T   T   T
  0.6665847889699376  0.0654069012179909  0.0601509758577451   T   T   T
  0.8332242837551150  0.0654255566579920  0.0601654135212147   T   T   T
  0.9998760033989198  0.3154050417785274  0.0601024869472555   T   T   T
  0.6665485932698504  0.3152766514824593  0.0600735195249259   T   T   T
  0.8332828337541706  0.3152617823318234  0.0601220629146967   T   T   T
  0.5827302487928315  0.1883520992661372  0.1388656419902141   T   T   T
  0.7493042783003062  0.1887323465778090  0.1392345497989814   T   T   T
  0.9159786625622292  0.1884501489356098  0.1389428342924439   T   T   T
  0.5827254056449057  0.4384670937036996  0.1389371777621261   T   T   T
  0.7493561589125215  0.4375829550159563  0.1389715900882230   T   T   T
  0.9160402014961777  0.4383601649053231  0.1390556695596926   T   T   T
  0.6661070407464161  0.0637117253031690  0.1662963553829548   T   T   T
  0.8321732228601824  0.0639732299400987  0.1663538764418466   T   T   T
  0.9992910799315734  0.0632308089905893  0.1661333958986842   T   T   T
  0.6655223707709492  0.3137838436658044  0.1662727912835177   T   T   T
  0.8325201463109732  0.3137266485455889  0.1663411925587835   T   T   T
  0.9992485000153047  0.3134732992132136  0.1661612656717381   T   T   T
  0.5819799718317320  0.1893325493509629  0.1909221483407307   T   T   T
  0.7487060712265804  0.1927398009453511  0.1923238653437421   T   T   T
  0.9160051688696879  0.1896789593929417  0.1911774755485109   T   T   T
  0.5824818348815082  0.4406336078097102  0.1913443265558125   T   T   T
  0.7488372563113583  0.4390869131827415  0.1919530153386830   T   T   T
  0.9154790549501148  0.4404056242305597  0.1915807194713989   T   T   T
  0.5830342454122520  0.1884744940007828  0.0853842279631900   T   T   T
  0.7496829887312114  0.1885247466742875  0.0855803991099387   T   T   T
  0.9163608969875892  0.1884969110967661  0.0854443912717829   T   T   T
  0.5830697834232603  0.4384935345287729  0.0853963479625247   T   T   T
  0.7496871360185683  0.4383873846485851  0.0853330920772588   T   T   T
  0.9163347242442139  0.4384815978943355  0.0854731016870366   T   T   T
  0.6662313315782827  0.0635018731349414  0.1126765752719648   T   T   T
  0.8327497392725964  0.0635180532675245  0.1126992200593458   T   T   T
  0.9995020422781392  0.0633998616133097  0.1126269923353877   T   T   T
  0.6661223797308222  0.3133951112254262  0.1126151976086480   T   T   T
  0.8328048107434419  0.3134193737612399  0.1126492248068984   T   T   T
  0.9994942481143800  0.3134523902683222  0.1126193856442967   T   T   T
  0.9998332247093977  0.5654226344535346  0.0601346111053522   T   T   T
  0.6665305155913328  0.5654431236685946  0.0600512664045896   T   T   T
  0.8332151452796661  0.5654042054157774  0.0601086366439508   T   T   T
  0.9998369091603643  0.8154283358610879  0.0601360136651217   T   T   T
  0.6665972736090451  0.8154424121591057  0.0601127095861627   T   T   T
  0.8332494220348172  0.8154197828846047  0.0601466738851436   T   T   T
  0.5826149349988872  0.6885512114921244  0.1389398004840341   T   T   T
  0.7494433828843722  0.6882950524802540  0.1390153740675883   T   T   T
  0.9162063795228184  0.6884330928853237  0.1390201420360961   T   T   T
  0.5828721352293258  0.9384203246928446  0.1390244303791159   T   T   T
  0.7494645443380595  0.9383504345517383  0.1390327610647867   T   T   T
  0.9159571096212629  0.9385185975695693  0.1390665417792439   T   T   T
  0.6653840116379776  0.5636257570435079  0.1662091236907451   T   T   T
  0.8328279088460901  0.5634300889820011  0.1663712999778824   T   T   T
  0.9991444757926159  0.5635261400568506  0.1662458173051768   T   T   T
  0.6658500818387928  0.8133831056041820  0.1662143272566588   T   T   T
  0.8324803176054146  0.8133839681721973  0.1662370976450131   T   T   T
  0.9991734870754814  0.8135013157564868  0.1662299670501585   T   T   T
  0.5823340854056748  0.6904510430243145  0.1914938595966740   T   T   T
  0.7490487976525058  0.6902244517816015  0.1915497248545451   T   T   T
  0.9158246022216738  0.6904713908022854  0.1915443452068160   T   T   T
  0.5823890315596950  0.9403448210533069  0.1915248958031308   T   T   T
  0.7490432183451372  0.9403255055324420  0.1915602133015799   T   T   T
  0.9157005232952082  0.9404529173527489  0.1915533957743110   T   T   T
  0.5830711446586466  0.6885132954486841  0.0854326105553969   T   T   T
  0.7496978062445225  0.6884801907136662  0.0854581998401829   T   T   T
  0.9163486132308595  0.6884648463831841  0.0855004220338489   T   T   T
  0.5830919766092265  0.9385652452181691  0.0854609106037863   T   T   T
  0.7497291804186429  0.9385558892204241  0.0854920841902504   T   T   T
  0.9163321945582187  0.9385859147760041  0.0855087320979706   T   T   T
  0.6661947575727087  0.5632472439862080  0.1126131092559460   T   T   T
  0.8327829308114038  0.5631884522256512  0.1126737161277524   T   T   T
  0.9994696741665418  0.5633750055981391  0.1126623731234600   T   T   T
  0.6661951405729265  0.8134600672693647  0.1126257732117661   T   T   T
  0.8328172753053945  0.8134396052981893  0.1126481709977284   T   T   T
  0.9995032050729431  0.8135260371094019  0.1126409840468287   T   T   T
  0.0393914282293324  0.1800026691597091  0.0273369151885758   T   T   T
  0.2059341636545922  0.1800123624238766  0.0273419902294778   T   T   T
  0.3725465052615977  0.1799487220900620  0.0273347263214567   T   T   T
  0.0394275764396450  0.4299685634722145  0.0273297220320019   T   T   T
  0.2060007451505211  0.4299374502559688  0.0273157893435202   T   T   T
  0.3725024140830262  0.4298894399918903  0.0273081704693389   T   T   T
  0.1653277402690024  0.0287711229186112  0.0446851294680391   T   T   T
  0.3318316553256360  0.0287477927022647  0.0446752216082199   T   T   T
  0.4985931107413450  0.0287023339089843  0.0446382121409291   T   T   T
  0.1653267792321604  0.2787987506027761  0.0446828320528292   T   T   T
  0.3318816175023641  0.2787853329152695  0.0446688675265382   T   T   T
  0.4986413083068779  0.2788032651240924  0.0445967940548268   T   T   T
  0.4175772479719962  0.4038419733816513  0.2069522453934139   T   T   T
  0.4170462462089086  0.1536809871728602  0.2069361464357333   T   T   T
  0.0837491388488690  0.1535084830848251  0.2069180968883702   T   T   T
  0.2503990713181170  0.1537110687342305  0.2069560366996423   T   T   T
  0.0835072712994261  0.4036744446459880  0.2069708589755120   T   T   T
  0.2503914113586100  0.4037681138548361  0.2069718550674202   T   T   T
  0.0433416034352950  0.0552002036961402  0.2241975268271067   T   T   T
  0.2096902439644303  0.0552221068218526  0.2242450857779245   T   T   T
  0.3762576519965076  0.0554639457034273  0.2242005553975823   T   T   T
  0.0417781384429445  0.3046171241452125  0.2245103537803498   T   T   T
  0.2095550473671879  0.3052130070891496  0.2242353355967289   T   T   T
  0.3759635794750703  0.3058334843997411  0.2242592353704264   T   T   T
  0.0392714121252268  0.6800287862722888  0.0273808527523212   T   T   T
  0.2058958208184149  0.6799822285657886  0.0273478431533368   T   T   T
  0.3725028750313197  0.6799754489171965  0.0273391977487685   T   T   T
  0.0394456087180347  0.9298954655707679  0.0273094107191589   T   T   T
  0.2059643954576739  0.9298313716682083  0.0273110145019610   T   T   T
  0.3726155309767620  0.9297996844025822  0.0273022828839386   T   T   T
  0.1652382307529874  0.5287752580208054  0.0447076002657660   T   T   T
  0.3319034534735971  0.5287950841222313  0.0446891288455553   T   T   T
  0.4986704686785804  0.5288224947509527  0.0446454996248780   T   T   T
  0.1652901947146526  0.7786979083990501  0.0446896065463622   T   T   T
  0.3318984998459950  0.7787137699978121  0.0446630252151695   T   T   T
  0.4988016923863290  0.7788254052552686  0.0446493202973467   T   T   T
  0.4169853006575595  0.9036776269063729  0.2069604842810698   T   T   T
  0.4171152850191868  0.6535626820198213  0.2069261047260116   T   T   T
  0.0835595603769328  0.6536936728846692  0.2069808644864620   T   T   T
  0.2503276052772012  0.6536539125062947  0.2069801396586996   T   T   T
  0.0836563428924096  0.9037544686355877  0.2069816937174448   T   T   T
  0.2503559487817867  0.9037187956346595  0.2069806008862028   T   T   T
  0.0440144891014709  0.5548160381810896  0.2240979226457242   T   T   T
  0.2097954882961931  0.5548770242970300  0.2242847194560403   T   T   T
  0.3765567515756414  0.5550920667217701  0.2242742724264609   T   T   T
  0.0433400012026601  0.8051599900919062  0.2242283812808319   T   T   T
  0.2096192042417218  0.8051259469633635  0.2242914124023559   T   T   T
  0.3766420000685567  0.8049171246789834  0.2242221771581924   T   T   T
  0.5394660297630420  0.1799172308065684  0.0272655713392662   T   T   T
  0.7060242125937287  0.1800191587091905  0.0274516714689270   T   T   T
  0.8725568690304233  0.1799557012673819  0.0273561662635107   T   T   T
  0.5393625986143635  0.4299352305379197  0.0272714813281848   T   T   T
  0.7062042043445393  0.4296809186018092  0.0271825045599222   T   T   T
  0.8724481235433295  0.4298023771975789  0.0273616018268781   T   T   T
  0.6655048814856785  0.0287094569748267  0.0447369867949469   T   T   T
  0.8318240477752086  0.0287153868256642  0.0447590529086755   T   T   T
  0.9985647964474867  0.0287520713419952  0.0446839066779230   T   T   T
  0.6651427549964251  0.2785746561130606  0.0446645393813447   T   T   T
  0.8321888113721554  0.2785684863419616  0.0447105798064478   T   T   T
  0.9985734330507428  0.2788114923460470  0.0446679395431131   T   T   T
  0.9164371128047624  0.4033969073861384  0.2069108773310511   T   T   T
  0.9174314988249962  0.1531863070553388  0.2066350190392206   T   T   T
  0.5832972737474078  0.1533829896338045  0.2064985285029331   T   T   T
  0.7500601595782547  0.1557079065932165  0.2076590994794819   T   T   T
  0.5835760776918482  0.4036682566297077  0.2066732416167610   T   T   T
  0.7696423756992251  0.4649536107348204  0.2621649850623949   T   T   T
  0.5427206267796004  0.0563278795070610  0.2240350800344413   T   T   T
  0.7094615562796938  0.0563198697261716  0.2241203516675782   T   T   T
  0.8758905931894305  0.0561922554987526  0.2242421718622721   T   T   T
  0.5498033596387164  0.3009583168151729  0.2223988722198044   T   T   T
  0.6842904882027030  0.2825807353951933  0.2307943856548982   T   T   T
  0.8918568158454717  0.2958399324347188  0.2231228681259675   T   T   T
  0.7511149439992195  0.2699140998633248  0.2663323814835589   T   T   T
  0.7354255648448174  0.2278558592411023  0.3006931798688881   T   T   T
  0.7593575028525413  0.3120354836490777  0.3087750826614774   T   T   T
  0.6438810251850680  0.1364228463621635  0.2961358074387158   T   T   T
  0.7180665896251682  0.1079336405405500  0.2876023841187332   T   T   T
  0.8179656750198278  0.3865727103210839  0.3347385392532736   T   T   T
  0.7511233291102857  0.4324797750224776  0.3266926805139450   T   T   T
  0.7526906702128596  0.4394452619162001  0.2710399307539181   T   T   T
  0.7846820788797148  0.2666318025523039  0.2407585428687000   T   T   T
  0.5392006924375207  0.6800685082294102  0.0273244077566972   T   T   T
  0.7060428272315603  0.6800801153594660  0.0273434858450446   T   T   T
  0.8727016769872693  0.6800653612983234  0.0273671190851791   T   T   T
  0.5394921173054389  0.9299937810572464  0.0272931451497521   T   T   T
  0.7060826824067814  0.9299205101874570  0.0273526644439946   T   T   T
  0.8725866903441986  0.9299628769076910  0.0273668116507755   T   T   T
  0.6653068093858630  0.5288092030874414  0.0446257993128071   T   T   T
  0.8320035527693113  0.5287815764743949  0.0446791391512759   T   T   T
  0.9985171314028918  0.5287728491703250  0.0447100299816834   T   T   T
  0.6653634478291877  0.7788570009673021  0.0446760180722762   T   T   T
  0.8319913478429809  0.7788459143128028  0.0447079205649803   T   T   T
  0.9984257893039028  0.7788109654853187  0.0447074907987443   T   T   T
  0.9169198429590326  0.9039322060512819  0.2069988580122905   T   T   T
  0.9167415236115186  0.6536400662946820  0.2069156748129170   T   T   T
  0.5840193732171550  0.6533698251271791  0.2068095612357189   T   T   T
  0.7500665128604707  0.6530138755374565  0.2068442775938677   T   T   T
  0.5836487424446396  0.9037941533657974  0.2069652545249254   T   T   T
  0.7503253384492041  0.9037557865936205  0.2069938296670072   T   T   T
  0.5451786882380354  0.5543722159508021  0.2237548230760855   T   T   T
  0.7093336033571672  0.5503103526960866  0.2246601206258758   T   T   T
  0.8795716260147026  0.5555254348914233  0.2231099056622763   T   T   T
  0.5429071984564211  0.8050139656896017  0.2242302430266785   T   T   T
  0.7095774331125124  0.8050534619241865  0.2242324170963252   T   T   T
  0.8767610496613328  0.8049366970115042  0.2241925901321645   T   T   T
  0.0872028035754356  0.1680717328225396  0.0334120979354269   T   T   T
  0.2537565355713667  0.1682221385253166  0.0334293016711660   T   T   T
  0.4203951021443977  0.1679901742712543  0.0333732453651807   T   T   T
  0.0872351153742895  0.4180195415503226  0.0333950263118412   T   T   T
  0.2538427816763137  0.4181185062018217  0.0333916684484010   T   T   T
  0.4203697441029139  0.4180332240629546  0.0333479305149187   T   T   T
  0.1618744689484837  0.0431562348765348  0.2182094861451784   T   T   T
  0.3284493251405881  0.0431311690499271  0.2181994553734158   T   T   T
  0.4949709104347241  0.0430577776109959  0.2181747739165329   T   T   T
  0.1617573136193919  0.2930892747987119  0.2181935073038372   T   T   T
  0.3283724853118504  0.2931360333095457  0.2182083583647430   T   T   T
  0.4988988801474977  0.2927647453479133  0.2179070490070432   T   T   T
  0.0870812794906314  0.6681207792316425  0.0334564364296514   T   T   T
  0.2537172074852616  0.6681619856251851  0.0334272473010937   T   T   T
  0.4203555604214626  0.6681243347005716  0.0333887448039215   T   T   T
  0.0872135296896763  0.9178501729411458  0.0333791183054547   T   T   T
  0.2538140988676629  0.9179643029388836  0.0333698908765161   T   T   T
  0.4204784925938284  0.9179225158454540  0.0333434321536170   T   T   T
  0.1619323298646888  0.5431610872428242  0.2182258642929162   T   T   T
  0.3287369651460790  0.5432476203493182  0.2182169627458726   T   T   T
  0.4964742251257947  0.5435009523140201  0.2181637173398108   T   T   T
  0.1618368632104674  0.7931721084213494  0.2182195255218803   T   T   T
  0.3287155283039283  0.7931782015285066  0.2182087879924364   T   T   T
  0.4950288509664538  0.7932409800387370  0.2181912661511553   T   T   T
  0.5872460340585880  0.1677699176634446  0.0333184833036408   T   T   T
  0.7538450057703315  0.1682085884008533  0.0335244844903540   T   T   T
  0.9203988430873196  0.1679404828858433  0.0333792597023494   T   T   T
  0.5871616445319475  0.4178949376305143  0.0333222164826019   T   T   T
  0.7539366131332623  0.4174220272422063  0.0332339441526744   T   T   T
  0.9203480687332555  0.4180320570614647  0.0333987174254499   T   T   T
  0.6617327842275447  0.0427394486513812  0.2183072028536190   T   T   T
  0.8282678658644458  0.0428491708389859  0.2183045107186517   T   T   T
  0.9954725200590178  0.0432006360259379  0.2181936861170834   T   T   T
  0.6504184667702577  0.2954802008993938  0.2179940805245604   T   T   T
  0.8406979158295932  0.2912675040147704  0.2188974937378624   T   T   T
  0.9946448819869977  0.2914783197208692  0.2181759171856765   T   T   T
  0.7635740095213638  0.2735969589104494  0.2963050548385648   T   T   T
  0.6943579380867427  0.1326899730115187  0.3006154369072038   T   T   T
  0.7669938943160055  0.3814014578926328  0.3310465483462562   T   T   T
  0.7432090210211960  0.2502704545610956  0.2505071924868174   T   T   T
  0.5870461148603335  0.6682378122736662  0.0333821724797369   T   T   T
  0.7538781677314026  0.6681726410883702  0.0333985929995799   T   T   T
  0.9205225652251463  0.6682350313364418  0.0334504654820141   T   T   T
  0.5872519092138464  0.9181471177265489  0.0333996579533904   T   T   T
  0.7538759333010172  0.9181397788079164  0.0334339034913959   T   T   T
  0.9204212834467842  0.9182197017577880  0.0334554212343053   T   T   T
  0.6614120540657878  0.5452721995947158  0.2178435982245293   T   T   T
  0.8303004009469138  0.5449243902151754  0.2181332915767981   T   T   T
  0.9958597957815821  0.5433379564048599  0.2182403207425909   T   T   T
  0.6617126679497789  0.7932131818275860  0.2181916913674352   T   T   T
  0.8287871861284263  0.7933091349033692  0.2182063333859830   T   T   T
  0.9954451836746290  0.7933801808274659  0.2182085401999682   T   T   T
  0.2499473993308902  0.1239364054278469  0.0595832851388704   T   T   T
  0.4166280465538574  0.1238461910020061  0.0595548401436036   T   T   T
  0.0833151482260872  0.3738773910702530  0.0595861697739229   T   T   T
  0.2499983257628114  0.3739286937515785  0.0595677178710981   T   T   T
  0.4166716488122862  0.3738836300482978  0.0595406588499591   T   T   T
  0.0832917647897497  0.1238728789900383  0.0595874353602236   T   T   T
  0.4993583745000992  0.0005722120666055  0.1391804689051190   T   T   T
  0.1661536939056965  0.0006809488892366  0.1392270380783251   T   T   T
  0.3327134894927808  0.0007005252800184  0.1392194939510366   T   T   T
  0.4995014487639036  0.2508286265402326  0.1391796720553555   T   T   T
  0.1661335129830440  0.2507922719038518  0.1392397547033861   T   T   T
  0.3327689624522267  0.2508083951537473  0.1392341644628096   T   T   T
  0.0826055878739149  0.1253267388719461  0.1654176322671073   T   T   T
  0.2492173329246204  0.1254671303351334  0.1654506514075999   T   T   T
  0.4158595213482109  0.1254512206209074  0.1654445152378249   T   T   T
  0.0824236665001869  0.3754950995690846  0.1655215514457692   T   T   T
  0.2492117098614166  0.3754979516027105  0.1654840939595931   T   T   T
  0.4160653295860616  0.3755230437066869  0.1654928199758034   T   T   T
  0.1655011565496644  0.4987839777280737  0.1920834476199860   T   T   T
  0.3325505593090127  0.4988194979470193  0.1920846897900816   T   T   T
  0.4997564699721732  0.4989454591310605  0.1919935106616534   T   T   T
  0.1657105607631973  0.2488211302895852  0.1920496516722953   T   T   T
  0.4991614695882316  0.2485304774487819  0.1918606616471754   T   T   T
  0.3323898793709475  0.2488402557831761  0.1920431735597356   T   T   T
  0.4996786156462855  0.0004865799691923  0.0861303969238651   T   T   T
  0.1663546357421505  0.0004791279232284  0.0861620148018151   T   T   T
  0.3330490224616209  0.0004684170520253  0.0861522595714320   T   T   T
  0.4997059639164256  0.2505420049081188  0.0861148300400816   T   T   T
  0.1663582663642142  0.2505308791017486  0.0861771378041294   T   T   T
  0.3330804785089637  0.2505393389076175  0.0861674210189679   T   T   T
  0.0828481720196509  0.1257532103179267  0.1123927826412111   T   T   T
  0.2495225655925218  0.1257428913495073  0.1124257429041713   T   T   T
  0.4161589348965353  0.1257332022575643  0.1123755887896531   T   T   T
  0.0827895410845272  0.3758366452915394  0.1124202906812706   T   T   T
  0.2495237328715132  0.3758101305205593  0.1124279926314462   T   T   T
  0.4162463861017943  0.3758456547176077  0.1123867528897638   T   T   T
  0.2499253318002900  0.6239132866821997  0.0595898649414555   T   T   T
  0.4166462681176566  0.6239112090692748  0.0595653921901507   T   T   T
  0.0833197870590354  0.8738099643505396  0.0595818866424643   T   T   T
  0.2499786008118397  0.8738345947233873  0.0595580152239317   T   T   T
  0.4166574407567913  0.8738214542765695  0.0595441077474194   T   T   T
  0.0832352081282911  0.6238952204885472  0.0596163797019556   T   T   T
  0.4996490755241340  0.5008070128793684  0.1392386886198995   T   T   T
  0.1660705927539179  0.5007543303368118  0.1392634383297396   T   T   T
  0.3327817153934483  0.5007685439130628  0.1392426294659317   T   T   T
  0.4994912376895134  0.7507829844726125  0.1391942830315159   T   T   T
  0.1660927002692293  0.7507311865357318  0.1392418648177264   T   T   T
  0.3327159641151544  0.7507467311430811  0.1392183742422330   T   T   T
  0.0823253639361243  0.6254037016842457  0.1655175125229067   T   T   T
  0.2491576323978095  0.6254320995366119  0.1654813829404695   T   T   T
  0.4159736073065107  0.6254783219503973  0.1654488706466866   T   T   T
  0.0824949481748289  0.8754300032818800  0.1654949613428485   T   T   T
  0.2491674904728103  0.8754066098001522  0.1654679006306444   T   T   T
  0.4158373384441536  0.8754156567926298  0.1654662313253774   T   T   T
  0.1656489758987963  0.9988284169904811  0.1920628941619147   T   T   T
  0.3323253747093193  0.9988341588433736  0.1920554876767826   T   T   T
  0.4989266531793442  0.9988571119302938  0.1920050273330982   T   T   T
  0.1656207418278958  0.7488011453096677  0.1920833535788236   T   T   T
  0.4990524160710531  0.7487397648669477  0.1920490682167776   T   T   T
  0.3323631679078888  0.7487759802454454  0.1920717732410377   T   T   T
  0.4997652187670265  0.5005359951085064  0.0861367037015663   T   T   T
  0.1663272647301766  0.5005231804695530  0.0861845592815473   T   T   T
  0.3330943107930726  0.5005367938453246  0.0861664368964894   T   T   T
  0.4997580742392420  0.7505628560378806  0.0861529097887113   T   T   T
  0.1663371694175098  0.7504678919790811  0.0861836214354776   T   T   T
  0.3330582629808387  0.7504755357726725  0.0861630992706813   T   T   T
  0.0827518410104523  0.6257331312263794  0.1124422435889562   T   T   T
  0.2494995299773570  0.6257242630301476  0.1124420389375354   T   T   T
  0.4162524515020328  0.6258111547842919  0.1123854073308943   T   T   T
  0.0828508014537107  0.8757760982608517  0.1123915060199520   T   T   T
  0.2494963972241560  0.8757406493523010  0.1124070959017117   T   T   T
  0.4161106530319917  0.8757388852904709  0.1123586426770095   T   T   T
  0.7499895879137031  0.1239843194947781  0.0597025248299063   T   T   T
  0.9166141965277690  0.1239158601478498  0.0595828378266163   T   T   T
  0.5833749448629642  0.3738840369343899  0.0595288489684179   T   T   T
  0.7500075372490637  0.3737872619711011  0.0595222378545903   T   T   T
  0.9165959115963402  0.3739087000089959  0.0595947004357546   T   T   T
  0.5833228086615611  0.1238647253132433  0.0595392986016416   T   T   T
  0.9994289153250530  0.0006301520996336  0.1392128848907344   T   T   T
  0.6662540684568926  0.0009465906173085  0.1393033168314821   T   T   T
  0.8325535683585613  0.0010455485882800  0.1393442300198400   T   T   T
  0.9993125458135720  0.2508044607539557  0.1392218506275283   T   T   T
  0.6659496519008782  0.2514752949368215  0.1394438110492389   T   T   T
  0.8326173501451231  0.2514440983835925  0.1394573449305045   T   T   T
  0.5823869917242930  0.1251647619356890  0.1652503067647506   T   T   T
  0.7490109184337879  0.1269879595376061  0.1660057220623254   T   T   T
  0.9159249045508139  0.1252981483539507  0.1653158762357102   T   T   T
  0.5826928575663866  0.3757788999732150  0.1655061114719351   T   T   T
  0.7490139259898989  0.3775890777011443  0.1669132677821546   T   T   T
  0.9154550536696835  0.3757217701647876  0.1656586300268519   T   T   T
  0.6685395993429388  0.4960630172566233  0.1921919893960638   T   T   T
  0.8290292991924789  0.4959411569744281  0.1924284161831603   T   T   T
  0.9983138274100212  0.4987021109823075  0.1920848793077220   T   T   T
  0.6639511042351932  0.2509377172504870  0.1924769942370718   T   T   T
  0.9990962503342151  0.2481944613670635  0.1917973479109811   T   T   T
  0.8332577228961234  0.2500305445038357  0.1922807306051537   T   T   T
  0.9997275588866265  0.0005201834375857  0.0861737872890957   T   T   T
  0.6664471676788075  0.0005901644464675  0.0862134266835645   T   T   T
  0.8329795672699311  0.0006006725407297  0.0862322959192167   T   T   T
  0.9997034564003754  0.2505488684916289  0.0861756043491309   T   T   T
  0.6663869454726177  0.2506268527225921  0.0862092421595377   T   T   T
  0.8330039355328070  0.2506103366468107  0.0862398540800504   T   T   T
  0.5828570470605656  0.1258681990038242  0.1123745354864669   T   T   T
  0.7494772468824309  0.1260947958764956  0.1126281260954142   T   T   T
  0.9161530850159997  0.1258894957772259  0.1124272639685076   T   T   T