C H O Si                                
   1.00000000000000     
     9.2874599999999994    0.0000000000000000    0.0000000000000000
     0.0000000000000000   17.5126199999999983    0.0000000000000000
     0.0000000000000000    0.0000000000000000   58.0000000000000000
   C    H    O    Si
    72    57    28    72
Selective dynamics
Direct
  0.9936130159386829  0.0630312309115388  0.0604857729838074   T   T   T
  0.3269781325943615  0.0630710799726740  0.0605564187548237   T   T   T
  0.6602693918469675  0.0630840346421714  0.0605430620458514   T   T   T
  0.9935121396654837  0.3130563403237754  0.0604825836747651   T   T   T
  0.3268488310837699  0.3130307129405921  0.0605766452350926   T   T   T
  0.6602182065139549  0.3130345351340310  0.0605489367682138   T   T   T
  0.1598628276397711  0.1859296184119033  0.1393751567752771   T   T   T
  0.4931439683296255  0.1862568160193758  0.1396319829959189   T   T   T
  0.8265677852264622  0.1859089495414405  0.1393448452924986   T   T   T
  0.1597788609976761  0.4360541777612992  0.1394298371469512   T   T   T
  0.4931551312507331  0.4359594537485937  0.1394829164048811   T   T   T
  0.8265405334530637  0.4360519782126571  0.1394193058629387   T   T   T
  0.3270686535531884  0.0613067778238916  0.1666894227626746   T   T   T
  0.6593988097355064  0.0613071015241106  0.1666727706643488   T   T   T
  0.9934144262676452  0.0605949181315087  0.1664532608508663   T   T   T
  0.3262851096869493  0.3111766317717101  0.1667821005379671   T   T   T
  0.6602227832928187  0.3112441992911630  0.1666680610510101   T   T   T
  0.9932926405147412  0.3110946761381764  0.1665075220398185   T   T   T
  0.1598028782332271  0.1870518049515814  0.1916780393602433   T   T   T
  0.4933432262007749  0.1898886550415393  0.1927529291910665   T   T   T
  0.8273476482985477  0.1868381225671561  0.1915826557629214   T   T   T
  0.1597327071038891  0.4383218281716586  0.1919732437386720   T   T   T
  0.4932483146106842  0.4378982945617066  0.1920446244588713   T   T   T
  0.8268678824624262  0.4383524667872199  0.1919455517979511   T   T   T
  0.1600037022470743  0.1861279823381752  0.0858329792911611   T   T   T
  0.4932698926848219  0.1861733776059818  0.0859745449702023   T   T   T
  0.8265907796278142  0.1861252301716719  0.0858208356033371   T   T   T
  0.1600205451285636  0.4361261729362924  0.0858695718614702   T   T   T
  0.4933142151130941  0.4361108231195145  0.0859051592501383   T   T   T
  0.8266207255306660  0.4361322640959414  0.0858555699453328   T   T   T
  0.3265719797240195  0.0610471658164412  0.1130884037827959   T   T   T
  0.6597772395058786  0.0610585222105646  0.1130852699380935   T   T   T
  0.9932055554286691  0.0609517082799094  0.1130087337933525   T   T   T
  0.3264837709167770  0.3110203836686788  0.1131421364631178   T   T   T
  0.6599600999870615  0.3110310227086245  0.1130996936610300   T   T   T
  0.9932131762919376  0.3110089902091667  0.1130081299517471   T   T   T
  0.9936195775264776  0.5629988855818396  0.0605168112352310   T   T   T
  0.3269234925414832  0.5630155932643941  0.0605295598657461   T   T   T
  0.6603419067661084  0.5630186349106802  0.0605288530670461   T   T   T
  0.9935032679165480  0.8130696306262578  0.0605192530503111   T   T   T
  0.3268445880129260  0.8130306519137576  0.0605165744146081   T   T   T
  0.6602209961909576  0.8130546449617060  0.0605096338954907   T   T   T
  0.1598251199639718  0.6860748261270937  0.1394231481195340   T   T   T
  0.4931067063370598  0.6860460098036587  0.1394309750998818   T   T   T
  0.8264073545092863  0.6860567157735281  0.1394264103570927   T   T   T
  0.1601815639368654  0.9360183421452658  0.1394338845463301   T   T   T
  0.4931689038503339  0.9359864670659981  0.1394350759136438   T   T   T
  0.8262734876930534  0.9360516416247707  0.1394304593030052   T   T   T
  0.3265240895900000  0.5611535574730081  0.1665937434857703   T   T   T
  0.6597580666965308  0.5611196044152129  0.1666030509877658   T   T   T
  0.9931949977569470  0.5613392632319635  0.1665649515818730   T   T   T
  0.3265706681359090  0.8111329127052140  0.1665940519309801   T   T   T
  0.6599361317624306  0.8111431245208568  0.1665940478922090   T   T   T
  0.9932366177100952  0.8112024643065818  0.1665871556823411   T   T   T
  0.1600889261900824  0.6881210148816986  0.1919853867261213   T   T   T
  0.4933633407551642  0.6880769537990088  0.1919891209024285   T   T   T
  0.8266108213166026  0.6881246393594572  0.1919827534111409   T   T   T
  0.1601972115396531  0.9380445157323895  0.1919966913403982   T   T   T
  0.4934364523292734  0.9380237070202669  0.1920115355465958   T   T   T
  0.8265931895575701  0.9380657266550690  0.1919833846314392   T   T   T
  0.1599973156742588  0.6861414571801528  0.0858590722306659   T   T   T
  0.4933160353835329  0.6861086646104291  0.0858700769832517   T   T   T
  0.8266198291605188  0.6861493230723799  0.0858578822361389   T   T   T
  0.1600636764614361  0.9361440518541936  0.0858629379743950   T   T   T
  0.4932998822570431  0.9361342002331849  0.0858758049840565   T   T   T
  0.8265377287308948  0.9361607755032649  0.0858568456368389   T   T   T
  0.3265017432431838  0.5610161893955320  0.1130589772536371   T   T   T
  0.6598583028243115  0.5610077070912823  0.1130623827425109   T   T   T
  0.9931576160973837  0.5610433458359880  0.1130396458743970   T   T   T
  0.3266012525996396  0.8110002156170006  0.1130412657338547   T   T   T
  0.6598554660497841  0.8110138590157920  0.1130420829763829   T   T   T
  0.9932097310705548  0.8110902894478232  0.1130553582250748   T   T   T
  0.0718343672139681  0.1789772327775410  0.0281029494066435   T   T   T
  0.4045701895874987  0.1789195450798092  0.0282397447362040   T   T   T
  0.7377541713413612  0.1788859177049896  0.0281336877383183   T   T   T
  0.0716797207229508  0.4290256063239903  0.0281375820429240   T   T   T
  0.4042955731928198  0.4288141666447523  0.0282001657451474   T   T   T
  0.7372155385472515  0.4288447609393204  0.0281765161150085   T   T   T
  0.3248394828314024  0.0264143445081757  0.0451303009502462   T   T   T
  0.6574422101920430  0.0264349108788989  0.0451213594267358   T   T   T
  0.9912097059166112  0.0264560895116663  0.0450475420829164   T   T   T
  0.3243706219542994  0.2763259607481697  0.0451658801787426   T   T   T
  0.6575904384364839  0.2763476434946399  0.0451342489416014   T   T   T
  0.9910275860942661  0.2764972993334119  0.0450408290306584   T   T   T
  0.8286294153602350  0.4019159076401655  0.2073987128644854   T   T   T
  0.8298959135203140  0.1504694319180763  0.2070631899686425   T   T   T
  0.1614416438121631  0.1507696878149656  0.2071764345195127   T   T   T
  0.4961286237237299  0.1526303003492188  0.2080405238242193   T   T   T
  0.1613247463273796  0.4015127536814674  0.2073600127682664   T   T   T
  0.4937886559826550  0.4012336449441340  0.2074819236702428   T   T   T
  0.0826893921844956  0.0538802513212004  0.2242982105688411   T   T   T
  0.4164019673401697  0.0534254598796131  0.2244293724717818   T   T   T
  0.7497816541315836  0.0535567905634200  0.2243721542981904   T   T   T
  0.0825627819110293  0.3011274897512133  0.2239961885951597   T   T   T
  0.3774992305360891  0.3108547998126097  0.2280534567011549   T   T   T
  0.7823939022582862  0.2956598046259248  0.2227608855584675   T   T   T
  0.5475039115426594  0.3058893705339057  0.2735572394944376   T   T   T
  0.4924458849675182  0.2380324204511669  0.2931716379351431   T   T   T
  0.5716092237122613  0.3193861960129071  0.3028513776678430   T   T   T
  0.3131317378870999  0.1928921153742582  0.3097172437070675   T   T   T
  0.4220644503879643  0.1292698245349530  0.3024426491660972   T   T   T
  0.6512447764880123  0.3665408442071768  0.3335231621846276   T   T   T
  0.4856153535753555  0.3787628018428026  0.3308751160577105   T   T   T
  0.5221565878154852  0.3954732049389175  0.2521881238406951   T   T   T
  0.5878048298544418  0.3227049359040646  0.2385847281468305   T   T   T
  0.0715293308333189  0.6789674665667376  0.0281592605470016   T   T   T
  0.4047281829391165  0.6788973479185072  0.0281724600420768   T   T   T
  0.7379636578953274  0.6789091506495092  0.0281719047819706   T   T   T
  0.0713153699845466  0.9289701748066459  0.0281581474554486   T   T   T
  0.4042621648306080  0.9288671025432227  0.0281729104354520   T   T   T
  0.7376133592149788  0.9289437502042992  0.0281671226119908   T   T   T
  0.3244777440774070  0.5263733601732061  0.0451015663459812   T   T   T
  0.6578605848603625  0.5263792173314428  0.0451005401173224   T   T   T
  0.9911316718155021  0.5264114126811927  0.0450818060791937   T   T   T
  0.3243675174229121  0.7764087169724704  0.0450881548069776   T   T   T
  0.6576135357387782  0.7764241861891185  0.0450816696551936   T   T   T
  0.9909863222273996  0.7764452244851329  0.0450883816449611   T   T   T
  0.8289598249383028  0.9013754581989621  0.2074012119443885   T   T   T
  0.8290353836918875  0.6514473338950436  0.2074029403542853   T   T   T
  0.1623253544959006  0.6514406427812612  0.2074026150676136   T   T   T
  0.4957793106523745  0.6514782819297619  0.2074202331105998   T   T   T
  0.1623575674238381  0.9013673069022803  0.2074120775652819   T   T   T
  0.4958616931859920  0.9013217194589426  0.2074225864218785   T   T   T
  0.0824313583871504  0.5545457494316913  0.2242746194699583   T   T   T
  0.4159805777559576  0.5548236117964530  0.2241899909092938   T   T   T
  0.7495258776993612  0.5544249041269096  0.2242370554968397   T   T   T
  0.0828358240168605  0.8039666004336598  0.2243067492789138   T   T   T
  0.4158522781091764  0.8041766157152472  0.2243304650966272   T   T   T
  0.7498040320472810  0.8037662465224241  0.2242852318331061   T   T   T
  0.1676248898968232  0.1655940401866144  0.0337900826845484   T   T   T
  0.5005954404590238  0.1659420278862178  0.0339255748802625   T   T   T
  0.8337475975471358  0.1656309810339339  0.0337674590858381   T   T   T
  0.1674991388729984  0.4157003339047455  0.0338293590148386   T   T   T
  0.5003407065596739  0.4157211690241008  0.0338514380973378   T   T   T
  0.8333105939148280  0.4157469133996587  0.0338050197829720   T   T   T
  0.3202776420035982  0.0412188046652967  0.2186405287145149   T   T   T
  0.6535957109779984  0.0413121643041840  0.2186200423809708   T   T   T
  0.9867341662399600  0.0412634384984140  0.2185277399036177   T   T   T
  0.2981467071698782  0.2904619205816542  0.2187766474942448   T   T   T
  0.6793798109643069  0.2913522037255018  0.2187090380858145   T   T   T
  0.9852543373873293  0.2892468363312390  0.2183917259554734   T   T   T
  0.5698496270801496  0.2794829904156088  0.2896113216584246   T   T   T
  0.3802183399159061  0.1778107714064246  0.2975853541517724   T   T   T
  0.5759589766680626  0.3779257744619914  0.3222701772923202   T   T   T
  0.5165433264630458  0.3399509423722002  0.2510994839247812   T   T   T
  0.1674275380214642  0.6656835908349691  0.0338272472436657   T   T   T
  0.5006912322411725  0.6656849466887935  0.0338291905031627   T   T   T
  0.8339453117586779  0.6657054725130752  0.0338279325006466   T   T   T
  0.1672538249580592  0.9157474699290544  0.0338255624653412   T   T   T
  0.5003138317671805  0.9157668584189650  0.0338231571116908   T   T   T
  0.8336209863935896  0.9157670205805655  0.0338118676197799   T   T   T
  0.3200992331095162  0.5412698607232327  0.2185889450124653   T   T   T
  0.6534849440404774  0.5413370516536878  0.2185823311025683   T   T   T
  0.9865694716027269  0.5413758396461200  0.2185869833757800   T   T   T
  0.3199783526193093  0.7912523331986856  0.2185992130220882   T   T   T
  0.6536090135647860  0.7912660581832920  0.2185908399568889   T   T   T
  0.9867985515929963  0.7912721728720175  0.2185878011528936   T   T   T
  0.4937824666445219  0.1216406062725791  0.0601411446656276   T   T   T
  0.8270693267244755  0.1215839747865885  0.0600189124709540   T   T   T
  0.1603723485552818  0.3715679961598978  0.0600645229920821   T   T   T
  0.4936867100193374  0.3715601878267362  0.0600870977291832   T   T   T
  0.8269473177939143  0.3716039766759973  0.0600436091975763   T   T   T
  0.1604614014993961  0.1215597622407775  0.0600375615362515   T   T   T
  0.9931616896152862  0.4983911438723828  0.1396085825314364   T   T   T
  0.3264604265383257  0.4982932621494319  0.1396233007930515   T   T   T
  0.6597749772250764  0.4982897076914552  0.1396285937623148   T   T   T
  0.9932044656562645  0.2482063535197318  0.1395250059612691   T   T   T
  0.3262961071895107  0.2483331777811726  0.1397382195433929   T   T   T
  0.6600095926405295  0.2482549444975284  0.1396405158488283   T   T   T
  0.1598244554478445  0.1226469939576799  0.1657026388602878   T   T   T
  0.4931494637584478  0.1239286246023902  0.1662143411531591   T   T   T
  0.8268460009016037  0.1224564027911375  0.1656131591676079   T   T   T
  0.1597352858880741  0.3732976761582289  0.1658671517233971   T   T   T
  0.4930644624552484  0.3730415548783244  0.1659156188129932   T   T   T
  0.8268996542300969  0.3733187468613344  0.1658475895643106   T   T   T
  0.3261859389213310  0.4967371830541866  0.1924107747644522   T   T   T
  0.6598317628133132  0.4967054814228114  0.1924225444907141   T   T   T
  0.9930928828100359  0.4969555191919672  0.1923797347512815   T   T   T
  0.3239750701278153  0.2472287852145069  0.1927713214343584   T   T   T
  0.9933710458464130  0.2455492403530418  0.1920213288110193   T   T   T
  0.6624825873537193  0.2463678891198662  0.1922514890988488   T   T   T
  0.9933006400613519  0.4980578799402558  0.0866221241087417   T   T   T
  0.3266348882071288  0.4980665431105371  0.0866378183371572   T   T   T
  0.6599320739082702  0.4980606234415472  0.0866352165234933   T   T   T
  0.9932650319226871  0.2480553963123518  0.0865798880858523   T   T   T
  0.3265941542895095  0.2480897494267918  0.0866891533052375   T   T   T
  0.6599368323790631  0.2480819879510598  0.0866592339139275   T   T   T
  0.1598716129790879  0.1233024535550401  0.1128136937691622   T   T   T
  0.4931543307553312  0.1234247970507622  0.1129776487359266   T   T   T
  0.8265433321122141  0.1232804056818000  0.1127888203472994   T   T   T
  0.1598772126944353  0.3733509891778404  0.1128615336690669   T   T   T
  0.4931879599767771  0.3733220966207040  0.1128881057278762   T   T   T
  0.8266056226877406  0.3733486958236883  0.1128485468253276   T   T   T
  0.4937930116920120  0.6215316298076753  0.0600633160259867   T   T   T
  0.8271234001999692  0.6215610305799172  0.0600607822196028   T   T   T
  0.1603863290179927  0.8715784666014338  0.0600570466467174   T   T   T
  0.4936821753926771  0.8715980395699622  0.0600560578324725   T   T   T
  0.8269708495638252  0.8716238123491389  0.0600511574559100   T   T   T
  0.1604234978948506  0.6215493964552973  0.0600613381193981   T   T   T
  0.9932129806666110  0.9980272838827632  0.1395382408332764   T   T   T
  0.3268553245631350  0.9983971054368985  0.1396617774125707   T   T   T
  0.6594684954397941  0.9983879471356299  0.1396527138462298   T   T   T
  0.9930937093330825  0.7483379757888032  0.1396137605634880   T   T   T
  0.3264821060530263  0.7483279447973978  0.1396127513396233   T   T   T
  0.6597431265172755  0.7483273537105521  0.1396112784382526   T   T   T
  0.1598651042697944  0.6232372410235256  0.1658502330982403   T   T   T
  0.4931618630274067  0.6231771798540985  0.1658672139636383   T   T   T
  0.8264473479161930  0.6232150024522941  0.1658550350795440   T   T   T
  0.1599641638719108  0.8731460471377550  0.1658615605210931   T   T   T
  0.4932392909351955  0.8731388732854668  0.1658778641898930   T   T   T
  0.8265102823877549  0.8731571989508254  0.1658550059104255   T   T   T
  0.3265162523427201  0.9966246017849520  0.1924687557170613   T   T   T
  0.6597771283000543  0.9966502736057349  0.1924517596917421   T   T   T
  0.9931564657372134  0.9965404109570494  0.1923747590730513   T   T   T
  0.3264713633667809  0.7466883789407501  0.1924213734171326   T   T   T
  0.9931358692331818  0.7466972007551291  0.1924131868800714   T   T   T
  0.6597491766943041  0.7466914840052178  0.1924146438224309   T   T   T
  0.9932867425200482  0.9980569051276666  0.0865892407907990   T   T   T
  0.3266770013050763  0.9981019651694447  0.0866515453546828   T   T   T
  0.6598753700807048  0.9981151325928991  0.0866429025128248   T   T   T
  0.9932731233234804  0.7481060704458773  0.0866265215557424   T   T   T
  0.3266322520184390  0.7480651848054629  0.0866211544375457   T   T   T
  0.6599144472428704  0.7480727202427740  0.0866156159705355   T   T   T
  0.1598454367017703  0.6233603206242417  0.1128543835759980   T   T   T
  0.4931672011689816  0.6233394385717421  0.1128599711219768   T   T   T
  0.8264993954347271  0.6233526520497894  0.1128537219034643   T   T   T
  0.1600243675728425  0.8733457069225878  0.1128564813403594   T   T   T
  0.4932295885268898  0.8733408638447858  0.1128536968611506   T   T   T
  0.8264271792027765  0.8733635475212346  0.1128513275326049   T   T   T
 
  0.00000000E+00  0.00000000E+00  0.00000000E+00
  0.00000000E+00  0.00000000E+00  0.00000000E+00
  0.00000000E+00  0.00000000E+00  0.00000000E+00
  0.00000000E+00  0.00000000E+00  0.00000000E+00
  0.00000000E+00  0.00000000E+00  0.00000000E+00
  0.00000000E+00  0.00000000E+00  0.00000000E+00
  0.00000000E+00  0.00000000E+00  0.00000000E+00
  0.00000000E+00  0.00000000E+00  0.00000000E+00
  0.00000000E+00  0.00000000E+00  0.00000000E+00
  0.00000000E+00  0.00000000E+00  0.00000000E+00
  0.00000000E+00  0.00000000E+00  0.00000000E+00
  0.00000000E+00  0.00000000E+00  0.00000000E+00
  0.00000000E+00  0.00000000E+00  0.00000000E+00
  0.00000000E+00  0.00000000E+00  0.00000000E+00
  0.00000000E+00  0.00000000E+00  0.00000000E+00
  0.00000000E+00  0.00000000E+00  0.00000000E+00
  0.00000000E+00  0.00000000E+00  0.00000000E+00
  0.00000000E+00  0.00000000E+00  0.00000000E+00
  0.00000000E+00  0.00000000E+00  0.00000000E+00
  0.00000000E+00  0.00000000E+00  0.00000000E+00
  0.00000000E+00  0.00000000E+00  0.00000000E+00
  0.00000000E+00  0.00000000E+00  0.00000000E+00
  0.00000000E+00  0.00000000E+00  0.00000000E+00
  0.00000000E+00  0.00000000E+00  0.00000000E+00
  0.00000000E+00  0.00000000E+00  0.00000000E+00
  0.00000000E+00  0.00000000E+00  0.00000000E+00
  0.00000000E+00  0.00000000E+00  0.00000000E+00
  0.00000000E+00  0.00000000E+00  0.00000000E+00
  0.00000000E+00  0.00000000E+00  0.00000000E+00
  0.00000000E+00  0.00000000E+00  0.00000000E+00
  0.00000000E+00  0.00000000E+00  0.00000000E+00
  0.00000000E+00  0.00000000E+00  0.00000000E+00
  0.00000000E+00  0.00000000E+00  0.00000000E+00
  0.00000000E+00  0.00000000E+00  0.00000000E+00
  0.00000000E+00  0.00000000E+00  0.00000000E+00
  0.00000000E+00  0.00000000E+00  0.00000000E+00
  0.00000000E+00  0.00000000E+00  0.00000000E+00
  0.00000000E+00  0.00000000E+00  0.00000000E+00
  0.00000000E+00  0.00000000E+00  0.00000000E+00
  0.00000000E+00  0.00000000E+00  0.00000000E+00
  0.00000000E+00  0.00000000E+00  0.00000000E+00
  0.00000000E+00  0.00000000E+00  0.00000000E+00
  0.00000000E+00  0.00000000E+00  0.00000000E+00
  0.00000000E+00  0.00000000E+00  0.00000000E+00
  0.00000000E+00  0.00000000E+00  0.00000000E+00
  0.00000000E+00  0.00000000E+00  0.00000000E+00
  0.00000000E+00  0.00000000E+00  0.00000000E+00
  0.00000000E+00  0.00000000E+00  0.00000000E+00
  0.00000000E+00  0.00000000E+00  0.00000000E+00
  0.00000000E+00  0.00000000E+00  0.00000000E+00
  0.00000000E+00  0.00000000E+00  0.00000000E+00
  0.00000000E+00  0.00000000E+00  0.00000000E+00
  0.00000000E+00  0.00000000E+00  0.00000000E+00
  0.00000000E+00  0.00000000E+00  0.00000000E+00
  0.00000000E+00  0.00000000E+00  0.00000000E+00
  0.00000000E+00  0.00000000E+00  0.00000000E+00
  0.00000000E+00  0.00000000E+00  0.00000000E+00
  0.00000000E+00  0.00000000E+00  0.00000000E+00
  0.00000000E+00  0.00000000E+00  0.00000000E+00
  0.00000000E+00  0.00000000E+00  0.00000000E+00
  0.00000000E+00  0.00000000E+00  0.00000000E+00
  0.00000000E+00  0.00000000E+00  0.00000000E+00
  0.00000000E+00  0.00000000E+00  0.00000000E+00
  0.00000000E+00  0.00000000E+00  0.00000000E+00
  0.00000000E+00  0.00000000E+00  0.00000000E+00
  0.00000000E+00  0.00000000E+00  0.00000000E+00
  0.00000000E+00  0.00000000E+00  0.00000000E+00
  0.00000000E+00  0.00000000E+00  0.00000000E+00
  0.00000000E+00  0.00000000E+00  0.00000000E+00
  0.00000000E+00  0.00000000E+00  0.00000000E+00
  0.00000000E+00  0.00000000E+00  0.00000000E+00
  0.00000000E+00  0.00000000E+00  0.00000000E+00
  0.00000000E+00  0.00000000E+00  0.00000000E+00
  0.00000000E+00  0.00000000E+00  0.00000000E+00
  0.00000000E+00  0.00000000E+00  0.00000000E+00
  0.00000000E+00  0.00000000E+00  0.00000000E+00
  0.00000000E+00  0.00000000E+00  0.00000000E+00
  0.00000000E+00  0.00000000E+00  0.00000000E+00
  0.00000000E+00  0.00000000E+00  0.00000000E+00
  0.00000000E+00  0.00000000E+00  0.00000000E+00
  0.00000000E+00  0.00000000E+00  0.00000000E+00
  0.00000000E+00  0.00000000E+00  0.00000000E+00
  0.00000000E+00  0.00000000E+00  0.00000000E+00
  0.00000000E+00  0.00000000E+00  0.00000000E+00
  0.00000000E+00  0.00000000E+00  0.00000000E+00
  0.00000000E+00  0.00000000E+00  0.00000000E+00
  0.00000000E+00  0.00000000E+00  0.00000000E+00
  0.00000000E+00  0.00000000E+00  0.00000000E+00
  0.00000000E+00  0.00000000E+00  0.00000000E+00
  0.00000000E+00  0.00000000E+00  0.00000000E+00
  0.00000000E+00  0.00000000E+00  0.00000000E+00
  0.00000000E+00  0.00000000E+00  0.00000000E+00
  0.00000000E+00  0.00000000E+00  0.00000000E+00
  0.00000000E+00  0.00000000E+00  0.00000000E+00
  0.00000000E+00  0.00000000E+00  0.00000000E+00
  0.00000000E+00  0.00000000E+00  0.00000000E+00
  0.00000000E+00  0.00000000E+00  0.00000000E+00
  0.00000000E+00  0.00000000E+00  0.00000000E+00
  0.00000000E+00  0.00000000E+00  0.00000000E+00
  0.00000000E+00  0.00000000E+00  0.00000000E+00
  0.00000000E+00  0.00000000E+00  0.00000000E+00
  0.00000000E+00  0.00000000E+00  0.00000000E+00
  0.00000000E+00  0.00000000E+00  0.00000000E+00
  0.00000000E+00  0.00000000E+00  0.00000000E+00
  0.00000000E+00  0.00000000E+00  0.00000000E+00
  0.00000000E+00  0.00000000E+00  0.00000000E+00
  0.00000000E+00  0.00000000E+00  0.00000000E+00
  0.00000000E+00  0.00000000E+00  0.00000000E+00
  0.00000000E+00  0.00000000E+00  0.00000000E+00
  0.00000000E+00  0.00000000E+00  0.00000000E+00
  0.00000000E+00  0.00000000E+00  0.00000000E+00
  0.00000000E+00  0.00000000E+00  0.00000000E+00
  0.00000000E+00  0.00000000E+00  0.00000000E+00
  0.00000000E+00  0.00000000E+00  0.00000000E+00
  0.00000000E+00  0.00000000E+00  0.00000000E+00
  0.00000000E+00  0.00000000E+00  0.00000000E+00
  0.00000000E+00  0.00000000E+00  0.00000000E+00
  0.00000000E+00  0.00000000E+00  0.00000000E+00
  0.00000000E+00  0.00000000E+00  0.00000000E+00
  0.00000000E+00  0.00000000E+00  0.00000000E+00
  0.00000000E+00  0.00000000E+00  0.00000000E+00
  0.00000000E+00  0.00000000E+00  0.00000000E+00
  0.00000000E+00  0.00000000E+00  0.00000000E+00
  0.00000000E+00  0.00000000E+00  0.00000000E+00
  0.00000000E+00  0.00000000E+00  0.00000000E+00
  0.00000000E+00  0.00000000E+00  0.00000000E+00
  0.00000000E+00  0.00000000E+00  0.00000000E+00
  0.00000000E+00  0.00000000E+00  0.00000000E+00
  0.00000000E+00  0.00000000E+00  0.00000000E+00
  0.00000000E+00  0.00000000E+00  0.00000000E+00
  0.00000000E+00  0.00000000E+00  0.00000000E+00
  0.00000000E+00  0.00000000E+00  0.00000000E+00
  0.00000000E+00  0.00000000E+00  0.00000000E+00
  0.00000000E+00  0.00000000E+00  0.00000000E+00
  0.00000000E+00  0.00000000E+00  0.00000000E+00
  0.00000000E+00  0.00000000E+00  0.00000000E+00
  0.00000000E+00  0.00000000E+00  0.00000000E+00
  0.00000000E+00  0.00000000E+00  0.00000000E+00
  0.00000000E+00  0.00000000E+00  0.00000000E+00
  0.00000000E+00  0.00000000E+00  0.00000000E+00
  0.00000000E+00  0.00000000E+00  0.00000000E+00
  0.00000000E+00  0.00000000E+00  0.00000000E+00
  0.00000000E+00  0.00000000E+00  0.00000000E+00
  0.00000000E+00  0.00000000E+00  0.00000000E+00
  0.00000000E+00  0.00000000E+00  0.00000000E+00
  0.00000000E+00  0.00000000E+00  0.00000000E+00
  0.00000000E+00  0.00000000E+00  0.00000000E+00
  0.00000000E+00  0.00000000E+00  0.00000000E+00
  0.00000000E+00  0.00000000E+00  0.00000000E+00
  0.00000000E+00  0.00000000E+00  0.00000000E+00
  0.00000000E+00  0.00000000E+00  0.00000000E+00
  0.00000000E+00  0.00000000E+00  0.00000000E+00
  0.00000000E+00  0.00000000E+00  0.00000000E+00
  0.00000000E+00  0.00000000E+00  0.00000000E+00
  0.00000000E+00  0.00000000E+00  0.00000000E+00
  0.00000000E+00  0.00000000E+00  0.00000000E+00
  0.00000000E+00  0.00000000E+00  0.00000000E+00
  0.00000000E+00  0.00000000E+00  0.00000000E+00
  0.00000000E+00  0.00000000E+00  0.00000000E+00
  0.00000000E+00  0.00000000E+00  0.00000000E+00
  0.00000000E+00  0.00000000E+00  0.00000000E+00
  0.00000000E+00  0.00000000E+00  0.00000000E+00
  0.00000000E+00  0.00000000E+00  0.00000000E+00
  0.00000000E+00  0.00000000E+00  0.00000000E+00
  0.00000000E+00  0.00000000E+00  0.00000000E+00
  0.00000000E+00  0.00000000E+00  0.00000000E+00
  0.00000000E+00  0.00000000E+00  0.00000000E+00
  0.00000000E+00  0.00000000E+00  0.00000000E+00
  0.00000000E+00  0.00000000E+00  0.00000000E+00
  0.00000000E+00  0.00000000E+00  0.00000000E+00
  0.00000000E+00  0.00000000E+00  0.00000000E+00
  0.00000000E+00  0.00000000E+00  0.00000000E+00
  0.00000000E+00  0.00000000E+00  0.00000000E+00
  0.00000000E+00  0.00000000E+00  0.00000000E+00
  0.00000000E+00  0.00000000E+00  0.00000000E+00
  0.00000000E+00  0.00000000E+00  0.00000000E+00
  0.00000000E+00  0.00000000E+00  0.00000000E+00
  0.00000000E+00  0.00000000E+00  0.00000000E+00
  0.00000000E+00  0.00000000E+00  0.00000000E+00
  0.00000000E+00  0.00000000E+00  0.00000000E+00
  0.00000000E+00  0.00000000E+00  0.00000000E+00
  0.00000000E+00  0.00000000E+00  0.00000000E+00
  0.00000000E+00  0.00000000E+00  0.00000000E+00
  0.00000000E+00  0.00000000E+00  0.00000000E+00
  0.00000000E+00  0.00000000E+00  0.00000000E+00
  0.00000000E+00  0.00000000E+00  0.00000000E+00
  0.00000000E+00  0.00000000E+00  0.00000000E+00
  0.00000000E+00  0.00000000E+00  0.00000000E+00
  0.00000000E+00  0.00000000E+00  0.00000000E+00
  0.00000000E+00  0.00000000E+00  0.00000000E+00
  0.00000000E+00  0.00000000E+00  0.00000000E+00
  0.00000000E+00  0.00000000E+00  0.00000000E+00
  0.00000000E+00  0.00000000E+00  0.00000000E+00
  0.00000000E+00  0.00000000E+00  0.00000000E+00
  0.00000000E+00  0.00000000E+00  0.00000000E+00
  0.00000000E+00  0.00000000E+00  0.00000000E+00
  0.00000000E+00  0.00000000E+00  0.00000000E+00
  0.00000000E+00  0.00000000E+00  0.00000000E+00
  0.00000000E+00  0.00000000E+00  0.00000000E+00
  0.00000000E+00  0.00000000E+00  0.00000000E+00
  0.00000000E+00  0.00000000E+00  0.00000000E+00
  0.00000000E+00  0.00000000E+00  0.00000000E+00
  0.00000000E+00  0.00000000E+00  0.00000000E+00
  0.00000000E+00  0.00000000E+00  0.00000000E+00
  0.00000000E+00  0.00000000E+00  0.00000000E+00
  0.00000000E+00  0.00000000E+00  0.00000000E+00
  0.00000000E+00  0.00000000E+00  0.00000000E+00
  0.00000000E+00  0.00000000E+00  0.00000000E+00
  0.00000000E+00  0.00000000E+00  0.00000000E+00
  0.00000000E+00  0.00000000E+00  0.00000000E+00
  0.00000000E+00  0.00000000E+00  0.00000000E+00
  0.00000000E+00  0.00000000E+00  0.00000000E+00
  0.00000000E+00  0.00000000E+00  0.00000000E+00
  0.00000000E+00  0.00000000E+00  0.00000000E+00
  0.00000000E+00  0.00000000E+00  0.00000000E+00
  0.00000000E+00  0.00000000E+00  0.00000000E+00
  0.00000000E+00  0.00000000E+00  0.00000000E+00
  0.00000000E+00  0.00000000E+00  0.00000000E+00
  0.00000000E+00  0.00000000E+00  0.00000000E+00
  0.00000000E+00  0.00000000E+00  0.00000000E+00
  0.00000000E+00  0.00000000E+00  0.00000000E+00
  0.00000000E+00  0.00000000E+00  0.00000000E+00
  0.00000000E+00  0.00000000E+00  0.00000000E+00
  0.00000000E+00  0.00000000E+00  0.00000000E+00
  0.00000000E+00  0.00000000E+00  0.00000000E+00
  0.00000000E+00  0.00000000E+00  0.00000000E+00
  0.00000000E+00  0.00000000E+00  0.00000000E+00
  0.00000000E+00  0.00000000E+00  0.00000000E+00
  0.00000000E+00  0.00000000E+00  0.00000000E+00
