C H O Si                                
   1.00000000000000     
     9.2874599999999994    0.0000000000000000    0.0000000000000000
     0.0000000000000000   17.5126199999999983    0.0000000000000000
     0.0000000000000000    0.0000000000000000   58.0000000000000000
   C    H    O    Si
    72    57    28    72
Selective dynamics
Direct
  0.9935761210916250  0.0630109779663660  0.0604928011037791   T   T   T
  0.3269690687565742  0.0630077421286453  0.0605610063128779   T   T   T
  0.6602265228066825  0.0630432051741809  0.0605508818212747   T   T   T
  0.9934858256052721  0.3130356349153084  0.0604913118270239   T   T   T
  0.3268607723453372  0.3130013532541744  0.0605815763713516   T   T   T
  0.6601608474272599  0.3129861419623435  0.0605590683085599   T   T   T
  0.1598389522728264  0.1859164777716233  0.1393744821868542   T   T   T
  0.4931007724105897  0.1861601223253575  0.1396314123987022   T   T   T
  0.8265160389915984  0.1859084466835828  0.1393414571426141   T   T   T
  0.1597371974451024  0.4360811601670838  0.1394222213734886   T   T   T
  0.4931170615742690  0.4359330540970839  0.1394828913619317   T   T   T
  0.8265191716150189  0.4360685759460627  0.1394140654244721   T   T   T
  0.3270270365021920  0.0613075875968828  0.1667052999507940   T   T   T
  0.6592806749238737  0.0613665083165059  0.1666824148349934   T   T   T
  0.9932479400484140  0.0606031936271422  0.1664529864776414   T   T   T
  0.3262265073429035  0.3112245604790281  0.1667885685591970   T   T   T
  0.6600952161557029  0.3112448775619826  0.1666672574520396   T   T   T
  0.9931714588333570  0.3110640048017809  0.1665086133183647   T   T   T
  0.1596940322830084  0.1870325059610193  0.1916880287188427   T   T   T
  0.4932478829639438  0.1898689389470795  0.1927550151959996   T   T   T
  0.8272748090258129  0.1868243375915487  0.1915912723734567   T   T   T
  0.1596485941693564  0.4382333391091566  0.1919621313382223   T   T   T
  0.4932008669449329  0.4378710433538698  0.1920471970478987   T   T   T
  0.8268121044160609  0.4382542222756061  0.1919417912571219   T   T   T
  0.1599605071211313  0.1861350120856829  0.0858447530477357   T   T   T
  0.4932799317867266  0.1861725275329006  0.0859762305439134   T   T   T
  0.8266069370186900  0.1861244786267854  0.0858295420441073   T   T   T
  0.1599889813262398  0.4361396979010933  0.0858681017937076   T   T   T
  0.4933174822518204  0.4361070557235479  0.0859012904978458   T   T   T
  0.8266426338375231  0.4361407326262807  0.0858611192105577   T   T   T
  0.3265929697015864  0.0610388965491938  0.1130859686228653   T   T   T
  0.6597198253303838  0.0610601232694496  0.1130827448383266   T   T   T
  0.9931874041706322  0.0609393619272209  0.1130051194019784   T   T   T
  0.3265294259258112  0.3109859962374359  0.1131334443040290   T   T   T
  0.6599093153091734  0.3110138070491888  0.1130965761495570   T   T   T
  0.9932324889628954  0.3109910027674863  0.1129964343180258   T   T   T
  0.9936028683470999  0.5629813617753993  0.0605214175585526   T   T   T
  0.3269362507128151  0.5629571255979255  0.0605329910086126   T   T   T
  0.6602707101318649  0.5629613500269049  0.0605325370948751   T   T   T
  0.9935321971320054  0.8130595193206631  0.0605189949679673   T   T   T
  0.3268835894809775  0.8129869098536207  0.0605263325393543   T   T   T
  0.6601755626838453  0.8130083494265993  0.0605175000849241   T   T   T
  0.1597733820625030  0.6860894584707398  0.1394199243682647   T   T   T
  0.4930640930720563  0.6860326818644857  0.1394307444330814   T   T   T
  0.8263276675803176  0.6860675048513204  0.1394207027657182   T   T   T
  0.1601226269533319  0.9360363510518259  0.1394331751450777   T   T   T
  0.4931613809191061  0.9359992571343749  0.1394356202746430   T   T   T
  0.8261814974020304  0.9360708891311577  0.1394281965270539   T   T   T
  0.3264805718661583  0.5611607494847104  0.1665972427007250   T   T   T
  0.6596160219122379  0.5611320761441693  0.1666035277104490   T   T   T
  0.9930570311470592  0.5613326468303123  0.1665658901415414   T   T   T
  0.3265339064938552  0.8111396301865650  0.1666014361189805   T   T   T
  0.6597929273387620  0.8111399622000499  0.1665895692831624   T   T   T
  0.9931352313763665  0.8111739766833754  0.1665924689919265   T   T   T
  0.1599690055062575  0.6880630292902731  0.1919870648891377   T   T   T
  0.4932711124675745  0.6880530381602601  0.1919926547909886   T   T   T
  0.8266083723588543  0.6880599493247745  0.1919865502281262   T   T   T
  0.1600344991194201  0.9379969021890853  0.1919941498235242   T   T   T
  0.4933253232498681  0.9379929635436647  0.1920144378454826   T   T   T
  0.8266057896471996  0.9380002682508443  0.1919852711540108   T   T   T
  0.1599628202190449  0.6861511534635587  0.0858648334336865   T   T   T
  0.4933105508649799  0.6861104224657906  0.0858693702938966   T   T   T
  0.8266481248140176  0.6861471988873608  0.0858654250894133   T   T   T
  0.1600008341313757  0.9361459020974486  0.0858647735709228   T   T   T
  0.4932893295235629  0.9361541254675215  0.0858685910150713   T   T   T
  0.8265795320255964  0.9361709176494900  0.0858643907826779   T   T   T
  0.3264941001798012  0.5609935442588527  0.1130572408178770   T   T   T
  0.6597846329937676  0.5609923866841301  0.1130580968804802   T   T   T
  0.9931515515448910  0.5610358615474366  0.1130373197734637   T   T   T
  0.3266094190628235  0.8109777983475754  0.1130366294327785   T   T   T
  0.6598418109144361  0.8109767162578476  0.1130346302588723   T   T   T
  0.9932077431610311  0.8110799346507287  0.1130532887700492   T   T   T
  0.0717386259122564  0.1789616235273443  0.0281118069414663   T   T   T
  0.4044902884491359  0.1788999513960544  0.0282475258975077   T   T   T
  0.7376450225133611  0.1788750555360621  0.0281395632836645   T   T   T
  0.0715685491313349  0.4290128286664953  0.0281460433273922   T   T   T
  0.4041644381528521  0.4288052431546621  0.0282071249549249   T   T   T
  0.7370729605929989  0.4288487445232703  0.0281785963493784   T   T   T
  0.3248844888045082  0.0264158275346865  0.0451358385764994   T   T   T
  0.6574835174029123  0.0264414057878800  0.0451288975371832   T   T   T
  0.9912631119816938  0.0264690618346993  0.0450583764253210   T   T   T
  0.3243892752608566  0.2763332684572302  0.0451712143330404   T   T   T
  0.6576062276477997  0.2763596245201052  0.0451420088527283   T   T   T
  0.9910506118941742  0.2765091369478777  0.0450500392838682   T   T   T
  0.8285987045934707  0.4019098435877078  0.2073953073532821   T   T   T
  0.8298915436141299  0.1504708763731965  0.2070609600051847   T   T   T
  0.1614172863598531  0.1507669900098972  0.2071759884416788   T   T   T
  0.4961058586678098  0.1526268179407993  0.2080429576050560   T   T   T
  0.1612600967944082  0.4015154176075205  0.2073549302724495   T   T   T
  0.4937461274551332  0.4012348378558830  0.2074729029766280   T   T   T
  0.0828567186106560  0.0538948179477402  0.2243109011258564   T   T   T
  0.4165223859952303  0.0534233761466293  0.2244387413020840   T   T   T
  0.7499391627211429  0.0535574433474427  0.2243798903633875   T   T   T
  0.0826600351397264  0.3011775491137685  0.2239989726309385   T   T   T
  0.3775457655973961  0.3108823472416058  0.2280650956129174   T   T   T
  0.7824277943843876  0.2956676552584572  0.2227640809476301   T   T   T
  0.5476091505687469  0.3058936716917509  0.2735413310582853   T   T   T
  0.4924487740940237  0.2379688314253027  0.2931713651858760   T   T   T
  0.5716888462349018  0.3194163048755034  0.3028656572301450   T   T   T
  0.3132089346572546  0.1929032392061637  0.3097339351318031   T   T   T
  0.4220143133612511  0.1292872438289247  0.3024501288586463   T   T   T
  0.6511613112532023  0.3665119256790969  0.3335367164672938   T   T   T
  0.4855908312915820  0.3786710809302980  0.3308878967377449   T   T   T
  0.5220572494803903  0.3954750191596020  0.2521833452216174   T   T   T
  0.5879162689860025  0.3226311429132173  0.2385806918007971   T   T   T
  0.0714438444396581  0.6789498445272685  0.0281683872545899   T   T   T
  0.4046360093821168  0.6788804210508617  0.0281815641916561   T   T   T
  0.7378670742728425  0.6788947707590138  0.0281795409077053   T   T   T
  0.0712082261738577  0.9289604325982201  0.0281643373989533   T   T   T
  0.4041353763075074  0.9288638325806330  0.0281773846940829   T   T   T
  0.7374867074702507  0.9289401194535588  0.0281711255965202   T   T   T
  0.3245206621462189  0.5263780545020862  0.0451084865642762   T   T   T
  0.6578976899928942  0.5263829409059312  0.0451069209546165   T   T   T
  0.9911748675086895  0.5264174839068122  0.0450877954090288   T   T   T
  0.3243855379999778  0.7764161491908314  0.0450959283469731   T   T   T
  0.6576234790471939  0.7764318416822756  0.0450904012244373   T   T   T
  0.9909984102264046  0.7764543009979059  0.0450971817075159   T   T   T
  0.8289268529042182  0.9013598000177481  0.2073961734098240   T   T   T
  0.8289980270522646  0.6514229744325996  0.2073991412648298   T   T   T
  0.1622766709090338  0.6514177494244688  0.2073993137047639   T   T   T
  0.4957387855452157  0.6514611099223991  0.2074160478410604   T   T   T
  0.1623199546683664  0.9013570806105637  0.2074073261068324   T   T   T
  0.4958306095719356  0.9013102203757856  0.2074182015678262   T   T   T
  0.0825651938180708  0.5545819270583724  0.2242890044343366   T   T   T
  0.4161276683474729  0.5548481831377856  0.2242015392289363   T   T   T
  0.7496784967850403  0.5544480850733914  0.2242486157417683   T   T   T
  0.0829772663920791  0.8039803540299553  0.2243188361862599   T   T   T
  0.4159719591499080  0.8042038397102919  0.2243478894316237   T   T   T
  0.7499581458937407  0.8037654005708841  0.2242916816177357   T   T   T
  0.1676905555222914  0.1656055376194710  0.0337487250723735   T   T   T
  0.5006190281241091  0.1659426705104684  0.0339020864904403   T   T   T
  0.8337749414304756  0.1656516388118950  0.0337308119701247   T   T   T
  0.1675308130819387  0.4157292961632947  0.0337964051311640   T   T   T
  0.5003623708655158  0.4157473379849728  0.0338131535810337   T   T   T
  0.8332912628582747  0.4157803635890259  0.0337690503578994   T   T   T
  0.3203678981780747  0.0413310046197387  0.2186374866508699   T   T   T
  0.6537120108879535  0.0414326466180213  0.2186216750338104   T   T   T
  0.9868374990738974  0.0413509067797402  0.2185461365304108   T   T   T
  0.2983831513309438  0.2904192753349715  0.2187696765079885   T   T   T
  0.6794001823375955  0.2914661007459813  0.2187154040645452   T   T   T
  0.9854059778441809  0.2891973323868079  0.2184068928748764   T   T   T
  0.5699844645970302  0.2794902876477247  0.2895879782167369   T   T   T
  0.3802007454027078  0.1778556987077811  0.2975656438926607   T   T   T
  0.5759870769184142  0.3780693133560213  0.3222724593511257   T   T   T
  0.5165556087703649  0.3399380576140265  0.2511040015288759   T   T   T
  0.1674790032751473  0.6657056404530656  0.0337973661207594   T   T   T
  0.5007120345962724  0.6656853224274275  0.0338028384165575   T   T   T
  0.8339738371617824  0.6657189805855964  0.0338007348183155   T   T   T
  0.1672623669628789  0.9157692606609871  0.0337999590925424   T   T   T
  0.5003008542642861  0.9157732209396213  0.0337927537304983   T   T   T
  0.8336000303079246  0.9157843512123232  0.0337826044600442   T   T   T
  0.3202210070711409  0.5413698590192280  0.2185935516738010   T   T   T
  0.6536185270280878  0.5414509418423786  0.2185829258602683   T   T   T
  0.9867574659144663  0.5414075656095129  0.2185884042388646   T   T   T
  0.3201289453402313  0.7913408908754149  0.2185951627035787   T   T   T
  0.6537302874974973  0.7913766776951977  0.2185942911188544   T   T   T
  0.9869175929049395  0.7913703849387530  0.2185946873873413   T   T   T
  0.4938241486771672  0.1216538203347848  0.0601376574183990   T   T   T
  0.8271213772109968  0.1216157516800180  0.0600114620801587   T   T   T
  0.1604554723930109  0.3716002243057256  0.0600629270608505   T   T   T
  0.4937644432532900  0.3715947338907579  0.0600819996095134   T   T   T
  0.8270161120576188  0.3716290238039373  0.0600367108658551   T   T   T
  0.1605514305504168  0.1215835273990874  0.0600350352021078   T   T   T
  0.9931451241960024  0.4983933277559682  0.1396154487254948   T   T   T
  0.3265009775455405  0.4982875976454107  0.1396325898657490   T   T   T
  0.6597926421334619  0.4982871744124315  0.1396353301080898   T   T   T
  0.9932408153038358  0.2481874911891978  0.1395221478160993   T   T   T
  0.3263120981448513  0.2483450883843289  0.1397445053208151   T   T   T
  0.6600193714033140  0.2482443580969066  0.1396444840866717   T   T   T
  0.1597270772128035  0.1226360117052942  0.1656993742218786   T   T   T
  0.4930471491092133  0.1239172382163639  0.1662070268271486   T   T   T
  0.8267633444745713  0.1224045078263570  0.1656109433358952   T   T   T
  0.1596466847021785  0.3732990621311296  0.1658626358266630   T   T   T
  0.4929612411031703  0.3730565492990277  0.1659083434400005   T   T   T
  0.8268158523228345  0.3733119020055864  0.1658414232330625   T   T   T
  0.3262948988598717  0.4966998407951307  0.1924120885316865   T   T   T
  0.6599460144385801  0.4966597627342726  0.1924238048928131   T   T   T
  0.9931535521424383  0.4969068033553687  0.1923814246490830   T   T   T
  0.3239532701619484  0.2472462690106368  0.1927841704174033   T   T   T
  0.9933986869462152  0.2455309616129652  0.1920327933386335   T   T   T
  0.6625450600747419  0.2463211085821179  0.1922580475692708   T   T   T
  0.9933523238532335  0.4980564129522231  0.0866244506709787   T   T   T
  0.3267102407421938  0.4980437529810599  0.0866397373682267   T   T   T
  0.6600132040990125  0.4980504923935007  0.0866406813321343   T   T   T
  0.9933103606889849  0.2480419786894236  0.0865815958721794   T   T   T
  0.3266154130032515  0.2480716881911857  0.0866973175370003   T   T   T
  0.6599827530510827  0.2480617774327773  0.0866664323889467   T   T   T
  0.1598355303618623  0.1233386367048761  0.1128103486362621   T   T   T
  0.4930893061832307  0.1234345326055725  0.1129713316095529   T   T   T
  0.8265030359516633  0.1233061082063526  0.1127841677431241   T   T   T
  0.1598455017075203  0.3733866469937096  0.1128562040389262   T   T   T
  0.4931610544455854  0.3733246651983456  0.1128922293472193   T   T   T
  0.8265950835252707  0.3733901277019762  0.1128402886354158   T   T   T
  0.4938521197853551  0.6215550972147766  0.0600632355304112   T   T   T
  0.8271724375039170  0.6215762513344379  0.0600594971128969   T   T   T
  0.1604915047347117  0.8716082557222204  0.0600566321888973   T   T   T
  0.4937537260959751  0.8716091512067564  0.0600544566736979   T   T   T
  0.8270446123083010  0.8716319090723397  0.0600440957593991   T   T   T
  0.1605268749543474  0.6215748457146699  0.0600585344710990   T   T   T
  0.9932513168472125  0.9980307071051298  0.1395362112060826   T   T   T
  0.3268795327304820  0.9983969703554976  0.1396676254751315   T   T   T
  0.6594767960405973  0.9984161405501459  0.1396615628835524   T   T   T
  0.9930843507781173  0.7483372032286155  0.1396215773150788   T   T   T
  0.3264740578501206  0.7483290113396465  0.1396218242463707   T   T   T
  0.6597409956380859  0.7483218543557297  0.1396166969412969   T   T   T
  0.1597784312678067  0.6232281941949224  0.1658457702802257   T   T   T
  0.4930756383785754  0.6231942458299433  0.1658627215421304   T   T   T
  0.8263347456422873  0.6232146504454380  0.1658524121525540   T   T   T
  0.1598900839647913  0.8731430445185470  0.1658571954699145   T   T   T
  0.4931782221572810  0.8731460314719183  0.1658698750550104   T   T   T
  0.8264236711302887  0.8731551596061239  0.1658507431357535   T   T   T
  0.3266199589521298  0.9965666558857935  0.1924760821880421   T   T   T
  0.6598678747043251  0.9966051755060363  0.1924533740017420   T   T   T
  0.9932409205497014  0.9965026858108859  0.1923753428101621   T   T   T
  0.3265303389115997  0.7466330982486248  0.1924179342995241   T   T   T
  0.9931810153070170  0.7466526829134397  0.1924138191295070   T   T   T
  0.6598445792705008  0.7466411016957893  0.1924136187030737   T   T   T
  0.9933445337871841  0.9980422720394428  0.0865880133873891   T   T   T
  0.3267046391165731  0.9980777642539524  0.0866575920358987   T   T   T
  0.6599309670902598  0.9981048073362079  0.0866523105740771   T   T   T
  0.9933316297510763  0.7481135195037723  0.0866249426864499   T   T   T
  0.3267129380862188  0.7480404238505406  0.0866221227826201   T   T   T
  0.6599951489617659  0.7480553280052524  0.0866167801302096   T   T   T
  0.1597860064516677  0.6233981109167720  0.1128492240837546   T   T   T
  0.4931076916479739  0.6233738032160049  0.1128565223343851   T   T   T
  0.8264261570297595  0.6233908440519911  0.1128497437519316   T   T   T
  0.1600300167516841  0.8733876244847816  0.1128468565912819   T   T   T
  0.4931797151363936  0.8733735782689148  0.1128463162733957   T   T   T
  0.8263776327606843  0.8734024758045911  0.1128461401514759   T   T   T
 
  0.00000000E+00  0.00000000E+00  0.00000000E+00
  0.00000000E+00  0.00000000E+00  0.00000000E+00
  0.00000000E+00  0.00000000E+00  0.00000000E+00
  0.00000000E+00  0.00000000E+00  0.00000000E+00
  0.00000000E+00  0.00000000E+00  0.00000000E+00
  0.00000000E+00  0.00000000E+00  0.00000000E+00
  0.00000000E+00  0.00000000E+00  0.00000000E+00
  0.00000000E+00  0.00000000E+00  0.00000000E+00
  0.00000000E+00  0.00000000E+00  0.00000000E+00
  0.00000000E+00  0.00000000E+00  0.00000000E+00
  0.00000000E+00  0.00000000E+00  0.00000000E+00
  0.00000000E+00  0.00000000E+00  0.00000000E+00
  0.00000000E+00  0.00000000E+00  0.00000000E+00
  0.00000000E+00  0.00000000E+00  0.00000000E+00
  0.00000000E+00  0.00000000E+00  0.00000000E+00
  0.00000000E+00  0.00000000E+00  0.00000000E+00
  0.00000000E+00  0.00000000E+00  0.00000000E+00
  0.00000000E+00  0.00000000E+00  0.00000000E+00
  0.00000000E+00  0.00000000E+00  0.00000000E+00
  0.00000000E+00  0.00000000E+00  0.00000000E+00
  0.00000000E+00  0.00000000E+00  0.00000000E+00
  0.00000000E+00  0.00000000E+00  0.00000000E+00
  0.00000000E+00  0.00000000E+00  0.00000000E+00
  0.00000000E+00  0.00000000E+00  0.00000000E+00
  0.00000000E+00  0.00000000E+00  0.00000000E+00
  0.00000000E+00  0.00000000E+00  0.00000000E+00
  0.00000000E+00  0.00000000E+00  0.00000000E+00
  0.00000000E+00  0.00000000E+00  0.00000000E+00
  0.00000000E+00  0.00000000E+00  0.00000000E+00
  0.00000000E+00  0.00000000E+00  0.00000000E+00
  0.00000000E+00  0.00000000E+00  0.00000000E+00
  0.00000000E+00  0.00000000E+00  0.00000000E+00
  0.00000000E+00  0.00000000E+00  0.00000000E+00
  0.00000000E+00  0.00000000E+00  0.00000000E+00
  0.00000000E+00  0.00000000E+00  0.00000000E+00
  0.00000000E+00  0.00000000E+00  0.00000000E+00
  0.00000000E+00  0.00000000E+00  0.00000000E+00
  0.00000000E+00  0.00000000E+00  0.00000000E+00
  0.00000000E+00  0.00000000E+00  0.00000000E+00
  0.00000000E+00  0.00000000E+00  0.00000000E+00
  0.00000000E+00  0.00000000E+00  0.00000000E+00
  0.00000000E+00  0.00000000E+00  0.00000000E+00
  0.00000000E+00  0.00000000E+00  0.00000000E+00
  0.00000000E+00  0.00000000E+00  0.00000000E+00
  0.00000000E+00  0.00000000E+00  0.00000000E+00
  0.00000000E+00  0.00000000E+00  0.00000000E+00
  0.00000000E+00  0.00000000E+00  0.00000000E+00
  0.00000000E+00  0.00000000E+00  0.00000000E+00
  0.00000000E+00  0.00000000E+00  0.00000000E+00
  0.00000000E+00  0.00000000E+00  0.00000000E+00
  0.00000000E+00  0.00000000E+00  0.00000000E+00
  0.00000000E+00  0.00000000E+00  0.00000000E+00
  0.00000000E+00  0.00000000E+00  0.00000000E+00
  0.00000000E+00  0.00000000E+00  0.00000000E+00
  0.00000000E+00  0.00000000E+00  0.00000000E+00
  0.00000000E+00  0.00000000E+00  0.00000000E+00
  0.00000000E+00  0.00000000E+00  0.00000000E+00
  0.00000000E+00  0.00000000E+00  0.00000000E+00
  0.00000000E+00  0.00000000E+00  0.00000000E+00
  0.00000000E+00  0.00000000E+00  0.00000000E+00
  0.00000000E+00  0.00000000E+00  0.00000000E+00
  0.00000000E+00  0.00000000E+00  0.00000000E+00
  0.00000000E+00  0.00000000E+00  0.00000000E+00
  0.00000000E+00  0.00000000E+00  0.00000000E+00
  0.00000000E+00  0.00000000E+00  0.00000000E+00
  0.00000000E+00  0.00000000E+00  0.00000000E+00
  0.00000000E+00  0.00000000E+00  0.00000000E+00
  0.00000000E+00  0.00000000E+00  0.00000000E+00
  0.00000000E+00  0.00000000E+00  0.00000000E+00
  0.00000000E+00  0.00000000E+00  0.00000000E+00
  0.00000000E+00  0.00000000E+00  0.00000000E+00
  0.00000000E+00  0.00000000E+00  0.00000000E+00
  0.00000000E+00  0.00000000E+00  0.00000000E+00
  0.00000000E+00  0.00000000E+00  0.00000000E+00
  0.00000000E+00  0.00000000E+00  0.00000000E+00
  0.00000000E+00  0.00000000E+00  0.00000000E+00
  0.00000000E+00  0.00000000E+00  0.00000000E+00
  0.00000000E+00  0.00000000E+00  0.00000000E+00
  0.00000000E+00  0.00000000E+00  0.00000000E+00
  0.00000000E+00  0.00000000E+00  0.00000000E+00
  0.00000000E+00  0.00000000E+00  0.00000000E+00
  0.00000000E+00  0.00000000E+00  0.00000000E+00
  0.00000000E+00  0.00000000E+00  0.00000000E+00
  0.00000000E+00  0.00000000E+00  0.00000000E+00
  0.00000000E+00  0.00000000E+00  0.00000000E+00
  0.00000000E+00  0.00000000E+00  0.00000000E+00
  0.00000000E+00  0.00000000E+00  0.00000000E+00
  0.00000000E+00  0.00000000E+00  0.00000000E+00
  0.00000000E+00  0.00000000E+00  0.00000000E+00
  0.00000000E+00  0.00000000E+00  0.00000000E+00
  0.00000000E+00  0.00000000E+00  0.00000000E+00
  0.00000000E+00  0.00000000E+00  0.00000000E+00
  0.00000000E+00  0.00000000E+00  0.00000000E+00
  0.00000000E+00  0.00000000E+00  0.00000000E+00
  0.00000000E+00  0.00000000E+00  0.00000000E+00
  0.00000000E+00  0.00000000E+00  0.00000000E+00
  0.00000000E+00  0.00000000E+00  0.00000000E+00
  0.00000000E+00  0.00000000E+00  0.00000000E+00
  0.00000000E+00  0.00000000E+00  0.00000000E+00
  0.00000000E+00  0.00000000E+00  0.00000000E+00
  0.00000000E+00  0.00000000E+00  0.00000000E+00
  0.00000000E+00  0.00000000E+00  0.00000000E+00
  0.00000000E+00  0.00000000E+00  0.00000000E+00
  0.00000000E+00  0.00000000E+00  0.00000000E+00
  0.00000000E+00  0.00000000E+00  0.00000000E+00
  0.00000000E+00  0.00000000E+00  0.00000000E+00
  0.00000000E+00  0.00000000E+00  0.00000000E+00
  0.00000000E+00  0.00000000E+00  0.00000000E+00
  0.00000000E+00  0.00000000E+00  0.00000000E+00
  0.00000000E+00  0.00000000E+00  0.00000000E+00
  0.00000000E+00  0.00000000E+00  0.00000000E+00
  0.00000000E+00  0.00000000E+00  0.00000000E+00
  0.00000000E+00  0.00000000E+00  0.00000000E+00
  0.00000000E+00  0.00000000E+00  0.00000000E+00
  0.00000000E+00  0.00000000E+00  0.00000000E+00
  0.00000000E+00  0.00000000E+00  0.00000000E+00
  0.00000000E+00  0.00000000E+00  0.00000000E+00
  0.00000000E+00  0.00000000E+00  0.00000000E+00
  0.00000000E+00  0.00000000E+00  0.00000000E+00
  0.00000000E+00  0.00000000E+00  0.00000000E+00
  0.00000000E+00  0.00000000E+00  0.00000000E+00
  0.00000000E+00  0.00000000E+00  0.00000000E+00
  0.00000000E+00  0.00000000E+00  0.00000000E+00
  0.00000000E+00  0.00000000E+00  0.00000000E+00
  0.00000000E+00  0.00000000E+00  0.00000000E+00
  0.00000000E+00  0.00000000E+00  0.00000000E+00
  0.00000000E+00  0.00000000E+00  0.00000000E+00
  0.00000000E+00  0.00000000E+00  0.00000000E+00
  0.00000000E+00  0.00000000E+00  0.00000000E+00
  0.00000000E+00  0.00000000E+00  0.00000000E+00
  0.00000000E+00  0.00000000E+00  0.00000000E+00
  0.00000000E+00  0.00000000E+00  0.00000000E+00
  0.00000000E+00  0.00000000E+00  0.00000000E+00
  0.00000000E+00  0.00000000E+00  0.00000000E+00
  0.00000000E+00  0.00000000E+00  0.00000000E+00
  0.00000000E+00  0.00000000E+00  0.00000000E+00
  0.00000000E+00  0.00000000E+00  0.00000000E+00
  0.00000000E+00  0.00000000E+00  0.00000000E+00
  0.00000000E+00  0.00000000E+00  0.00000000E+00
  0.00000000E+00  0.00000000E+00  0.00000000E+00
  0.00000000E+00  0.00000000E+00  0.00000000E+00
  0.00000000E+00  0.00000000E+00  0.00000000E+00
  0.00000000E+00  0.00000000E+00  0.00000000E+00
  0.00000000E+00  0.00000000E+00  0.00000000E+00
  0.00000000E+00  0.00000000E+00  0.00000000E+00
  0.00000000E+00  0.00000000E+00  0.00000000E+00
  0.00000000E+00  0.00000000E+00  0.00000000E+00
  0.00000000E+00  0.00000000E+00  0.00000000E+00
  0.00000000E+00  0.00000000E+00  0.00000000E+00
  0.00000000E+00  0.00000000E+00  0.00000000E+00
  0.00000000E+00  0.00000000E+00  0.00000000E+00
  0.00000000E+00  0.00000000E+00  0.00000000E+00
  0.00000000E+00  0.00000000E+00  0.00000000E+00
  0.00000000E+00  0.00000000E+00  0.00000000E+00
  0.00000000E+00  0.00000000E+00  0.00000000E+00
  0.00000000E+00  0.00000000E+00  0.00000000E+00
  0.00000000E+00  0.00000000E+00  0.00000000E+00
  0.00000000E+00  0.00000000E+00  0.00000000E+00
  0.00000000E+00  0.00000000E+00  0.00000000E+00
  0.00000000E+00  0.00000000E+00  0.00000000E+00
  0.00000000E+00  0.00000000E+00  0.00000000E+00
  0.00000000E+00  0.00000000E+00  0.00000000E+00
  0.00000000E+00  0.00000000E+00  0.00000000E+00
  0.00000000E+00  0.00000000E+00  0.00000000E+00
  0.00000000E+00  0.00000000E+00  0.00000000E+00
  0.00000000E+00  0.00000000E+00  0.00000000E+00
  0.00000000E+00  0.00000000E+00  0.00000000E+00
  0.00000000E+00  0.00000000E+00  0.00000000E+00
  0.00000000E+00  0.00000000E+00  0.00000000E+00
  0.00000000E+00  0.00000000E+00  0.00000000E+00
  0.00000000E+00  0.00000000E+00  0.00000000E+00
  0.00000000E+00  0.00000000E+00  0.00000000E+00
  0.00000000E+00  0.00000000E+00  0.00000000E+00
  0.00000000E+00  0.00000000E+00  0.00000000E+00
  0.00000000E+00  0.00000000E+00  0.00000000E+00
  0.00000000E+00  0.00000000E+00  0.00000000E+00
  0.00000000E+00  0.00000000E+00  0.00000000E+00
  0.00000000E+00  0.00000000E+00  0.00000000E+00
  0.00000000E+00  0.00000000E+00  0.00000000E+00
  0.00000000E+00  0.00000000E+00  0.00000000E+00
  0.00000000E+00  0.00000000E+00  0.00000000E+00
  0.00000000E+00  0.00000000E+00  0.00000000E+00
  0.00000000E+00  0.00000000E+00  0.00000000E+00
  0.00000000E+00  0.00000000E+00  0.00000000E+00
  0.00000000E+00  0.00000000E+00  0.00000000E+00
  0.00000000E+00  0.00000000E+00  0.00000000E+00
  0.00000000E+00  0.00000000E+00  0.00000000E+00
  0.00000000E+00  0.00000000E+00  0.00000000E+00
  0.00000000E+00  0.00000000E+00  0.00000000E+00
  0.00000000E+00  0.00000000E+00  0.00000000E+00
  0.00000000E+00  0.00000000E+00  0.00000000E+00
  0.00000000E+00  0.00000000E+00  0.00000000E+00
  0.00000000E+00  0.00000000E+00  0.00000000E+00
  0.00000000E+00  0.00000000E+00  0.00000000E+00
  0.00000000E+00  0.00000000E+00  0.00000000E+00
  0.00000000E+00  0.00000000E+00  0.00000000E+00
  0.00000000E+00  0.00000000E+00  0.00000000E+00
  0.00000000E+00  0.00000000E+00  0.00000000E+00
  0.00000000E+00  0.00000000E+00  0.00000000E+00
  0.00000000E+00  0.00000000E+00  0.00000000E+00
  0.00000000E+00  0.00000000E+00  0.00000000E+00
  0.00000000E+00  0.00000000E+00  0.00000000E+00
  0.00000000E+00  0.00000000E+00  0.00000000E+00
  0.00000000E+00  0.00000000E+00  0.00000000E+00
  0.00000000E+00  0.00000000E+00  0.00000000E+00
  0.00000000E+00  0.00000000E+00  0.00000000E+00
  0.00000000E+00  0.00000000E+00  0.00000000E+00
  0.00000000E+00  0.00000000E+00  0.00000000E+00
  0.00000000E+00  0.00000000E+00  0.00000000E+00
  0.00000000E+00  0.00000000E+00  0.00000000E+00
  0.00000000E+00  0.00000000E+00  0.00000000E+00
  0.00000000E+00  0.00000000E+00  0.00000000E+00
  0.00000000E+00  0.00000000E+00  0.00000000E+00
  0.00000000E+00  0.00000000E+00  0.00000000E+00
  0.00000000E+00  0.00000000E+00  0.00000000E+00
  0.00000000E+00  0.00000000E+00  0.00000000E+00
  0.00000000E+00  0.00000000E+00  0.00000000E+00
  0.00000000E+00  0.00000000E+00  0.00000000E+00
  0.00000000E+00  0.00000000E+00  0.00000000E+00
  0.00000000E+00  0.00000000E+00  0.00000000E+00
  0.00000000E+00  0.00000000E+00  0.00000000E+00
  0.00000000E+00  0.00000000E+00  0.00000000E+00
  0.00000000E+00  0.00000000E+00  0.00000000E+00
  0.00000000E+00  0.00000000E+00  0.00000000E+00
  0.00000000E+00  0.00000000E+00  0.00000000E+00
  0.00000000E+00  0.00000000E+00  0.00000000E+00
  0.00000000E+00  0.00000000E+00  0.00000000E+00
  0.00000000E+00  0.00000000E+00  0.00000000E+00
  0.00000000E+00  0.00000000E+00  0.00000000E+00
