C H O Si                                
   1.00000000000000     
     9.2874599999999994    0.0000000000000000    0.0000000000000000
     0.0000000000000000    8.7563099999999991    0.0000000000000000
     0.0000000000000000    0.0000000000000000   58.0000000000000000
   C    H    O    Si
    36    33    16    36
Selective dynamics
Direct
  0.9928334837600126  0.1263072271630565  0.0604472686507154   T   T   T
  0.3262924865934373  0.1263625750324195  0.0605803638710710   T   T   T
  0.6594749890634636  0.1263859542764841  0.0605547860550600   T   T   T
  0.9928341845464044  0.6264212287855323  0.0604551819127396   T   T   T
  0.3263240060589751  0.6261502986474452  0.0605975350244577   T   T   T
  0.6595708746124640  0.6263431007854784  0.0605437579672586   T   T   T
  0.1597219711115318  0.3719339815084278  0.1393851864300128   T   T   T
  0.4929771058038742  0.3725471800731579  0.1396492194942592   T   T   T
  0.8262947493433600  0.3718737219963036  0.1393101193059544   T   T   T
  0.1599677176860598  0.8720513946320603  0.1394457640702339   T   T   T
  0.4929783785448766  0.8718420241615740  0.1395064343142755   T   T   T
  0.8261371834403874  0.8721278180370801  0.1394100603348465   T   T   T
  0.3271285206174241  0.1226494950669498  0.1667205433953756   T   T   T
  0.6594084262255663  0.1223700007896301  0.1666835599340251   T   T   T
  0.9935587188597911  0.1215311188139205  0.1663858958826106   T   T   T
  0.3264833856314877  0.6222536151224795  0.1668163053985998   T   T   T
  0.6602881453274804  0.6223921828154230  0.1666486602137713   T   T   T
  0.9934360565075905  0.6222569822860541  0.1664456574699059   T   T   T
  0.1603492533358826  0.3748483659522426  0.1917265672799025   T   T   T
  0.4938363386642728  0.3797250872991024  0.1927159862342467   T   T   T
  0.8277978564528121  0.3737317591207832  0.1914631844858949   T   T   T
  0.1599814354546154  0.8768372726977839  0.1919945694965206   T   T   T
  0.4936729335702623  0.8759397553880525  0.1920728896791802   T   T   T
  0.8271489293840768  0.8768225458029401  0.1918857994468185   T   T   T
  0.1594573511762782  0.3722620245810089  0.0858489150268071   T   T   T
  0.4927292488177268  0.3722644630704021  0.0859977651008676   T   T   T
  0.8260089415072469  0.3722568416781667  0.0858000332440004   T   T   T
  0.1595171939553456  0.8722729216469729  0.0858877908869574   T   T   T
  0.4927211163832187  0.8721797029972750  0.0859353127199478   T   T   T
  0.8259907007727363  0.8722879415365760  0.0858530970118138   T   T   T
  0.3261773123001002  0.1220726648871665  0.1131059138864121   T   T   T
  0.6594160958436019  0.1220396084503711  0.1130806948920552   T   T   T
  0.9928631032964357  0.1219295423547628  0.1129649263159472   T   T   T
  0.3261358603133833  0.6219579959097978  0.1131296126997174   T   T   T
  0.6594949117840899  0.6220006085013827  0.1130728111591314   T   T   T
  0.9928187741811684  0.6221395012860481  0.1129749729046020   T   T   T
  0.0751041486962715  0.3554221301827543  0.0271674027129514   T   T   T
  0.4069538625985499  0.3552823053256831  0.0274090643168864   T   T   T
  0.7395423791244691  0.3550288573927602  0.0272752582628396   T   T   T
  0.0756264837637727  0.8556372576778445  0.0271826480762736   T   T   T
  0.4068758505578677  0.8549511949011631  0.0273516853239584   T   T   T
  0.7394603343058624  0.8551254311147031  0.0273093209431467   T   T   T
  0.3240981638034591  0.0535923609274358  0.0450937376354184   T   T   T
  0.6565064956973342  0.0536260729397059  0.0450709273964039   T   T   T
  0.9903479247953755  0.0537198616884336  0.0449409221558770   T   T   T
  0.3237924940003005  0.5533577256289668  0.0451141851863465   T   T   T
  0.6568008000910756  0.5534987800003832  0.0450688699126826   T   T   T
  0.9903749732165403  0.5538732415844866  0.0449425371829930   T   T   T
  0.8290564515253342  0.8047236662185751  0.2074192592276207   T   T   T
  0.8303013263298487  0.3016424201647058  0.2070142021804070   T   T   T
  0.1614224572999409  0.3026038102816545  0.2072633117773333   T   T   T
  0.4967136600464471  0.3060545437897209  0.2081003346517712   T   T   T
  0.1617161181209963  0.8037684277671698  0.2074455485718424   T   T   T
  0.4939665595929567  0.8030961690352503  0.2075541689228111   T   T   T
  0.0784694833680394  0.1068695131135387  0.2251189362188953   T   T   T
  0.4141120241984796  0.1070383685608209  0.2251063358614233   T   T   T
  0.7476537641057620  0.1058016969396895  0.2251168542352628   T   T   T
  0.0780765282472800  0.6017871734174132  0.2247625222158167   T   T   T
  0.3783387640746725  0.6183518623506822  0.2287988125723951   T   T   T
  0.7818768016309290  0.5900190555783836  0.2230423023916283   T   T   T
  0.5489028555616811  0.6116683757713871  0.2744047631209962   T   T   T
  0.4950897616903706  0.4762933825510685  0.2936036601217953   T   T   T
  0.5735907431981070  0.6399885916739062  0.3035429985503765   T   T   T
  0.3139060527788095  0.3885020348975885  0.3093073658590090   T   T   T
  0.4212743332972416  0.2597989513106622  0.3019632080621949   T   T   T
  0.6501913843791215  0.7326879290869557  0.3343044831537751   T   T   T
  0.4846767784865321  0.7567732082899165  0.3312071281042866   T   T   T
  0.5183255452739036  0.7902106408677518  0.2522556536198864   T   T   T
  0.5856970658931047  0.6460914400749412  0.2389958627458576   T   T   T
  0.1688842171274544  0.3330748169056698  0.0340103412258517   T   T   T
  0.5012170815418324  0.3336261872013956  0.0341496062971988   T   T   T
  0.8338911217781347  0.3330670479801124  0.0339520864577851   T   T   T
  0.1693560983250826  0.8332423091015181  0.0340463156849831   T   T   T
  0.5011637978026066  0.8333284926743496  0.0340867850140768   T   T   T
  0.8337999853285275  0.8334395427922048  0.0340077655552050   T   T   T
  0.3197080405067450  0.0832858738161677  0.2185873003229184   T   T   T
  0.6530979430868509  0.0832492087238167  0.2185359192415061   T   T   T
  0.9846390545626512  0.0847889781813403  0.2182799969189052   T   T   T
  0.3001750392491124  0.5836719227192104  0.2186248326630963   T   T   T
  0.6794460972891935  0.5828906007042838  0.2185462510001421   T   T   T
  0.9829852583645503  0.5806247887052554  0.2181221237620804   T   T   T
  0.5728068168390601  0.5600312362669225  0.2901505850877083   T   T   T
  0.3822195766622650  0.3586131315568931  0.2973424450808982   T   T   T
  0.5758347302770431  0.7536590317628171  0.3228501908470192   T   T   T
  0.5127966122139704  0.6791174492173802  0.2510951641182567   T   T   T
  0.4930026689098822  0.2436659612693193  0.0599630890053582   T   T   T
  0.8262220508440644  0.2435583164471886  0.0597974744623697   T   T   T
  0.1598736597588585  0.7434935674433278  0.0598737109576527   T   T   T
  0.4930499042182291  0.7435048356438346  0.0599085336318936   T   T   T
  0.8262032113493458  0.7436893227586857  0.0598273377707228   T   T   T
  0.1597621536076081  0.2434905225103108  0.0598459384535722   T   T   T
  0.9931048190105588  0.9965022747522156  0.1395435654498398   T   T   T
  0.3266645936708311  0.9970582333308093  0.1397278446563641   T   T   T
  0.6592856579046285  0.9969652110602192  0.1397027154440244   T   T   T
  0.9930149554597130  0.4967639043442054  0.1395266866617872   T   T   T
  0.3261884172268855  0.4970505731493707  0.1397845582669060   T   T   T
  0.6597869757380901  0.4968612080812495  0.1396625001565141   T   T   T
  0.1599593272906753  0.2458170398800205  0.1658493674097107   T   T   T
  0.4932308183355936  0.2479411169689662  0.1663393253869327   T   T   T
  0.8269261589309593  0.2449440954412935  0.1656694283277003   T   T   T
  0.1599937249446318  0.7467406076348692  0.1660104306135633   T   T   T
  0.4931511499512814  0.7461999384421931  0.1660656486760244   T   T   T
  0.8269086592891056  0.7467240475097079  0.1659493953044260   T   T   T
  0.3266627071438219  0.9937435856618526  0.1927098206906479   T   T   T
  0.6602916544098352  0.9936380951137652  0.1926782369281939   T   T   T
  0.9933450382064696  0.9941957329657043  0.1924981374096372   T   T   T
  0.3247683138851672  0.4951131933376243  0.1930594577078492   T   T   T
  0.9936366529781180  0.4916156888443883  0.1921316061768678   T   T   T
  0.6630324492045812  0.4929065795485432  0.1924401389588337   T   T   T
  0.9927732629722784  0.9963189767023373  0.0864139943623251   T   T   T
  0.3261949484001344  0.9963630927453027  0.0865325659747183   T   T   T
  0.6593136318363850  0.9963862937885720  0.0865066595679823   T   T   T
  0.9927394118883881  0.4963805496971162  0.0864125978186303   T   T   T
  0.3261317362307478  0.4962784146863627  0.0865514458643333   T   T   T
  0.6593819741886919  0.4963968018912459  0.0865002229411178   T   T   T
  0.1595053905735595  0.2468385314103799  0.1127601574065092   T   T   T
  0.4927616813490590  0.2469858137567447  0.1129439408743296   T   T   T
  0.8261809331584994  0.2467889149967894  0.1127024653501103   T   T   T
  0.1596130429210831  0.7469062101828269  0.1128115701708303   T   T   T
  0.4927609270387007  0.7467716944164033  0.1128551336904371   T   T   T
  0.8260761110586552  0.7469618365165469  0.1127770866853638   T   T   T
 
  0.00000000E+00  0.00000000E+00  0.00000000E+00
  0.00000000E+00  0.00000000E+00  0.00000000E+00
  0.00000000E+00  0.00000000E+00  0.00000000E+00
  0.00000000E+00  0.00000000E+00  0.00000000E+00
  0.00000000E+00  0.00000000E+00  0.00000000E+00
  0.00000000E+00  0.00000000E+00  0.00000000E+00
  0.00000000E+00  0.00000000E+00  0.00000000E+00
  0.00000000E+00  0.00000000E+00  0.00000000E+00
  0.00000000E+00  0.00000000E+00  0.00000000E+00
  0.00000000E+00  0.00000000E+00  0.00000000E+00
  0.00000000E+00  0.00000000E+00  0.00000000E+00
  0.00000000E+00  0.00000000E+00  0.00000000E+00
  0.00000000E+00  0.00000000E+00  0.00000000E+00
  0.00000000E+00  0.00000000E+00  0.00000000E+00
  0.00000000E+00  0.00000000E+00  0.00000000E+00
  0.00000000E+00  0.00000000E+00  0.00000000E+00
  0.00000000E+00  0.00000000E+00  0.00000000E+00
  0.00000000E+00  0.00000000E+00  0.00000000E+00
  0.00000000E+00  0.00000000E+00  0.00000000E+00
  0.00000000E+00  0.00000000E+00  0.00000000E+00
  0.00000000E+00  0.00000000E+00  0.00000000E+00
  0.00000000E+00  0.00000000E+00  0.00000000E+00
  0.00000000E+00  0.00000000E+00  0.00000000E+00
  0.00000000E+00  0.00000000E+00  0.00000000E+00
  0.00000000E+00  0.00000000E+00  0.00000000E+00
  0.00000000E+00  0.00000000E+00  0.00000000E+00
  0.00000000E+00  0.00000000E+00  0.00000000E+00
  0.00000000E+00  0.00000000E+00  0.00000000E+00
  0.00000000E+00  0.00000000E+00  0.00000000E+00
  0.00000000E+00  0.00000000E+00  0.00000000E+00
  0.00000000E+00  0.00000000E+00  0.00000000E+00
  0.00000000E+00  0.00000000E+00  0.00000000E+00
  0.00000000E+00  0.00000000E+00  0.00000000E+00
  0.00000000E+00  0.00000000E+00  0.00000000E+00
  0.00000000E+00  0.00000000E+00  0.00000000E+00
  0.00000000E+00  0.00000000E+00  0.00000000E+00
  0.00000000E+00  0.00000000E+00  0.00000000E+00
  0.00000000E+00  0.00000000E+00  0.00000000E+00
  0.00000000E+00  0.00000000E+00  0.00000000E+00
  0.00000000E+00  0.00000000E+00  0.00000000E+00
  0.00000000E+00  0.00000000E+00  0.00000000E+00
  0.00000000E+00  0.00000000E+00  0.00000000E+00
  0.00000000E+00  0.00000000E+00  0.00000000E+00
  0.00000000E+00  0.00000000E+00  0.00000000E+00
  0.00000000E+00  0.00000000E+00  0.00000000E+00
  0.00000000E+00  0.00000000E+00  0.00000000E+00
  0.00000000E+00  0.00000000E+00  0.00000000E+00
  0.00000000E+00  0.00000000E+00  0.00000000E+00
  0.00000000E+00  0.00000000E+00  0.00000000E+00
  0.00000000E+00  0.00000000E+00  0.00000000E+00
  0.00000000E+00  0.00000000E+00  0.00000000E+00
  0.00000000E+00  0.00000000E+00  0.00000000E+00
  0.00000000E+00  0.00000000E+00  0.00000000E+00
  0.00000000E+00  0.00000000E+00  0.00000000E+00
  0.00000000E+00  0.00000000E+00  0.00000000E+00
  0.00000000E+00  0.00000000E+00  0.00000000E+00
  0.00000000E+00  0.00000000E+00  0.00000000E+00
  0.00000000E+00  0.00000000E+00  0.00000000E+00
  0.00000000E+00  0.00000000E+00  0.00000000E+00
  0.00000000E+00  0.00000000E+00  0.00000000E+00
  0.00000000E+00  0.00000000E+00  0.00000000E+00
  0.00000000E+00  0.00000000E+00  0.00000000E+00
  0.00000000E+00  0.00000000E+00  0.00000000E+00
  0.00000000E+00  0.00000000E+00  0.00000000E+00
  0.00000000E+00  0.00000000E+00  0.00000000E+00
  0.00000000E+00  0.00000000E+00  0.00000000E+00
  0.00000000E+00  0.00000000E+00  0.00000000E+00
  0.00000000E+00  0.00000000E+00  0.00000000E+00
  0.00000000E+00  0.00000000E+00  0.00000000E+00
  0.00000000E+00  0.00000000E+00  0.00000000E+00
  0.00000000E+00  0.00000000E+00  0.00000000E+00
  0.00000000E+00  0.00000000E+00  0.00000000E+00
  0.00000000E+00  0.00000000E+00  0.00000000E+00
  0.00000000E+00  0.00000000E+00  0.00000000E+00
  0.00000000E+00  0.00000000E+00  0.00000000E+00
  0.00000000E+00  0.00000000E+00  0.00000000E+00
  0.00000000E+00  0.00000000E+00  0.00000000E+00
  0.00000000E+00  0.00000000E+00  0.00000000E+00
  0.00000000E+00  0.00000000E+00  0.00000000E+00
  0.00000000E+00  0.00000000E+00  0.00000000E+00
  0.00000000E+00  0.00000000E+00  0.00000000E+00
  0.00000000E+00  0.00000000E+00  0.00000000E+00
  0.00000000E+00  0.00000000E+00  0.00000000E+00
  0.00000000E+00  0.00000000E+00  0.00000000E+00
  0.00000000E+00  0.00000000E+00  0.00000000E+00
  0.00000000E+00  0.00000000E+00  0.00000000E+00
  0.00000000E+00  0.00000000E+00  0.00000000E+00
  0.00000000E+00  0.00000000E+00  0.00000000E+00
  0.00000000E+00  0.00000000E+00  0.00000000E+00
  0.00000000E+00  0.00000000E+00  0.00000000E+00
  0.00000000E+00  0.00000000E+00  0.00000000E+00
  0.00000000E+00  0.00000000E+00  0.00000000E+00
  0.00000000E+00  0.00000000E+00  0.00000000E+00
  0.00000000E+00  0.00000000E+00  0.00000000E+00
  0.00000000E+00  0.00000000E+00  0.00000000E+00
  0.00000000E+00  0.00000000E+00  0.00000000E+00
  0.00000000E+00  0.00000000E+00  0.00000000E+00
  0.00000000E+00  0.00000000E+00  0.00000000E+00
  0.00000000E+00  0.00000000E+00  0.00000000E+00
  0.00000000E+00  0.00000000E+00  0.00000000E+00
  0.00000000E+00  0.00000000E+00  0.00000000E+00
  0.00000000E+00  0.00000000E+00  0.00000000E+00
  0.00000000E+00  0.00000000E+00  0.00000000E+00
  0.00000000E+00  0.00000000E+00  0.00000000E+00
  0.00000000E+00  0.00000000E+00  0.00000000E+00
  0.00000000E+00  0.00000000E+00  0.00000000E+00
  0.00000000E+00  0.00000000E+00  0.00000000E+00
  0.00000000E+00  0.00000000E+00  0.00000000E+00
  0.00000000E+00  0.00000000E+00  0.00000000E+00
  0.00000000E+00  0.00000000E+00  0.00000000E+00
  0.00000000E+00  0.00000000E+00  0.00000000E+00
  0.00000000E+00  0.00000000E+00  0.00000000E+00
  0.00000000E+00  0.00000000E+00  0.00000000E+00
  0.00000000E+00  0.00000000E+00  0.00000000E+00
  0.00000000E+00  0.00000000E+00  0.00000000E+00
  0.00000000E+00  0.00000000E+00  0.00000000E+00
  0.00000000E+00  0.00000000E+00  0.00000000E+00
  0.00000000E+00  0.00000000E+00  0.00000000E+00
  0.00000000E+00  0.00000000E+00  0.00000000E+00
  0.00000000E+00  0.00000000E+00  0.00000000E+00
  0.00000000E+00  0.00000000E+00  0.00000000E+00
