C H O Si                                
   1.00000000000000     
     9.2874599999999994    0.0000000000000000    0.0000000000000000
     0.0000000000000000    8.7563099999999991    0.0000000000000000
     0.0000000000000000    0.0000000000000000   58.0000000000000000
   C    H    O    Si
    36    33    16    36
Selective dynamics
Direct
  0.9928879151680317  0.1263609528958466  0.0604374096924545   T   T   T
  0.3263289684613923  0.1262029720526083  0.0605872997473417   T   T   T
  0.6594712244889221  0.1262732640555501  0.0605622453839011   T   T   T
  0.9929205585898537  0.6265358785520093  0.0604384090848548   T   T   T
  0.3263568150355592  0.6260973938381813  0.0605863748174052   T   T   T
  0.6595182513623367  0.6262112586965273  0.0605552117043737   T   T   T
  0.1596789667212908  0.3719595860316222  0.1393609264330003   T   T   T
  0.4928460478205525  0.3722936137918153  0.1396401910301986   T   T   T
  0.8262415344651298  0.3718278800911580  0.1392905526056076   T   T   T
  0.1598465164935185  0.8720929961072843  0.1394154099737955   T   T   T
  0.4928803938379049  0.8717616443556152  0.1394929236641078   T   T   T
  0.8260439835054708  0.8721885897892980  0.1393997042675983   T   T   T
  0.3271230969830927  0.1226152876236914  0.1667444668351640   T   T   T
  0.6591101791260437  0.1225500514850071  0.1666841246997963   T   T   T
  0.9934498626543892  0.1215878857947385  0.1663781214065601   T   T   T
  0.3263858832453699  0.6223716103346272  0.1667938034139743   T   T   T
  0.6600477774036926  0.6223981819691359  0.1666713410645316   T   T   T
  0.9932666853258475  0.6222495032836024  0.1664328439505174   T   T   T
  0.1601865883145436  0.3747479052076903  0.1917379234280229   T   T   T
  0.4936757971579764  0.3796178014222788  0.1927288626691858   T   T   T
  0.8275445556113994  0.3737632338498559  0.1914722697807459   T   T   T
  0.1600781021801748  0.8767250764626449  0.1919955648111447   T   T   T
  0.4935178351636350  0.8759665931394925  0.1920855745474117   T   T   T
  0.8269854124817756  0.8766407161731684  0.1918832554545382   T   T   T
  0.1592982262013979  0.3723021140651372  0.0858538507170270   T   T   T
  0.4926878496233500  0.3722606775094895  0.0860127072381350   T   T   T
  0.8260031575903655  0.3723081761639870  0.0858188381055297   T   T   T
  0.1594199233987338  0.8722936459838871  0.0858734054268302   T   T   T
  0.4927331374405831  0.8721375061075213  0.0859361725933312   T   T   T
  0.8259737119704851  0.8723144698719659  0.0858613765240713   T   T   T
  0.3262063789872972  0.1220226086510515  0.1131108170605104   T   T   T
  0.6592992930240715  0.1220771574067250  0.1130901942244297   T   T   T
  0.9927695280430627  0.1219508937683742  0.1129596800510440   T   T   T
  0.3260838525932371  0.6219486285484488  0.1131302941140785   T   T   T
  0.6594234916040166  0.6220285725228800  0.1130912536395439   T   T   T
  0.9927636637690185  0.6221463171008212  0.1129627901534907   T   T   T
  0.0750206373962625  0.3552818709863383  0.0271930453335039   T   T   T
  0.4068351074038390  0.3551626576167274  0.0274333463946425   T   T   T
  0.7393523600723133  0.3549752339684604  0.0272800197375278   T   T   T
  0.0756450561528683  0.8554154856470617  0.0272253929212371   T   T   T
  0.4067554478851320  0.8548155244796600  0.0273731537177167   T   T   T
  0.7392696347001785  0.8550635348049520  0.0273128690264348   T   T   T
  0.3240769686158627  0.0535702217729075  0.0450777621156407   T   T   T
  0.6564379949290360  0.0535969248275954  0.0450621890162202   T   T   T
  0.9902881780016851  0.0536187206318066  0.0449390786174657   T   T   T
  0.3237551170734058  0.5532881942879968  0.0450970708218773   T   T   T
  0.6567199423017156  0.5534673170665807  0.0450581327646120   T   T   T
  0.9903022714930736  0.5537556552454673  0.0449441041189791   T   T   T
  0.8289908474733791  0.8046550742353265  0.2074397393569352   T   T   T
  0.8302690298380186  0.3015922982595570  0.2070226823550800   T   T   T
  0.1614087423400642  0.3024642371863564  0.2072854031038191   T   T   T
  0.4967023960999864  0.3059819850230104  0.2081268891809122   T   T   T
  0.1616348497373724  0.8037037308160819  0.2074609313811046   T   T   T
  0.4938658103670633  0.8030201817802689  0.2075710619977673   T   T   T
  0.0786629405318974  0.1069574388259581  0.2251197032417455   T   T   T
  0.4145094949816787  0.1073083930461976  0.2251212141039595   T   T   T
  0.7480709018602072  0.1060132605547872  0.2251515314395982   T   T   T
  0.0781204754126941  0.6016973446757956  0.2247313478363200   T   T   T
  0.3788584977781275  0.6184525711254877  0.2288579300332443   T   T   T
  0.7819685829370082  0.5900543583288607  0.2230245477393233   T   T   T
  0.5491277287085651  0.6116161479522398  0.2743698060194013   T   T   T
  0.4954523101601047  0.4762515836287163  0.2935928469612627   T   T   T
  0.5739629739088079  0.6401338142982980  0.3035585590137631   T   T   T
  0.3139317818255963  0.3886988802473060  0.3093172763524007   T   T   T
  0.4212201615459761  0.2598248521858527  0.3019469269494661   T   T   T
  0.6501770234784616  0.7327811348199780  0.3343426211405142   T   T   T
  0.4844948307229202  0.7567340787335805  0.3312342290296205   T   T   T
  0.5185720094955066  0.7902512362593195  0.2522428706049244   T   T   T
  0.5857370297471300  0.6458049641986378  0.2389546698802375   T   T   T
  0.1690395626807727  0.3330718621512422  0.0339800035053764   T   T   T
  0.5013473619751546  0.3336440289699305  0.0341107508464699   T   T   T
  0.8339364992180630  0.3331943527988516  0.0338932081907938   T   T   T
  0.1695663089388535  0.8331906105233207  0.0340518694692326   T   T   T
  0.5013392563092509  0.8334785711759821  0.0340406628567707   T   T   T
  0.8338761578495598  0.8336568824047447  0.0339481143758836   T   T   T
  0.3200961482644896  0.0832200434448466  0.2186435046865378   T   T   T
  0.6534289294838759  0.0832583821186826  0.2186079821995442   T   T   T
  0.9849142961671815  0.0848320023437813  0.2182610328602285   T   T   T
  0.3010518901613522  0.5835189136139238  0.2186402115394911   T   T   T
  0.6794591505886447  0.5828286444939447  0.2185843031378715   T   T   T
  0.9831580991606959  0.5806371566922958  0.2180588290280113   T   T   T
  0.5730930773403696  0.5600933533100699  0.2901314484264225   T   T   T
  0.3820677185304051  0.3586500646065137  0.2973390591665632   T   T   T
  0.5757094184913458  0.7537699121163767  0.3228996595989485   T   T   T
  0.5126351158829499  0.6791895414681685  0.2510267915298925   T   T   T
  0.4930681606326513  0.2436631227508290  0.0599450060871070   T   T   T
  0.8262640457134320  0.2436858899995278  0.0597703089696554   T   T   T
  0.1600342787916451  0.7434817185682270  0.0598727411510821   T   T   T
  0.4930821017892237  0.7435612878602678  0.0598844883148801   T   T   T
  0.8262488001646269  0.7437646193021504  0.0598013017924948   T   T   T
  0.1598941571919165  0.2435193213933143  0.0598341548045145   T   T   T
  0.9930682257298329  0.9965176922939953  0.1395376779108707   T   T   T
  0.3265816150784511  0.9970506215026124  0.1397351631969923   T   T   T
  0.6591584464458958  0.9969736094892706  0.1396998238684637   T   T   T
  0.9930085693817229  0.4967091382448289  0.1395068060353875   T   T   T
  0.3260970941197552  0.4970354179056189  0.1397889630689284   T   T   T
  0.6597032509723108  0.4967931998894081  0.1396803817847397   T   T   T
  0.1599379524006799  0.2457520010515127  0.1658230867928160   T   T   T
  0.4930825658819613  0.2480054645145245  0.1663330389091329   T   T   T
  0.8266819685100334  0.2449516601716258  0.1656634797606544   T   T   T
  0.1598330676834234  0.7467752170572440  0.1659822417417626   T   T   T
  0.4930033895198401  0.7463409994370862  0.1660491879115690   T   T   T
  0.8267013151483295  0.7467189906710516  0.1659263547581530   T   T   T
  0.3267450437951649  0.9938924514300668  0.1927618185205833   T   T   T
  0.6603309584044820  0.9937677247418458  0.1927137224373978   T   T   T
  0.9934467577820595  0.9939836523623001  0.1925023974842620   T   T   T
  0.3247563743139098  0.4952379263182146  0.1930916368485673   T   T   T
  0.9935839473809522  0.4915000003733319  0.1921259854574756   T   T   T
  0.6629196886776614  0.4928445471702148  0.1924514133478646   T   T   T
  0.9927363185988988  0.9964407436250962  0.0864177914128510   T   T   T
  0.3261967672724639  0.9963771668243280  0.0865478187072599   T   T   T
  0.6593481128861465  0.9964443357317517  0.0865287877710832   T   T   T
  0.9926938464845934  0.4965531409720291  0.0864093435625142   T   T   T
  0.3260910815667339  0.4963975098754833  0.0865722423252442   T   T   T
  0.6593934906179015  0.4964151233542505  0.0865340515962953   T   T   T
  0.1594580363750169  0.2468520970200812  0.1127568576951307   T   T   T
  0.4927393947400135  0.2469822352977030  0.1129377953597007   T   T   T
  0.8260543867339027  0.2467748216723307  0.1127047060390509   T   T   T
  0.1595592478647247  0.7469330546697756  0.1127930620186589   T   T   T
  0.4927167155890265  0.7467956149153151  0.1128467404800326   T   T   T
  0.8259998894162863  0.7469603925892190  0.1127789599961933   T   T   T
 
  0.00000000E+00  0.00000000E+00  0.00000000E+00
  0.00000000E+00  0.00000000E+00  0.00000000E+00
  0.00000000E+00  0.00000000E+00  0.00000000E+00
  0.00000000E+00  0.00000000E+00  0.00000000E+00
  0.00000000E+00  0.00000000E+00  0.00000000E+00
  0.00000000E+00  0.00000000E+00  0.00000000E+00
  0.00000000E+00  0.00000000E+00  0.00000000E+00
  0.00000000E+00  0.00000000E+00  0.00000000E+00
  0.00000000E+00  0.00000000E+00  0.00000000E+00
  0.00000000E+00  0.00000000E+00  0.00000000E+00
  0.00000000E+00  0.00000000E+00  0.00000000E+00
  0.00000000E+00  0.00000000E+00  0.00000000E+00
  0.00000000E+00  0.00000000E+00  0.00000000E+00
  0.00000000E+00  0.00000000E+00  0.00000000E+00
  0.00000000E+00  0.00000000E+00  0.00000000E+00
  0.00000000E+00  0.00000000E+00  0.00000000E+00
  0.00000000E+00  0.00000000E+00  0.00000000E+00
  0.00000000E+00  0.00000000E+00  0.00000000E+00
  0.00000000E+00  0.00000000E+00  0.00000000E+00
  0.00000000E+00  0.00000000E+00  0.00000000E+00
  0.00000000E+00  0.00000000E+00  0.00000000E+00
  0.00000000E+00  0.00000000E+00  0.00000000E+00
  0.00000000E+00  0.00000000E+00  0.00000000E+00
  0.00000000E+00  0.00000000E+00  0.00000000E+00
  0.00000000E+00  0.00000000E+00  0.00000000E+00
  0.00000000E+00  0.00000000E+00  0.00000000E+00
  0.00000000E+00  0.00000000E+00  0.00000000E+00
  0.00000000E+00  0.00000000E+00  0.00000000E+00
  0.00000000E+00  0.00000000E+00  0.00000000E+00
  0.00000000E+00  0.00000000E+00  0.00000000E+00
  0.00000000E+00  0.00000000E+00  0.00000000E+00
  0.00000000E+00  0.00000000E+00  0.00000000E+00
  0.00000000E+00  0.00000000E+00  0.00000000E+00
  0.00000000E+00  0.00000000E+00  0.00000000E+00
  0.00000000E+00  0.00000000E+00  0.00000000E+00
  0.00000000E+00  0.00000000E+00  0.00000000E+00
  0.00000000E+00  0.00000000E+00  0.00000000E+00
  0.00000000E+00  0.00000000E+00  0.00000000E+00
  0.00000000E+00  0.00000000E+00  0.00000000E+00
  0.00000000E+00  0.00000000E+00  0.00000000E+00
  0.00000000E+00  0.00000000E+00  0.00000000E+00
  0.00000000E+00  0.00000000E+00  0.00000000E+00
  0.00000000E+00  0.00000000E+00  0.00000000E+00
  0.00000000E+00  0.00000000E+00  0.00000000E+00
  0.00000000E+00  0.00000000E+00  0.00000000E+00
  0.00000000E+00  0.00000000E+00  0.00000000E+00
  0.00000000E+00  0.00000000E+00  0.00000000E+00
  0.00000000E+00  0.00000000E+00  0.00000000E+00
  0.00000000E+00  0.00000000E+00  0.00000000E+00
  0.00000000E+00  0.00000000E+00  0.00000000E+00
  0.00000000E+00  0.00000000E+00  0.00000000E+00
  0.00000000E+00  0.00000000E+00  0.00000000E+00
  0.00000000E+00  0.00000000E+00  0.00000000E+00
  0.00000000E+00  0.00000000E+00  0.00000000E+00
  0.00000000E+00  0.00000000E+00  0.00000000E+00
  0.00000000E+00  0.00000000E+00  0.00000000E+00
  0.00000000E+00  0.00000000E+00  0.00000000E+00
  0.00000000E+00  0.00000000E+00  0.00000000E+00
  0.00000000E+00  0.00000000E+00  0.00000000E+00
  0.00000000E+00  0.00000000E+00  0.00000000E+00
  0.00000000E+00  0.00000000E+00  0.00000000E+00
  0.00000000E+00  0.00000000E+00  0.00000000E+00
  0.00000000E+00  0.00000000E+00  0.00000000E+00
  0.00000000E+00  0.00000000E+00  0.00000000E+00
  0.00000000E+00  0.00000000E+00  0.00000000E+00
  0.00000000E+00  0.00000000E+00  0.00000000E+00
  0.00000000E+00  0.00000000E+00  0.00000000E+00
  0.00000000E+00  0.00000000E+00  0.00000000E+00
  0.00000000E+00  0.00000000E+00  0.00000000E+00
  0.00000000E+00  0.00000000E+00  0.00000000E+00
  0.00000000E+00  0.00000000E+00  0.00000000E+00
  0.00000000E+00  0.00000000E+00  0.00000000E+00
  0.00000000E+00  0.00000000E+00  0.00000000E+00
  0.00000000E+00  0.00000000E+00  0.00000000E+00
  0.00000000E+00  0.00000000E+00  0.00000000E+00
  0.00000000E+00  0.00000000E+00  0.00000000E+00
  0.00000000E+00  0.00000000E+00  0.00000000E+00
  0.00000000E+00  0.00000000E+00  0.00000000E+00
  0.00000000E+00  0.00000000E+00  0.00000000E+00
  0.00000000E+00  0.00000000E+00  0.00000000E+00
  0.00000000E+00  0.00000000E+00  0.00000000E+00
  0.00000000E+00  0.00000000E+00  0.00000000E+00
  0.00000000E+00  0.00000000E+00  0.00000000E+00
  0.00000000E+00  0.00000000E+00  0.00000000E+00
  0.00000000E+00  0.00000000E+00  0.00000000E+00
  0.00000000E+00  0.00000000E+00  0.00000000E+00
  0.00000000E+00  0.00000000E+00  0.00000000E+00
  0.00000000E+00  0.00000000E+00  0.00000000E+00
  0.00000000E+00  0.00000000E+00  0.00000000E+00
  0.00000000E+00  0.00000000E+00  0.00000000E+00
  0.00000000E+00  0.00000000E+00  0.00000000E+00
  0.00000000E+00  0.00000000E+00  0.00000000E+00
  0.00000000E+00  0.00000000E+00  0.00000000E+00
  0.00000000E+00  0.00000000E+00  0.00000000E+00
  0.00000000E+00  0.00000000E+00  0.00000000E+00
  0.00000000E+00  0.00000000E+00  0.00000000E+00
  0.00000000E+00  0.00000000E+00  0.00000000E+00
  0.00000000E+00  0.00000000E+00  0.00000000E+00
  0.00000000E+00  0.00000000E+00  0.00000000E+00
  0.00000000E+00  0.00000000E+00  0.00000000E+00
  0.00000000E+00  0.00000000E+00  0.00000000E+00
  0.00000000E+00  0.00000000E+00  0.00000000E+00
  0.00000000E+00  0.00000000E+00  0.00000000E+00
  0.00000000E+00  0.00000000E+00  0.00000000E+00
  0.00000000E+00  0.00000000E+00  0.00000000E+00
  0.00000000E+00  0.00000000E+00  0.00000000E+00
  0.00000000E+00  0.00000000E+00  0.00000000E+00
  0.00000000E+00  0.00000000E+00  0.00000000E+00
  0.00000000E+00  0.00000000E+00  0.00000000E+00
  0.00000000E+00  0.00000000E+00  0.00000000E+00
  0.00000000E+00  0.00000000E+00  0.00000000E+00
  0.00000000E+00  0.00000000E+00  0.00000000E+00
  0.00000000E+00  0.00000000E+00  0.00000000E+00
  0.00000000E+00  0.00000000E+00  0.00000000E+00
  0.00000000E+00  0.00000000E+00  0.00000000E+00
  0.00000000E+00  0.00000000E+00  0.00000000E+00
  0.00000000E+00  0.00000000E+00  0.00000000E+00
  0.00000000E+00  0.00000000E+00  0.00000000E+00
  0.00000000E+00  0.00000000E+00  0.00000000E+00
  0.00000000E+00  0.00000000E+00  0.00000000E+00
  0.00000000E+00  0.00000000E+00  0.00000000E+00
