C H O Si                                
   1.00000000000000     
     9.2874599999999994    0.0000000000000000    0.0000000000000000
     0.0000000000000000    8.7563099999999991    0.0000000000000000
     0.0000000000000000    0.0000000000000000   58.0000000000000000
   C    H    O    Si
    36    32    16    36
Selective dynamics
Direct
  0.9940307423837048  0.1265638624554655  0.0603982466379756   T   T   T
  0.3273325668447717  0.1265823687515239  0.0605083479846959   T   T   T
  0.6606104469613678  0.1265799008857311  0.0604781542266583   T   T   T
  0.9939973112810239  0.6266964411221858  0.0604180107436431   T   T   T
  0.3273482102843752  0.6264238204640574  0.0605295125849767   T   T   T
  0.6606319824607939  0.6265634205153886  0.0604643612670895   T   T   T
  0.1604228097076190  0.3723223817586419  0.1393003818960343   T   T   T
  0.4936209480847299  0.3728300191589475  0.1395789317277052   T   T   T
  0.8269801206223533  0.3722101683672912  0.1392540107773646   T   T   T
  0.1606656002068403  0.8723915339583473  0.1393669524126329   T   T   T
  0.4936531023759048  0.8721147156433882  0.1394475402165098   T   T   T
  0.8268006809213835  0.8724944991359557  0.1393441040310116   T   T   T
  0.3276789101508940  0.1229400252066636  0.1666250298536857   T   T   T
  0.6597319152403371  0.1229852620103309  0.1666394171443162   T   T   T
  0.9938913820634996  0.1217729784850836  0.1663412999637733   T   T   T
  0.3268364523404076  0.6224715640408052  0.1668026931613420   T   T   T
  0.6606951775919655  0.6226349476458530  0.1665486701795275   T   T   T
  0.9938029169232667  0.6224931994255188  0.1664332661277656   T   T   T
  0.1605528805599446  0.3743112281918625  0.1915529101562834   T   T   T
  0.4940257025951144  0.3804377212515862  0.1927177031073528   T   T   T
  0.8279843370406612  0.3741513939807099  0.1914696494797771   T   T   T
  0.1602054166882670  0.8770756553337865  0.1918815735444069   T   T   T
  0.4936532485084290  0.8761501426709053  0.1920424930627600   T   T   T
  0.8271482427180605  0.8770115611684505  0.1918227313108637   T   T   T
  0.1604538330569609  0.3726041476130051  0.0857712978910266   T   T   T
  0.4937270231709873  0.3725386621156754  0.0859130958268942   T   T   T
  0.8270214187688607  0.3725522744597369  0.0857394727587780   T   T   T
  0.1605075178385692  0.8725850422546043  0.0858054162491060   T   T   T
  0.4937025113564633  0.8725150198346447  0.0858576853369112   T   T   T
  0.8269497258658038  0.8725880576157140  0.0857830075894923   T   T   T
  0.3270195612379049  0.1223698352296035  0.1130369045131199   T   T   T
  0.6601638610163462  0.1224012480592732  0.1130328461960734   T   T   T
  0.9936371103721079  0.1223471721336987  0.1129163505258012   T   T   T
  0.3269580857784309  0.6222801446282635  0.1130814130417966   T   T   T
  0.6602705712387171  0.6223562023795687  0.1129968179975918   T   T   T
  0.9935821622347375  0.6225928282376576  0.1129397020440649   T   T   T
  0.0754235571698230  0.3550655584716235  0.0272311856234160   T   T   T
  0.4075700801421012  0.3549197677581077  0.0274296483949002   T   T   T
  0.7408848255776244  0.3548233917210666  0.0272928409804987   T   T   T
  0.0757515773460789  0.8551005699008268  0.0272539631057354   T   T   T
  0.4073698977780885  0.8547073688220757  0.0274042558567290   T   T   T
  0.7408399408022250  0.8549300971344219  0.0273179579218820   T   T   T
  0.3249319022345576  0.0535410751946509  0.0450572724137155   T   T   T
  0.6575319752942009  0.0535450505384231  0.0450319968831215   T   T   T
  0.9914300330365691  0.0537101444664602  0.0449331378346104   T   T   T
  0.3247536892325625  0.5532863586514372  0.0450898225764235   T   T   T
  0.6577942468709312  0.5536013194909921  0.0450056307310307   T   T   T
  0.9913569759078354  0.5538367166521353  0.0449527317513325   T   T   T
  0.8290178806779440  0.8046425667771613  0.2073264070090237   T   T   T
  0.8304034423697426  0.3015503111510663  0.2069665596194056   T   T   T
  0.1618548282036096  0.3019909761647875  0.2070787668207431   T   T   T
  0.4975697137738657  0.3060106084406622  0.2080214789025497   T   T   T
  0.1624210956182819  0.8038324388219541  0.2073036512303169   T   T   T
  0.4941437705575369  0.8040837350758506  0.2076062048099332   T   T   T
  0.0796430090792837  0.1056994071009635  0.2250082428572309   T   T   T
  0.4135146757875556  0.1036635795632629  0.2252632883314162   T   T   T
  0.7480072168082303  0.1051732101199516  0.2250367251442240   T   T   T
  0.0848250228757280  0.5995945565172420  0.2240735427763518   T   T   T
  0.3720433166043765  0.6176144355754732  0.2298485077007558   T   T   T
  0.7806676416070761  0.5929145723730236  0.2229286496983450   T   T   T
  0.5152161643328029  0.6374335377625896  0.2645523517483438   T   T   T
  0.5057366373284813  0.4771846426213293  0.2938039721507942   T   T   T
  0.5779137667081590  0.6302823370013967  0.3026898908720554   T   T   T
  0.3045912923312460  0.3739627711415734  0.3101724463725890   T   T   T
  0.4088660553433630  0.2428652849434709  0.3034381041205007   T   T   T
  0.6495013220190131  0.7419678325709863  0.3370930343317698   T   T   T
  0.4858632745228491  0.7653808741290203  0.3331299155486398   T   T   T
  0.5700142736409433  0.6559200230588778  0.2389786993819755   T   T   T
  0.1698054037502174  0.3324801849472329  0.0338334248514296   T   T   T
  0.5023401521793063  0.3330496778231075  0.0339651440110862   T   T   T
  0.8356056291293099  0.3323753446793069  0.0337915419340670   T   T   T
  0.1700850287564364  0.8326041979154685  0.0338842293838109   T   T   T
  0.5022040558874102  0.8327691872163828  0.0339107391855525   T   T   T
  0.8355431211971993  0.8324660172385724  0.0338217434435001   T   T   T
  0.3190745053120208  0.0836872013742969  0.2184982835852683   T   T   T
  0.6531969074583898  0.0834500574286981  0.2185209902064572   T   T   T
  0.9852523454231823  0.0833105293386235  0.2183908858813295   T   T   T
  0.2969803535695444  0.5833055427997980  0.2186225759822960   T   T   T
  0.6788646000131726  0.5852271405774265  0.2182925098901189   T   T   T
  0.9870170027697367  0.5797870239320908  0.2182345103482843   T   T   T
  0.5779616957021385  0.5563869597483039  0.2896953555738142   T   T   T
  0.3700492361086608  0.3400386503598865  0.2980881191980716   T   T   T
  0.5787032136268665  0.7670650896325867  0.3252841618434331   T   T   T
  0.4906470157424441  0.6870300553639512  0.2495269613385410   T   T   T
  0.4940956170966020  0.2437817203117843  0.0599300600394976   T   T   T
  0.8274210275998748  0.2437209951704354  0.0597911236838850   T   T   T
  0.1609448237699933  0.7436955009274892  0.0598608081851144   T   T   T
  0.4940832843643972  0.7436985130919195  0.0598888383710087   T   T   T
  0.8273696151022527  0.7438061682011314  0.0598209268284744   T   T   T
  0.1608779861960106  0.2437532347346075  0.0598216096538925   T   T   T
  0.9937528688452667  0.9967526024306252  0.1394962516792631   T   T   T
  0.3274150590040149  0.9973582639518193  0.1396731969502672   T   T   T
  0.6598814110892797  0.9973382407883782  0.1396643672028302   T   T   T
  0.9936856754138257  0.4970530285920403  0.1394992741464504   T   T   T
  0.3268500626516525  0.4974149521580822  0.1397780059243083   T   T   T
  0.6604040063546086  0.4971945752390878  0.1396081734149739   T   T   T
  0.1604120368524571  0.2458566808678040  0.1657214688039796   T   T   T
  0.4935480649063667  0.2486719137120875  0.1663124487833767   T   T   T
  0.8272616651599199  0.2454335952607923  0.1656339851421010   T   T   T
  0.1603830448743472  0.7468580361037684  0.1659220575440909   T   T   T
  0.4935189646964766  0.7463718301788430  0.1660246172196798   T   T   T
  0.8271955495177779  0.7468863027562933  0.1658622890437874   T   T   T
  0.3268170591430063  0.9939561766449632  0.1925823329264119   T   T   T
  0.6601641502377960  0.9938318553107904  0.1925989892148292   T   T   T
  0.9935280066633875  0.9941056577871638  0.1924116398851655   T   T   T
  0.3244631626925099  0.4956340750116283  0.1931785773703524   T   T   T
  0.9941441113215275  0.4915801282641542  0.1921242417050198   T   T   T
  0.6633200328439925  0.4938989695049347  0.1924407364686397   T   T   T
  0.9937549172304829  0.9966675372229676  0.0864197554821284   T   T   T
  0.3271102620090793  0.9967036685245293  0.0865215869118850   T   T   T
  0.6602569008802484  0.9967046621987271  0.0865075362111939   T   T   T
  0.9937209158251228  0.4967446577322472  0.0864260209187246   T   T   T
  0.3270860651371512  0.4966614991527631  0.0865550955898391   T   T   T
  0.6603387201612514  0.4966661647272135  0.0864844846853218   T   T   T
  0.1602873809892920  0.2471842896873292  0.1127210206240452   T   T   T
  0.4934973510454699  0.2472782777040181  0.1129040271329198   T   T   T
  0.8268858604653863  0.2470947879662712  0.1126838571586467   T   T   T
  0.1604283869421832  0.7471972414785495  0.1127759108174394   T   T   T
  0.4935176611637123  0.7470872872715442  0.1128221988732941   T   T   T
  0.8267804785689982  0.7472497775737841  0.1127480682792251   T   T   T
 
  0.00000000E+00  0.00000000E+00  0.00000000E+00
  0.00000000E+00  0.00000000E+00  0.00000000E+00
  0.00000000E+00  0.00000000E+00  0.00000000E+00
  0.00000000E+00  0.00000000E+00  0.00000000E+00
  0.00000000E+00  0.00000000E+00  0.00000000E+00
  0.00000000E+00  0.00000000E+00  0.00000000E+00
  0.00000000E+00  0.00000000E+00  0.00000000E+00
  0.00000000E+00  0.00000000E+00  0.00000000E+00
  0.00000000E+00  0.00000000E+00  0.00000000E+00
  0.00000000E+00  0.00000000E+00  0.00000000E+00
  0.00000000E+00  0.00000000E+00  0.00000000E+00
  0.00000000E+00  0.00000000E+00  0.00000000E+00
  0.00000000E+00  0.00000000E+00  0.00000000E+00
  0.00000000E+00  0.00000000E+00  0.00000000E+00
  0.00000000E+00  0.00000000E+00  0.00000000E+00
  0.00000000E+00  0.00000000E+00  0.00000000E+00
  0.00000000E+00  0.00000000E+00  0.00000000E+00
  0.00000000E+00  0.00000000E+00  0.00000000E+00
  0.00000000E+00  0.00000000E+00  0.00000000E+00
  0.00000000E+00  0.00000000E+00  0.00000000E+00
  0.00000000E+00  0.00000000E+00  0.00000000E+00
  0.00000000E+00  0.00000000E+00  0.00000000E+00
  0.00000000E+00  0.00000000E+00  0.00000000E+00
  0.00000000E+00  0.00000000E+00  0.00000000E+00
  0.00000000E+00  0.00000000E+00  0.00000000E+00
  0.00000000E+00  0.00000000E+00  0.00000000E+00
  0.00000000E+00  0.00000000E+00  0.00000000E+00
  0.00000000E+00  0.00000000E+00  0.00000000E+00
  0.00000000E+00  0.00000000E+00  0.00000000E+00
  0.00000000E+00  0.00000000E+00  0.00000000E+00
  0.00000000E+00  0.00000000E+00  0.00000000E+00
  0.00000000E+00  0.00000000E+00  0.00000000E+00
  0.00000000E+00  0.00000000E+00  0.00000000E+00
  0.00000000E+00  0.00000000E+00  0.00000000E+00
  0.00000000E+00  0.00000000E+00  0.00000000E+00
  0.00000000E+00  0.00000000E+00  0.00000000E+00
  0.00000000E+00  0.00000000E+00  0.00000000E+00
  0.00000000E+00  0.00000000E+00  0.00000000E+00
  0.00000000E+00  0.00000000E+00  0.00000000E+00
  0.00000000E+00  0.00000000E+00  0.00000000E+00
  0.00000000E+00  0.00000000E+00  0.00000000E+00
  0.00000000E+00  0.00000000E+00  0.00000000E+00
  0.00000000E+00  0.00000000E+00  0.00000000E+00
  0.00000000E+00  0.00000000E+00  0.00000000E+00
  0.00000000E+00  0.00000000E+00  0.00000000E+00
  0.00000000E+00  0.00000000E+00  0.00000000E+00
  0.00000000E+00  0.00000000E+00  0.00000000E+00
  0.00000000E+00  0.00000000E+00  0.00000000E+00
  0.00000000E+00  0.00000000E+00  0.00000000E+00
  0.00000000E+00  0.00000000E+00  0.00000000E+00
  0.00000000E+00  0.00000000E+00  0.00000000E+00
  0.00000000E+00  0.00000000E+00  0.00000000E+00
  0.00000000E+00  0.00000000E+00  0.00000000E+00
  0.00000000E+00  0.00000000E+00  0.00000000E+00
  0.00000000E+00  0.00000000E+00  0.00000000E+00
  0.00000000E+00  0.00000000E+00  0.00000000E+00
  0.00000000E+00  0.00000000E+00  0.00000000E+00
  0.00000000E+00  0.00000000E+00  0.00000000E+00
  0.00000000E+00  0.00000000E+00  0.00000000E+00
  0.00000000E+00  0.00000000E+00  0.00000000E+00
  0.00000000E+00  0.00000000E+00  0.00000000E+00
  0.00000000E+00  0.00000000E+00  0.00000000E+00
  0.00000000E+00  0.00000000E+00  0.00000000E+00
  0.00000000E+00  0.00000000E+00  0.00000000E+00
  0.00000000E+00  0.00000000E+00  0.00000000E+00
  0.00000000E+00  0.00000000E+00  0.00000000E+00
  0.00000000E+00  0.00000000E+00  0.00000000E+00
  0.00000000E+00  0.00000000E+00  0.00000000E+00
  0.00000000E+00  0.00000000E+00  0.00000000E+00
  0.00000000E+00  0.00000000E+00  0.00000000E+00
  0.00000000E+00  0.00000000E+00  0.00000000E+00
  0.00000000E+00  0.00000000E+00  0.00000000E+00
  0.00000000E+00  0.00000000E+00  0.00000000E+00
  0.00000000E+00  0.00000000E+00  0.00000000E+00
  0.00000000E+00  0.00000000E+00  0.00000000E+00
  0.00000000E+00  0.00000000E+00  0.00000000E+00
  0.00000000E+00  0.00000000E+00  0.00000000E+00
  0.00000000E+00  0.00000000E+00  0.00000000E+00
  0.00000000E+00  0.00000000E+00  0.00000000E+00
  0.00000000E+00  0.00000000E+00  0.00000000E+00
  0.00000000E+00  0.00000000E+00  0.00000000E+00
  0.00000000E+00  0.00000000E+00  0.00000000E+00
  0.00000000E+00  0.00000000E+00  0.00000000E+00
  0.00000000E+00  0.00000000E+00  0.00000000E+00
  0.00000000E+00  0.00000000E+00  0.00000000E+00
  0.00000000E+00  0.00000000E+00  0.00000000E+00
  0.00000000E+00  0.00000000E+00  0.00000000E+00
  0.00000000E+00  0.00000000E+00  0.00000000E+00
  0.00000000E+00  0.00000000E+00  0.00000000E+00
  0.00000000E+00  0.00000000E+00  0.00000000E+00
  0.00000000E+00  0.00000000E+00  0.00000000E+00
  0.00000000E+00  0.00000000E+00  0.00000000E+00
  0.00000000E+00  0.00000000E+00  0.00000000E+00
  0.00000000E+00  0.00000000E+00  0.00000000E+00
  0.00000000E+00  0.00000000E+00  0.00000000E+00
  0.00000000E+00  0.00000000E+00  0.00000000E+00
  0.00000000E+00  0.00000000E+00  0.00000000E+00
  0.00000000E+00  0.00000000E+00  0.00000000E+00
  0.00000000E+00  0.00000000E+00  0.00000000E+00
  0.00000000E+00  0.00000000E+00  0.00000000E+00
  0.00000000E+00  0.00000000E+00  0.00000000E+00
  0.00000000E+00  0.00000000E+00  0.00000000E+00
  0.00000000E+00  0.00000000E+00  0.00000000E+00
  0.00000000E+00  0.00000000E+00  0.00000000E+00
  0.00000000E+00  0.00000000E+00  0.00000000E+00
  0.00000000E+00  0.00000000E+00  0.00000000E+00
  0.00000000E+00  0.00000000E+00  0.00000000E+00
  0.00000000E+00  0.00000000E+00  0.00000000E+00
  0.00000000E+00  0.00000000E+00  0.00000000E+00
  0.00000000E+00  0.00000000E+00  0.00000000E+00
  0.00000000E+00  0.00000000E+00  0.00000000E+00
  0.00000000E+00  0.00000000E+00  0.00000000E+00
  0.00000000E+00  0.00000000E+00  0.00000000E+00
  0.00000000E+00  0.00000000E+00  0.00000000E+00
  0.00000000E+00  0.00000000E+00  0.00000000E+00
  0.00000000E+00  0.00000000E+00  0.00000000E+00
  0.00000000E+00  0.00000000E+00  0.00000000E+00
  0.00000000E+00  0.00000000E+00  0.00000000E+00
  0.00000000E+00  0.00000000E+00  0.00000000E+00
  0.00000000E+00  0.00000000E+00  0.00000000E+00
