C H O Si                                
   1.00000000000000     
     9.2874599999999994    0.0000000000000000    0.0000000000000000
     0.0000000000000000    8.7563099999999991    0.0000000000000000
     0.0000000000000000    0.0000000000000000   58.0000000000000000
   C    H    O    Si
    36    32    16    36
Selective dynamics
Direct
  0.9938595071782650  0.1264739087348623  0.0604265208988180   T   T   T
  0.3272405643010380  0.1264192040957778  0.0605321904200974   T   T   T
  0.6604232667662696  0.1264101316596289  0.0605103105884081   T   T   T
  0.9938444525485109  0.6266100566579372  0.0604482177445930   T   T   T
  0.3272556931539925  0.6262974566973751  0.0605464781003578   T   T   T
  0.6604346802433487  0.6263738069278921  0.0604931910608502   T   T   T
  0.1604325383163872  0.3723647464831007  0.1392916223806506   T   T   T
  0.4935854704044736  0.3727548219025063  0.1395650017402068   T   T   T
  0.8270362864134072  0.3722482205946256  0.1392429120363992   T   T   T
  0.1606687723505639  0.8724756851880701  0.1393735601894235   T   T   T
  0.4937158045334726  0.8721319009984022  0.1394490175101631   T   T   T
  0.8267896055802413  0.8725980964423914  0.1393502366921614   T   T   T
  0.3276505864897273  0.1229707391969126  0.1666571495142206   T   T   T
  0.6595886264832267  0.1230013376485873  0.1666419088252429   T   T   T
  0.9937877668974329  0.1217785357082361  0.1663245895489887   T   T   T
  0.3268104522758087  0.6225889396700598  0.1668029099835479   T   T   T
  0.6606033442193758  0.6226379429042807  0.1665502646568521   T   T   T
  0.9936704089724466  0.6225024922294135  0.1664288489590609   T   T   T
  0.1603711850743667  0.3743722050734014  0.1915595105269765   T   T   T
  0.4938910117272453  0.3803314587179482  0.1927129782705343   T   T   T
  0.8279387613173804  0.3740735260018869  0.1914628431249597   T   T   T
  0.1600419617224376  0.8769828844663226  0.1918681058785290   T   T   T
  0.4934716414659188  0.8760979398002431  0.1920269539863106   T   T   T
  0.8270527632144453  0.8769051209803764  0.1918153968475234   T   T   T
  0.1604056900886635  0.3726553178777495  0.0857875134593456   T   T   T
  0.4937334414849086  0.3725368838097249  0.0859109425633219   T   T   T
  0.8270419238497524  0.3726225824673108  0.0857527273353414   T   T   T
  0.1604666257323521  0.8725968484816820  0.0858177069508256   T   T   T
  0.4936956909213583  0.8725147328142121  0.0858581420856630   T   T   T
  0.8269982985439419  0.8726811445363837  0.0857934747765497   T   T   T
  0.3268857389520093  0.1224329915320811  0.1130340805426272   T   T   T
  0.6600264019266104  0.1224135029566012  0.1130182056964290   T   T   T
  0.9934853352083883  0.1224394127883741  0.1129062350580360   T   T   T
  0.3268447963909236  0.6223066881956851  0.1130738445242804   T   T   T
  0.6601147080018324  0.6223763896842599  0.1129814303406906   T   T   T
  0.9935041416061794  0.6225760446096774  0.1129190792461761   T   T   T
  0.0754037934447341  0.3549342638653706  0.0272342076323943   T   T   T
  0.4075641284397640  0.3547986371937454  0.0274317122298682   T   T   T
  0.7408805090613880  0.3546801600225021  0.0272994928236777   T   T   T
  0.0757588199354945  0.8549542454829978  0.0272586939484724   T   T   T
  0.4073655291536043  0.8545817754328187  0.0274069781563092   T   T   T
  0.7408344367776617  0.8547994016817417  0.0273230037967050   T   T   T
  0.3249178766267555  0.0535468689903545  0.0450535817033002   T   T   T
  0.6575041691303395  0.0535582707693621  0.0450278746223235   T   T   T
  0.9914230647342742  0.0537186923177367  0.0449311469174445   T   T   T
  0.3247372320985908  0.5532593934197251  0.0450825115147580   T   T   T
  0.6577791604903719  0.5536304659225186  0.0450045450315025   T   T   T
  0.9913417989932997  0.5538631157451656  0.0449547379127087   T   T   T
  0.8290501883142182  0.8046499238340143  0.2073336514220039   T   T   T
  0.8304329281871792  0.3015106992732632  0.2069727369466173   T   T   T
  0.1619191532890102  0.3019631063673910  0.2070901208085758   T   T   T
  0.4976614286844063  0.3059726128038089  0.2080340110264128   T   T   T
  0.1624545813622370  0.8038481639884038  0.2073112505091015   T   T   T
  0.4941770485104419  0.8041070949406962  0.2076129528265878   T   T   T
  0.0796309645849636  0.1057399552755077  0.2250490709593498   T   T   T
  0.4134926045212755  0.1037039450980536  0.2253043035977046   T   T   T
  0.7480169822860722  0.1052361827566562  0.2250782923719269   T   T   T
  0.0847785612179090  0.5996950907566446  0.2241129670164620   T   T   T
  0.3721145580919211  0.6176241450248287  0.2298589652900492   T   T   T
  0.7807241254028719  0.5928854108390166  0.2229224697455385   T   T   T
  0.5152794650382493  0.6373369871942929  0.2645566239001946   T   T   T
  0.5058425189995345  0.4772368094343950  0.2938083515226582   T   T   T
  0.5779491472866910  0.6303431556556037  0.3026842396099813   T   T   T
  0.3046827248043734  0.3740569337070839  0.3101735349800575   T   T   T
  0.4088579944766041  0.2429583882959742  0.3034335191422670   T   T   T
  0.6494968274785127  0.7419790872240059  0.3370945494708790   T   T   T
  0.4858604445638010  0.7652874967237421  0.3331235032291729   T   T   T
  0.5700194535657014  0.6558603020265223  0.2389790895745259   T   T   T
  0.1700628576136348  0.3326361767918300  0.0337792591689775   T   T   T
  0.5024930398772967  0.3331409643222346  0.0339386071709525   T   T   T
  0.8358579890841729  0.3325239899279353  0.0337416778638383   T   T   T
  0.1703310640198836  0.8327454464795543  0.0338458836852090   T   T   T
  0.5023716528803511  0.8328853361572500  0.0338791794306886   T   T   T
  0.8357760147862909  0.8325782239886320  0.0337705582831551   T   T   T
  0.3193151519071791  0.0836388717540379  0.2184819769989701   T   T   T
  0.6533979595169225  0.0834213173774835  0.2185272318833221   T   T   T
  0.9854686950441925  0.0831969716878053  0.2183801284284476   T   T   T
  0.2970368262623034  0.5833241834532898  0.2186288433222290   T   T   T
  0.6788435665955053  0.5853943786016161  0.2183288250095559   T   T   T
  0.9871962257020666  0.5796875954638753  0.2182205786751078   T   T   T
  0.5782355517607890  0.5564058237329100  0.2896736088256379   T   T   T
  0.3700804170123838  0.3401496117525260  0.2980689442932712   T   T   T
  0.5787052916752617  0.7670922957983263  0.3252864724941347   T   T   T
  0.4904987465191714  0.6870384820556644  0.2495155643731406   T   T   T
  0.4940768828897018  0.2438264109563593  0.0599166954821197   T   T   T
  0.8273626987328234  0.2437879614431960  0.0597825927183148   T   T   T
  0.1609461727720562  0.7437455314783700  0.0598566797037036   T   T   T
  0.4940522064154508  0.7437615975025375  0.0598793250641181   T   T   T
  0.8273014607496065  0.7438547081424012  0.0598116710592996   T   T   T
  0.1608743023496453  0.2438206355087227  0.0598197434634119   T   T   T
  0.9938562158673642  0.9968574317385599  0.1394932031246132   T   T   T
  0.3274827306923603  0.9974075569507366  0.1396727421329250   T   T   T
  0.6599263258822130  0.9974438218613534  0.1396688332609833   T   T   T
  0.9938197153813558  0.4971891694456408  0.1394991987547831   T   T   T
  0.3268751625518043  0.4974981123778286  0.1397781077907285   T   T   T
  0.6605223811269427  0.4972432976216096  0.1395976118477184   T   T   T
  0.1604222038755711  0.2458191029855725  0.1657228935761905   T   T   T
  0.4935348197577198  0.2486291205756814  0.1662962164283264   T   T   T
  0.8272539647303127  0.2452928054671503  0.1656303266808076   T   T   T
  0.1603511962895556  0.7468476979732211  0.1659246482554642   T   T   T
  0.4934600334787159  0.7464050098247615  0.1660219564486495   T   T   T
  0.8271226229304832  0.7468794218016250  0.1658668474776767   T   T   T
  0.3267934223792071  0.9938444894730082  0.1925810660057946   T   T   T
  0.6601368173427136  0.9937175032587453  0.1925944497889366   T   T   T
  0.9934847121071017  0.9939361357502643  0.1924011751833286   T   T   T
  0.3243989587458939  0.4956621620737807  0.1931867986701688   T   T   T
  0.9941617935150946  0.4914558999674690  0.1921214978161526   T   T   T
  0.6633213554458390  0.4938315715739892  0.1924545113498723   T   T   T
  0.9938260583688437  0.9965851579209478  0.0864302292399696   T   T   T
  0.3271950618197373  0.9965909740916341  0.0865292249339877   T   T   T
  0.6603646431601093  0.9965919789351635  0.0865148943574798   T   T   T
  0.9938079918721672  0.4966610179737067  0.0864352827865481   T   T   T
  0.3271947820881823  0.4965457933191146  0.0865571854144223   T   T   T
  0.6604306177855012  0.4965418221412153  0.0864928406814960   T   T   T
  0.1602041434970908  0.2472632440783318  0.1127271457572389   T   T   T
  0.4934624169622052  0.2474020525177673  0.1128984997727367   T   T   T
  0.8267747135781882  0.2471750067532416  0.1126842128880277   T   T   T
  0.1603334189853569  0.7472955351358225  0.1127788085517065   T   T   T
  0.4934694534078446  0.7472122692104739  0.1128170943186171   T   T   T
  0.8266873698149160  0.7473441367461846  0.1127493016016413   T   T   T
 
  0.00000000E+00  0.00000000E+00  0.00000000E+00
  0.00000000E+00  0.00000000E+00  0.00000000E+00
  0.00000000E+00  0.00000000E+00  0.00000000E+00
  0.00000000E+00  0.00000000E+00  0.00000000E+00
  0.00000000E+00  0.00000000E+00  0.00000000E+00
  0.00000000E+00  0.00000000E+00  0.00000000E+00
  0.00000000E+00  0.00000000E+00  0.00000000E+00
  0.00000000E+00  0.00000000E+00  0.00000000E+00
  0.00000000E+00  0.00000000E+00  0.00000000E+00
  0.00000000E+00  0.00000000E+00  0.00000000E+00
  0.00000000E+00  0.00000000E+00  0.00000000E+00
  0.00000000E+00  0.00000000E+00  0.00000000E+00
  0.00000000E+00  0.00000000E+00  0.00000000E+00
  0.00000000E+00  0.00000000E+00  0.00000000E+00
  0.00000000E+00  0.00000000E+00  0.00000000E+00
  0.00000000E+00  0.00000000E+00  0.00000000E+00
  0.00000000E+00  0.00000000E+00  0.00000000E+00
  0.00000000E+00  0.00000000E+00  0.00000000E+00
  0.00000000E+00  0.00000000E+00  0.00000000E+00
  0.00000000E+00  0.00000000E+00  0.00000000E+00
  0.00000000E+00  0.00000000E+00  0.00000000E+00
  0.00000000E+00  0.00000000E+00  0.00000000E+00
  0.00000000E+00  0.00000000E+00  0.00000000E+00
  0.00000000E+00  0.00000000E+00  0.00000000E+00
  0.00000000E+00  0.00000000E+00  0.00000000E+00
  0.00000000E+00  0.00000000E+00  0.00000000E+00
  0.00000000E+00  0.00000000E+00  0.00000000E+00
  0.00000000E+00  0.00000000E+00  0.00000000E+00
  0.00000000E+00  0.00000000E+00  0.00000000E+00
  0.00000000E+00  0.00000000E+00  0.00000000E+00
  0.00000000E+00  0.00000000E+00  0.00000000E+00
  0.00000000E+00  0.00000000E+00  0.00000000E+00
  0.00000000E+00  0.00000000E+00  0.00000000E+00
  0.00000000E+00  0.00000000E+00  0.00000000E+00
  0.00000000E+00  0.00000000E+00  0.00000000E+00
  0.00000000E+00  0.00000000E+00  0.00000000E+00
  0.00000000E+00  0.00000000E+00  0.00000000E+00
  0.00000000E+00  0.00000000E+00  0.00000000E+00
  0.00000000E+00  0.00000000E+00  0.00000000E+00
  0.00000000E+00  0.00000000E+00  0.00000000E+00
  0.00000000E+00  0.00000000E+00  0.00000000E+00
  0.00000000E+00  0.00000000E+00  0.00000000E+00
  0.00000000E+00  0.00000000E+00  0.00000000E+00
  0.00000000E+00  0.00000000E+00  0.00000000E+00
  0.00000000E+00  0.00000000E+00  0.00000000E+00
  0.00000000E+00  0.00000000E+00  0.00000000E+00
  0.00000000E+00  0.00000000E+00  0.00000000E+00
  0.00000000E+00  0.00000000E+00  0.00000000E+00
  0.00000000E+00  0.00000000E+00  0.00000000E+00
  0.00000000E+00  0.00000000E+00  0.00000000E+00
  0.00000000E+00  0.00000000E+00  0.00000000E+00
  0.00000000E+00  0.00000000E+00  0.00000000E+00
  0.00000000E+00  0.00000000E+00  0.00000000E+00
  0.00000000E+00  0.00000000E+00  0.00000000E+00
  0.00000000E+00  0.00000000E+00  0.00000000E+00
  0.00000000E+00  0.00000000E+00  0.00000000E+00
  0.00000000E+00  0.00000000E+00  0.00000000E+00
  0.00000000E+00  0.00000000E+00  0.00000000E+00
  0.00000000E+00  0.00000000E+00  0.00000000E+00
  0.00000000E+00  0.00000000E+00  0.00000000E+00
  0.00000000E+00  0.00000000E+00  0.00000000E+00
  0.00000000E+00  0.00000000E+00  0.00000000E+00
  0.00000000E+00  0.00000000E+00  0.00000000E+00
  0.00000000E+00  0.00000000E+00  0.00000000E+00
  0.00000000E+00  0.00000000E+00  0.00000000E+00
  0.00000000E+00  0.00000000E+00  0.00000000E+00
  0.00000000E+00  0.00000000E+00  0.00000000E+00
  0.00000000E+00  0.00000000E+00  0.00000000E+00
  0.00000000E+00  0.00000000E+00  0.00000000E+00
  0.00000000E+00  0.00000000E+00  0.00000000E+00
  0.00000000E+00  0.00000000E+00  0.00000000E+00
  0.00000000E+00  0.00000000E+00  0.00000000E+00
  0.00000000E+00  0.00000000E+00  0.00000000E+00
  0.00000000E+00  0.00000000E+00  0.00000000E+00
  0.00000000E+00  0.00000000E+00  0.00000000E+00
  0.00000000E+00  0.00000000E+00  0.00000000E+00
  0.00000000E+00  0.00000000E+00  0.00000000E+00
  0.00000000E+00  0.00000000E+00  0.00000000E+00
  0.00000000E+00  0.00000000E+00  0.00000000E+00
  0.00000000E+00  0.00000000E+00  0.00000000E+00
  0.00000000E+00  0.00000000E+00  0.00000000E+00
  0.00000000E+00  0.00000000E+00  0.00000000E+00
  0.00000000E+00  0.00000000E+00  0.00000000E+00
  0.00000000E+00  0.00000000E+00  0.00000000E+00
  0.00000000E+00  0.00000000E+00  0.00000000E+00
  0.00000000E+00  0.00000000E+00  0.00000000E+00
  0.00000000E+00  0.00000000E+00  0.00000000E+00
  0.00000000E+00  0.00000000E+00  0.00000000E+00
  0.00000000E+00  0.00000000E+00  0.00000000E+00
  0.00000000E+00  0.00000000E+00  0.00000000E+00
  0.00000000E+00  0.00000000E+00  0.00000000E+00
  0.00000000E+00  0.00000000E+00  0.00000000E+00
  0.00000000E+00  0.00000000E+00  0.00000000E+00
  0.00000000E+00  0.00000000E+00  0.00000000E+00
  0.00000000E+00  0.00000000E+00  0.00000000E+00
  0.00000000E+00  0.00000000E+00  0.00000000E+00
  0.00000000E+00  0.00000000E+00  0.00000000E+00
  0.00000000E+00  0.00000000E+00  0.00000000E+00
  0.00000000E+00  0.00000000E+00  0.00000000E+00
  0.00000000E+00  0.00000000E+00  0.00000000E+00
  0.00000000E+00  0.00000000E+00  0.00000000E+00
  0.00000000E+00  0.00000000E+00  0.00000000E+00
  0.00000000E+00  0.00000000E+00  0.00000000E+00
  0.00000000E+00  0.00000000E+00  0.00000000E+00
  0.00000000E+00  0.00000000E+00  0.00000000E+00
  0.00000000E+00  0.00000000E+00  0.00000000E+00
  0.00000000E+00  0.00000000E+00  0.00000000E+00
  0.00000000E+00  0.00000000E+00  0.00000000E+00
  0.00000000E+00  0.00000000E+00  0.00000000E+00
  0.00000000E+00  0.00000000E+00  0.00000000E+00
  0.00000000E+00  0.00000000E+00  0.00000000E+00
  0.00000000E+00  0.00000000E+00  0.00000000E+00
  0.00000000E+00  0.00000000E+00  0.00000000E+00
  0.00000000E+00  0.00000000E+00  0.00000000E+00
  0.00000000E+00  0.00000000E+00  0.00000000E+00
  0.00000000E+00  0.00000000E+00  0.00000000E+00
  0.00000000E+00  0.00000000E+00  0.00000000E+00
  0.00000000E+00  0.00000000E+00  0.00000000E+00
  0.00000000E+00  0.00000000E+00  0.00000000E+00
  0.00000000E+00  0.00000000E+00  0.00000000E+00
