C H O Si                                
   1.00000000000000     
     9.2874599999999994    0.0000000000000000    0.0000000000000000
     0.0000000000000000   17.5126199999999983    0.0000000000000000
     0.0000000000000000    0.0000000000000000   58.0000000000000000
   C    H    O    Si
    72    57    28    72
Selective dynamics
Direct
  0.9929355302599169  0.0630370289285593  0.0604905107743108   T   T   T
  0.3263052200771788  0.0630975834850722  0.0605809100183618   T   T   T
  0.6595476716440511  0.0631119194316514  0.0605581275151638   T   T   T
  0.9927498288569954  0.3131067731557684  0.0604925680334910   T   T   T
  0.3260699923155772  0.3130612260321476  0.0605860314300266   T   T   T
  0.6594114047190045  0.3130857326625699  0.0605479035304739   T   T   T
  0.1601914698433858  0.1857426485926395  0.1393973242035763   T   T   T
  0.4934649526186530  0.1860102087449400  0.1396347701719064   T   T   T
  0.8268384119575880  0.1857113273642346  0.1393211162957022   T   T   T
  0.1600809270308814  0.4358212060602513  0.1394325702222839   T   T   T
  0.4934204380654381  0.4357383353973784  0.1394652470389698   T   T   T
  0.8268141448750065  0.4358323898360695  0.1394194676149888   T   T   T
  0.3276701573874186  0.0611036523723257  0.1666749865605806   T   T   T
  0.6599937328795203  0.0610575640601173  0.1666279179237625   T   T   T
  0.9941006154657919  0.0603912214358008  0.1664012277447275   T   T   T
  0.3269308920701716  0.3109097378840652  0.1667409575523702   T   T   T
  0.6608381131922042  0.3109599063343129  0.1666182070669010   T   T   T
  0.9938876799698578  0.3108390309394505  0.1664543640580275   T   T   T
  0.1611620274607413  0.1872428928592740  0.1917354691382184   T   T   T
  0.4944433358887836  0.1898001267879350  0.1927011349151034   T   T   T
  0.8283928122121897  0.1867024854810974  0.1914842864180275   T   T   T
  0.1602868074628703  0.4383060402746508  0.1919279816036260   T   T   T
  0.4938324978768946  0.4379056719326925  0.1919714255049824   T   T   T
  0.8274011579124380  0.4383928575694653  0.1918769867804951   T   T   T
  0.1595998852184856  0.1859394111215055  0.0858924449315846   T   T   T
  0.4929154609661813  0.1859325025888564  0.0860239462650795   T   T   T
  0.8262323732265339  0.1859193060373797  0.0858497658907572   T   T   T
  0.1596079938086555  0.4359178596879900  0.0859176730184177   T   T   T
  0.4928975614593516  0.4358954027541527  0.0859444492608242   T   T   T
  0.8262029993919406  0.4359222060975807  0.0859045931044658   T   T   T
  0.3264503151278430  0.0608372261055362  0.1130943805577488   T   T   T
  0.6596793308497378  0.0608265650592040  0.1130777478752701   T   T   T
  0.9931011029659675  0.0607330006275135  0.1129985153864294   T   T   T
  0.3263759121390418  0.3107807688981783  0.1131306317099965   T   T   T
  0.6598175141073818  0.3107940177984772  0.1130810035049973   T   T   T
  0.9931069563538040  0.3107840707550934  0.1130026900271430   T   T   T
  0.9929321139071544  0.5630288099353552  0.0605289437541684   T   T   T
  0.3262391383863775  0.5630438252555608  0.0605432988842821   T   T   T
  0.6596276859237042  0.5630485367437931  0.0605381364515904   T   T   T
  0.9927441441684157  0.8130889919904688  0.0605241938888333   T   T   T
  0.3260741024101492  0.8130654559271875  0.0605264294122729   T   T   T
  0.6594262833750907  0.8130874273757142  0.0605206799902481   T   T   T
  0.1600963739693573  0.6858362432322423  0.1394242501416139   T   T   T
  0.4933475437899649  0.6858351518878912  0.1394253888456269   T   T   T
  0.8266484222536992  0.6858286947776747  0.1394207380504901   T   T   T
  0.1604490460180904  0.9358001748186162  0.1394336339939455   T   T   T
  0.4933736886643852  0.9357572993557010  0.1394306094646233   T   T   T
  0.8265447972579621  0.9358385111793655  0.1394261690697047   T   T   T
  0.3269753958589535  0.5609407250900618  0.1665568032281035   T   T   T
  0.6601419355110474  0.5609477593569947  0.1665508692604120   T   T   T
  0.9936306816537943  0.5610831681449882  0.1665129938650820   T   T   T
  0.3270191106311581  0.8108871109442156  0.1665605394580923   T   T   T
  0.6603415502173663  0.8109181062389408  0.1665508661317506   T   T   T
  0.9936852038472753  0.8109361112863482  0.1665442366432354   T   T   T
  0.1606318900474039  0.6880722894684350  0.1919420277934697   T   T   T
  0.4939506591669520  0.6880979920234118  0.1919623492090433   T   T   T
  0.8271801964661247  0.6880782052040637  0.1919308488866029   T   T   T
  0.1608373336735759  0.9380294406582989  0.1919459706854741   T   T   T
  0.4940421590302618  0.9379863177258558  0.1919685820953373   T   T   T
  0.8272719671914242  0.9379916359151872  0.1919164167833021   T   T   T
  0.1595949080854484  0.6859276123158502  0.0859081350542967   T   T   T
  0.4929172547900503  0.6858918677245764  0.0859162973742948   T   T   T
  0.8262181231559921  0.6859307898541124  0.0859069215993555   T   T   T
  0.1596529143985066  0.9359333413108855  0.0859095022091554   T   T   T
  0.4928977874340745  0.9359074833459320  0.0859273243290017   T   T   T
  0.8261782060056816  0.9359441188906854  0.0859061224826667   T   T   T
  0.3263522528322476  0.5607799679816989  0.1130575688918790   T   T   T
  0.6597083661637571  0.5607649040199431  0.1130561985891007   T   T   T
  0.9930330557738696  0.5608061599257677  0.1130382939039581   T   T   T
  0.3264654358269174  0.8107656167578636  0.1130379632252941   T   T   T
  0.6597586366061473  0.8107682480079029  0.1130399994283624   T   T   T
  0.9930885763408015  0.8108498117883386  0.1130523356927822   T   T   T
  0.0768676092229753  0.1770917783390485  0.0267742426664911   T   T   T
  0.4093183688871008  0.1771386191840012  0.0269392279895612   T   T   T
  0.7426447436803341  0.1770598207284186  0.0268084923536822   T   T   T
  0.0766858476316976  0.4271597632408127  0.0267901175784168   T   T   T
  0.4089751486175462  0.4270408874520362  0.0268764645175607   T   T   T
  0.7420492692111372  0.4270592704154702  0.0268441887260443   T   T   T
  0.3241232935695951  0.0269165926068059  0.0450540621809791   T   T   T
  0.6566435275487496  0.0269140692275557  0.0450368426771740   T   T   T
  0.9905489018990100  0.0269266145767286  0.0449509121437127   T   T   T
  0.3235422088866173  0.2768166418135863  0.0450732618656706   T   T   T
  0.6567696976573429  0.2768854663046424  0.0450248605091308   T   T   T
  0.9902166109670156  0.2770060884978446  0.0449494834060133   T   T   T
  0.8292985038429490  0.4026186553360661  0.2074701699726047   T   T   T
  0.8308289313555164  0.1507314364047097  0.2070541186601867   T   T   T
  0.1623134220686908  0.1512763444319580  0.2073102098473266   T   T   T
  0.4972907971615626  0.1530917457331425  0.2081159346477633   T   T   T
  0.1623545895602317  0.4020937777187877  0.2074437860374988   T   T   T
  0.4944143465034301  0.4018192317855815  0.2075204419917101   T   T   T
  0.0774532917656366  0.0519420186558934  0.2256505728332209   T   T   T
  0.4117102010571277  0.0514840222749000  0.2257974815204512   T   T   T
  0.7449571793602948  0.0517753147168304  0.2257107160410791   T   T   T
  0.0761087546866325  0.3008041436366774  0.2252704614449061   T   T   T
  0.3768914596607345  0.3098069989861832  0.2290202751276104   T   T   T
  0.7816514811368540  0.2948817375747910  0.2232143758018271   T   T   T
  0.5456849385454403  0.3049851829313769  0.2742585072393616   T   T   T
  0.4920912693877173  0.2373163916250508  0.2935095660869843   T   T   T
  0.5717610320636843  0.3197059550949319  0.3032473696742811   T   T   T
  0.3144828046878685  0.1941842897562566  0.3097263312581277   T   T   T
  0.4223707194100145  0.1300872904066327  0.3023040720881793   T   T   T
  0.6509942097886937  0.3661051625621380  0.3334535879416766   T   T   T
  0.4849689184074291  0.3776558512787896  0.3307505053826574   T   T   T
  0.5156336930201031  0.3954607072539825  0.2523278395034352   T   T   T
  0.5842627700345510  0.3240024445441392  0.2390712233148213   T   T   T
  0.0764579610327458  0.6771452030843873  0.0268321928195384   T   T   T
  0.4095523472970230  0.6770947596502511  0.0268548038318774   T   T   T
  0.7427556118139577  0.6770877378372325  0.0268557308360427   T   T   T
  0.0761981751398884  0.9271169318980810  0.0268136561436414   T   T   T
  0.4090358682881942  0.9270578728749191  0.0268491456803466   T   T   T
  0.7423947600860613  0.9271158921835444  0.0268370712536349   T   T   T
  0.3237655531012736  0.5268629071755352  0.0450192007623385   T   T   T
  0.6571434042650676  0.5268673954580184  0.0450135031879067   T   T   T
  0.9904197426657353  0.5268771430343414  0.0449950748469428   T   T   T
  0.3235782344360619  0.7769048075022486  0.0449964173791911   T   T   T
  0.6567923433217472  0.7769297664426724  0.0449904028106081   T   T   T
  0.9901745685219893  0.7769297910940335  0.0449934589696149   T   T   T
  0.8297148798102045  0.9018928516931950  0.2074621925553454   T   T   T
  0.8296737103974761  0.6519394023597311  0.2074675021845650   T   T   T
  0.1629090225004640  0.6519199389877085  0.2074763420396629   T   T   T
  0.4964505789229259  0.6520023775571160  0.2075033457801280   T   T   T
  0.1630260429022621  0.9018833325097191  0.2074839275637477   T   T   T
  0.4965374204149756  0.9018152228527706  0.2074963498297923   T   T   T
  0.0768344776961592  0.5529123143508571  0.2256608098123407   T   T   T
  0.4109438724063660  0.5534730566646238  0.2254919678354410   T   T   T
  0.7441750332741982  0.5528438200729688  0.2255793104890758   T   T   T
  0.0776490163915991  0.8020882153545830  0.2256730016325935   T   T   T
  0.4104920837795654  0.8023340221982925  0.2257436534546980   T   T   T
  0.7454398944981935  0.8018868815632673  0.2256212835214292   T   T   T
  0.1694171334065865  0.1672727718742868  0.0342054524395281   T   T   T
  0.5021195924346082  0.1676471349047151  0.0343327863086497   T   T   T
  0.8354525013753954  0.1672801075080569  0.0341679775534387   T   T   T
  0.1691878781318034  0.4174210804387241  0.0342428182938972   T   T   T
  0.5017954673288845  0.4174609103155546  0.0342531384002473   T   T   T
  0.8348616019911437  0.4174982976455857  0.0342200871823465   T   T   T
  0.3190016023359538  0.0423175419451660  0.2183476078575398   T   T   T
  0.6522090503749571  0.0424144424336682  0.2182907083038608   T   T   T
  0.9849984419219660  0.0425238841766808  0.2181478764792835   T   T   T
  0.3006907009949192  0.2929680464643329  0.2183295889484203   T   T   T
  0.6797609650439959  0.2921853726723916  0.2183482253718811   T   T   T
  0.9827523607896003  0.2907443377948191  0.2179935848147542   T   T   T
  0.5702246394044505  0.2792313970745002  0.2898977141429706   T   T   T
  0.3810610713460865  0.1788656149666630  0.2975548713540759   T   T   T
  0.5755367668768947  0.3769338102906316  0.3222023993140109   T   T   T
  0.5094773700236712  0.3400116689518585  0.2507794309249440   T   T   T
  0.1691265011282620  0.6673686646911907  0.0342325459686718   T   T   T
  0.5023064056751644  0.6673709479601337  0.0342319874044372   T   T   T
  0.8355140553182551  0.6674048266200105  0.0342334154751775   T   T   T
  0.1688419378371322  0.9174689711038375  0.0342328517329142   T   T   T
  0.5018342696454299  0.9175076776691381  0.0342353740319249   T   T   T
  0.8351404359789831  0.9175417075404296  0.0342342171677254   T   T   T
  0.3183467141682207  0.5424265231730169  0.2182472842373810   T   T   T
  0.6515949339092904  0.5425015087427637  0.2182266716682450   T   T   T
  0.9845022868810054  0.5426739047043873  0.2182245724422202   T   T   T
  0.3181398899676293  0.7924904458526579  0.2182616891460045   T   T   T
  0.6524997507522643  0.7926418377628579  0.2182479257524895   T   T   T
  0.9850292528842490  0.7925078469661586  0.2182390746955722   T   T   T
  0.4930364477431532  0.1218124279777755  0.0598252253000027   T   T   T
  0.8263770469738455  0.1217147875668876  0.0596983461392799   T   T   T
  0.1595810776386360  0.3717531173386653  0.0597554116641951   T   T   T
  0.4928415008281328  0.3717542678938518  0.0597664093518276   T   T   T
  0.8261487324141676  0.3717896539049325  0.0597298741212953   T   T   T
  0.1597677256236034  0.1217057353563910  0.0597372179174029   T   T   T
  0.9934067692940677  0.4983796397480614  0.1396699461513440   T   T   T
  0.3267075214295874  0.4983018095068162  0.1396961485175490   T   T   T
  0.6600088956272259  0.4983091965699070  0.1396898629321207   T   T   T
  0.9935154552992410  0.2482101088704609  0.1395802605584575   T   T   T
  0.3266472263464892  0.2483542180589933  0.1398076223325065   T   T   T
  0.6602645967970147  0.2482663031939644  0.1396991888959421   T   T   T
  0.1605402236100393  0.1226602809673764  0.1659421357485697   T   T   T
  0.4937762887687363  0.1238431528720241  0.1664218427157499   T   T   T
  0.8274289525804658  0.1222856056010086  0.1657711791730637   T   T   T
  0.1603349806213260  0.3731745416683533  0.1660744759429857   T   T   T
  0.4935918548691790  0.3729416917053727  0.1660888296979476   T   T   T
  0.8273810871208422  0.3732272368177990  0.1660461642721122   T   T   T
  0.3268562013514490  0.4968805876572000  0.1927096134664387   T   T   T
  0.6604991461260520  0.4968807016875316  0.1927040286023403   T   T   T
  0.9937667101726488  0.4971280145100302  0.1926831581016682   T   T   T
  0.3254634786040841  0.2475781946297124  0.1931730603842469   T   T   T
  0.9944131967117862  0.2456242340532764  0.1922872758476988   T   T   T
  0.6637208736592761  0.2463912036552874  0.1925723482139818   T   T   T
  0.9929312979770444  0.4980709116420963  0.0864037337642301   T   T   T
  0.3262916222245068  0.4980853448144806  0.0864201935204262   T   T   T
  0.6595871604369309  0.4980817724210679  0.0864174685896594   T   T   T
  0.9929184843347236  0.2480765217171372  0.0863582411332063   T   T   T
  0.3262472092741727  0.2480796837237009  0.0864664156471442   T   T   T
  0.6596026536264016  0.2480833960542785  0.0864238024995093   T   T   T
  0.1597704323806322  0.1232679768108165  0.1127453448979090   T   T   T
  0.4930813155330403  0.1233383062478304  0.1128990935954025   T   T   T
  0.8264313253185447  0.1232323279637477  0.1126891472002056   T   T   T
  0.1597705160197020  0.3733027778270439  0.1127800260898810   T   T   T
  0.4930684945923522  0.3732607569877224  0.1128067058440754   T   T   T
  0.8264738338638085  0.3733083189650708  0.1127641498306810   T   T   T
  0.4930813216789222  0.6217228506186060  0.0597482071378580   T   T   T
  0.8264113101156422  0.6217345890586913  0.0597479082060523   T   T   T
  0.1595732963346378  0.8717556337558467  0.0597421119223654   T   T   T
  0.4928404614358277  0.8717762437019622  0.0597428937892805   T   T   T
  0.8261647605548258  0.8717879539349809  0.0597367992646406   T   T   T
  0.1597298400919006  0.6217176834629639  0.0597535061274715   T   T   T
  0.9935381560522799  0.9980513067038614  0.1395960397077318   T   T   T
  0.3271090383936675  0.9984027773769689  0.1397435692585843   T   T   T
  0.6597068730722931  0.9983353381319470  0.1397162677183213   T   T   T
  0.9933592824338702  0.7483146942608617  0.1396821471869113   T   T   T
  0.3267031483807973  0.7483260523119982  0.1396837453073648   T   T   T
  0.6599769360412209  0.7483233647466390  0.1396806464788995   T   T   T
  0.1602281222910231  0.6231484200819104  0.1660487015419199   T   T   T
  0.4935300369307851  0.6231602907744371  0.1660628303279482   T   T   T
  0.8268321463093639  0.6231354881420783  0.1660467398724785   T   T   T
  0.1603529707421449  0.8730295746601150  0.1660593643306188   T   T   T
  0.4936321523994827  0.8730276264264890  0.1660721721976637   T   T   T
  0.8269060477904137  0.8730189048180915  0.1660421567018067   T   T   T
  0.3273403788382757  0.9967016710659115  0.1928098529342062   T   T   T
  0.6605884022384272  0.9966795794081871  0.1927639256036857   T   T   T
  0.9939067250642608  0.9966128477935010  0.1926551825752336   T   T   T
  0.3271286470113287  0.7467796934267331  0.1927393796557356   T   T   T
  0.9937769859210285  0.7467862668834619  0.1927171983472457   T   T   T
  0.6605171181649331  0.7468257787979324  0.1927328722850010   T   T   T
  0.9929530701131714  0.9980460414391322  0.0863697209299192   T   T   T
  0.3263415966973151  0.9980853331465488  0.0864439345357811   T   T   T
  0.6595510467098834  0.9980999125536359  0.0864280174216645   T   T   T
  0.9929204076263209  0.7480977992675188  0.0864051557412275   T   T   T
  0.3262859997070573  0.7480680945378164  0.0864063737814942   T   T   T
  0.6595591693328567  0.7480836829997933  0.0864008893672105   T   T   T
  0.1597174967336666  0.6233073859053726  0.1127773576869761   T   T   T
  0.4930420039326367  0.6232908735147571  0.1127850750825674   T   T   T
  0.8263739769135733  0.6233024878090770  0.1127772712091570   T   T   T
  0.1599122164428721  0.8732879332291750  0.1127770721520614   T   T   T
  0.4931028199914933  0.8732544424864197  0.1127805403752770   T   T   T
  0.8263491254081020  0.8732954558859365  0.1127746807251716   T   T   T
 
  0.00000000E+00  0.00000000E+00  0.00000000E+00
  0.00000000E+00  0.00000000E+00  0.00000000E+00
  0.00000000E+00  0.00000000E+00  0.00000000E+00
  0.00000000E+00  0.00000000E+00  0.00000000E+00
  0.00000000E+00  0.00000000E+00  0.00000000E+00
  0.00000000E+00  0.00000000E+00  0.00000000E+00
  0.00000000E+00  0.00000000E+00  0.00000000E+00
  0.00000000E+00  0.00000000E+00  0.00000000E+00
  0.00000000E+00  0.00000000E+00  0.00000000E+00
  0.00000000E+00  0.00000000E+00  0.00000000E+00
  0.00000000E+00  0.00000000E+00  0.00000000E+00
  0.00000000E+00  0.00000000E+00  0.00000000E+00
  0.00000000E+00  0.00000000E+00  0.00000000E+00
  0.00000000E+00  0.00000000E+00  0.00000000E+00
  0.00000000E+00  0.00000000E+00  0.00000000E+00
  0.00000000E+00  0.00000000E+00  0.00000000E+00
  0.00000000E+00  0.00000000E+00  0.00000000E+00
  0.00000000E+00  0.00000000E+00  0.00000000E+00
  0.00000000E+00  0.00000000E+00  0.00000000E+00
  0.00000000E+00  0.00000000E+00  0.00000000E+00
  0.00000000E+00  0.00000000E+00  0.00000000E+00
  0.00000000E+00  0.00000000E+00  0.00000000E+00
  0.00000000E+00  0.00000000E+00  0.00000000E+00
  0.00000000E+00  0.00000000E+00  0.00000000E+00
  0.00000000E+00  0.00000000E+00  0.00000000E+00
  0.00000000E+00  0.00000000E+00  0.00000000E+00
  0.00000000E+00  0.00000000E+00  0.00000000E+00
  0.00000000E+00  0.00000000E+00  0.00000000E+00
  0.00000000E+00  0.00000000E+00  0.00000000E+00
  0.00000000E+00  0.00000000E+00  0.00000000E+00
  0.00000000E+00  0.00000000E+00  0.00000000E+00
  0.00000000E+00  0.00000000E+00  0.00000000E+00
  0.00000000E+00  0.00000000E+00  0.00000000E+00
  0.00000000E+00  0.00000000E+00  0.00000000E+00
  0.00000000E+00  0.00000000E+00  0.00000000E+00
  0.00000000E+00  0.00000000E+00  0.00000000E+00
  0.00000000E+00  0.00000000E+00  0.00000000E+00
  0.00000000E+00  0.00000000E+00  0.00000000E+00
  0.00000000E+00  0.00000000E+00  0.00000000E+00
  0.00000000E+00  0.00000000E+00  0.00000000E+00
  0.00000000E+00  0.00000000E+00  0.00000000E+00
  0.00000000E+00  0.00000000E+00  0.00000000E+00
  0.00000000E+00  0.00000000E+00  0.00000000E+00
  0.00000000E+00  0.00000000E+00  0.00000000E+00
  0.00000000E+00  0.00000000E+00  0.00000000E+00
  0.00000000E+00  0.00000000E+00  0.00000000E+00
  0.00000000E+00  0.00000000E+00  0.00000000E+00
  0.00000000E+00  0.00000000E+00  0.00000000E+00
  0.00000000E+00  0.00000000E+00  0.00000000E+00
  0.00000000E+00  0.00000000E+00  0.00000000E+00
  0.00000000E+00  0.00000000E+00  0.00000000E+00
  0.00000000E+00  0.00000000E+00  0.00000000E+00
  0.00000000E+00  0.00000000E+00  0.00000000E+00
  0.00000000E+00  0.00000000E+00  0.00000000E+00
  0.00000000E+00  0.00000000E+00  0.00000000E+00
  0.00000000E+00  0.00000000E+00  0.00000000E+00
  0.00000000E+00  0.00000000E+00  0.00000000E+00
  0.00000000E+00  0.00000000E+00  0.00000000E+00
  0.00000000E+00  0.00000000E+00  0.00000000E+00
  0.00000000E+00  0.00000000E+00  0.00000000E+00
  0.00000000E+00  0.00000000E+00  0.00000000E+00
  0.00000000E+00  0.00000000E+00  0.00000000E+00
  0.00000000E+00  0.00000000E+00  0.00000000E+00
  0.00000000E+00  0.00000000E+00  0.00000000E+00
  0.00000000E+00  0.00000000E+00  0.00000000E+00
  0.00000000E+00  0.00000000E+00  0.00000000E+00
  0.00000000E+00  0.00000000E+00  0.00000000E+00
  0.00000000E+00  0.00000000E+00  0.00000000E+00
  0.00000000E+00  0.00000000E+00  0.00000000E+00
  0.00000000E+00  0.00000000E+00  0.00000000E+00
  0.00000000E+00  0.00000000E+00  0.00000000E+00
  0.00000000E+00  0.00000000E+00  0.00000000E+00
  0.00000000E+00  0.00000000E+00  0.00000000E+00
  0.00000000E+00  0.00000000E+00  0.00000000E+00
  0.00000000E+00  0.00000000E+00  0.00000000E+00
  0.00000000E+00  0.00000000E+00  0.00000000E+00
  0.00000000E+00  0.00000000E+00  0.00000000E+00
  0.00000000E+00  0.00000000E+00  0.00000000E+00
  0.00000000E+00  0.00000000E+00  0.00000000E+00
  0.00000000E+00  0.00000000E+00  0.00000000E+00
  0.00000000E+00  0.00000000E+00  0.00000000E+00
  0.00000000E+00  0.00000000E+00  0.00000000E+00
  0.00000000E+00  0.00000000E+00  0.00000000E+00
  0.00000000E+00  0.00000000E+00  0.00000000E+00
  0.00000000E+00  0.00000000E+00  0.00000000E+00
  0.00000000E+00  0.00000000E+00  0.00000000E+00
  0.00000000E+00  0.00000000E+00  0.00000000E+00
  0.00000000E+00  0.00000000E+00  0.00000000E+00
  0.00000000E+00  0.00000000E+00  0.00000000E+00
  0.00000000E+00  0.00000000E+00  0.00000000E+00
  0.00000000E+00  0.00000000E+00  0.00000000E+00
  0.00000000E+00  0.00000000E+00  0.00000000E+00
  0.00000000E+00  0.00000000E+00  0.00000000E+00
  0.00000000E+00  0.00000000E+00  0.00000000E+00
  0.00000000E+00  0.00000000E+00  0.00000000E+00
  0.00000000E+00  0.00000000E+00  0.00000000E+00
  0.00000000E+00  0.00000000E+00  0.00000000E+00
  0.00000000E+00  0.00000000E+00  0.00000000E+00
  0.00000000E+00  0.00000000E+00  0.00000000E+00
  0.00000000E+00  0.00000000E+00  0.00000000E+00
  0.00000000E+00  0.00000000E+00  0.00000000E+00
  0.00000000E+00  0.00000000E+00  0.00000000E+00
  0.00000000E+00  0.00000000E+00  0.00000000E+00
  0.00000000E+00  0.00000000E+00  0.00000000E+00
  0.00000000E+00  0.00000000E+00  0.00000000E+00
  0.00000000E+00  0.00000000E+00  0.00000000E+00
  0.00000000E+00  0.00000000E+00  0.00000000E+00
  0.00000000E+00  0.00000000E+00  0.00000000E+00
  0.00000000E+00  0.00000000E+00  0.00000000E+00
  0.00000000E+00  0.00000000E+00  0.00000000E+00
  0.00000000E+00  0.00000000E+00  0.00000000E+00
  0.00000000E+00  0.00000000E+00  0.00000000E+00
  0.00000000E+00  0.00000000E+00  0.00000000E+00
  0.00000000E+00  0.00000000E+00  0.00000000E+00
  0.00000000E+00  0.00000000E+00  0.00000000E+00
  0.00000000E+00  0.00000000E+00  0.00000000E+00
  0.00000000E+00  0.00000000E+00  0.00000000E+00
  0.00000000E+00  0.00000000E+00  0.00000000E+00
  0.00000000E+00  0.00000000E+00  0.00000000E+00
  0.00000000E+00  0.00000000E+00  0.00000000E+00
  0.00000000E+00  0.00000000E+00  0.00000000E+00
  0.00000000E+00  0.00000000E+00  0.00000000E+00
  0.00000000E+00  0.00000000E+00  0.00000000E+00
  0.00000000E+00  0.00000000E+00  0.00000000E+00
  0.00000000E+00  0.00000000E+00  0.00000000E+00
  0.00000000E+00  0.00000000E+00  0.00000000E+00
  0.00000000E+00  0.00000000E+00  0.00000000E+00
  0.00000000E+00  0.00000000E+00  0.00000000E+00
  0.00000000E+00  0.00000000E+00  0.00000000E+00
  0.00000000E+00  0.00000000E+00  0.00000000E+00
  0.00000000E+00  0.00000000E+00  0.00000000E+00
  0.00000000E+00  0.00000000E+00  0.00000000E+00
  0.00000000E+00  0.00000000E+00  0.00000000E+00
  0.00000000E+00  0.00000000E+00  0.00000000E+00
  0.00000000E+00  0.00000000E+00  0.00000000E+00
  0.00000000E+00  0.00000000E+00  0.00000000E+00
  0.00000000E+00  0.00000000E+00  0.00000000E+00
  0.00000000E+00  0.00000000E+00  0.00000000E+00
  0.00000000E+00  0.00000000E+00  0.00000000E+00
  0.00000000E+00  0.00000000E+00  0.00000000E+00
  0.00000000E+00  0.00000000E+00  0.00000000E+00
  0.00000000E+00  0.00000000E+00  0.00000000E+00
  0.00000000E+00  0.00000000E+00  0.00000000E+00
  0.00000000E+00  0.00000000E+00  0.00000000E+00
  0.00000000E+00  0.00000000E+00  0.00000000E+00
  0.00000000E+00  0.00000000E+00  0.00000000E+00
  0.00000000E+00  0.00000000E+00  0.00000000E+00
  0.00000000E+00  0.00000000E+00  0.00000000E+00
  0.00000000E+00  0.00000000E+00  0.00000000E+00
  0.00000000E+00  0.00000000E+00  0.00000000E+00
  0.00000000E+00  0.00000000E+00  0.00000000E+00
  0.00000000E+00  0.00000000E+00  0.00000000E+00
  0.00000000E+00  0.00000000E+00  0.00000000E+00
  0.00000000E+00  0.00000000E+00  0.00000000E+00
  0.00000000E+00  0.00000000E+00  0.00000000E+00
  0.00000000E+00  0.00000000E+00  0.00000000E+00
  0.00000000E+00  0.00000000E+00  0.00000000E+00
  0.00000000E+00  0.00000000E+00  0.00000000E+00
  0.00000000E+00  0.00000000E+00  0.00000000E+00
  0.00000000E+00  0.00000000E+00  0.00000000E+00
  0.00000000E+00  0.00000000E+00  0.00000000E+00
  0.00000000E+00  0.00000000E+00  0.00000000E+00
  0.00000000E+00  0.00000000E+00  0.00000000E+00
  0.00000000E+00  0.00000000E+00  0.00000000E+00
  0.00000000E+00  0.00000000E+00  0.00000000E+00
  0.00000000E+00  0.00000000E+00  0.00000000E+00
  0.00000000E+00  0.00000000E+00  0.00000000E+00
  0.00000000E+00  0.00000000E+00  0.00000000E+00
  0.00000000E+00  0.00000000E+00  0.00000000E+00
  0.00000000E+00  0.00000000E+00  0.00000000E+00
  0.00000000E+00  0.00000000E+00  0.00000000E+00
  0.00000000E+00  0.00000000E+00  0.00000000E+00
  0.00000000E+00  0.00000000E+00  0.00000000E+00
  0.00000000E+00  0.00000000E+00  0.00000000E+00
  0.00000000E+00  0.00000000E+00  0.00000000E+00
  0.00000000E+00  0.00000000E+00  0.00000000E+00
  0.00000000E+00  0.00000000E+00  0.00000000E+00
  0.00000000E+00  0.00000000E+00  0.00000000E+00
  0.00000000E+00  0.00000000E+00  0.00000000E+00
  0.00000000E+00  0.00000000E+00  0.00000000E+00
  0.00000000E+00  0.00000000E+00  0.00000000E+00
  0.00000000E+00  0.00000000E+00  0.00000000E+00
  0.00000000E+00  0.00000000E+00  0.00000000E+00
  0.00000000E+00  0.00000000E+00  0.00000000E+00
  0.00000000E+00  0.00000000E+00  0.00000000E+00
  0.00000000E+00  0.00000000E+00  0.00000000E+00
  0.00000000E+00  0.00000000E+00  0.00000000E+00
  0.00000000E+00  0.00000000E+00  0.00000000E+00
  0.00000000E+00  0.00000000E+00  0.00000000E+00
  0.00000000E+00  0.00000000E+00  0.00000000E+00
  0.00000000E+00  0.00000000E+00  0.00000000E+00
  0.00000000E+00  0.00000000E+00  0.00000000E+00
  0.00000000E+00  0.00000000E+00  0.00000000E+00
  0.00000000E+00  0.00000000E+00  0.00000000E+00
  0.00000000E+00  0.00000000E+00  0.00000000E+00
  0.00000000E+00  0.00000000E+00  0.00000000E+00
  0.00000000E+00  0.00000000E+00  0.00000000E+00
  0.00000000E+00  0.00000000E+00  0.00000000E+00
  0.00000000E+00  0.00000000E+00  0.00000000E+00
  0.00000000E+00  0.00000000E+00  0.00000000E+00
  0.00000000E+00  0.00000000E+00  0.00000000E+00
  0.00000000E+00  0.00000000E+00  0.00000000E+00
  0.00000000E+00  0.00000000E+00  0.00000000E+00
  0.00000000E+00  0.00000000E+00  0.00000000E+00
  0.00000000E+00  0.00000000E+00  0.00000000E+00
  0.00000000E+00  0.00000000E+00  0.00000000E+00
  0.00000000E+00  0.00000000E+00  0.00000000E+00
  0.00000000E+00  0.00000000E+00  0.00000000E+00
  0.00000000E+00  0.00000000E+00  0.00000000E+00
  0.00000000E+00  0.00000000E+00  0.00000000E+00
  0.00000000E+00  0.00000000E+00  0.00000000E+00
  0.00000000E+00  0.00000000E+00  0.00000000E+00
  0.00000000E+00  0.00000000E+00  0.00000000E+00
  0.00000000E+00  0.00000000E+00  0.00000000E+00
  0.00000000E+00  0.00000000E+00  0.00000000E+00
  0.00000000E+00  0.00000000E+00  0.00000000E+00
  0.00000000E+00  0.00000000E+00  0.00000000E+00
  0.00000000E+00  0.00000000E+00  0.00000000E+00
  0.00000000E+00  0.00000000E+00  0.00000000E+00
  0.00000000E+00  0.00000000E+00  0.00000000E+00
  0.00000000E+00  0.00000000E+00  0.00000000E+00
  0.00000000E+00  0.00000000E+00  0.00000000E+00
  0.00000000E+00  0.00000000E+00  0.00000000E+00
  0.00000000E+00  0.00000000E+00  0.00000000E+00
  0.00000000E+00  0.00000000E+00  0.00000000E+00
  0.00000000E+00  0.00000000E+00  0.00000000E+00
  0.00000000E+00  0.00000000E+00  0.00000000E+00
  0.00000000E+00  0.00000000E+00  0.00000000E+00
  0.00000000E+00  0.00000000E+00  0.00000000E+00
