C H O Si                                
   1.00000000000000     
     9.2874599999999994    0.0000000000000000    0.0000000000000000
     0.0000000000000000   17.5126199999999983    0.0000000000000000
     0.0000000000000000    0.0000000000000000   58.0000000000000000
   C    H    O    Si
    72    57    28    72
Selective dynamics
Direct
  0.9928712312403875  0.0630453736714020  0.0604989979209832   T   T   T
  0.3262323427051936  0.0630939848734221  0.0605928453046746   T   T   T
  0.6594199667268700  0.0631000537987646  0.0605711977122181   T   T   T
  0.9926440383840855  0.3131050373984756  0.0605057929017064   T   T   T
  0.3260080646902519  0.3130464304823942  0.0606013398024726   T   T   T
  0.6592819812210183  0.3130604719137315  0.0605627778602021   T   T   T
  0.1601694152434899  0.1857181999649807  0.1393964124074029   T   T   T
  0.4934459548587189  0.1859338999355632  0.1396383488596868   T   T   T
  0.8268891873035642  0.1856805145248466  0.1393165729380241   T   T   T
  0.1600618515099654  0.4357983186971670  0.1394305347396576   T   T   T
  0.4934361004368965  0.4357133563618896  0.1394805893196117   T   T   T
  0.8268053025005376  0.4358035749835976  0.1394173101263875   T   T   T
  0.3276486451285980  0.0610694955633675  0.1666882892760501   T   T   T
  0.6599123572865742  0.0610218189239170  0.1666323133961726   T   T   T
  0.9939892403327572  0.0604394594282332  0.1664066652005986   T   T   T
  0.3269582988605933  0.3109106322467688  0.1667359692659934   T   T   T
  0.6607671192450368  0.3109425121977539  0.1666323467246937   T   T   T
  0.9937756105834583  0.3108043841951200  0.1664620423031352   T   T   T
  0.1609371080689456  0.1872464272868403  0.1917347623055244   T   T   T
  0.4943842199347006  0.1898151464618054  0.1926938458811391   T   T   T
  0.8284201160748832  0.1867076046185510  0.1914774162097059   T   T   T
  0.1601513525934344  0.4382755779261772  0.1919135960768265   T   T   T
  0.4937547384502486  0.4379167755776021  0.1919644817691033   T   T   T
  0.8273714986538506  0.4383806725115972  0.1918725258231686   T   T   T
  0.1595807177668075  0.1858606581536909  0.0859063608547273   T   T   T
  0.4929001193483735  0.1859141254446028  0.0860220907011363   T   T   T
  0.8262857000107816  0.1858694621773396  0.0858677374655057   T   T   T
  0.1595899754201887  0.4358734299898788  0.0859311435184130   T   T   T
  0.4928937781903687  0.4358490376031406  0.0859511987389196   T   T   T
  0.8262343669837191  0.4358711568828920  0.0859204953710703   T   T   T
  0.3264068276774002  0.0608466818521768  0.1130819473760588   T   T   T
  0.6596403487160499  0.0608382426366724  0.1130663410685583   T   T   T
  0.9930509708486840  0.0608263235747898  0.1129836137619055   T   T   T
  0.3263422518180134  0.3107719807075925  0.1131026621903096   T   T   T
  0.6597557623311918  0.3108213707181182  0.1130613897310507   T   T   T
  0.9930615714606474  0.3108310667671477  0.1129903865112177   T   T   T
  0.9928635267041908  0.5630391405229458  0.0605345795643224   T   T   T
  0.3262084136064353  0.5630444204687740  0.0605553542286078   T   T   T
  0.6595282341376866  0.5630410678085899  0.0605518602082218   T   T   T
  0.9926275577809278  0.8130956043976998  0.0605350468999687   T   T   T
  0.3260070601372750  0.8130484559467437  0.0605423942375558   T   T   T
  0.6592762797663891  0.8130754666703575  0.0605352986309785   T   T   T
  0.1600938075401847  0.6858280190835762  0.1394216805989553   T   T   T
  0.4933374105311621  0.6858079049177788  0.1394269064871250   T   T   T
  0.8266509405675586  0.6858092134603339  0.1394244610133559   T   T   T
  0.1603923318436502  0.9358285872111739  0.1394311165610762   T   T   T
  0.4934004585217733  0.9357436297797480  0.1394336405198972   T   T   T
  0.8265324095546603  0.9358312131622487  0.1394276773943272   T   T   T
  0.3269206495032034  0.5609270067752488  0.1665574517432590   T   T   T
  0.6600314455252777  0.5609042262831991  0.1665497359394684   T   T   T
  0.9935175785832515  0.5610536591692229  0.1665086685080749   T   T   T
  0.3269373333325267  0.8108438949768930  0.1665642617637835   T   T   T
  0.6602238640153786  0.8108522351649204  0.1665518244607753   T   T   T
  0.9936077102193235  0.8108812209906675  0.1665459232866091   T   T   T
  0.1604800882319754  0.6880743706111851  0.1919396672361015   T   T   T
  0.4938652738784292  0.6881141478995416  0.1919573356946338   T   T   T
  0.8271208114534865  0.6880646979455662  0.1919250291755956   T   T   T
  0.1606716294233279  0.9380128894425960  0.1919394143979638   T   T   T
  0.4939299222220751  0.9380030162198022  0.1919605999427562   T   T   T
  0.8272166317403057  0.9379774904038748  0.1919099112737066   T   T   T
  0.1595712849824172  0.6858618818564365  0.0859219247725044   T   T   T
  0.4929330764852851  0.6858417077089833  0.0859248230197873   T   T   T
  0.8262409905880890  0.6858613846273567  0.0859216539250229   T   T   T
  0.1596374204027388  0.9358548760501653  0.0859219144060715   T   T   T
  0.4929035953851633  0.9358707550372557  0.0859314274375364   T   T   T
  0.8262004737929046  0.9358791772847255  0.0859198759618366   T   T   T
  0.3263260731201224  0.5608098274529846  0.1130470962868926   T   T   T
  0.6596276742221732  0.5608180520091962  0.1130431553128379   T   T   T
  0.9929861472405564  0.5608394449557728  0.1130246472184044   T   T   T
  0.3264023246187483  0.8108053168921633  0.1130310711346427   T   T   T
  0.6597136561228505  0.8108057569703815  0.1130258707660594   T   T   T
  0.9931028128955194  0.8108344933116686  0.1130417180587509   T   T   T
  0.0768170154300989  0.1770590759624642  0.0267975449178477   T   T   T
  0.4092634561165401  0.1771048345165959  0.0269631328590615   T   T   T
  0.7425773848186792  0.1770259348864142  0.0268313718422645   T   T   T
  0.0766005469173559  0.4271358427948083  0.0268102347007220   T   T   T
  0.4088913644367618  0.4270175571677132  0.0268957344711442   T   T   T
  0.7419639012697434  0.4270436645526529  0.0268599432481662   T   T   T
  0.3241396208594717  0.0269185651530676  0.0450527508451338   T   T   T
  0.6566367336991427  0.0269117672440679  0.0450351800372317   T   T   T
  0.9905536413464681  0.0269229573641247  0.0449474348348353   T   T   T
  0.3235271655166806  0.2768251994263046  0.0450723052123803   T   T   T
  0.6567498650441640  0.2768940442361462  0.0450218757683483   T   T   T
  0.9901959017375754  0.2770176582627660  0.0449465343165910   T   T   T
  0.8292934152266023  0.4026254498413969  0.2074758677575780   T   T   T
  0.8308241637801155  0.1507394696593659  0.2070579703717662   T   T   T
  0.1623187239669990  0.1512755575181166  0.2073150277589453   T   T   T
  0.4973370101066886  0.1531126476851155  0.2081219561816101   T   T   T
  0.1623727905499232  0.4021123591419263  0.2074524553473067   T   T   T
  0.4944279553535217  0.4018268211293429  0.2075271358279559   T   T   T
  0.0774861596994108  0.0519785959106579  0.2256584790700258   T   T   T
  0.4117760607567435  0.0515213796460095  0.2258075972179500   T   T   T
  0.7450166310390910  0.0518122730158418  0.2257206819317586   T   T   T
  0.0761132917462908  0.3008129861981187  0.2252778617365768   T   T   T
  0.3768980814171508  0.3098542529363742  0.2290351598495718   T   T   T
  0.7816648519201180  0.2948519427293350  0.2231936438440211   T   T   T
  0.5458514524718969  0.3049361183899773  0.2742712551416344   T   T   T
  0.4923463836921215  0.2373823010231831  0.2935042909142899   T   T   T
  0.5718023588394496  0.3196257654687284  0.3032238306830342   T   T   T
  0.3145988812465894  0.1942194773787942  0.3097275827467401   T   T   T
  0.4223528909545771  0.1301589873469552  0.3023016065428316   T   T   T
  0.6509318196958114  0.3660940344728404  0.3334593180232260   T   T   T
  0.4849461080137964  0.3775852480116285  0.3307485201885567   T   T   T
  0.5158213347154846  0.3954762448722220  0.2523162879943662   T   T   T
  0.5843886812937160  0.3239557248859546  0.2390483987990214   T   T   T
  0.0764001726629620  0.6771143905734670  0.0268549575991646   T   T   T
  0.4094789628359449  0.6770630040132209  0.0268779991958423   T   T   T
  0.7426963244910075  0.6770555764224717  0.0268786974293405   T   T   T
  0.0761141523032343  0.9270928690365697  0.0268330803136919   T   T   T
  0.4089477071443873  0.9270351263490473  0.0268679665852650   T   T   T
  0.7423142070740446  0.9270933997985563  0.0268551412988777   T   T   T
  0.3237675499776794  0.5268634586769725  0.0450177266944037   T   T   T
  0.6571452097649100  0.5268682613980379  0.0450126193660031   T   T   T
  0.9904215320006619  0.5268758731441874  0.0449938851081461   T   T   T
  0.3235595014282325  0.7769147095178427  0.0449954679129514   T   T   T
  0.6567751003178005  0.7769349247386172  0.0449887741149663   T   T   T
  0.9901626568518167  0.7769368726129545  0.0449918620951595   T   T   T
  0.8297247596861916  0.9019038302804727  0.2074687525395011   T   T   T
  0.8296904996746285  0.6519404217824145  0.2074712217082488   T   T   T
  0.1629222638293605  0.6519212517515141  0.2074810875944302   T   T   T
  0.4964656929258371  0.6520096400285952  0.2075070556287445   T   T   T
  0.1630682683081148  0.9018987976859373  0.2074898616732663   T   T   T
  0.4965607171635072  0.9018373426828424  0.2074995099962462   T   T   T
  0.0768536244932095  0.5529594690078989  0.2256708094954802   T   T   T
  0.4110025129883161  0.5535178750297326  0.2255023664749164   T   T   T
  0.7442169220170870  0.5528856069679063  0.2255904265598589   T   T   T
  0.0776947194121492  0.8021218758148012  0.2256833434935459   T   T   T
  0.4105231059406680  0.8023797411265104  0.2257582792979101   T   T   T
  0.7455017664940372  0.8019178861251197  0.2256314252887670   T   T   T
  0.1695536371723366  0.1672887962193689  0.0341902123750536   T   T   T
  0.5022720841390867  0.1677089701619560  0.0343132037130973   T   T   T
  0.8356306078719410  0.1673455873077329  0.0341473473726991   T   T   T
  0.1693206659923124  0.4174792528620045  0.0342231492326348   T   T   T
  0.5019314992341395  0.4175399512569910  0.0342281805237738   T   T   T
  0.8349727829545209  0.4175815850719199  0.0341934533409845   T   T   T
  0.3191722531021312  0.0423128322024227  0.2183472180205584   T   T   T
  0.6524058773615650  0.0424050023948379  0.2182838024776546   T   T   T
  0.9852053768841402  0.0424654251935589  0.2181225290384147   T   T   T
  0.3009817658366806  0.2929457439154083  0.2183204770760857   T   T   T
  0.6796469421539409  0.2922798848260672  0.2183845460812260   T   T   T
  0.9830694466832101  0.2907089391913126  0.2179276950688903   T   T   T
  0.5700844229960097  0.2792953794203063  0.2898976334414896   T   T   T
  0.3811115507773612  0.1789397616072610  0.2975402569488331   T   T   T
  0.5755311051099381  0.3770061745343872  0.3222121148270910   T   T   T
  0.5095139240868342  0.3399990693521311  0.2507921879349090   T   T   T
  0.1692675174066001  0.6674141503722593  0.0342177371806975   T   T   T
  0.5024665817706498  0.6674327489802390  0.0342098926128540   T   T   T
  0.8356707050811418  0.6674833103436315  0.0342123837909899   T   T   T
  0.1689815355334312  0.9175393176392221  0.0342098529558376   T   T   T
  0.5019658194594971  0.9175731864392095  0.0342133112970494   T   T   T
  0.8352694501300839  0.9176283639382488  0.0342119120841021   T   T   T
  0.3185205903541661  0.5424518283121549  0.2182385833099451   T   T   T
  0.6517680992184790  0.5425147388308043  0.2182131054716350   T   T   T
  0.9847141655635668  0.5426286117438616  0.2182039015913101   T   T   T
  0.3183619563829829  0.7924721409630618  0.2182405024223229   T   T   T
  0.6527204167258224  0.7926711703600406  0.2182380268458026   T   T   T
  0.9852246021095923  0.7924965955445333  0.2182233137639458   T   T   T
  0.4929508708660011  0.1218145231077365  0.0598109541567885   T   T   T
  0.8262917553147173  0.1217294860369536  0.0596830219786920   T   T   T
  0.1595475416607610  0.3717519576534886  0.0597435729703796   T   T   T
  0.4927623265494219  0.3717551564557068  0.0597495482591580   T   T   T
  0.8260554470152724  0.3717844218107885  0.0597151315744306   T   T   T
  0.1596871288470759  0.1217155149963944  0.0597264171884199   T   T   T
  0.9934792614523171  0.4984009860304268  0.1396702217699398   T   T   T
  0.3267654738140981  0.4983458737565887  0.1396926301791098   T   T   T
  0.6601001120200908  0.4983401871573603  0.1396869526550515   T   T   T
  0.9935678963701176  0.2482419925700719  0.1395851052495229   T   T   T
  0.3266593883009045  0.2483911902912417  0.1398074162270390   T   T   T
  0.6603625681659829  0.2482882210898781  0.1396862313924954   T   T   T
  0.1605340949422027  0.1226625846192943  0.1659346338817190   T   T   T
  0.4937512414038182  0.1238413049642108  0.1664202578189387   T   T   T
  0.8274888451591956  0.1222537473709423  0.1657626259165449   T   T   T
  0.1602937332433009  0.3731886038447703  0.1660595386611652   T   T   T
  0.4935813691541348  0.3729386625256499  0.1660819166489109   T   T   T
  0.8273711764254439  0.3732501855432063  0.1660405628539600   T   T   T
  0.3268544032545984  0.4968234922125740  0.1927106969950010   T   T   T
  0.6605372857901051  0.4968246939356645  0.1927010029839830   T   T   T
  0.9937900211190590  0.4970683823890022  0.1926780326188558   T   T   T
  0.3253980635358559  0.2475641713771698  0.1931779089694173   T   T   T
  0.9944683107941299  0.2455339484433876  0.1922857264281126   T   T   T
  0.6637851837786554  0.2463616106833629  0.1925828850271539   T   T   T
  0.9929961602649960  0.4980548636330353  0.0864191016803503   T   T   T
  0.3263187537090204  0.4980443592190933  0.0864380401131497   T   T   T
  0.6596256541809842  0.4980438685352770  0.0864344568882312   T   T   T
  0.9929853832883918  0.2480468087082447  0.0863833389680754   T   T   T
  0.3262764184745576  0.2480465862136281  0.0864819188429149   T   T   T
  0.6596572202742104  0.2480361844916675  0.0864393706107329   T   T   T
  0.1596785586742445  0.1233215329311288  0.1127500879297847   T   T   T
  0.4929625140638185  0.1233705529883474  0.1129065650342513   T   T   T
  0.8263580061814856  0.1232815727069464  0.1126972264617039   T   T   T
  0.1596852169180011  0.3733350489649528  0.1127840154399414   T   T   T
  0.4929644800345472  0.3733067204250096  0.1128071467193586   T   T   T
  0.8264020127645318  0.3733392166288719  0.1127683733511276   T   T   T
  0.4929958980042917  0.6217166961914196  0.0597390810907875   T   T   T
  0.8263109531239022  0.6217345250540225  0.0597356639703358   T   T   T
  0.1595200042283097  0.8717452184723236  0.0597275221467603   T   T   T
  0.4927668646109509  0.8717754816992788  0.0597334035590544   T   T   T
  0.8260624236609249  0.8717830452744855  0.0597231406515477   T   T   T
  0.1596705986519347  0.6217230471815460  0.0597380212035823   T   T   T
  0.9936001464541777  0.9980932580961566  0.1395940006227037   T   T   T
  0.3271797626872162  0.9984187365669019  0.1397372445030327   T   T   T
  0.6597445626775168  0.9983870987213033  0.1397193683919108   T   T   T
  0.9934479370082693  0.7483209733861672  0.1396820363571881   T   T   T
  0.3267857234594305  0.7483474448666892  0.1396810604752131   T   T   T
  0.6600727548523920  0.7483304005376933  0.1396786042129396   T   T   T
  0.1602255237952235  0.6231705202168981  0.1660430905685404   T   T   T
  0.4934930479199090  0.6231663177697220  0.1660563759227774   T   T   T
  0.8267887440205128  0.6231414326469313  0.1660416567091240   T   T   T
  0.1603640068789000  0.8730505552663486  0.1660506528917385   T   T   T
  0.4935975305926450  0.8730394222218535  0.1660640587737928   T   T   T
  0.8268833564217098  0.8730224137253420  0.1660377927638769   T   T   T
  0.3273081852006378  0.9966674583943701  0.1928098062856534   T   T   T
  0.6606175512795913  0.9966433213959278  0.1927634700990434   T   T   T
  0.9939192981879779  0.9965410635403332  0.1926450510531499   T   T   T
  0.3271336567648753  0.7467435542236518  0.1927395968311051   T   T   T
  0.9937831305036131  0.7467283881074932  0.1927155076122792   T   T   T
  0.6605318944329299  0.7467936134088933  0.1927387584727321   T   T   T
  0.9930197831811537  0.9980203243166670  0.0863811837983261   T   T   T
  0.3263727579520384  0.9980472897261892  0.0864558139073792   T   T   T
  0.6595738051996746  0.9980450791351528  0.0864449263178395   T   T   T
  0.9929535638698113  0.7480611613331614  0.0864211310116498   T   T   T
  0.3263269429326740  0.7480254445277221  0.0864202373319873   T   T   T
  0.6596229098801779  0.7480405288688623  0.0864158389364931   T   T   T
  0.1596023323208965  0.6233512948798740  0.1127817348326904   T   T   T
  0.4929225095092420  0.6233345478081167  0.1127865363369215   T   T   T
  0.8262569674581087  0.6233472670850414  0.1127799866508021   T   T   T
  0.1598296871778440  0.8733285065362997  0.1127809796580201   T   T   T
  0.4930166419050978  0.8732975349797218  0.1127794102951984   T   T   T
  0.8262849929043836  0.8733297770839823  0.1127765968089048   T   T   T
 
  0.00000000E+00  0.00000000E+00  0.00000000E+00
  0.00000000E+00  0.00000000E+00  0.00000000E+00
  0.00000000E+00  0.00000000E+00  0.00000000E+00
  0.00000000E+00  0.00000000E+00  0.00000000E+00
  0.00000000E+00  0.00000000E+00  0.00000000E+00
  0.00000000E+00  0.00000000E+00  0.00000000E+00
  0.00000000E+00  0.00000000E+00  0.00000000E+00
  0.00000000E+00  0.00000000E+00  0.00000000E+00
  0.00000000E+00  0.00000000E+00  0.00000000E+00
  0.00000000E+00  0.00000000E+00  0.00000000E+00
  0.00000000E+00  0.00000000E+00  0.00000000E+00
  0.00000000E+00  0.00000000E+00  0.00000000E+00
  0.00000000E+00  0.00000000E+00  0.00000000E+00
  0.00000000E+00  0.00000000E+00  0.00000000E+00
  0.00000000E+00  0.00000000E+00  0.00000000E+00
  0.00000000E+00  0.00000000E+00  0.00000000E+00
  0.00000000E+00  0.00000000E+00  0.00000000E+00
  0.00000000E+00  0.00000000E+00  0.00000000E+00
  0.00000000E+00  0.00000000E+00  0.00000000E+00
  0.00000000E+00  0.00000000E+00  0.00000000E+00
  0.00000000E+00  0.00000000E+00  0.00000000E+00
  0.00000000E+00  0.00000000E+00  0.00000000E+00
  0.00000000E+00  0.00000000E+00  0.00000000E+00
  0.00000000E+00  0.00000000E+00  0.00000000E+00
  0.00000000E+00  0.00000000E+00  0.00000000E+00
  0.00000000E+00  0.00000000E+00  0.00000000E+00
  0.00000000E+00  0.00000000E+00  0.00000000E+00
  0.00000000E+00  0.00000000E+00  0.00000000E+00
  0.00000000E+00  0.00000000E+00  0.00000000E+00
  0.00000000E+00  0.00000000E+00  0.00000000E+00
  0.00000000E+00  0.00000000E+00  0.00000000E+00
  0.00000000E+00  0.00000000E+00  0.00000000E+00
  0.00000000E+00  0.00000000E+00  0.00000000E+00
  0.00000000E+00  0.00000000E+00  0.00000000E+00
  0.00000000E+00  0.00000000E+00  0.00000000E+00
  0.00000000E+00  0.00000000E+00  0.00000000E+00
  0.00000000E+00  0.00000000E+00  0.00000000E+00
  0.00000000E+00  0.00000000E+00  0.00000000E+00
  0.00000000E+00  0.00000000E+00  0.00000000E+00
  0.00000000E+00  0.00000000E+00  0.00000000E+00
  0.00000000E+00  0.00000000E+00  0.00000000E+00
  0.00000000E+00  0.00000000E+00  0.00000000E+00
  0.00000000E+00  0.00000000E+00  0.00000000E+00
  0.00000000E+00  0.00000000E+00  0.00000000E+00
  0.00000000E+00  0.00000000E+00  0.00000000E+00
  0.00000000E+00  0.00000000E+00  0.00000000E+00
  0.00000000E+00  0.00000000E+00  0.00000000E+00
  0.00000000E+00  0.00000000E+00  0.00000000E+00
  0.00000000E+00  0.00000000E+00  0.00000000E+00
  0.00000000E+00  0.00000000E+00  0.00000000E+00
  0.00000000E+00  0.00000000E+00  0.00000000E+00
  0.00000000E+00  0.00000000E+00  0.00000000E+00
  0.00000000E+00  0.00000000E+00  0.00000000E+00
  0.00000000E+00  0.00000000E+00  0.00000000E+00
  0.00000000E+00  0.00000000E+00  0.00000000E+00
  0.00000000E+00  0.00000000E+00  0.00000000E+00
  0.00000000E+00  0.00000000E+00  0.00000000E+00
  0.00000000E+00  0.00000000E+00  0.00000000E+00
  0.00000000E+00  0.00000000E+00  0.00000000E+00
  0.00000000E+00  0.00000000E+00  0.00000000E+00
  0.00000000E+00  0.00000000E+00  0.00000000E+00
  0.00000000E+00  0.00000000E+00  0.00000000E+00
  0.00000000E+00  0.00000000E+00  0.00000000E+00
  0.00000000E+00  0.00000000E+00  0.00000000E+00
  0.00000000E+00  0.00000000E+00  0.00000000E+00
  0.00000000E+00  0.00000000E+00  0.00000000E+00
  0.00000000E+00  0.00000000E+00  0.00000000E+00
  0.00000000E+00  0.00000000E+00  0.00000000E+00
  0.00000000E+00  0.00000000E+00  0.00000000E+00
  0.00000000E+00  0.00000000E+00  0.00000000E+00
  0.00000000E+00  0.00000000E+00  0.00000000E+00
  0.00000000E+00  0.00000000E+00  0.00000000E+00
  0.00000000E+00  0.00000000E+00  0.00000000E+00
  0.00000000E+00  0.00000000E+00  0.00000000E+00
  0.00000000E+00  0.00000000E+00  0.00000000E+00
  0.00000000E+00  0.00000000E+00  0.00000000E+00
  0.00000000E+00  0.00000000E+00  0.00000000E+00
  0.00000000E+00  0.00000000E+00  0.00000000E+00
  0.00000000E+00  0.00000000E+00  0.00000000E+00
  0.00000000E+00  0.00000000E+00  0.00000000E+00
  0.00000000E+00  0.00000000E+00  0.00000000E+00
  0.00000000E+00  0.00000000E+00  0.00000000E+00
  0.00000000E+00  0.00000000E+00  0.00000000E+00
  0.00000000E+00  0.00000000E+00  0.00000000E+00
  0.00000000E+00  0.00000000E+00  0.00000000E+00
  0.00000000E+00  0.00000000E+00  0.00000000E+00
  0.00000000E+00  0.00000000E+00  0.00000000E+00
  0.00000000E+00  0.00000000E+00  0.00000000E+00
  0.00000000E+00  0.00000000E+00  0.00000000E+00
  0.00000000E+00  0.00000000E+00  0.00000000E+00
  0.00000000E+00  0.00000000E+00  0.00000000E+00
  0.00000000E+00  0.00000000E+00  0.00000000E+00
  0.00000000E+00  0.00000000E+00  0.00000000E+00
  0.00000000E+00  0.00000000E+00  0.00000000E+00
  0.00000000E+00  0.00000000E+00  0.00000000E+00
  0.00000000E+00  0.00000000E+00  0.00000000E+00
  0.00000000E+00  0.00000000E+00  0.00000000E+00
  0.00000000E+00  0.00000000E+00  0.00000000E+00
  0.00000000E+00  0.00000000E+00  0.00000000E+00
  0.00000000E+00  0.00000000E+00  0.00000000E+00
  0.00000000E+00  0.00000000E+00  0.00000000E+00
  0.00000000E+00  0.00000000E+00  0.00000000E+00
  0.00000000E+00  0.00000000E+00  0.00000000E+00
  0.00000000E+00  0.00000000E+00  0.00000000E+00
  0.00000000E+00  0.00000000E+00  0.00000000E+00
  0.00000000E+00  0.00000000E+00  0.00000000E+00
  0.00000000E+00  0.00000000E+00  0.00000000E+00
  0.00000000E+00  0.00000000E+00  0.00000000E+00
  0.00000000E+00  0.00000000E+00  0.00000000E+00
  0.00000000E+00  0.00000000E+00  0.00000000E+00
  0.00000000E+00  0.00000000E+00  0.00000000E+00
  0.00000000E+00  0.00000000E+00  0.00000000E+00
  0.00000000E+00  0.00000000E+00  0.00000000E+00
  0.00000000E+00  0.00000000E+00  0.00000000E+00
  0.00000000E+00  0.00000000E+00  0.00000000E+00
  0.00000000E+00  0.00000000E+00  0.00000000E+00
  0.00000000E+00  0.00000000E+00  0.00000000E+00
  0.00000000E+00  0.00000000E+00  0.00000000E+00
  0.00000000E+00  0.00000000E+00  0.00000000E+00
  0.00000000E+00  0.00000000E+00  0.00000000E+00
  0.00000000E+00  0.00000000E+00  0.00000000E+00
  0.00000000E+00  0.00000000E+00  0.00000000E+00
  0.00000000E+00  0.00000000E+00  0.00000000E+00
  0.00000000E+00  0.00000000E+00  0.00000000E+00
  0.00000000E+00  0.00000000E+00  0.00000000E+00
  0.00000000E+00  0.00000000E+00  0.00000000E+00
  0.00000000E+00  0.00000000E+00  0.00000000E+00
  0.00000000E+00  0.00000000E+00  0.00000000E+00
  0.00000000E+00  0.00000000E+00  0.00000000E+00
  0.00000000E+00  0.00000000E+00  0.00000000E+00
  0.00000000E+00  0.00000000E+00  0.00000000E+00
  0.00000000E+00  0.00000000E+00  0.00000000E+00
  0.00000000E+00  0.00000000E+00  0.00000000E+00
  0.00000000E+00  0.00000000E+00  0.00000000E+00
  0.00000000E+00  0.00000000E+00  0.00000000E+00
  0.00000000E+00  0.00000000E+00  0.00000000E+00
  0.00000000E+00  0.00000000E+00  0.00000000E+00
  0.00000000E+00  0.00000000E+00  0.00000000E+00
  0.00000000E+00  0.00000000E+00  0.00000000E+00
  0.00000000E+00  0.00000000E+00  0.00000000E+00
  0.00000000E+00  0.00000000E+00  0.00000000E+00
  0.00000000E+00  0.00000000E+00  0.00000000E+00
  0.00000000E+00  0.00000000E+00  0.00000000E+00
  0.00000000E+00  0.00000000E+00  0.00000000E+00
  0.00000000E+00  0.00000000E+00  0.00000000E+00
  0.00000000E+00  0.00000000E+00  0.00000000E+00
  0.00000000E+00  0.00000000E+00  0.00000000E+00
  0.00000000E+00  0.00000000E+00  0.00000000E+00
  0.00000000E+00  0.00000000E+00  0.00000000E+00
  0.00000000E+00  0.00000000E+00  0.00000000E+00
  0.00000000E+00  0.00000000E+00  0.00000000E+00
  0.00000000E+00  0.00000000E+00  0.00000000E+00
  0.00000000E+00  0.00000000E+00  0.00000000E+00
  0.00000000E+00  0.00000000E+00  0.00000000E+00
  0.00000000E+00  0.00000000E+00  0.00000000E+00
  0.00000000E+00  0.00000000E+00  0.00000000E+00
  0.00000000E+00  0.00000000E+00  0.00000000E+00
  0.00000000E+00  0.00000000E+00  0.00000000E+00
  0.00000000E+00  0.00000000E+00  0.00000000E+00
  0.00000000E+00  0.00000000E+00  0.00000000E+00
  0.00000000E+00  0.00000000E+00  0.00000000E+00
  0.00000000E+00  0.00000000E+00  0.00000000E+00
  0.00000000E+00  0.00000000E+00  0.00000000E+00
  0.00000000E+00  0.00000000E+00  0.00000000E+00
  0.00000000E+00  0.00000000E+00  0.00000000E+00
  0.00000000E+00  0.00000000E+00  0.00000000E+00
  0.00000000E+00  0.00000000E+00  0.00000000E+00
  0.00000000E+00  0.00000000E+00  0.00000000E+00
  0.00000000E+00  0.00000000E+00  0.00000000E+00
  0.00000000E+00  0.00000000E+00  0.00000000E+00
  0.00000000E+00  0.00000000E+00  0.00000000E+00
  0.00000000E+00  0.00000000E+00  0.00000000E+00
  0.00000000E+00  0.00000000E+00  0.00000000E+00
  0.00000000E+00  0.00000000E+00  0.00000000E+00
  0.00000000E+00  0.00000000E+00  0.00000000E+00
  0.00000000E+00  0.00000000E+00  0.00000000E+00
  0.00000000E+00  0.00000000E+00  0.00000000E+00
  0.00000000E+00  0.00000000E+00  0.00000000E+00
  0.00000000E+00  0.00000000E+00  0.00000000E+00
  0.00000000E+00  0.00000000E+00  0.00000000E+00
  0.00000000E+00  0.00000000E+00  0.00000000E+00
  0.00000000E+00  0.00000000E+00  0.00000000E+00
  0.00000000E+00  0.00000000E+00  0.00000000E+00
  0.00000000E+00  0.00000000E+00  0.00000000E+00
  0.00000000E+00  0.00000000E+00  0.00000000E+00
  0.00000000E+00  0.00000000E+00  0.00000000E+00
  0.00000000E+00  0.00000000E+00  0.00000000E+00
  0.00000000E+00  0.00000000E+00  0.00000000E+00
  0.00000000E+00  0.00000000E+00  0.00000000E+00
  0.00000000E+00  0.00000000E+00  0.00000000E+00
  0.00000000E+00  0.00000000E+00  0.00000000E+00
  0.00000000E+00  0.00000000E+00  0.00000000E+00
  0.00000000E+00  0.00000000E+00  0.00000000E+00
  0.00000000E+00  0.00000000E+00  0.00000000E+00
  0.00000000E+00  0.00000000E+00  0.00000000E+00
  0.00000000E+00  0.00000000E+00  0.00000000E+00
  0.00000000E+00  0.00000000E+00  0.00000000E+00
  0.00000000E+00  0.00000000E+00  0.00000000E+00
  0.00000000E+00  0.00000000E+00  0.00000000E+00
  0.00000000E+00  0.00000000E+00  0.00000000E+00
  0.00000000E+00  0.00000000E+00  0.00000000E+00
  0.00000000E+00  0.00000000E+00  0.00000000E+00
  0.00000000E+00  0.00000000E+00  0.00000000E+00
  0.00000000E+00  0.00000000E+00  0.00000000E+00
  0.00000000E+00  0.00000000E+00  0.00000000E+00
  0.00000000E+00  0.00000000E+00  0.00000000E+00
  0.00000000E+00  0.00000000E+00  0.00000000E+00
  0.00000000E+00  0.00000000E+00  0.00000000E+00
  0.00000000E+00  0.00000000E+00  0.00000000E+00
  0.00000000E+00  0.00000000E+00  0.00000000E+00
  0.00000000E+00  0.00000000E+00  0.00000000E+00
  0.00000000E+00  0.00000000E+00  0.00000000E+00
  0.00000000E+00  0.00000000E+00  0.00000000E+00
  0.00000000E+00  0.00000000E+00  0.00000000E+00
  0.00000000E+00  0.00000000E+00  0.00000000E+00
  0.00000000E+00  0.00000000E+00  0.00000000E+00
  0.00000000E+00  0.00000000E+00  0.00000000E+00
  0.00000000E+00  0.00000000E+00  0.00000000E+00
  0.00000000E+00  0.00000000E+00  0.00000000E+00
  0.00000000E+00  0.00000000E+00  0.00000000E+00
  0.00000000E+00  0.00000000E+00  0.00000000E+00
  0.00000000E+00  0.00000000E+00  0.00000000E+00
  0.00000000E+00  0.00000000E+00  0.00000000E+00
  0.00000000E+00  0.00000000E+00  0.00000000E+00
  0.00000000E+00  0.00000000E+00  0.00000000E+00
  0.00000000E+00  0.00000000E+00  0.00000000E+00
  0.00000000E+00  0.00000000E+00  0.00000000E+00
  0.00000000E+00  0.00000000E+00  0.00000000E+00
  0.00000000E+00  0.00000000E+00  0.00000000E+00
