C H O Si                                
   1.00000000000000     
     9.2874599999999994    0.0000000000000000    0.0000000000000000
     0.0000000000000000    8.7563099999999991    0.0000000000000000
     0.0000000000000000    0.0000000000000000   58.0000000000000000
   C    H    O    Si
    36    31    16    36
Selective dynamics
Direct
  0.9956796888867847  0.1298306888589623  0.0595578571798957   T   T   T
  0.3291046631802129  0.1298636744876698  0.0596328015327809   T   T   T
  0.6623319829262092  0.1299400865495536  0.0596408879424139   T   T   T
  0.9956657297823603  0.6300450987050427  0.0595782268127860   T   T   T
  0.3290466338184864  0.6296734019237418  0.0596181497741154   T   T   T
  0.6624537450758196  0.6296172829165300  0.0596388590343828   T   T   T
  0.1624576021033833  0.3750085349902613  0.1385000057384230   T   T   T
  0.4957243707322997  0.3753405878384082  0.1387429570405520   T   T   T
  0.8290588796799222  0.3749941988696996  0.1384998460993729   T   T   T
  0.1625047898078516  0.8754846944278876  0.1385372008943985   T   T   T
  0.4957563373181024  0.8755492941667796  0.1381891273677898   T   T   T
  0.8290215190723544  0.8753217146378076  0.1385828186945272   T   T   T
  0.3298435956736850  0.1261738363132194  0.1656798989473381   T   T   T
  0.6624009717577241  0.1260215070501754  0.1657183197097824   T   T   T
  0.9961277756640692  0.1249554074646072  0.1655634198436580   T   T   T
  0.3286046183816824  0.6255570928068324  0.1656254777722662   T   T   T
  0.6632465427597583  0.6253884104353606  0.1656861176915678   T   T   T
  0.9960953445428528  0.6256206935069062  0.1656519015058026   T   T   T
  0.1635866898973136  0.3789680301065890  0.1909270515035179   T   T   T
  0.4963339855370386  0.3831662699663660  0.1917174810683036   T   T   T
  0.8303888091588523  0.3786321714610986  0.1908655804457669   T   T   T
  0.1618868331636259  0.8799236050043613  0.1911407638747449   T   T   T
  0.4962684028288032  0.8921090676843456  0.1881447969375419   T   T   T
  0.8307359690574242  0.8798997260730897  0.1911752938660985   T   T   T
  0.1622087537079117  0.3752703847695950  0.0849804925974538   T   T   T
  0.4955727446053195  0.3752593140127709  0.0851334205096707   T   T   T
  0.8290372181999900  0.3752918390221913  0.0849813539438535   T   T   T
  0.1623022331050519  0.8753183494366173  0.0850139356799485   T   T   T
  0.4955874002560470  0.8752922053103995  0.0849230546008272   T   T   T
  0.8289000682540094  0.8753426375369601  0.0850313369207935   T   T   T
  0.3290311483824486  0.1252113731857902  0.1121703192925022   T   T   T
  0.6623392917084162  0.1252498098017490  0.1121823015025959   T   T   T
  0.9955918336971962  0.1251271038996812  0.1121154975102529   T   T   T
  0.3288611651157710  0.6248497023225815  0.1121452776577946   T   T   T
  0.6624046661451255  0.6249034939682219  0.1121612857029013   T   T   T
  0.9955984932788586  0.6252267340454964  0.1121421426596609   T   T   T
  0.0836847263805346  0.3573195792447906  0.0251289695884738   T   T   T
  0.4155977352931015  0.3573050628084094  0.0253719411775861   T   T   T
  0.7485900277482341  0.3569329710208804  0.0252678337995180   T   T   T
  0.0840101052414665  0.8576008820740911  0.0251488963422778   T   T   T
  0.4164559387546258  0.8569740107128697  0.0251734499574506   T   T   T
  0.7477845622478511  0.8568123147795565  0.0253714246968982   T   T   T
  0.3269355233984113  0.0576641378803338  0.0440727600609741   T   T   T
  0.6597082334960345  0.0577645574308892  0.0440841235056507   T   T   T
  0.9931715271129116  0.0576623076895067  0.0440069402801946   T   T   T
  0.3264227326256088  0.5574635868299824  0.0440674421412193   T   T   T
  0.6602745458400283  0.5573689024024187  0.0440897255892664   T   T   T
  0.9931597012071318  0.5579491368209177  0.0440134466536358   T   T   T
  0.8336808887959060  0.8086797876405992  0.2067973509433648   T   T   T
  0.8329419940973837  0.3068546982625468  0.2064649350460482   T   T   T
  0.1650696060706241  0.3077024370458783  0.2065732691193164   T   T   T
  0.4983559720892715  0.3106937634616572  0.2072350747531977   T   T   T
  0.1649732103110687  0.8080073487719175  0.2066929789568316   T   T   T
  0.0762578319212749  0.1067861754628932  0.2256034525774280   T   T   T
  0.4141618988570058  0.1049139805468473  0.2253588130650815   T   T   T
  0.7398459254420122  0.1043376099590076  0.2262798631751603   T   T   T
  0.0808672548644842  0.6081510201484991  0.2243790783812651   T   T   T
  0.3691188031898264  0.5730010544248465  0.2302900930118665   T   T   T
  0.7732931849653725  0.6005664703533988  0.2232263836911717   T   T   T
  0.4897750687554142  0.5426812216733826  0.2660658120973954   T   T   T
  0.4703089114634261  0.4563403993151683  0.3003348987450217   T   T   T
  0.5186867035987702  0.6258587268490142  0.3077838789516141   T   T   T
  0.2901485367347988  0.2726171589298277  0.2960628078072231   T   T   T
  0.4391817380346948  0.2149232929604588  0.2879586584417437   T   T   T
  0.6383383534189483  0.7700233217713792  0.3349027496037891   T   T   T
  0.5027307220012726  0.8621423333847481  0.3278622091559171   T   T   T
  0.5640333260973762  0.5390119939606730  0.2411656906076473   T   T   T
  0.1735521116972386  0.3406814609918152  0.0334976012859523   T   T   T
  0.5059601755473485  0.3414817282416933  0.0336448057588159   T   T   T
  0.8390630822868365  0.3408580850664208  0.0335040590043413   T   T   T
  0.1737527502045799  0.8408924779259149  0.0335342578626431   T   T   T
  0.5066789055408388  0.8399840274884235  0.0334353978021686   T   T   T
  0.8384301133748495  0.8414612202191792  0.0335877798366152   T   T   T
  0.3221838078614700  0.0882233199262796  0.2175837123950942   T   T   T
  0.6513163490458351  0.0889972519453439  0.2174889088358135   T   T   T
  0.9867466566323253  0.0926860018547895  0.2170385675414421   T   T   T
  0.3139112052296525  0.6064163699461526  0.2160243589682172   T   T   T
  0.6744943031836185  0.5936397887867676  0.2172233563520864   T   T   T
  0.9874596147133871  0.5880420014273343  0.2171293746923967   T   T   T
  0.5210667303388397  0.5496120066325456  0.2951276460463816   T   T   T
  0.3906891925816313  0.2657409317145408  0.3007458988778086   T   T   T
  0.5369710268168373  0.7588692775385399  0.3308937520711341   T   T   T
  0.4761798515381293  0.5100586494384560  0.2497226045150511   T   T   T
  0.4957760359797431  0.2475523864580704  0.0587541347500074   T   T   T
  0.8291157699979846  0.2474968301870904  0.0586461469836771   T   T   T
  0.1625697308872036  0.7475280117479803  0.0586746282654866   T   T   T
  0.4958679353909278  0.7471150111731208  0.0586224277200133   T   T   T
  0.8290144404073102  0.7476172701182292  0.0586945561943919   T   T   T
  0.1624978152264706  0.2474236839375233  0.0586457751422427   T   T   T
  0.9957945410263720  0.0005833710338150  0.1387579885297832   T   T   T
  0.3291285216808401  0.0007569079658354  0.1388188134080878   T   T   T
  0.6624589291041395  0.0006968447808047  0.1388243169540831   T   T   T
  0.9958041413776464  0.5007381431311717  0.1387938450774168   T   T   T
  0.3288309807646160  0.5005498310161571  0.1388229483389593   T   T   T
  0.6625424815399017  0.5003681279148851  0.1388019469120677   T   T   T
  0.1621492006092983  0.2500474710611325  0.1652162074383394   T   T   T
  0.4961653176229281  0.2518447162962564  0.1657045265397442   T   T   T
  0.8305470843965737  0.2497696385978439  0.1651660602026744   T   T   T
  0.1625385195665554  0.7505907905894165  0.1652049292065775   T   T   T
  0.4959460707279991  0.7474794861262910  0.1649181353957815   T   T   T
  0.8297012215191347  0.7504344903166863  0.1652471619333686   T   T   T
  0.3271615964470184  0.9977020082644003  0.1923037255043290   T   T   T
  0.6654498276546915  0.9976908380061839  0.1923601185178912   T   T   T
  0.9964440855762084  0.9986539740448590  0.1919912645779313   T   T   T
  0.3282884131202639  0.5012443518985983  0.1923039503763186   T   T   T
  0.9970281724900313  0.4962411809608117  0.1917790640300097   T   T   T
  0.6650960668216519  0.4981696723683189  0.1920279561750717   T   T   T
  0.9956916379523216  0.0001580530327244  0.0853800397463875   T   T   T
  0.3290370231850552  0.0000559616769014  0.0854045664995728   T   T   T
  0.6623669189538688  0.0000890667601818  0.0854095793876297   T   T   T
  0.9956859917436602  0.5001473507833837  0.0853837321050429   T   T   T
  0.3289227206491623  0.4999622838681879  0.0854187504131109   T   T   T
  0.6624615295805713  0.4998551090081823  0.0854276801395417   T   T   T
  0.1621747489784225  0.2505179530487191  0.1117875172123294   T   T   T
  0.4956742065319018  0.2506990135028266  0.1119742816798138   T   T   T
  0.8291844562436258  0.2505740088293126  0.1117786554987476   T   T   T
  0.1624140146615067  0.7506781728654041  0.1118279855321982   T   T   T
  0.4956814867322472  0.7497993774793670  0.1116166698466497   T   T   T
  0.8289255349154552  0.7507899963891959  0.1118439037037349   T   T   T
 
  0.00000000E+00  0.00000000E+00  0.00000000E+00
  0.00000000E+00  0.00000000E+00  0.00000000E+00
  0.00000000E+00  0.00000000E+00  0.00000000E+00
  0.00000000E+00  0.00000000E+00  0.00000000E+00
  0.00000000E+00  0.00000000E+00  0.00000000E+00
  0.00000000E+00  0.00000000E+00  0.00000000E+00
  0.00000000E+00  0.00000000E+00  0.00000000E+00
  0.00000000E+00  0.00000000E+00  0.00000000E+00
  0.00000000E+00  0.00000000E+00  0.00000000E+00
  0.00000000E+00  0.00000000E+00  0.00000000E+00
  0.00000000E+00  0.00000000E+00  0.00000000E+00
  0.00000000E+00  0.00000000E+00  0.00000000E+00
  0.00000000E+00  0.00000000E+00  0.00000000E+00
  0.00000000E+00  0.00000000E+00  0.00000000E+00
  0.00000000E+00  0.00000000E+00  0.00000000E+00
  0.00000000E+00  0.00000000E+00  0.00000000E+00
  0.00000000E+00  0.00000000E+00  0.00000000E+00
  0.00000000E+00  0.00000000E+00  0.00000000E+00
  0.00000000E+00  0.00000000E+00  0.00000000E+00
  0.00000000E+00  0.00000000E+00  0.00000000E+00
  0.00000000E+00  0.00000000E+00  0.00000000E+00
  0.00000000E+00  0.00000000E+00  0.00000000E+00
  0.00000000E+00  0.00000000E+00  0.00000000E+00
  0.00000000E+00  0.00000000E+00  0.00000000E+00
  0.00000000E+00  0.00000000E+00  0.00000000E+00
  0.00000000E+00  0.00000000E+00  0.00000000E+00
  0.00000000E+00  0.00000000E+00  0.00000000E+00
  0.00000000E+00  0.00000000E+00  0.00000000E+00
  0.00000000E+00  0.00000000E+00  0.00000000E+00
  0.00000000E+00  0.00000000E+00  0.00000000E+00
  0.00000000E+00  0.00000000E+00  0.00000000E+00
  0.00000000E+00  0.00000000E+00  0.00000000E+00
  0.00000000E+00  0.00000000E+00  0.00000000E+00
  0.00000000E+00  0.00000000E+00  0.00000000E+00
  0.00000000E+00  0.00000000E+00  0.00000000E+00
  0.00000000E+00  0.00000000E+00  0.00000000E+00
  0.00000000E+00  0.00000000E+00  0.00000000E+00
  0.00000000E+00  0.00000000E+00  0.00000000E+00
  0.00000000E+00  0.00000000E+00  0.00000000E+00
  0.00000000E+00  0.00000000E+00  0.00000000E+00
  0.00000000E+00  0.00000000E+00  0.00000000E+00
  0.00000000E+00  0.00000000E+00  0.00000000E+00
  0.00000000E+00  0.00000000E+00  0.00000000E+00
  0.00000000E+00  0.00000000E+00  0.00000000E+00
  0.00000000E+00  0.00000000E+00  0.00000000E+00
  0.00000000E+00  0.00000000E+00  0.00000000E+00
  0.00000000E+00  0.00000000E+00  0.00000000E+00
  0.00000000E+00  0.00000000E+00  0.00000000E+00
  0.00000000E+00  0.00000000E+00  0.00000000E+00
  0.00000000E+00  0.00000000E+00  0.00000000E+00
  0.00000000E+00  0.00000000E+00  0.00000000E+00
  0.00000000E+00  0.00000000E+00  0.00000000E+00
  0.00000000E+00  0.00000000E+00  0.00000000E+00
  0.00000000E+00  0.00000000E+00  0.00000000E+00
  0.00000000E+00  0.00000000E+00  0.00000000E+00
  0.00000000E+00  0.00000000E+00  0.00000000E+00
  0.00000000E+00  0.00000000E+00  0.00000000E+00
  0.00000000E+00  0.00000000E+00  0.00000000E+00
  0.00000000E+00  0.00000000E+00  0.00000000E+00
  0.00000000E+00  0.00000000E+00  0.00000000E+00
  0.00000000E+00  0.00000000E+00  0.00000000E+00
  0.00000000E+00  0.00000000E+00  0.00000000E+00
  0.00000000E+00  0.00000000E+00  0.00000000E+00
  0.00000000E+00  0.00000000E+00  0.00000000E+00
  0.00000000E+00  0.00000000E+00  0.00000000E+00
  0.00000000E+00  0.00000000E+00  0.00000000E+00
  0.00000000E+00  0.00000000E+00  0.00000000E+00
  0.00000000E+00  0.00000000E+00  0.00000000E+00
  0.00000000E+00  0.00000000E+00  0.00000000E+00
  0.00000000E+00  0.00000000E+00  0.00000000E+00
  0.00000000E+00  0.00000000E+00  0.00000000E+00
  0.00000000E+00  0.00000000E+00  0.00000000E+00
  0.00000000E+00  0.00000000E+00  0.00000000E+00
  0.00000000E+00  0.00000000E+00  0.00000000E+00
  0.00000000E+00  0.00000000E+00  0.00000000E+00
  0.00000000E+00  0.00000000E+00  0.00000000E+00
  0.00000000E+00  0.00000000E+00  0.00000000E+00
  0.00000000E+00  0.00000000E+00  0.00000000E+00
  0.00000000E+00  0.00000000E+00  0.00000000E+00
  0.00000000E+00  0.00000000E+00  0.00000000E+00
  0.00000000E+00  0.00000000E+00  0.00000000E+00
  0.00000000E+00  0.00000000E+00  0.00000000E+00
  0.00000000E+00  0.00000000E+00  0.00000000E+00
  0.00000000E+00  0.00000000E+00  0.00000000E+00
  0.00000000E+00  0.00000000E+00  0.00000000E+00
  0.00000000E+00  0.00000000E+00  0.00000000E+00
  0.00000000E+00  0.00000000E+00  0.00000000E+00
  0.00000000E+00  0.00000000E+00  0.00000000E+00
  0.00000000E+00  0.00000000E+00  0.00000000E+00
  0.00000000E+00  0.00000000E+00  0.00000000E+00
  0.00000000E+00  0.00000000E+00  0.00000000E+00
  0.00000000E+00  0.00000000E+00  0.00000000E+00
  0.00000000E+00  0.00000000E+00  0.00000000E+00
  0.00000000E+00  0.00000000E+00  0.00000000E+00
  0.00000000E+00  0.00000000E+00  0.00000000E+00
  0.00000000E+00  0.00000000E+00  0.00000000E+00
  0.00000000E+00  0.00000000E+00  0.00000000E+00
  0.00000000E+00  0.00000000E+00  0.00000000E+00
  0.00000000E+00  0.00000000E+00  0.00000000E+00
  0.00000000E+00  0.00000000E+00  0.00000000E+00
  0.00000000E+00  0.00000000E+00  0.00000000E+00
  0.00000000E+00  0.00000000E+00  0.00000000E+00
  0.00000000E+00  0.00000000E+00  0.00000000E+00
  0.00000000E+00  0.00000000E+00  0.00000000E+00
  0.00000000E+00  0.00000000E+00  0.00000000E+00
  0.00000000E+00  0.00000000E+00  0.00000000E+00
  0.00000000E+00  0.00000000E+00  0.00000000E+00
  0.00000000E+00  0.00000000E+00  0.00000000E+00
  0.00000000E+00  0.00000000E+00  0.00000000E+00
  0.00000000E+00  0.00000000E+00  0.00000000E+00
  0.00000000E+00  0.00000000E+00  0.00000000E+00
  0.00000000E+00  0.00000000E+00  0.00000000E+00
  0.00000000E+00  0.00000000E+00  0.00000000E+00
  0.00000000E+00  0.00000000E+00  0.00000000E+00
  0.00000000E+00  0.00000000E+00  0.00000000E+00
  0.00000000E+00  0.00000000E+00  0.00000000E+00
  0.00000000E+00  0.00000000E+00  0.00000000E+00
  0.00000000E+00  0.00000000E+00  0.00000000E+00
  0.00000000E+00  0.00000000E+00  0.00000000E+00
