C H O Si                                
   1.00000000000000     
    18.5749199999999988    0.0000000000000000    0.0000000000000000
     0.0000000000000000   17.5126199999999983    0.0000000000000000
     0.0000000000000000    0.0000000000000000   58.0000000000000000
   C    H    O    Si
   144   105    52   144
Selective dynamics
Direct
  0.4993998929284497  0.0653651824006213  0.0601405114549674   T   T   T
  0.1661079690822305  0.0654021384432075  0.0601480579430829   T   T   T
  0.3326893447844345  0.0654045890923562  0.0601539562241262   T   T   T
  0.4994064715880989  0.3153790885541495  0.0601390382300159   T   T   T
  0.1661108356255462  0.3154016315512997  0.0601528148645830   T   T   T
  0.3326975118304737  0.3153824108153079  0.0601635660028789   T   T   T
  0.0828774793000643  0.1880755130149498  0.1389976937535997   T   T   T
  0.2495248950571576  0.1881096647577983  0.1390236975624043   T   T   T
  0.4161953770186006  0.1881043469736831  0.1390180181666396   T   T   T
  0.0828657214059924  0.4381167554780480  0.1390269046542242   T   T   T
  0.2495191336255247  0.4381377327475250  0.1390325056143845   T   T   T
  0.4161615794090571  0.4381580605913054  0.1390251100211986   T   T   T
  0.1664002439450167  0.0631615373233607  0.1661337112453686   T   T   T
  0.3329042401372799  0.0631899710623512  0.1661459877202102   T   T   T
  0.4995385461077825  0.0630591737628774  0.1660904720736166   T   T   T
  0.1663561463990655  0.3131907011053789  0.1661289977113796   T   T   T
  0.3329028970463050  0.3131938407114596  0.1661407389315244   T   T   T
  0.4995004487762922  0.3132157732575810  0.1660947145992062   T   T   T
  0.0831799480606278  0.1901105541502290  0.1914598853102267   T   T   T
  0.2496741754720696  0.1902854628278788  0.1915220774439961   T   T   T
  0.4162294993799240  0.1901903000942693  0.1915201978510819   T   T   T
  0.0830808482926376  0.4402440930962843  0.1915211165032472   T   T   T
  0.2496419339208699  0.4402304851763387  0.1915317564741444   T   T   T
  0.4162095491127273  0.4402892493260747  0.1915148895683934   T   T   T
  0.0827901212329012  0.1882434948177692  0.0854900213052070   T   T   T
  0.2494405090100209  0.1882876678285933  0.0855126672095951   T   T   T
  0.4161268290323809  0.1882576984851835  0.0855113377500647   T   T   T
  0.0827745059453513  0.4382861026595774  0.0854906854313000   T   T   T
  0.2494351514759312  0.4383199301404584  0.0855017568414625   T   T   T
  0.4161254349293134  0.4382912662195040  0.0855018640306061   T   T   T
  0.1661973529540691  0.0630787454077016  0.1126329674680184   T   T   T
  0.3327906110966616  0.0630829985844768  0.1126395278655870   T   T   T
  0.4994761490534066  0.0630690837416364  0.1126455104209356   T   T   T
  0.1661974686934401  0.3131483811233146  0.1126320611545527   T   T   T
  0.3327903390180793  0.3131303670673994  0.1126412108784029   T   T   T
  0.4994709409835567  0.3131362830033053  0.1126335101132982   T   T   T
  0.4994196930566102  0.5654514075920208  0.0601458204519811   T   T   T
  0.1661008357648903  0.5654727929578595  0.0601634823597387   T   T   T
  0.3327054032425752  0.5654592328206488  0.0601632214942504   T   T   T
  0.4994381698707537  0.8154115770918597  0.0601620061142337   T   T   T
  0.1661074552298583  0.8153593806267003  0.0601616579478467   T   T   T
  0.3327054756866449  0.8153798794214879  0.0601599656564789   T   T   T
  0.0828586555042767  0.6881513967838642  0.1390449081137104   T   T   T
  0.2495060839930567  0.6881573388285048  0.1390507269700903   T   T   T
  0.4161661181910636  0.6882130485171667  0.1390203426984266   T   T   T
  0.0828750843661359  0.9380204952795064  0.1390265858641364   T   T   T
  0.2495353639197387  0.9380748400631287  0.1390338649659883   T   T   T
  0.4161933300349322  0.9380714322217140  0.1390302537764628   T   T   T
  0.1663388119441407  0.5632273611282890  0.1661678788925816   T   T   T
  0.3328402473549895  0.5632401225901272  0.1661648156669843   T   T   T
  0.4993842111115028  0.5633587434005577  0.1661166878038592   T   T   T
  0.1663055050417017  0.8132187938407641  0.1661746530963815   T   T   T
  0.3328892618799910  0.8132226378566213  0.1661790893370888   T   T   T
  0.4995909935483108  0.8132572056361079  0.1661625040656784   T   T   T
  0.0829688333659681  0.6902765017364817  0.1915416020404376   T   T   T
  0.2496154545037809  0.6903350099444653  0.1915780831283726   T   T   T
  0.4162686385113585  0.6902705933963316  0.1915220579735001   T   T   T
  0.0829815659972441  0.9403095813756345  0.1915428774048780   T   T   T
  0.2496449286796032  0.9402963997007384  0.1915449546789363   T   T   T
  0.4163275485192607  0.9403485127948045  0.1915499400815943   T   T   T
  0.0827560190640173  0.6882895193765738  0.0855277019051902   T   T   T
  0.2494462355590903  0.6882955122687215  0.0855246983579656   T   T   T
  0.4161532403538244  0.6883227104724858  0.0855206293070644   T   T   T
  0.0827695009654425  0.9382279125604955  0.0854949368173539   T   T   T
  0.2494299537573496  0.9382629182805134  0.0855008041883105   T   T   T
  0.4161157396009190  0.9382625856632982  0.0855007252519246   T   T   T
  0.1661919933255456  0.5631522609004077  0.1126545280130540   T   T   T
  0.3327953414814470  0.5631391800365576  0.1126527071878434   T   T   T
  0.4994636944465981  0.5631778224064240  0.1126424109503388   T   T   T
  0.1661914726654143  0.8131323356606401  0.1126522666274389   T   T   T
  0.3327811880851035  0.8131263623508156  0.1126493253325852   T   T   T
  0.4995227612820220  0.8132103712146898  0.1126727657910054   T   T   T
  0.9994153248185345  0.0653641002760637  0.0601383350654058   T   T   T
  0.6661225504582213  0.0654092148625695  0.0602006897016564   T   T   T
  0.8326707981338322  0.0654056738176364  0.0601965644365094   T   T   T
  0.9994213055670306  0.3153968388323325  0.0601350422784272   T   T   T
  0.6660922888220564  0.3153189747017913  0.0601524827279170   T   T   T
  0.8327129217294007  0.3153344617139480  0.0601687306654460   T   T   T
  0.5827886687642839  0.1880314657814863  0.1389893497632493   T   T   T
  0.7494481561741361  0.1883711478614205  0.1392308213404642   T   T   T
  0.9162526401863945  0.1881288655791416  0.1389763293464624   T   T   T
  0.5827361456996761  0.4382288929565525  0.1389996829261147   T   T   T
  0.7495051885994461  0.4380654869289262  0.1388066028246036   T   T   T
  0.9162563507487089  0.4381342994372350  0.1390557789712723   T   T   T
  0.6665090765834093  0.0634753287685220  0.1662624594560057   T   T   T
  0.8326858518704360  0.0636452069838230  0.1662710080084284   T   T   T
  0.9996999503657840  0.0630777615555348  0.1660758271819274   T   T   T
  0.6658452135459204  0.3134409494716137  0.1660911885598153   T   T   T
  0.8330692911453570  0.3132377449279151  0.1662050175533491   T   T   T
  0.9996870907382023  0.3132346719447162  0.1660969271038765   T   T   T
  0.5829008252978503  0.1897546939797019  0.1912573996033060   T   T   T
  0.7493349897050441  0.1923722092112267  0.1921862002239609   T   T   T
  0.9166329021368830  0.1897376056044777  0.1912726915083231   T   T   T
  0.5823358329267064  0.4404778896780924  0.1914976411670077   T   T   T
  0.7495778220939903  0.4448321346494840  0.1893515455390859   T   T   T
  0.9168173335575361  0.4402576374389021  0.1915982654021074   T   T   T
  0.5827388260424278  0.1882069491881224  0.0854919143508625   T   T   T
  0.7494184860919834  0.1882956814599710  0.0856099259341003   T   T   T
  0.9161586885681292  0.1882427320530003  0.0854902503327290   T   T   T
  0.5827636855107241  0.4382751361250062  0.0854838259636590   T   T   T
  0.7493994253668089  0.4382781710210910  0.0854296447738897   T   T   T
  0.9161211511056010  0.4382781266678389  0.0855106130750985   T   T   T
  0.6662191904068687  0.0631762965065450  0.1127057993762835   T   T   T
  0.8327693719353740  0.0631869197038277  0.1127059119878032   T   T   T
  0.9994998859354040  0.0630829030544558  0.1126365301562819   T   T   T
  0.6661132557366645  0.3130777241425457  0.1126296342127226   T   T   T
  0.8328245805473441  0.3130855081098747  0.1126583102424599   T   T   T
  0.9995113738555462  0.3131527444820068  0.1126290726088130   T   T   T
  0.9994002692744614  0.5654418993266409  0.0601582558757978   T   T   T
  0.6661101860640819  0.5654767595189272  0.0601581598323849   T   T   T
  0.8326970019272898  0.5654531918419142  0.0601692977703408   T   T   T
  0.9993937244922511  0.8154142059622701  0.0601634758066321   T   T   T
  0.6661266709188226  0.8153887774565055  0.0601894313327639   T   T   T
  0.8326795286963191  0.8153890313101545  0.0601889165245540   T   T   T
  0.5827917916121581  0.6881959829695837  0.1390308674502880   T   T   T
  0.7495171341306587  0.6880367408569117  0.1390944196001391   T   T   T
  0.9162419676166749  0.6881678963444626  0.1390379053939397   T   T   T
  0.5829552661140479  0.9382186018910875  0.1390924465201475   T   T   T
  0.7495292017367471  0.9381481030231053  0.1390918619381100   T   T   T
  0.9160889620635521  0.9382467785257239  0.1390874171067842   T   T   T
  0.6660080526505380  0.5634435779763044  0.1661467658067988   T   T   T
  0.8331001884189254  0.5632764002153362  0.1661706573725492   T   T   T
  0.9997212766097878  0.5632801818806360  0.1661396189007632   T   T   T
  0.6663214192635473  0.8131661770758456  0.1661988644839649   T   T   T
  0.8328984088161729  0.8131593124804980  0.1662098931457170   T   T   T
  0.9995692064957359  0.8132539709434958  0.1661677692917820   T   T   T
  0.5828780422474948  0.6902619620420506  0.1915592141380660   T   T   T
  0.7496284394820740  0.6902086239278253  0.1916274466523356   T   T   T
  0.9163736377810304  0.6902281068055650  0.1915576718460560   T   T   T
  0.5829917394542254  0.9403265201847232  0.1915710755354939   T   T   T
  0.7496557854276845  0.9403289861484549  0.1915811705563438   T   T   T
  0.9162911451332612  0.9404468497236900  0.1915629953591881   T   T   T
  0.5827879281290277  0.6882946165382463  0.0855242357812875   T   T   T
  0.7494429986492318  0.6882940395906911  0.0855571760389902   T   T   T
  0.9161337817738423  0.6883001045143142  0.0855374747750598   T   T   T
  0.5827960935975154  0.9382880825302530  0.0855324721360498   T   T   T
  0.7494294462415171  0.9383058802270866  0.0855469485344567   T   T   T
  0.9160808714186189  0.9382990422300537  0.0855400436707690   T   T   T
  0.6661871013331454  0.5631145118288789  0.1126522475937271   T   T   T
  0.8328073814422827  0.5630856186156520  0.1126659955857358   T   T   T
  0.9994960805449986  0.5631357640551140  0.1126620119398263   T   T   T
  0.6662055774151964  0.8131521642479745  0.1126865749837273   T   T   T
  0.8327833026631424  0.8131238895227603  0.1126896773453731   T   T   T
  0.9994617087985066  0.8131922456457709  0.1126765324077973   T   T   T
  0.0406190132455025  0.1780278230841561  0.0263048103492312   T   T   T
  0.2070735065333560  0.1781061538207864  0.0263707745595020   T   T   T
  0.3736816255499396  0.1780062806828793  0.0263577014666926   T   T   T
  0.0406873327560340  0.4280559526279931  0.0262892012337250   T   T   T
  0.2072131176582603  0.4279118862908687  0.0263140450276349   T   T   T
  0.3736322431342530  0.4279255603004896  0.0263504404370263   T   T   T
  0.1650817432539776  0.0292186169153538  0.0446109432869541   T   T   T
  0.3316447292516231  0.0292120433789495  0.0446176256288783   T   T   T
  0.4983121065447244  0.0291857961340885  0.0446004115714570   T   T   T
  0.1650396576462529  0.2791937158735947  0.0446213977954243   T   T   T
  0.3316737365748718  0.2791625688418382  0.0446339925981794   T   T   T
  0.4983273927860757  0.2791894307179776  0.0446000313394390   T   T   T
  0.4174621052650686  0.4041619688069648  0.2070600225402477   T   T   T
  0.4173166085235052  0.1539787436920752  0.2070444008193849   T   T   T
  0.0841699132174397  0.1539235177996078  0.2069929912373075   T   T   T
  0.2507564343117372  0.1541412082867994  0.2070599229165145   T   T   T
  0.0841189417618095  0.4041014909719942  0.2070656607771814   T   T   T
  0.2507359604543315  0.4040696092853275  0.2070658728292870   T   T   T
  0.0420036211933669  0.0533952381594285  0.2252579310173256   T   T   T
  0.2084641258470178  0.0537783635825375  0.2252499016452220   T   T   T
  0.3749666454019197  0.0535506524694986  0.2253269942764027   T   T   T
  0.0411189694213176  0.3029361103072463  0.2253786665052443   T   T   T
  0.2079496259615320  0.3036987997440834  0.2253132750139185   T   T   T
  0.3752262621618588  0.3036050984393997  0.2252675551381654   T   T   T
  0.0405632456654215  0.6781226719452885  0.0263426296858900   T   T   T
  0.2071147549859690  0.6781254890492404  0.0263709656463007   T   T   T
  0.3736921618560112  0.6780800253435799  0.0263644784727304   T   T   T
  0.0407112015935769  0.9280453750721358  0.0262964491343729   T   T   T
  0.2071661489108125  0.9279808311699125  0.0263381925822877   T   T   T
  0.3736819523277247  0.9279552238337071  0.0263504307380573   T   T   T
  0.1650357825066295  0.5292543293198922  0.0446296957086918   T   T   T
  0.3317037712330387  0.5292523088140876  0.0446288281857702   T   T   T
  0.4983751990757871  0.5292798331442852  0.0446037116278226   T   T   T
  0.1650330781374163  0.7791140238069455  0.0446358807445434   T   T   T
  0.3316755780948539  0.7791253563789686  0.0446355860526432   T   T   T
  0.4984225672371410  0.7791809405939568  0.0446310447461515   T   T   T
  0.4173000360999535  0.9041697368053635  0.2070840057329263   T   T   T
  0.4173176106361630  0.6539973143153315  0.2070359236720609   T   T   T
  0.0839980677050711  0.6540548689408555  0.2070678999850666   T   T   T
  0.2506046826344521  0.6540728151162855  0.2070956366470482   T   T   T
  0.0840173445886743  0.9041374182865336  0.2070812107493314   T   T   T
  0.2507127455846007  0.9041523806024543  0.2070869766115054   T   T   T
  0.0422288433885328  0.5530237276382375  0.2253628720330812   T   T   T
  0.2085824087397760  0.5521795677819765  0.2254655203690150   T   T   T
  0.3752200871686866  0.5526476826135523  0.2253933562689934   T   T   T
  0.0418346306904848  0.8029887927330661  0.2253563284518071   T   T   T
  0.2079385656205450  0.8032948551263210  0.2254594735023790   T   T   T
  0.3758671141108145  0.8025626891998453  0.2252720129481921   T   T   T
  0.5406628844098960  0.1779995554916694  0.0263087833611069   T   T   T
  0.7071327506478550  0.1780817909341323  0.0264319465705301   T   T   T
  0.8736735340116246  0.1779825858450762  0.0263508000701936   T   T   T
  0.5406964558367642  0.4280505061975073  0.0262928065823237   T   T   T
  0.7072461320872112  0.4278784089677978  0.0262659093398184   T   T   T
  0.8736353144698660  0.4279180694842817  0.0263488753934056   T   T   T
  0.6651559247078908  0.0291746117613040  0.0446781135476068   T   T   T
  0.8315391854513134  0.0291612908723744  0.0446747806889473   T   T   T
  0.9983705619403843  0.0291923480255188  0.0445931320585914   T   T   T
  0.6649253155756731  0.2790830138494199  0.0446228324382768   T   T   T
  0.8317698682425929  0.2790609521484889  0.0446484945733211   T   T   T
  0.9983533596321348  0.2792229086933271  0.0445934240352921   T   T   T
  0.9179792404101534  0.4042887005155308  0.2071448057556937   T   T   T
  0.9178497582576031  0.1536854711723817  0.2068353443360179   T   T   T
  0.5839560669304042  0.1540094694772487  0.2068917441978960   T   T   T
  0.7503854860073519  0.1557938729793243  0.2076335185729436   T   T   T
  0.5835395719249975  0.4042195047720886  0.2069889744970430   T   T   T
  0.7705858099308618  0.4631259299664174  0.2610246279614405   T   T   T
  0.5420378454516643  0.0539641289137505  0.2251519563773418   T   T   T
  0.7085709815071648  0.0546760027826095  0.2251441913215733   T   T   T
  0.8748357643144786  0.0538465542195636  0.2253745317682399   T   T   T
  0.5459581461553975  0.3041675404023929  0.2235969119088415   T   T   T
  0.6845496969964738  0.2852671658784912  0.2306261934884386   T   T   T
  0.8888803906232984  0.2996547433081597  0.2234682599922492   T   T   T
  0.7456667083510671  0.2699030195830074  0.2661972592791078   T   T   T
  0.7343983425677919  0.2282497619911804  0.3006382497653478   T   T   T
  0.7581481282839195  0.3131965106907166  0.3081607661195367   T   T   T
  0.6446122923688300  0.1356678115941836  0.2953708156637347   T   T   T
  0.7191334162835018  0.1101950965495202  0.2863339179744339   T   T   T
  0.8193408436085391  0.3859964573924671  0.3348647357067805   T   T   T
  0.7525569177889890  0.4335777482479766  0.3276988485019922   T   T   T
  0.7512002950884200  0.4361522949756898  0.2689539287069284   T   T   T
  0.7822644758616157  0.2676210464971469  0.2411998106784126   T   T   T
  0.5405674126980612  0.6781296696570978  0.0263399603600522   T   T   T
  0.7071499820558859  0.6781421404244431  0.0263823547228518   T   T   T
  0.8737186483228748  0.6780907823114068  0.0263671744893966   T   T   T
  0.5407547623518979  0.9280467596499644  0.0263146875234068   T   T   T
  0.7071814378992020  0.9279837697211013  0.0263571975375858   T   T   T
  0.8736646890095453  0.9279710374221112  0.0263649443090643   T   T   T
  0.6650719961309777  0.5292860261676504  0.0446185488455930   T   T   T
  0.8316692766061614  0.5292702992987395  0.0446299304006894   T   T   T
  0.9983487736913885  0.5292649579207097  0.0446135956762600   T   T   T
  0.6650562770061110  0.7791696020131564  0.0446617652213053   T   T   T
  0.8316284419430464  0.7791572415649295  0.0446618288318688   T   T   T
  0.9982724401879236  0.7791694634207804  0.0446369844950622   T   T   T
  0.9173072082048478  0.9043103268275499  0.2071067899377357   T   T   T
  0.9174066808697824  0.6539123215950563  0.2070636134811207   T   T   T
  0.5838371997125517  0.6539905778040568  0.2070757536907808   T   T   T
  0.7505206675462996  0.6539786007293960  0.2071496286111836   T   T   T
  0.5839630811298633  0.9041448273079945  0.2071063510080647   T   T   T
  0.7507622491470652  0.9041595407807190  0.2071176293717719   T   T   T
  0.5414935590041439  0.5526394339886718  0.2254365895510976   T   T   T
  0.7089291269833838  0.5508465581252817  0.2255359174478535   T   T   T
  0.8750466297198848  0.5518898683491471  0.2257648060127810   T   T   T
  0.5417470912041412  0.8029304778520481  0.2253568894374204   T   T   T
  0.7079679829077385  0.8032552651160138  0.2254529295624204   T   T   T
  0.8759439501267707  0.8025901500176296  0.2252640847430174   T   T   T
  0.0870478517060860  0.1696233357582055  0.0337991984932090   T   T   T
  0.2535796876562428  0.1696849763600743  0.0338203250581829   T   T   T
  0.4201907730995768  0.1696542084872562  0.0338128842581880   T   T   T
  0.0870976197535743  0.4195723240296816  0.0337870743129163   T   T   T
  0.2536701772234056  0.4195780745321163  0.0337995676310471   T   T   T
  0.4201541951564535  0.4196185478740504  0.0338001637274858   T   T   T
  0.1619751599739711  0.0446059047941622  0.2178714262543902   T   T   T
  0.3285531792070753  0.0445982126687682  0.2178828580405774   T   T   T
  0.4954366083724158  0.0445373992335628  0.2178761926958514   T   T   T
  0.1616397432760240  0.2944643032471069  0.2178382873248314   T   T   T
  0.3287829229701272  0.2945324979920957  0.2178656374357013   T   T   T
  0.4971118358993918  0.2939124202778393  0.2178454873358478   T   T   T
  0.0870086991357380  0.6697141350441376  0.0338297153805753   T   T   T
  0.2536056059483786  0.6697004150579621  0.0338276979601671   T   T   T
  0.4202006969849159  0.6697131971848809  0.0338175210187290   T   T   T
  0.0871073676911909  0.9195040589552831  0.0337932385374762   T   T   T
  0.2536439742026079  0.9195486117830399  0.0338015820624264   T   T   T
  0.4201951054737053  0.9195773374702816  0.0337993315475997   T   T   T
  0.1621574782802947  0.5444819498111009  0.2178961120791249   T   T   T
  0.3287354428280357  0.5444732029302930  0.2179041747209164   T   T   T
  0.4951320784784540  0.5448828214701446  0.2178398125038395   T   T   T
  0.1616772911584684  0.7945495283240437  0.2179041929313336   T   T   T
  0.3291496949210578  0.7945341104996548  0.2179139192022787   T   T   T
  0.4952585746408977  0.7944775539481255  0.2179006762386844   T   T   T
  0.5870879240912813  0.1695275556146939  0.0337986516736855   T   T   T
  0.7536067909611759  0.1697810396763584  0.0339121255352498   T   T   T
  0.9201790689565208  0.1695712991299744  0.0337996316210518   T   T   T
  0.5871068725684293  0.4195366395075409  0.0337844725065885   T   T   T
  0.7537026976085816  0.4193695996931491  0.0337337374079444   T   T   T
  0.9201424389782865  0.4196270446168177  0.0338110368369520   T   T   T
  0.6619702283247143  0.0444370867449117  0.2179694120054752   T   T   T
  0.8284446579740944  0.0446062951104198  0.2179476807561335   T   T   T
  0.9954879796161035  0.0447223637086001  0.2178425767108331   T   T   T
  0.6561396723674954  0.3023652472300813  0.2166946235611096   T   T   T
  0.8388408166386803  0.2953723006863853  0.2180612987722918   T   T   T
  0.9950206100615187  0.2938839256510922  0.2177351077267177   T   T   T
  0.7601760240802686  0.2748239100476890  0.2956108791618252   T   T   T
  0.6951895429635659  0.1323328924600598  0.2997315679183859   T   T   T
  0.7684982908901590  0.3815934343022174  0.3308617410843501   T   T   T
  0.7390535063627520  0.2520042626567100  0.2500428502016723   T   T   T
  0.5870200519284173  0.6697567734263248  0.0338270938575772   T   T   T
  0.7536290546345222  0.6697910671919097  0.0338558292788948   T   T   T
  0.9202125061792376  0.6697341777337937  0.0338322809578917   T   T   T
  0.5871513866775789  0.9195560299837715  0.0338189016830221   T   T   T
  0.7536475448758613  0.9195595740685738  0.0338295652208860   T   T   T
  0.9201580590659134  0.9196001026815132  0.0338269851341863   T   T   T
  0.6622055179220984  0.5439555113329797  0.2180823274957679   T   T   T
  0.8288245486952416  0.5443011884615792  0.2180616162813036   T   T   T
  0.9957582300296735  0.5446427602913888  0.2178926347019721   T   T   T
  0.6616923666281159  0.7944950432004563  0.2179120973503777   T   T   T
  0.8292106277981495  0.7944961974317286  0.2179216969099999   T   T   T
  0.9953516862140134  0.7944744916688792  0.2179012486866442   T   T   T
  0.2494458838715488  0.1240894640118672  0.0593743468593408   T   T   T
  0.4160866185493359  0.1240476469600795  0.0593692186245037   T   T   T
  0.0828129993026746  0.3740498201893014  0.0593537551543510   T   T   T
  0.2494552045870100  0.3740676835571591  0.0593682139277946   T   T   T
  0.4160804656025474  0.3740493995385171  0.0593643967412990   T   T   T
  0.0828005966604480  0.1240339843802806  0.0593553443531558   T   T   T
  0.4995174807067647  0.0005326071262056  0.1392828092862793   T   T   T
  0.1662234308185832  0.0005498817601434  0.1392749987730414   T   T   T
  0.3328657905153707  0.0005706047246896  0.1392900532570722   T   T   T
  0.4995221373748670  0.2505903472128387  0.1392598907625776   T   T   T
  0.1662256385724221  0.2506008434051140  0.1392604799806423   T   T   T
  0.3328677729944812  0.2505925874217831  0.1392780949951823   T   T   T
  0.0830178093443736  0.1251953313654204  0.1655792712967405   T   T   T
  0.2496281700058700  0.1253395417916933  0.1656294546984457   T   T   T
  0.4162590071774362  0.1252805019507280  0.1656280078236103   T   T   T
  0.0830220379699647  0.3753589135144872  0.1656250012081130   T   T   T
  0.2496184730790490  0.3753394354468252  0.1656323161462834   T   T   T
  0.4162168613318218  0.3753239686870732  0.1656322229381870   T   T   T
  0.1663438962209728  0.4989627858748757  0.1923209662394681   T   T   T
  0.3328746118307749  0.4989830836007419  0.1923232511320896   T   T   T
  0.4992961139313035  0.4992390405631369  0.1922795449408703   T   T   T
  0.1663344224851444  0.2489549809248600  0.1922776310858154   T   T   T
  0.4996612447450925  0.2486254953116497  0.1922204406242221   T   T   T
  0.3329642008751815  0.2489715448954734  0.1922996472814082   T   T   T
  0.4994416799426711  0.0003887623576136  0.0860167045171886   T   T   T
  0.1661080891109992  0.0003764068318450  0.0860033398660042   T   T   T
  0.3327428384736541  0.0003866365848647  0.0860124019343791   T   T   T
  0.4994514172379528  0.2503963845751994  0.0860104553300606   T   T   T
  0.1661231730302273  0.2504053758090182  0.0860127311463010   T   T   T
  0.3327693938726856  0.2503904088045101  0.0860247338425961   T   T   T
  0.0828356452096264  0.1255614736703691  0.1123573189415593   T   T   T
  0.2494995045239089  0.1256016800353031  0.1123774816715083   T   T   T
  0.4161478738189169  0.1255879788599888  0.1123798044878389   T   T   T
  0.0828462688764155  0.3756513877146204  0.1123693606744700   T   T   T
  0.2495036503614205  0.3756538120692531  0.1123771964388470   T   T   T
  0.4161413963931312  0.3756453344599721  0.1123790093969731   T   T   T
  0.2494497264016253  0.6241191174544375  0.0593828657128374   T   T   T
  0.4160999712162792  0.6241143707838973  0.0593761506962802   T   T   T
  0.0828083829524453  0.8739969236510616  0.0593610444491173   T   T   T
  0.2494504477613229  0.8740318666294490  0.0593675874393828   T   T   T
  0.4160907900509461  0.8740341025016624  0.0593658524002787   T   T   T
  0.0827857802042239  0.6241065408589446  0.0593819004770938   T   T   T
  0.4994512990241355  0.5006876801541181  0.1392680247809528   T   T   T
  0.1662268658195437  0.5006441293527542  0.1392938007118985   T   T   T
  0.3328399592223449  0.5006307364828937  0.1392952654491797   T   T   T
  0.4994838965727679  0.7506993382147206  0.1392924720370688   T   T   T
  0.1662009672915797  0.7506635497037756  0.1393014520745709   T   T   T
  0.3328207834131882  0.7506626803243522  0.1393003916610497   T   T   T
  0.0829937627891384  0.6253954750357322  0.1656479548217961   T   T   T
  0.2495743535506382  0.6254171684113665  0.1656683178254147   T   T   T
  0.4161081468806251  0.6254401626482246  0.1656259467437328   T   T   T
  0.0829276329198511  0.8753453920900843  0.1656602387550093   T   T   T
  0.2495891317884467  0.8753521904971432  0.1656565401293063   T   T   T
  0.4162282563812524  0.8753701917919360  0.1656629301163878   T   T   T
  0.1662821768443305  0.9989935322393408  0.1923147240935045   T   T   T
  0.3329233149413783  0.9990266366380636  0.1923187070804415   T   T   T
  0.4996194725935093  0.9990323571640614  0.1922976226968217   T   T   T
  0.1662300740385084  0.7489987423579909  0.1923430666814357   T   T   T
  0.4995371866364705  0.7489768301015454  0.1923217866731922   T   T   T
  0.3329262340955680  0.7490031673043579  0.1923391641334371   T   T   T
  0.4994459172347944  0.5004381347985676  0.0860085796361309   T   T   T
  0.1661063374149525  0.5004471245241208  0.0860191947927673   T   T   T
  0.3327552875701433  0.5004349303994499  0.0860205859652560   T   T   T
  0.4994914135596242  0.7504623343009255  0.0860389627437622   T   T   T
  0.1661231347703085  0.7504087879429421  0.0860342769633227   T   T   T
  0.3327698537241174  0.7504158966401764  0.0860311772567925   T   T   T
  0.0828201450472914  0.6256547093200009  0.1123980646281511   T   T   T
  0.2495003019684144  0.6256580552260804  0.1123948367764676   T   T   T
  0.4161351691899084  0.6256687927890277  0.1123831221808580   T   T   T
  0.0828357096086419  0.8756094579573791  0.1123820984935713   T   T   T
  0.2494941344985588  0.8756254281396679  0.1123790549840627   T   T   T
  0.4161245165998512  0.8756330004186054  0.1123838036313319   T   T   T
  0.7494364700360153  0.1241050599337903  0.0594529676153601   T   T   T
  0.9160847390049672  0.1240166087706611  0.0593613870905986   T   T   T
  0.5828064889337802  0.3740204876844311  0.0593549351833030   T   T   T
  0.7494381342204056  0.3739750531769779  0.0593185852881078   T   T   T
  0.9160733875653749  0.3740386892107823  0.0593698025834405   T   T   T
  0.5827883764509896  0.1240067498945015  0.0593671914394072   T   T   T
  0.9995710344943400  0.0005013890567016  0.1392647008830100   T   T   T
  0.6663644947407581  0.0007999736293218  0.1393844106242967   T   T   T
  0.8326885577088076  0.0008324106875765  0.1393884495768012   T   T   T
  0.9995686936072864  0.2505869129801554  0.1392271266837982   T   T   T
  0.6659772188861275  0.2506971995989497  0.1393143516378228   T   T   T
  0.8328833451838610  0.2506053654990673  0.1393179644557347   T   T   T
  0.5828908546189607  0.1251491060317408  0.1655906645367032   T   T   T
  0.7494376378928487  0.1264049357517486  0.1660644806558262   T   T   T
  0.9163503949805063  0.1251100961731046  0.1655303221093769   T   T   T
  0.5826760033524199  0.3756016205430965  0.1656025833945800   T   T   T
  0.7494077563503370  0.3747134475363354  0.1655798053159161   T   T   T
  0.9163190241090332  0.3754723129437781  0.1656613773238033   T   T   T
  0.6655140859147610  0.4986876652722114  0.1925062119654015   T   T   T
  0.8335539603351304  0.4986711054651553  0.1925782150091060   T   T   T
  0.9999015596731781  0.4991622264788783  0.1923170574432498   T   T   T
  0.6649561399244545  0.2509981763137986  0.1925816385392402   T   T   T
  0.9998148573821428  0.2484941920784576  0.1920796612663151   T   T   T
  0.8338704220633080  0.2494406965002013  0.1924007720575807   T   T   T
  0.9994446779789740  0.0003741429995759  0.0860082188503817   T   T   T
  0.6661290026804100  0.0004533620358993  0.0860771076701739   T   T   T
  0.8327139035163043  0.0004482792685113  0.0860754301519691   T   T   T
  0.9994703518820747  0.2503956401928419  0.0859984095303499   T   T   T
  0.6660641744670267  0.2503625648860960  0.0860306939150363   T   T   T
  0.8327871365438279  0.2503516269134955  0.0860420221249373   T   T   T
  0.5827867780942653  0.1255967138851052  0.1123775338660255   T   T   T
  0.7494756763693380  0.1257329579712523  0.1125181806997310   T   T   T
  0.9161608727489865  0.1255964625349284  0.1123581932862466   T   T   T