C H O Si                                
   1.00000000000000     
    18.5749199999999988    0.0000000000000000    0.0000000000000000
     0.0000000000000000   17.5126199999999983    0.0000000000000000
     0.0000000000000000    0.0000000000000000   58.0000000000000000
   C    H    O    Si
   144   105    52   144
Selective dynamics
Direct
  0.4993717372682870  0.0654082102270689  0.0601454156126411   T   T   T
  0.1660646855908555  0.0654065479856569  0.0601542602832272   T   T   T
  0.3326903930277211  0.0654144586914255  0.0601585516650871   T   T   T
  0.4993804708543111  0.3154185089655789  0.0601424972239448   T   T   T
  0.1660581314613717  0.3154012910587944  0.0601568863873917   T   T   T
  0.3327111958363299  0.3153794065144486  0.0601672897816117   T   T   T
  0.0829312798670164  0.1881152979509914  0.1389833007380949   T   T   T
  0.2495738228689020  0.1881413755292285  0.1390091069613857   T   T   T
  0.4162105722242883  0.1881071158100308  0.1390126169821367   T   T   T
  0.0829534347147989  0.4381617219180062  0.1390169490855018   T   T   T
  0.2495747860400229  0.4381374904874415  0.1390258105674685   T   T   T
  0.4162134620057733  0.4381607350676656  0.1390184323633603   T   T   T
  0.1662685954496701  0.0630993595964511  0.1661342261923837   T   T   T
  0.3328879983700365  0.0631626711807929  0.1661583016207240   T   T   T
  0.4994768832987792  0.0630324159330000  0.1661134445162615   T   T   T
  0.1662393817120187  0.3131648521961319  0.1661383459725965   T   T   T
  0.3328523929990676  0.3131621463135557  0.1661547481761823   T   T   T
  0.4994079008747725  0.3131794008187002  0.1661131073851489   T   T   T
  0.0832186816294890  0.1901627461489531  0.1914428896897414   T   T   T
  0.2496831177432554  0.1903452915410297  0.1915204055897180   T   T   T
  0.4162056955930691  0.1902205658661192  0.1915124089807252   T   T   T
  0.0830791669713854  0.4403005063968962  0.1915065952606682   T   T   T
  0.2496439548185724  0.4402709935263225  0.1915262664943452   T   T   T
  0.4162140402860181  0.4403295715497533  0.1915118506629466   T   T   T
  0.0827993533209814  0.1882849769133476  0.0855397145910533   T   T   T
  0.2494827868802610  0.1882581028404961  0.0855590812171368   T   T   T
  0.4161397623386103  0.1882570400708307  0.0855461283311051   T   T   T
  0.0827750744516573  0.4383327470681886  0.0855315958716911   T   T   T
  0.2494419406748623  0.4383159163703923  0.0855421117786775   T   T   T
  0.4161056305368097  0.4383219115748425  0.0855352272649735   T   T   T
  0.1661402720002580  0.0630579205173131  0.1126420621572414   T   T   T
  0.3327783005845306  0.0630649624144986  0.1126535061984344   T   T   T
  0.4994354210456705  0.0630391693608809  0.1126396470826678   T   T   T
  0.1661323908820061  0.3131714302474460  0.1126409664595394   T   T   T
  0.3327748208824735  0.3131714498551051  0.1126467443111792   T   T   T
  0.4994235509056797  0.3131664612563321  0.1126270158792965   T   T   T
  0.4994006073387836  0.5654964981158320  0.0601513893517583   T   T   T
  0.1660537398647132  0.5654736527844859  0.0601705022181561   T   T   T
  0.3327269634553140  0.5654669648691321  0.0601685624307480   T   T   T
  0.4994119433692856  0.8154402471714570  0.0601642765917502   T   T   T
  0.1660605103089988  0.8153524987054931  0.0601682569688130   T   T   T
  0.3327225764228331  0.8153640710144016  0.0601650829375742   T   T   T
  0.0829140819189091  0.6881923562662270  0.1390317445839154   T   T   T
  0.2495664950681023  0.6881574662612777  0.1390417973656342   T   T   T
  0.4161831482715369  0.6882070849472955  0.1390181956019825   T   T   T
  0.0829131366036388  0.9380884349437167  0.1390172811479102   T   T   T
  0.2495773449350758  0.9381041587702410  0.1390318152549120   T   T   T
  0.4162260739037140  0.9380674699060981  0.1390260564933395   T   T   T
  0.1662137495872948  0.5632107918542897  0.1661804306382867   T   T   T
  0.3327980272151771  0.5632284850251225  0.1661791181690939   T   T   T
  0.4992885016455952  0.5633537005142695  0.1661270073189990   T   T   T
  0.1661974213406563  0.8131946343158163  0.1661879060541945   T   T   T
  0.3328634701902658  0.8131928373190976  0.1661894783122332   T   T   T
  0.4995281023710255  0.8132239144660909  0.1661868555528379   T   T   T
  0.0829811761502814  0.6903028544283197  0.1915257073771236   T   T   T
  0.2496097805983652  0.6903412604289924  0.1915651681274269   T   T   T
  0.4162717440275767  0.6903034032589263  0.1915170913465342   T   T   T
  0.0829995108439249  0.9403643420661877  0.1915276865678893   T   T   T
  0.2496582478711572  0.9403416874173687  0.1915374539501483   T   T   T
  0.4163115819485522  0.9403779387406440  0.1915410504791815   T   T   T
  0.0828071594070865  0.6883207260043781  0.0855693829560694   T   T   T
  0.2494969603234313  0.6882886582865261  0.0855729274188033   T   T   T
  0.4161650510782782  0.6883409045731957  0.0855594326658288   T   T   T
  0.0827668006963208  0.9382494061268331  0.0855363078942905   T   T   T
  0.2494416834608184  0.9382468810964681  0.0855415064520620   T   T   T
  0.4160963641844168  0.9382652815616465  0.0855370789199366   T   T   T
  0.1661156474108117  0.5631239867526752  0.1126602803395032   T   T   T
  0.3327757967822779  0.5631275010669273  0.1126584753175915   T   T   T
  0.4994315268888835  0.5631542827033140  0.1126391163228326   T   T   T
  0.1661237601680317  0.8131405640564314  0.1126573476490595   T   T   T
  0.3327706520322622  0.8131521966890569  0.1126521756096339   T   T   T
  0.4994776437191978  0.8132578575735477  0.1126612382891088   T   T   T
  0.9993960079925917  0.0654143393154224  0.0601390236944614   T   T   T
  0.6660557807628521  0.0654158063435943  0.0602054119528169   T   T   T
  0.8326816029628294  0.0654046953156942  0.0602037006885783   T   T   T
  0.9993932153784276  0.3154284619011948  0.0601355690258398   T   T   T
  0.6660320584205222  0.3153347768582815  0.0601625159758668   T   T   T
  0.8327345801995757  0.3153158009045604  0.0601742357345290   T   T   T
  0.5828264710960722  0.1880558900062562  0.1389818396594687   T   T   T
  0.7495067849252327  0.1883278867341547  0.1392026079687178   T   T   T
  0.9162700922010872  0.1881416993832039  0.1389695322531042   T   T   T
  0.5828194016095730  0.4382333405740705  0.1389888696907926   T   T   T
  0.7495479239106454  0.4380605982444522  0.1388237265461937   T   T   T
  0.9162582923811055  0.4381396151310215  0.1390395855226798   T   T   T
  0.6664576868256500  0.0634783586241225  0.1662956260476231   T   T   T
  0.8326097437097120  0.0636907910564311  0.1663074906490557   T   T   T
  0.9996873465768850  0.0630351270566835  0.1660957028636643   T   T   T
  0.6657497906644844  0.3133634099827609  0.1660931996521517   T   T   T
  0.8330781107093267  0.3132016840265548  0.1662243958292147   T   T   T
  0.9996517742291554  0.3131892653773247  0.1660998662907431   T   T   T
  0.5828662314379265  0.1898343675412924  0.1912568011999574   T   T   T
  0.7491918580929805  0.1923550572995885  0.1921789664306089   T   T   T
  0.9166880274749747  0.1898395919043744  0.1912669832098965   T   T   T
  0.5823445786118255  0.4405228437482255  0.1914799527549312   T   T   T
  0.7496473919049959  0.4449221130173939  0.1893796786407545   T   T   T
  0.9168455729305901  0.4402884890677666  0.1915837681692872   T   T   T
  0.5827706108930631  0.1882355965302149  0.0855417443837301   T   T   T
  0.7494996732736228  0.1882699015936548  0.0856489876730018   T   T   T
  0.9161622503473459  0.1882594886423117  0.0855373301657790   T   T   T
  0.5827669752480215  0.4383109205856137  0.0855255049781501   T   T   T
  0.7494475472624365  0.4382387833432010  0.0854668509029496   T   T   T
  0.9160983124220630  0.4382966800702808  0.0855460706460148   T   T   T
  0.6661319135851195  0.0631671821986356  0.1127238093405060   T   T   T
  0.8327434436566817  0.0631949005942578  0.1127238418250906   T   T   T
  0.9994590050476663  0.0630522484256829  0.1126279230997662   T   T   T
  0.6660433044445264  0.3130876758038624  0.1126347012804625   T   T   T
  0.8328133164751914  0.3130891777997515  0.1126607449207154   T   T   T
  0.9994752961418391  0.3131814759463446  0.1126160985850584   T   T   T
  0.9993776762703065  0.5654791257419161  0.0601631508474997   T   T   T
  0.6660627914647346  0.5654811160644064  0.0601634880362162   T   T   T
  0.8327119187406152  0.5654628845779167  0.0601717568580408   T   T   T
  0.9993404631142748  0.8154222896737200  0.0601703061349516   T   T   T
  0.6660612739467507  0.8153851353415391  0.0601937892902243   T   T   T
  0.8326816153169466  0.8153740462248570  0.0601963892498626   T   T   T
  0.5828650977661746  0.6882007957635841  0.1390151453348994   T   T   T
  0.7495544258418806  0.6880654027931746  0.1390778132277282   T   T   T
  0.9162605595053298  0.6881822915965252  0.1390283546514126   T   T   T
  0.5830277963297331  0.9382555638534533  0.1390753756457090   T   T   T
  0.7495922132481193  0.9381464561824685  0.1390746652763969   T   T   T
  0.9161447184109947  0.9382209366609570  0.1390800854850816   T   T   T
  0.6659027802187143  0.5633890668046442  0.1661523822384057   T   T   T
  0.8331111256142899  0.5632961331622975  0.1661897671540037   T   T   T
  0.9996760821244713  0.5632507140686271  0.1661600180759752   T   T   T
  0.6662194366372565  0.8131498575524138  0.1662138092667971   T   T   T
  0.8328627475581455  0.8131481530352532  0.1662206057128686   T   T   T
  0.9995136447787684  0.8132348147080469  0.1661942168245849   T   T   T
  0.5828951138461330  0.6903053035549943  0.1915445422215175   T   T   T
  0.7496135092095423  0.6901820989835570  0.1916095301208843   T   T   T
  0.9163618078387366  0.6902454673256312  0.1915437097547553   T   T   T
  0.5829993310139887  0.9403478984953100  0.1915490414598804   T   T   T
  0.7496706255997920  0.9403485163902067  0.1915654875317544   T   T   T
  0.9163039587208488  0.9404652056868703  0.1915481416184561   T   T   T
  0.5828308800575897  0.6883190495986404  0.0855686155867932   T   T   T
  0.7495073828928167  0.6882642036446918  0.0856028324682201   T   T   T
  0.9161579303971472  0.6883017080110204  0.0855761431878232   T   T   T
  0.5828193080771273  0.9383103960602091  0.0855617659311171   T   T   T
  0.7494535792960275  0.9382892403475668  0.0855834451594515   T   T   T
  0.9160822718825312  0.9382909970559397  0.0855647590411550   T   T   T
  0.6661176220277346  0.5630738693423447  0.1126639659439207   T   T   T
  0.8327916601250384  0.5630530210036724  0.1126756912212790   T   T   T
  0.9994597910630466  0.5631027734859458  0.1126551608303743   T   T   T
  0.6661338987614576  0.8131663944631328  0.1126927688591648   T   T   T
  0.8327564683095628  0.8131543079298607  0.1126964595781650   T   T   T
  0.9993989303908593  0.8132363983262735  0.1126707880006292   T   T   T
  0.0405587634109099  0.1779461205320683  0.0263069260101037   T   T   T
  0.2070013925000972  0.1780262951340321  0.0263780705098339   T   T   T
  0.3736092793115658  0.1779187028250725  0.0263652217700136   T   T   T
  0.0406244270646592  0.4279753758529306  0.0262896050117112   T   T   T
  0.2071607032196738  0.4278216067650512  0.0263141649716975   T   T   T
  0.3735725081045046  0.4278397592848490  0.0263535809667084   T   T   T
  0.1651328179809056  0.0292608635348492  0.0446153848822832   T   T   T
  0.3316906707126541  0.0292572169977693  0.0446228455785631   T   T   T
  0.4983492502565965  0.0292441959387095  0.0446093858400588   T   T   T
  0.1650824401510174  0.2792242727910991  0.0446245781540390   T   T   T
  0.3317273001425093  0.2791861913429668  0.0446381198406471   T   T   T
  0.4983679112894018  0.2792424775410901  0.0446082583201100   T   T   T
  0.4174353256447087  0.4042097886196355  0.2070495521619796   T   T   T
  0.4172815006662355  0.1540044227062608  0.2070302618317122   T   T   T
  0.0841499742647502  0.1539631715842296  0.2069671915254794   T   T   T
  0.2507272643064084  0.1541750676048812  0.2070475467167547   T   T   T
  0.0840804610787065  0.4041780782034181  0.2070446627425329   T   T   T
  0.2506972866753049  0.4041141457175765  0.2070562158938247   T   T   T
  0.0420555128199281  0.0533445597250587  0.2252495778334065   T   T   T
  0.2085332771278230  0.0537684040440647  0.2252467620768554   T   T   T
  0.3750055797165098  0.0535075658033044  0.2253246914585978   T   T   T
  0.0413318080798570  0.3028625338887354  0.2253319477323658   T   T   T
  0.2079954578095138  0.3036573140638389  0.2252977788273076   T   T   T
  0.3752985827523819  0.3035459938742948  0.2252412182133749   T   T   T
  0.0404910570991149  0.6780412199390784  0.0263449324103298   T   T   T
  0.2070449603658886  0.6780459756383672  0.0263765348965800   T   T   T
  0.3736237321383151  0.6779997027139485  0.0263700303888083   T   T   T
  0.0406583148402342  0.9279687220706546  0.0262961281352830   T   T   T
  0.2071022650137139  0.9278960924635244  0.0263416992782208   T   T   T
  0.3736098135714179  0.9278705738178449  0.0263552859563568   T   T   T
  0.1650820644426477  0.5292920942211163  0.0446356401545290   T   T   T
  0.3317518540779578  0.5292881667130447  0.0446345505129643   T   T   T
  0.4984165910708487  0.5293407868556917  0.0446154151628080   T   T   T
  0.1650779778152797  0.7791512824926934  0.0446403449339335   T   T   T
  0.3317256420895403  0.7791588917143727  0.0446400618978250   T   T   T
  0.4984612102260987  0.7792307704788523  0.0446387407052310   T   T   T
  0.4172673151739641  0.9042253355667387  0.2070709522738441   T   T   T
  0.4172882611372896  0.6540234468091438  0.2070228547381622   T   T   T
  0.0839602183272394  0.6541048187826407  0.2070481258595913   T   T   T
  0.2505729889216298  0.6541145932032777  0.2070854449217499   T   T   T
  0.0839855060814300  0.9042151040287542  0.2070596653336216   T   T   T
  0.2506817447684778  0.9042078417725891  0.2070751104838858   T   T   T
  0.0422537124255154  0.5529660219782865  0.2253577600779915   T   T   T
  0.2086343752599385  0.5520643127434015  0.2254753622678407   T   T   T
  0.3752646271438815  0.5525740160427965  0.2254002853847714   T   T   T
  0.0418745913489313  0.8029107232054558  0.2253516988205639   T   T   T
  0.2079713647247453  0.8032309524584694  0.2254547570017286   T   T   T
  0.3759434914672639  0.8024502592909166  0.2252534729165764   T   T   T
  0.5406007491357866  0.1779190418743909  0.0263111036216400   T   T   T
  0.7070697826606188  0.1779998368184129  0.0264346529020249   T   T   T
  0.8736136625224259  0.1778981507212543  0.0263566572541916   T   T   T
  0.5406407913908750  0.4279726638615823  0.0262928300760479   T   T   T
  0.7071981595644653  0.4277904499102461  0.0262686185198675   T   T   T
  0.8735702832576721  0.4278333849065118  0.0263501865958891   T   T   T
  0.6651994923150695  0.0292122158302166  0.0446809514748552   T   T   T
  0.8315891367865134  0.0292065702462146  0.0446795850486413   T   T   T
  0.9984135432917046  0.0292505366600142  0.0446025624092152   T   T   T
  0.6649695284064749  0.2791330390453683  0.0446339881361040   T   T   T
  0.8318167045745142  0.2790951864132495  0.0446505264271461   T   T   T
  0.9983955238647649  0.2792715951879557  0.0445996543694112   T   T   T
  0.9179618373404165  0.4043405030327779  0.2071295889755686   T   T   T
  0.9178612025783764  0.1537368565709635  0.2068173716595443   T   T   T
  0.5839187660013129  0.1540361676108636  0.2068755574474698   T   T   T
  0.7504176244684921  0.1558400728531494  0.2076345516601729   T   T   T
  0.5835163358736992  0.4042923602738082  0.2069673086981152   T   T   T
  0.7705721720113055  0.4631167728509675  0.2609978267713442   T   T   T
  0.5421161373341974  0.0539228186655677  0.2251451121111236   T   T   T
  0.7086256148562046  0.0547288040892192  0.2251264212727122   T   T   T
  0.8748952569697542  0.0537860162710697  0.2253650018727205   T   T   T
  0.5459013331999228  0.3041378079283845  0.2235893518070262   T   T   T
  0.6845004951847181  0.2852250450219000  0.2306009578465531   T   T   T
  0.8889509719613835  0.2996330763162413  0.2234551009577941   T   T   T
  0.7456037632074984  0.2698421057468959  0.2661481318576194   T   T   T
  0.7344211876059483  0.2282145360105561  0.3006525056797233   T   T   T
  0.7580869499583420  0.3132813211987879  0.3081519719986898   T   T   T
  0.6445728612701612  0.1356736302779571  0.2953270098048822   T   T   T
  0.7192334172925067  0.1103710412033411  0.2862669982761062   T   T   T
  0.8193841620037650  0.3860581433558482  0.3348643476414534   T   T   T
  0.7526759433826309  0.4336896824529343  0.3277449279556615   T   T   T
  0.7511745494674028  0.4361061356391751  0.2689125290034353   T   T   T
  0.7822089506932145  0.2675476718474092  0.2411986202096220   T   T   T
  0.5404939213074915  0.6780488571503740  0.0263434398159867   T   T   T
  0.7070844856051663  0.6780583914410954  0.0263870733892967   T   T   T
  0.8736491282825345  0.6780091893971114  0.0263700699350271   T   T   T
  0.5406937283459781  0.9279690956477475  0.0263131826746410   T   T   T
  0.7071128058020320  0.9279014588153670  0.0263569124070423   T   T   T
  0.8736013712613557  0.9278872743485401  0.0263660217108669   T   T   T
  0.6651138876343063  0.5293245164871170  0.0446229369980584   T   T   T
  0.8317196202673739  0.5293036952362704  0.0446337632726488   T   T   T
  0.9983925881253742  0.5293245935664174  0.0446223122821768   T   T   T
  0.6651007053880360  0.7792029220105616  0.0446631603615037   T   T   T
  0.8316799598830261  0.7791982391146010  0.0446650625633654   T   T   T
  0.9983208415576724  0.7792234301538551  0.0446434054209252   T   T   T
  0.9172726945937362  0.9043617590922752  0.2070920653546779   T   T   T
  0.9173699095337000  0.6539505047653947  0.2070482402224650   T   T   T
  0.5838090129145147  0.6540432003584101  0.2070545969937109   T   T   T
  0.7504781768522929  0.6540139092134403  0.2071402400632526   T   T   T
  0.5839235224254433  0.9042111859717030  0.2070855695022970   T   T   T
  0.7507299018340757  0.9042192510180085  0.2071018679651804   T   T   T
  0.5415695339377363  0.5525725432929159  0.2254291329600539   T   T   T
  0.7089335208376657  0.5506903528605294  0.2255538581579370   T   T   T
  0.8751335940884375  0.5518552576700614  0.2257428544267538   T   T   T
  0.5417953151028436  0.8028515803333466  0.2253514125913983   T   T   T
  0.7079889526719317  0.8031917961592749  0.2254451206687041   T   T   T
  0.8760239912687193  0.8024752079819615  0.2252409794806646   T   T   T
  0.0870177672887899  0.1696180341124569  0.0338027845954288   T   T   T
  0.2535868241138560  0.1697250408788774  0.0338151462192653   T   T   T
  0.4202111804935912  0.1696804750195934  0.0337979739942290   T   T   T
  0.0870835812567303  0.4195529308013010  0.0337799965740931   T   T   T
  0.2536581167774739  0.4195771259404472  0.0337999506556115   T   T   T
  0.4201526905946439  0.4196275047297658  0.0337892139394368   T   T   T
  0.1620542221104445  0.0445782813535888  0.2178529618468522   T   T   T
  0.3286265323852206  0.0445766070388994  0.2178575116543652   T   T   T
  0.4955093418287794  0.0445303014020297  0.2178630710485773   T   T   T
  0.1616839973638633  0.2944532350319892  0.2178131156021680   T   T   T
  0.3288465767176648  0.2944932433543336  0.2178378800274255   T   T   T
  0.4970880049607421  0.2938495608131267  0.2178215215488117   T   T   T
  0.0869968451580080  0.6697298640251123  0.0338258574235940   T   T   T
  0.2536083880214687  0.6697358154923745  0.0338246819824513   T   T   T
  0.4202038941953826  0.6697229277685417  0.0338072248504019   T   T   T
  0.0870840503080655  0.9194983673498074  0.0337887146747125   T   T   T
  0.2536545726164754  0.9195771527995278  0.0337943121340951   T   T   T
  0.4202121877296655  0.9196113175668860  0.0337797626828348   T   T   T
  0.1622410219949629  0.5444909753334957  0.2178674401537996   T   T   T
  0.3288171668354507  0.5444597641773027  0.2178753545963783   T   T   T
  0.4952094317186326  0.5448874080672804  0.2178229546452985   T   T   T
  0.1617114572241219  0.7945306522791999  0.2178834555795474   T   T   T
  0.3291877525086862  0.7945627077758755  0.2179018758914236   T   T   T
  0.4953305902527493  0.7944525744989708  0.2178733010758475   T   T   T
  0.5870558476475189  0.1695215648192159  0.0337993941978573   T   T   T
  0.7536133659405458  0.1698241587600079  0.0339077808882284   T   T   T
  0.9201980590920527  0.1696045460477462  0.0337893629400294   T   T   T
  0.5870765475594880  0.4195189632450931  0.0337801056801008   T   T   T
  0.7536999861127970  0.4193799469878592  0.0337372469994031   T   T   T
  0.9201559362158652  0.4196448044445544  0.0337935619103016   T   T   T
  0.6620454547214608  0.0444421261410797  0.2179364684702141   T   T   T
  0.8285030731920802  0.0446049443822827  0.2179240437427234   T   T   T
  0.9955301667571426  0.0446937588703101  0.2178295238326864   T   T   T
  0.6560469588295733  0.3023671958439498  0.2166894084211398   T   T   T
  0.8389235026327818  0.2953214636906994  0.2180380000399311   T   T   T
  0.9951245502595354  0.2939323204147065  0.2177348265572457   T   T   T
  0.7601195080132533  0.2748378358735730  0.2956194157287061   T   T   T
  0.6951871413123439  0.1322175519227364  0.2996786886967898   T   T   T
  0.7685780133584040  0.3816338730206533  0.3308581498558802   T   T   T
  0.7388869781756342  0.2520364241537099  0.2499948733879511   T   T   T
  0.5870019828531152  0.6697749013518970  0.0338239918157574   T   T   T
  0.7536279956249662  0.6698392040244734  0.0338572853784192   T   T   T
  0.9202194355902047  0.6697558583737822  0.0338210106919183   T   T   T
  0.5871235656993368  0.9195354602052249  0.0338112250681193   T   T   T
  0.7536659447190157  0.9195715799782525  0.0338123704177327   T   T   T
  0.9201776676378651  0.9196154994374326  0.0338067692820946   T   T   T
  0.6622204882204724  0.5439921883102860  0.2180669028115597   T   T   T
  0.8289109056296244  0.5443153703577361  0.2180397127332150   T   T   T
  0.9957908375334685  0.5446151178645764  0.2178804100526479   T   T   T
  0.6617509575658135  0.7944937892144370  0.2178821201001128   T   T   T
  0.8292214110083669  0.7945660155991026  0.2179112270779293   T   T   T
  0.9954102573248719  0.7944465343031792  0.2178726151629625   T   T   T
  0.2493996940373456  0.1240594175201628  0.0593833960421293   T   T   T
  0.4160531371153687  0.1240375279664323  0.0593734341017353   T   T   T
  0.0827505001767875  0.3740194486003194  0.0593620724941915   T   T   T
  0.2494140922507337  0.3740110079306931  0.0593768682488882   T   T   T
  0.4160572083827311  0.3740261375370917  0.0593654205215447   T   T   T
  0.0827488939522039  0.1240118866143494  0.0593657178960902   T   T   T
  0.4995385331486015  0.0005457413742055  0.1392845839345905   T   T   T
  0.1662568509827042  0.0005352802089235  0.1392725531847857   T   T   T
  0.3329058713098074  0.0005769187517876  0.1392871794052682   T   T   T
  0.4995532257474736  0.2506192630723413  0.1392669854071794   T   T   T
  0.1662589822395298  0.2506233398308588  0.1392636171457617   T   T   T
  0.3329113058505299  0.2506196495544007  0.1392799743536035   T   T   T
  0.0829711473967846  0.1252186091641539  0.1655707935906831   T   T   T
  0.2495851419550515  0.1253530504591110  0.1656437950110317   T   T   T
  0.4162352074333747  0.1252914004379230  0.1656320413161065   T   T   T
  0.0829711346136688  0.3753634843722656  0.1656333810657577   T   T   T
  0.2495706312999728  0.3753193723880326  0.1656481324617016   T   T   T
  0.4161745008396364  0.3753316260793841  0.1656459235668131   T   T   T
  0.1663573454902050  0.4989214275305296  0.1923032823782382   T   T   T
  0.3329182297820676  0.4989442926062151  0.1923095283382123   T   T   T
  0.4993177074070822  0.4992223165769514  0.1922694363150366   T   T   T
  0.1663740975850767  0.2489165784109094  0.1922585834269882   T   T   T
  0.4996699333773763  0.2485967041689194  0.1922139116859389   T   T   T
  0.3330180329340753  0.2489351746469445  0.1922820911189308   T   T   T
  0.4994877967367234  0.0004061077926312  0.0860201536585097   T   T   T
  0.1661649608700607  0.0003923393959475  0.0860170404265321   T   T   T
  0.3328180743450861  0.0004096682803931  0.0860260971101420   T   T   T
  0.4994934235090032  0.2504410601351974  0.0860254251620468   T   T   T
  0.1661837165309270  0.2504369535938119  0.0860319883895214   T   T   T
  0.3328437327801780  0.2504317455452835  0.0860422908116367   T   T   T
  0.0828098730434333  0.1255631597332704  0.1123520011603028   T   T   T
  0.2494754774353800  0.1255668772876473  0.1123791440716556   T   T   T
  0.4161310084402979  0.1255718138698279  0.1123805229107334   T   T   T
  0.0828173127326165  0.3756801821953895  0.1123599811053227   T   T   T
  0.2494714731949184  0.3756692231825178  0.1123709186245082   T   T   T
  0.4161164927661543  0.3756716659520418  0.1123695103969880   T   T   T
  0.2494089051852787  0.6240836197965848  0.0593936936939020   T   T   T
  0.4160721017777223  0.6241042402318250  0.0593812287824841   T   T   T
  0.0827437918144201  0.8739590510598900  0.0593682622688064   T   T   T
  0.2494111876163612  0.8739675235512815  0.0593717825749858   T   T   T
  0.4160673003476049  0.8739992781495305  0.0593615050075077   T   T   T
  0.0827352090141794  0.6240903550298808  0.0593921793692183   T   T   T
  0.4995025214149614  0.5006796155784361  0.1392704870852213   T   T   T
  0.1662513839709084  0.5006419953276093  0.1392958450035229   T   T   T
  0.3328822942322873  0.5006333769617134  0.1392959243237989   T   T   T
  0.4995169306289460  0.7507115754634485  0.1392934054713232   T   T   T
  0.1662382338943412  0.7506526549034126  0.1393002548509046   T   T   T
  0.3328757283361409  0.7506744377077089  0.1392946809107903   T   T   T
  0.0829398604433751  0.6254125988348912  0.1656520955043999   T   T   T
  0.2495035138119989  0.6254185796299575  0.1656768154539802   T   T   T
  0.4160521271747947  0.6254577262073626  0.1656309913253877   T   T   T
  0.0828591410436137  0.8753707918969605  0.1656666560383814   T   T   T
  0.2495255081502271  0.8753604680068283  0.1656750089173159   T   T   T
  0.4161774350040563  0.8753896173839631  0.1656775063757748   T   T   T
  0.1663080533517856  0.9989732615522603  0.1923019750723891   T   T   T
  0.3329635792716231  0.9989918020741451  0.1923037993567922   T   T   T
  0.4996380324891014  0.9989961024886649  0.1922835844602694   T   T   T
  0.1662633996176519  0.7489689031849817  0.1923262306276253   T   T   T
  0.4995717772554717  0.7489428934381541  0.1923055475637777   T   T   T
  0.3329668503971409  0.7489590377018484  0.1923347036417134   T   T   T
  0.4994903432816301  0.5004604170453557  0.0860191329692106   T   T   T
  0.1661615572516315  0.5004629702044737  0.0860317737167349   T   T   T
  0.3328254974308600  0.5004636983961077  0.0860329199797076   T   T   T
  0.4995327918178838  0.7504994242975069  0.0860509013481695   T   T   T
  0.1661858978570169  0.7504361243874300  0.0860494387796510   T   T   T
  0.3328450494889211  0.7504483228114456  0.0860474110039258   T   T   T
  0.0827994789607591  0.6256334885626426  0.1123969181452569   T   T   T
  0.2494684223652180  0.6256213617401734  0.1124032998289234   T   T   T
  0.4161208571288113  0.6256630114695195  0.1123806413642650   T   T   T
  0.0828051747985194  0.8756369455653807  0.1123761592717963   T   T   T
  0.2494630151055268  0.8756368644726817  0.1123804081439385   T   T   T
  0.4161030231199939  0.8756575861040201  0.1123793997864436   T   T   T
  0.7493946596770149  0.1240615370309947  0.0594667188919680   T   T   T
  0.9160520400686256  0.1240089286995044  0.0593648978327658   T   T   T
  0.5827458855005100  0.3739905041165827  0.0593620382913625   T   T   T
  0.7494034514939341  0.3739021346038522  0.0593213033945565   T   T   T
  0.9160493208879177  0.3740076217145882  0.0593686784336381   T   T   T
  0.5827312950226629  0.1240068669023516  0.0593796299003704   T   T   T
  0.9995905124827056  0.0005091180714345  0.1392623781028217   T   T   T
  0.6663991948261845  0.0008248759410111  0.1393820699928719   T   T   T
  0.8327244523780933  0.0008463039151590  0.1393875413693275   T   T   T
  0.9996009846656764  0.2505940082193542  0.1392219795543955   T   T   T
  0.6660468162740227  0.2506722351027989  0.1393128627603029   T   T   T
  0.8329328187511608  0.2506254043855304  0.1393151023380121   T   T   T
  0.5828440516602613  0.1251843851173951  0.1655989447540715   T   T   T
  0.7493828019554116  0.1264749985250291  0.1660729333600242   T   T   T
  0.9163656531330946  0.1251033647462643  0.1655195324916456   T   T   T
  0.5826017971756172  0.3756065061117295  0.1656075252610726   T   T   T
  0.7493742756054955  0.3746849283394269  0.1655905811504582   T   T   T
  0.9162998355018156  0.3754870615514034  0.1656678675253903   T   T   T
  0.6655376919234676  0.4987269800929045  0.1924900992995896   T   T   T
  0.8336271721087748  0.4987269313112198  0.1925542513912157   T   T   T
  0.9999108754927973  0.4991199213678470  0.1923082780149424   T   T   T
  0.6649429112016216  0.2510364942529567  0.1925926310546295   T   T   T
  0.9998666239972492  0.2484790575438058  0.1920822103649285   T   T   T
  0.8338317617401977  0.2494109396262004  0.1924033368221905   T   T   T
  0.9994898786657718  0.0003936436063996  0.0860102804871598   T   T   T
  0.6661813946923839  0.0004638596234963  0.0860814829741404   T   T   T
  0.8327935364509201  0.0004557452711823  0.0860808981824593   T   T   T
  0.9995166039172972  0.2504341174614879  0.0860070189867238   T   T   T
  0.6661259157033659  0.2503923632252529  0.0860477190047506   T   T   T
  0.8328662418065030  0.2503833437452319  0.0860589440404332   T   T   T
  0.5827609017391298  0.1255995593012884  0.1123818996205014   T   T   T
  0.7494349153151512  0.1257074502663547  0.1125403826311213   T   T   T
  0.9161398882139455  0.1256076278258198  0.1123578609985787   T   T   T