C H O Si                                
   1.00000000000000     
     9.2874599999999994    0.0000000000000000    0.0000000000000000
     0.0000000000000000    8.7562999999999995    0.0000000000000000
     0.0000000000000000    0.0000000000000000   58.0000000000000000
   C    H    O    Si
    36    24    12    36
Selective dynamics
Direct
  0.0025030867074745  0.1355289959413917  0.4341969920902553   T   T   T
  0.0025030867074745  0.6355289959413917  0.4341969920902553   T   T   T
  0.3358364200404763  0.1355289959413917  0.4341969920902553   T   T   T
  0.3358364200404763  0.6355289959413917  0.4341969920902553   T   T   T
  0.6691697533744727  0.1355289959413917  0.4341969920902553   T   T   T
  0.6691697533744727  0.6355289959413917  0.4341969920902553   T   T   T
  0.1689315194660585  0.3807473030622945  0.4596511075932327   T   T   T
  0.1689315194660585  0.8807473030623016  0.4596511075932327   T   T   T
  0.5022648528000551  0.3807473030622945  0.4596511075932327   T   T   T
  0.5022648528000551  0.8807473030623016  0.4596511075932327   T   T   T
  0.8355981861330568  0.3807473030622945  0.4596511075932327   T   T   T
  0.8355981861330568  0.8807473030623016  0.4596511075932327   T   T   T
  0.0022394941400663  0.1306355903639959  0.4867902200862860   T   T   T
  0.0022394941400663  0.6306355903639960  0.4867902200862860   T   T   T
  0.3355728274730681  0.1306355903639959  0.4867902200862860   T   T   T
  0.3355728274730681  0.6306355903639960  0.4867902200862860   T   T   T
  0.6689061608070718  0.1306355903639959  0.4867902200862860   T   T   T
  0.6689061608070718  0.6306355903639960  0.4867902200862860   T   T   T
  0.1689062493380675  0.3806357591729911  0.5132097799137140   T   T   T
  0.1689062493380675  0.8806357591729912  0.5132097799137140   T   T   T
  0.5022395826720712  0.3806357591729911  0.5132097799137140   T   T   T
  0.5022395826720712  0.8806357591729912  0.5132097799137140   T   T   T
  0.8355729160050730  0.3806357591729911  0.5132097799137140   T   T   T
  0.8355729160050730  0.8806357591729912  0.5132097799137140   T   T   T
  0.0022647642680573  0.1307471342532994  0.5403488924067671   T   T   T
  0.0022647642680573  0.6307471342533064  0.5403488924067671   T   T   T
  0.3355980976010520  0.1307471342532994  0.5403488924067671   T   T   T
  0.3355980976010520  0.6307471342533064  0.5403488924067671   T   T   T
  0.6689314309350556  0.1307471342532994  0.5403488924067671   T   T   T
  0.6689314309350556  0.6307471342533064  0.5403488924067671   T   T   T
  0.1691698419054758  0.3855291647503870  0.5658030079097448   T   T   T
  0.1691698419054758  0.8855291647503869  0.5658030079097448   T   T   T
  0.5025031752394722  0.3855291647503870  0.5658030079097448   T   T   T
  0.5025031752394722  0.8855291647503869  0.5658030079097448   T   T   T
  0.8358365085724739  0.3855291647503870  0.5658030079097448   T   T   T
  0.8358365085724739  0.8855291647503869  0.5658030079097448   T   T   T
  0.0047892616424560  0.0633505186182887  0.4186375914981795   T   T   T
  0.0047892616424560  0.5633505186182887  0.4186375914981795   T   T   T
  0.3381225949764597  0.0633505186182887  0.4186375914981795   T   T   T
  0.3381225949764597  0.5633505186182887  0.4186375914981795   T   T   T
  0.6714559283094611  0.0633505186182887  0.4186375914981795   T   T   T
  0.6714559283094611  0.5633505186182887  0.4186375914981795   T   T   T
  0.1714561801864589  0.3133506874272912  0.5813624085018204   T   T   T
  0.1714561801864589  0.8133506874272910  0.5813624085018204   T   T   T
  0.5047895135204551  0.3133506874272912  0.5813624085018204   T   T   T
  0.5047895135204551  0.8133506874272910  0.5813624085018204   T   T   T
  0.8381228468534568  0.3133506874272912  0.5813624085018204   T   T   T
  0.8381228468534568  0.8133506874272910  0.5813624085018204   T   T   T
  0.0812584775675549  0.1114589498781766  0.6004829661448731   T   T   T
  0.0812584775675549  0.6114589498781766  0.6004829661448731   T   T   T
  0.4145918109005566  0.1114589498781766  0.6004829661448731   T   T   T
  0.4145918109005566  0.6114589498781766  0.6004829661448731   T   T   T
  0.7479251442335512  0.1114589498781766  0.6004829661448731   T   T   T
  0.7479251442335512  0.6114589498781766  0.6004829661448731   T   T   T
  0.2479251136815565  0.3614591943151733  0.3995170338551267   T   T   T
  0.2479251136815565  0.8614591943151735  0.3995170338551267   T   T   T
  0.5812584470145511  0.3614591943151733  0.3995170338551267   T   T   T
  0.5812584470145511  0.8614591943151735  0.3995170338551267   T   T   T
  0.9145917803475528  0.3614591943151733  0.3995170338551267   T   T   T
  0.9145917803475528  0.8614591943151735  0.3995170338551267   T   T   T
  0.1589129711578242  0.3479298897112048  0.4082386863801847   T   T   T
  0.1589129711578242  0.8479298897112052  0.4082386863801847   T   T   T
  0.4922463044918209  0.3479298897112048  0.4082386863801847   T   T   T
  0.4922463044918209  0.8479298897112052  0.4082386863801847   T   T   T
  0.8255796378248225  0.3479298897112048  0.4082386863801847   T   T   T
  0.8255796378248225  0.8479298897112052  0.4082386863801847   T   T   T
  0.9922462846248256  0.0979297209022026  0.5917613136198152   T   T   T
  0.9922462846248256  0.5979297209022029  0.5917613136198152   T   T   T
  0.3255796179588222  0.0979297209022026  0.5917613136198152   T   T   T
  0.3255796179588222  0.5979297209022029  0.5917613136198152   T   T   T
  0.6589129512918238  0.0979297209022026  0.5917613136198152   T   T   T
  0.6589129512918238  0.5979297209022029  0.5917613136198152   T   T   T
  0.1691581195691241  0.2535696254467750  0.4332092777177680   T   T   T
  0.1691581195691241  0.7535696254467683  0.4332092777177680   T   T   T
  0.5024914529031208  0.2535696254467750  0.4332092777177680   T   T   T
  0.5024914529031208  0.7535696254467683  0.4332092777177680   T   T   T
  0.8358247862361226  0.2535696254467750  0.4332092777177680   T   T   T
  0.8358247862361226  0.7535696254467683  0.4332092777177680   T   T   T
  0.0022511138506209  0.0062434908781802  0.4600220879532699   T   T   T
  0.0022511138506209  0.5062434908781800  0.4600220879532699   T   T   T
  0.3355844471836226  0.0062434908781802  0.4600220879532699   T   T   T
  0.3355844471836226  0.5062434908781800  0.4600220879532699   T   T   T
  0.6689177805176192  0.0062434908781802  0.4600220879532699   T   T   T
  0.6689177805176192  0.5062434908781800  0.4600220879532699   T   T   T
  0.1689326220938313  0.2564744286247070  0.4864984906224030   T   T   T
  0.1689326220938313  0.7564744286247072  0.4864984906224030   T   T   T
  0.5022659554278279  0.2564744286247070  0.4864984906224030   T   T   T
  0.5022659554278279  0.7564744286247072  0.4864984906224030   T   T   T
  0.8355992887608297  0.2564744286247070  0.4864984906224030   T   T   T
  0.8355992887608297  0.7564744286247072  0.4864984906224030   T   T   T
  0.0022658668958301  0.0064742598147099  0.5135015093775968   T   T   T
  0.0022658668958301  0.5064742598147101  0.5135015093775968   T   T   T
  0.3355992002288318  0.0064742598147099  0.5135015093775968   T   T   T
  0.3355992002288318  0.5064742598147101  0.5135015093775968   T   T   T
  0.6689325335628284  0.0064742598147099  0.5135015093775968   T   T   T
  0.6689325335628284  0.5064742598147101  0.5135015093775968   T   T   T
  0.1689178690486221  0.2562436596881773  0.5399779120467301   T   T   T
  0.1689178690486221  0.7562436596881771  0.5399779120467301   T   T   T
  0.5022512023826187  0.2562436596881773  0.5399779120467301   T   T   T
  0.5022512023826187  0.7562436596881771  0.5399779120467301   T   T   T
  0.8355845357156204  0.2562436596881773  0.5399779120467301   T   T   T
  0.8355845357156204  0.7562436596881771  0.5399779120467301   T   T   T
  0.0024913643711228  0.0035694566367709  0.5667907222822320   T   T   T
  0.0024913643711228  0.5035694566367783  0.5667907222822320   T   T   T
  0.3358246977041246  0.0035694566367709  0.5667907222822320   T   T   T
  0.3358246977041246  0.5035694566367783  0.5667907222822320   T   T   T
  0.6691580310381213  0.0035694566367709  0.5667907222822320   T   T   T
  0.6691580310381213  0.5035694566367783  0.5667907222822320   T   T   T
 
  0.00000000E+00  0.00000000E+00  0.00000000E+00
  0.00000000E+00  0.00000000E+00  0.00000000E+00
  0.00000000E+00  0.00000000E+00  0.00000000E+00
  0.00000000E+00  0.00000000E+00  0.00000000E+00
  0.00000000E+00  0.00000000E+00  0.00000000E+00
  0.00000000E+00  0.00000000E+00  0.00000000E+00
  0.00000000E+00  0.00000000E+00  0.00000000E+00
  0.00000000E+00  0.00000000E+00  0.00000000E+00
  0.00000000E+00  0.00000000E+00  0.00000000E+00
  0.00000000E+00  0.00000000E+00  0.00000000E+00
  0.00000000E+00  0.00000000E+00  0.00000000E+00
  0.00000000E+00  0.00000000E+00  0.00000000E+00
  0.00000000E+00  0.00000000E+00  0.00000000E+00
  0.00000000E+00  0.00000000E+00  0.00000000E+00
  0.00000000E+00  0.00000000E+00  0.00000000E+00
  0.00000000E+00  0.00000000E+00  0.00000000E+00
  0.00000000E+00  0.00000000E+00  0.00000000E+00
  0.00000000E+00  0.00000000E+00  0.00000000E+00
  0.00000000E+00  0.00000000E+00  0.00000000E+00
  0.00000000E+00  0.00000000E+00  0.00000000E+00
  0.00000000E+00  0.00000000E+00  0.00000000E+00
  0.00000000E+00  0.00000000E+00  0.00000000E+00
  0.00000000E+00  0.00000000E+00  0.00000000E+00
  0.00000000E+00  0.00000000E+00  0.00000000E+00
  0.00000000E+00  0.00000000E+00  0.00000000E+00
  0.00000000E+00  0.00000000E+00  0.00000000E+00
  0.00000000E+00  0.00000000E+00  0.00000000E+00
  0.00000000E+00  0.00000000E+00  0.00000000E+00
  0.00000000E+00  0.00000000E+00  0.00000000E+00
  0.00000000E+00  0.00000000E+00  0.00000000E+00
  0.00000000E+00  0.00000000E+00  0.00000000E+00
  0.00000000E+00  0.00000000E+00  0.00000000E+00
  0.00000000E+00  0.00000000E+00  0.00000000E+00
  0.00000000E+00  0.00000000E+00  0.00000000E+00
  0.00000000E+00  0.00000000E+00  0.00000000E+00
  0.00000000E+00  0.00000000E+00  0.00000000E+00
  0.00000000E+00  0.00000000E+00  0.00000000E+00
  0.00000000E+00  0.00000000E+00  0.00000000E+00
  0.00000000E+00  0.00000000E+00  0.00000000E+00
  0.00000000E+00  0.00000000E+00  0.00000000E+00
  0.00000000E+00  0.00000000E+00  0.00000000E+00
  0.00000000E+00  0.00000000E+00  0.00000000E+00
  0.00000000E+00  0.00000000E+00  0.00000000E+00
  0.00000000E+00  0.00000000E+00  0.00000000E+00
  0.00000000E+00  0.00000000E+00  0.00000000E+00
  0.00000000E+00  0.00000000E+00  0.00000000E+00
  0.00000000E+00  0.00000000E+00  0.00000000E+00
  0.00000000E+00  0.00000000E+00  0.00000000E+00
  0.00000000E+00  0.00000000E+00  0.00000000E+00
  0.00000000E+00  0.00000000E+00  0.00000000E+00
  0.00000000E+00  0.00000000E+00  0.00000000E+00
  0.00000000E+00  0.00000000E+00  0.00000000E+00
  0.00000000E+00  0.00000000E+00  0.00000000E+00
  0.00000000E+00  0.00000000E+00  0.00000000E+00
  0.00000000E+00  0.00000000E+00  0.00000000E+00
  0.00000000E+00  0.00000000E+00  0.00000000E+00
  0.00000000E+00  0.00000000E+00  0.00000000E+00
  0.00000000E+00  0.00000000E+00  0.00000000E+00
  0.00000000E+00  0.00000000E+00  0.00000000E+00
  0.00000000E+00  0.00000000E+00  0.00000000E+00
  0.00000000E+00  0.00000000E+00  0.00000000E+00
  0.00000000E+00  0.00000000E+00  0.00000000E+00
  0.00000000E+00  0.00000000E+00  0.00000000E+00
  0.00000000E+00  0.00000000E+00  0.00000000E+00
  0.00000000E+00  0.00000000E+00  0.00000000E+00
  0.00000000E+00  0.00000000E+00  0.00000000E+00
  0.00000000E+00  0.00000000E+00  0.00000000E+00
  0.00000000E+00  0.00000000E+00  0.00000000E+00
  0.00000000E+00  0.00000000E+00  0.00000000E+00
  0.00000000E+00  0.00000000E+00  0.00000000E+00
  0.00000000E+00  0.00000000E+00  0.00000000E+00
  0.00000000E+00  0.00000000E+00  0.00000000E+00
  0.00000000E+00  0.00000000E+00  0.00000000E+00
  0.00000000E+00  0.00000000E+00  0.00000000E+00
  0.00000000E+00  0.00000000E+00  0.00000000E+00
  0.00000000E+00  0.00000000E+00  0.00000000E+00
  0.00000000E+00  0.00000000E+00  0.00000000E+00
  0.00000000E+00  0.00000000E+00  0.00000000E+00
  0.00000000E+00  0.00000000E+00  0.00000000E+00
  0.00000000E+00  0.00000000E+00  0.00000000E+00
  0.00000000E+00  0.00000000E+00  0.00000000E+00
  0.00000000E+00  0.00000000E+00  0.00000000E+00
  0.00000000E+00  0.00000000E+00  0.00000000E+00
  0.00000000E+00  0.00000000E+00  0.00000000E+00
  0.00000000E+00  0.00000000E+00  0.00000000E+00
  0.00000000E+00  0.00000000E+00  0.00000000E+00
  0.00000000E+00  0.00000000E+00  0.00000000E+00
  0.00000000E+00  0.00000000E+00  0.00000000E+00
  0.00000000E+00  0.00000000E+00  0.00000000E+00
  0.00000000E+00  0.00000000E+00  0.00000000E+00
  0.00000000E+00  0.00000000E+00  0.00000000E+00
  0.00000000E+00  0.00000000E+00  0.00000000E+00
  0.00000000E+00  0.00000000E+00  0.00000000E+00
  0.00000000E+00  0.00000000E+00  0.00000000E+00
  0.00000000E+00  0.00000000E+00  0.00000000E+00
  0.00000000E+00  0.00000000E+00  0.00000000E+00
  0.00000000E+00  0.00000000E+00  0.00000000E+00
  0.00000000E+00  0.00000000E+00  0.00000000E+00
  0.00000000E+00  0.00000000E+00  0.00000000E+00
  0.00000000E+00  0.00000000E+00  0.00000000E+00
  0.00000000E+00  0.00000000E+00  0.00000000E+00
  0.00000000E+00  0.00000000E+00  0.00000000E+00
  0.00000000E+00  0.00000000E+00  0.00000000E+00
  0.00000000E+00  0.00000000E+00  0.00000000E+00
  0.00000000E+00  0.00000000E+00  0.00000000E+00
  0.00000000E+00  0.00000000E+00  0.00000000E+00
  0.00000000E+00  0.00000000E+00  0.00000000E+00
  0.00000000E+00  0.00000000E+00  0.00000000E+00
