C H O Si                                
   1.00000000000000     
     9.2874599999999994    0.0000000000000000    0.0000000000000000
     0.0000000000000000    8.7563099999999991    0.0000000000000000
     0.0000000000000000    0.0000000000000000   58.0000000000000000
   C    H    O    Si
    36    33    16    36
Selective dynamics
Direct
  0.9955438100321753  0.1310191642842686  0.0594112425615512   T   T   T
  0.3289737801345551  0.1311969757775763  0.0595059549982556   T   T   T
  0.6621184283726071  0.1309831616613799  0.0595419994635835   T   T   T
  0.9955266676253924  0.6311617802622459  0.0594242322421511   T   T   T
  0.3289811605771818  0.6308219216081082  0.0595199876473191   T   T   T
  0.6622388408058583  0.6308003000599621  0.0595238222447028   T   T   T
  0.1612962190325995  0.3763629241626855  0.1381708590545926   T   T   T
  0.4947555606034707  0.3766226590104022  0.1386709860970038   T   T   T
  0.8279947312793008  0.3764252851583839  0.1382362495327668   T   T   T
  0.1617529482275869  0.8763698928036511  0.1383229238862931   T   T   T
  0.4947855857845562  0.8743503698383414  0.1383574034714845   T   T   T
  0.8275802488354516  0.8764048857984773  0.1383530834922864   T   T   T
  0.3278767293568541  0.1266292797485899  0.1656692405781802   T   T   T
  0.6613908272181318  0.1267968000243188  0.1658060373111448   T   T   T
  0.9945759633740984  0.1256160939285793  0.1652748587478534   T   T   T
  0.3276536404858275  0.6263161619114537  0.1657377449406819   T   T   T
  0.6616855472273712  0.6266291472340433  0.1656910315996400   T   T   T
  0.9945992597808500  0.6264882984150314  0.1652893651923207   T   T   T
  0.1611473654373954  0.3777548347067704  0.1902287642692119   T   T   T
  0.4946984193704153  0.3845093187785209  0.1917353429709512   T   T   T
  0.8289592491840143  0.3790621082470180  0.1904515113209535   T   T   T
  0.1616375095125575  0.8803349091329334  0.1906954041216133   T   T   T
  0.4948406675749688  0.8773148659600412  0.1913378679754474   T   T   T
  0.8285900113796206  0.8810717077894296  0.1909005694464862   T   T   T
  0.1614456274769191  0.3767288108192341  0.0847386462358649   T   T   T
  0.4948219093225055  0.3768424547032248  0.0849678238272035   T   T   T
  0.8280835888613660  0.3767057017282611  0.0847805922871827   T   T   T
  0.1616784442835722  0.8769114035876873  0.0847894032819856   T   T   T
  0.4948351837465106  0.8764632611230136  0.0847494758428080   T   T   T
  0.8280199192147703  0.8768763615521007  0.0848082021206703   T   T   T
  0.3281785053850909  0.1262233362651205  0.1120618509064942   T   T   T
  0.6610562854152193  0.1262345611349670  0.1121064985153537   T   T   T
  0.9946321818383629  0.1262363038206041  0.1119132512945772   T   T   T
  0.3279088363578793  0.6260782574725731  0.1120583237453608   T   T   T
  0.6613766463291683  0.6261643839214497  0.1120541392780497   T   T   T
  0.9946964134757632  0.6268332962669286  0.1118689036581393   T   T   T
  0.0772743775461218  0.3634601285994449  0.0265372268434417   T   T   T
  0.4111592472533734  0.3636499376743518  0.0266930314284776   T   T   T
  0.7436028727651387  0.3633768440991048  0.0266232528619748   T   T   T
  0.0779437819287286  0.8634892462267988  0.0265719810088116   T   T   T
  0.4110610898058080  0.8632744671414526  0.0265121346211779   T   T   T
  0.7434781326071074  0.8631948234356950  0.0266464409472772   T   T   T
  0.3269542144621893  0.0584557166916268  0.0440216445535793   T   T   T
  0.6589871740290869  0.0583455513835716  0.0440533984842681   T   T   T
  0.9927337916921897  0.0583380972768593  0.0439221571994409   T   T   T
  0.3262830055393944  0.5579993300888088  0.0440440088522275   T   T   T
  0.6597364600835619  0.5579153627474344  0.0440577655481220   T   T   T
  0.9927589604733715  0.5588648279317358  0.0438927473251382   T   T   T
  0.8312525697287011  0.8070665430188951  0.2062307186544619   T   T   T
  0.8326775094721134  0.3062506490895183  0.2059275155598840   T   T   T
  0.1621402252365401  0.3053166199525067  0.2057321284569557   T   T   T
  0.4971641557154414  0.3097582449139147  0.2070001230104596   T   T   T
  0.1632196663769635  0.8064623934656880  0.2060556065596127   T   T   T
  0.5377880824425433  0.9306472886694398  0.2618004039891593   T   T   T
  0.0899145569420722  0.1107177656928326  0.2225860951719560   T   T   T
  0.4152891791182309  0.1025449206669453  0.2239341759179565   T   T   T
  0.7548723242377812  0.1174703329884901  0.2221212108146642   T   T   T
  0.0945317528608431  0.5972344706521033  0.2222185532730311   T   T   T
  0.3680763949462372  0.5665817597517270  0.2303353952313071   T   T   T
  0.7831796008610222  0.5893976634016916  0.2224644633173862   T   T   T
  0.5068478091607015  0.5446376839155505  0.2664397150495832   T   T   T
  0.4754681827558064  0.4548337570381362  0.3007701820920196   T   T   T
  0.5245091669614383  0.6224080469211597  0.3089961273254863   T   T   T
  0.2900475014181211  0.2748623764263102  0.2969322843184833   T   T   T
  0.4394658372210339  0.2158351822190529  0.2892502499217872   T   T   T
  0.6388225234166034  0.7742964104031921  0.3350908801637271   T   T   T
  0.5025896423173157  0.8622312942308619  0.3272573142207429   T   T   T
  0.5093806223461369  0.8842226763114133  0.2716856642648444   T   T   T
  0.5704951699576808  0.5391815737543619  0.2405783193544532   T   T   T
  0.1716865901862925  0.3371493084193732  0.0328193799517611   T   T   T
  0.5054448378550104  0.3373471155954001  0.0330121316761612   T   T   T
  0.8380338915384091  0.3369214875721602  0.0328759441959061   T   T   T
  0.1721743647067406  0.8370808050151869  0.0328976711090991   T   T   T
  0.5053347108979569  0.8364597972764125  0.0328002392387014   T   T   T
  0.8379906950542335  0.8370860138964016  0.0329127730284046   T   T   T
  0.3195524970984034  0.0880654425462345  0.2172760648804053   T   T   T
  0.6573144629723018  0.0887535516143793  0.2175630739383713   T   T   T
  0.9921602185441690  0.0878294582775435  0.2172922965861144   T   T   T
  0.2978722674894189  0.5866446526321449  0.2176454901416707   T   T   T
  0.6808683546814909  0.5830670770802021  0.2182056983927080   T   T   T
  0.9935588105045717  0.5832014022330008  0.2171399487565333   T   T   T
  0.5320124355269251  0.5462893892666529  0.2964105912999646   T   T   T
  0.3904466373785822  0.2692203174708225  0.3017288191338326   T   T   T
  0.5370588490960160  0.7608513143599465  0.3314816530336120   T   T   T
  0.4881958033341825  0.5077641508464724  0.2505559110760884   T   T   T
  0.4958429763213382  0.2483740630666693  0.0589992343478996   T   T   T
  0.8289774894653554  0.2480858640175774  0.0588638759364512   T   T   T
  0.1625761806499060  0.7481383513428931  0.0588862982554867   T   T   T
  0.4958174268135397  0.7481149053613543  0.0588607785864195   T   T   T
  0.8289284169374354  0.7481773892985000  0.0589021442186774   T   T   T
  0.1624191426782830  0.2482260571155872  0.0588170038853717   T   T   T
  0.9947045919467173  0.0004627389131383  0.1386173303099648   T   T   T
  0.3297335303947802  0.0007544689397749  0.1389347744867509   T   T   T
  0.6597969149058242  0.0008837639047709  0.1390073337227142   T   T   T
  0.9947833385485865  0.5010119749778762  0.1385326165964602   T   T   T
  0.3281802630731797  0.5016893857465913  0.1389595030746733   T   T   T
  0.6613002315635714  0.5017050937998150  0.1389135878345304   T   T   T
  0.1619512525152496  0.2486434644975500  0.1646561816526679   T   T   T
  0.4945347744874863  0.2509609413973065  0.1655256021314059   T   T   T
  0.8274865590765146  0.2489277827997888  0.1647722919185854   T   T   T
  0.1619396597379197  0.7505431189938454  0.1649717510847234   T   T   T
  0.4945906132334201  0.7539377873400153  0.1664024240790442   T   T   T
  0.8276736454342754  0.7510037364229895  0.1650633090847275   T   T   T
  0.3338350960171677  0.9908405635415803  0.1916625420318381   T   T   T
  0.6554149833329087  0.9911768041476565  0.1919211521175723   T   T   T
  0.9953778273647237  0.9970223843658934  0.1913083119536339   T   T   T
  0.3252227170828945  0.4997197241421610  0.1920157469234179   T   T   T
  0.9955536384049670  0.4953419295480239  0.1909540591070591   T   T   T
  0.6637022812636171  0.4989793922567047  0.1917345647602248   T   T   T
  0.9949995216111247  0.0009960541328346  0.0854477817528074   T   T   T
  0.3287027828085071  0.0010063761446280  0.0855496872847952   T   T   T
  0.6612360970008312  0.0009251863384296  0.0855875432642028   T   T   T
  0.9949092118951327  0.5009722424686361  0.0854359031364147   T   T   T
  0.3283306692255711  0.5009780575974103  0.0855812459256713   T   T   T
  0.6615821264139893  0.5010116990846036  0.0855905189345003   T   T   T
  0.1616386266909857  0.2510460083511275  0.1117705865411870   T   T   T
  0.4946516668484045  0.2513640671060907  0.1120829558012432   T   T   T
  0.8277121049678382  0.2509853077613094  0.1118142844028239   T   T   T
  0.1618067813944021  0.7514652333753823  0.1118404950658833   T   T   T
  0.4946687287661434  0.7513055563779061  0.1119708722068064   T   T   T
  0.8276650124272912  0.7514288149471938  0.1118571889628888   T   T   T
 
  0.00000000E+00  0.00000000E+00  0.00000000E+00
  0.00000000E+00  0.00000000E+00  0.00000000E+00
  0.00000000E+00  0.00000000E+00  0.00000000E+00
  0.00000000E+00  0.00000000E+00  0.00000000E+00
  0.00000000E+00  0.00000000E+00  0.00000000E+00
  0.00000000E+00  0.00000000E+00  0.00000000E+00
  0.00000000E+00  0.00000000E+00  0.00000000E+00
  0.00000000E+00  0.00000000E+00  0.00000000E+00
  0.00000000E+00  0.00000000E+00  0.00000000E+00
  0.00000000E+00  0.00000000E+00  0.00000000E+00
  0.00000000E+00  0.00000000E+00  0.00000000E+00
  0.00000000E+00  0.00000000E+00  0.00000000E+00
  0.00000000E+00  0.00000000E+00  0.00000000E+00
  0.00000000E+00  0.00000000E+00  0.00000000E+00
  0.00000000E+00  0.00000000E+00  0.00000000E+00
  0.00000000E+00  0.00000000E+00  0.00000000E+00
  0.00000000E+00  0.00000000E+00  0.00000000E+00
  0.00000000E+00  0.00000000E+00  0.00000000E+00
  0.00000000E+00  0.00000000E+00  0.00000000E+00
  0.00000000E+00  0.00000000E+00  0.00000000E+00
  0.00000000E+00  0.00000000E+00  0.00000000E+00
  0.00000000E+00  0.00000000E+00  0.00000000E+00
  0.00000000E+00  0.00000000E+00  0.00000000E+00
  0.00000000E+00  0.00000000E+00  0.00000000E+00
  0.00000000E+00  0.00000000E+00  0.00000000E+00
  0.00000000E+00  0.00000000E+00  0.00000000E+00
  0.00000000E+00  0.00000000E+00  0.00000000E+00
  0.00000000E+00  0.00000000E+00  0.00000000E+00
  0.00000000E+00  0.00000000E+00  0.00000000E+00
  0.00000000E+00  0.00000000E+00  0.00000000E+00
  0.00000000E+00  0.00000000E+00  0.00000000E+00
  0.00000000E+00  0.00000000E+00  0.00000000E+00
  0.00000000E+00  0.00000000E+00  0.00000000E+00
  0.00000000E+00  0.00000000E+00  0.00000000E+00
  0.00000000E+00  0.00000000E+00  0.00000000E+00
  0.00000000E+00  0.00000000E+00  0.00000000E+00
  0.00000000E+00  0.00000000E+00  0.00000000E+00
  0.00000000E+00  0.00000000E+00  0.00000000E+00
  0.00000000E+00  0.00000000E+00  0.00000000E+00
  0.00000000E+00  0.00000000E+00  0.00000000E+00
  0.00000000E+00  0.00000000E+00  0.00000000E+00
  0.00000000E+00  0.00000000E+00  0.00000000E+00
  0.00000000E+00  0.00000000E+00  0.00000000E+00
  0.00000000E+00  0.00000000E+00  0.00000000E+00
  0.00000000E+00  0.00000000E+00  0.00000000E+00
  0.00000000E+00  0.00000000E+00  0.00000000E+00
  0.00000000E+00  0.00000000E+00  0.00000000E+00
  0.00000000E+00  0.00000000E+00  0.00000000E+00
  0.00000000E+00  0.00000000E+00  0.00000000E+00
  0.00000000E+00  0.00000000E+00  0.00000000E+00
  0.00000000E+00  0.00000000E+00  0.00000000E+00
  0.00000000E+00  0.00000000E+00  0.00000000E+00
  0.00000000E+00  0.00000000E+00  0.00000000E+00
  0.00000000E+00  0.00000000E+00  0.00000000E+00
  0.00000000E+00  0.00000000E+00  0.00000000E+00
  0.00000000E+00  0.00000000E+00  0.00000000E+00
  0.00000000E+00  0.00000000E+00  0.00000000E+00
  0.00000000E+00  0.00000000E+00  0.00000000E+00
  0.00000000E+00  0.00000000E+00  0.00000000E+00
  0.00000000E+00  0.00000000E+00  0.00000000E+00
  0.00000000E+00  0.00000000E+00  0.00000000E+00
  0.00000000E+00  0.00000000E+00  0.00000000E+00
  0.00000000E+00  0.00000000E+00  0.00000000E+00
  0.00000000E+00  0.00000000E+00  0.00000000E+00
  0.00000000E+00  0.00000000E+00  0.00000000E+00
  0.00000000E+00  0.00000000E+00  0.00000000E+00
  0.00000000E+00  0.00000000E+00  0.00000000E+00
  0.00000000E+00  0.00000000E+00  0.00000000E+00
  0.00000000E+00  0.00000000E+00  0.00000000E+00
  0.00000000E+00  0.00000000E+00  0.00000000E+00
  0.00000000E+00  0.00000000E+00  0.00000000E+00
  0.00000000E+00  0.00000000E+00  0.00000000E+00
  0.00000000E+00  0.00000000E+00  0.00000000E+00
  0.00000000E+00  0.00000000E+00  0.00000000E+00
  0.00000000E+00  0.00000000E+00  0.00000000E+00
  0.00000000E+00  0.00000000E+00  0.00000000E+00
  0.00000000E+00  0.00000000E+00  0.00000000E+00
  0.00000000E+00  0.00000000E+00  0.00000000E+00
  0.00000000E+00  0.00000000E+00  0.00000000E+00
  0.00000000E+00  0.00000000E+00  0.00000000E+00
  0.00000000E+00  0.00000000E+00  0.00000000E+00
  0.00000000E+00  0.00000000E+00  0.00000000E+00
  0.00000000E+00  0.00000000E+00  0.00000000E+00
  0.00000000E+00  0.00000000E+00  0.00000000E+00
  0.00000000E+00  0.00000000E+00  0.00000000E+00
  0.00000000E+00  0.00000000E+00  0.00000000E+00
  0.00000000E+00  0.00000000E+00  0.00000000E+00
  0.00000000E+00  0.00000000E+00  0.00000000E+00
  0.00000000E+00  0.00000000E+00  0.00000000E+00
  0.00000000E+00  0.00000000E+00  0.00000000E+00
  0.00000000E+00  0.00000000E+00  0.00000000E+00
  0.00000000E+00  0.00000000E+00  0.00000000E+00
  0.00000000E+00  0.00000000E+00  0.00000000E+00
  0.00000000E+00  0.00000000E+00  0.00000000E+00
  0.00000000E+00  0.00000000E+00  0.00000000E+00
  0.00000000E+00  0.00000000E+00  0.00000000E+00
  0.00000000E+00  0.00000000E+00  0.00000000E+00
  0.00000000E+00  0.00000000E+00  0.00000000E+00
  0.00000000E+00  0.00000000E+00  0.00000000E+00
  0.00000000E+00  0.00000000E+00  0.00000000E+00
  0.00000000E+00  0.00000000E+00  0.00000000E+00
  0.00000000E+00  0.00000000E+00  0.00000000E+00
  0.00000000E+00  0.00000000E+00  0.00000000E+00
  0.00000000E+00  0.00000000E+00  0.00000000E+00
  0.00000000E+00  0.00000000E+00  0.00000000E+00
  0.00000000E+00  0.00000000E+00  0.00000000E+00
  0.00000000E+00  0.00000000E+00  0.00000000E+00
  0.00000000E+00  0.00000000E+00  0.00000000E+00
  0.00000000E+00  0.00000000E+00  0.00000000E+00
  0.00000000E+00  0.00000000E+00  0.00000000E+00
  0.00000000E+00  0.00000000E+00  0.00000000E+00
  0.00000000E+00  0.00000000E+00  0.00000000E+00
  0.00000000E+00  0.00000000E+00  0.00000000E+00
  0.00000000E+00  0.00000000E+00  0.00000000E+00
  0.00000000E+00  0.00000000E+00  0.00000000E+00
  0.00000000E+00  0.00000000E+00  0.00000000E+00
  0.00000000E+00  0.00000000E+00  0.00000000E+00
  0.00000000E+00  0.00000000E+00  0.00000000E+00
  0.00000000E+00  0.00000000E+00  0.00000000E+00
  0.00000000E+00  0.00000000E+00  0.00000000E+00
  0.00000000E+00  0.00000000E+00  0.00000000E+00
