C H O Si                                
   1.00000000000000     
    18.5749199999999988    0.0000000000000000    0.0000000000000000
     0.0000000000000000   17.5126199999999983    0.0000000000000000
     0.0000000000000000    0.0000000000000000   58.0000000000000000
   C    H    O    Si
   144   105    52   144
Selective dynamics
Direct
  0.4966104289443328  0.0632030090590818  0.0605026368728049   T   T   T
  0.1632367964874308  0.0631278653847590  0.0604880906079229   T   T   T
  0.3299252051764106  0.0631509939654510  0.0604916225204042   T   T   T
  0.4965213003329355  0.3132210929200744  0.0604959362625232   T   T   T
  0.1631658558404170  0.3132144858690758  0.0604997348239193   T   T   T
  0.3298391345654526  0.3132114319684525  0.0604976423839992   T   T   T
  0.0798917623382114  0.1859049553683442  0.1393767376131458   T   T   T
  0.2464917509850410  0.1859723189299928  0.1394160598275749   T   T   T
  0.4131359204907408  0.1860095012709104  0.1394237267592874   T   T   T
  0.0798376958898741  0.4360527853681727  0.1394161077834616   T   T   T
  0.2464695169097562  0.4360372464188504  0.1394259080877059   T   T   T
  0.4131140556273746  0.4360553784240641  0.1394321973972847   T   T   T
  0.1633522569661695  0.0609742529779257  0.1665997008621234   T   T   T
  0.3299425372271225  0.0610482645959274  0.1666115331859712   T   T   T
  0.4965347420381878  0.0610083308312972  0.1666015358442785   T   T   T
  0.1632609345562620  0.3110717679440270  0.1666025896050831   T   T   T
  0.3299139717383637  0.3111098900167305  0.1666288616950228   T   T   T
  0.4965185873945139  0.3111799748262281  0.1666182870858041   T   T   T
  0.0803710896026785  0.1879856169579545  0.1919277425308767   T   T   T
  0.2468153513925011  0.1880599327330704  0.1919755157096247   T   T   T
  0.4132744482828827  0.1879947998720123  0.1919470915167708   T   T   T
  0.0801110193588565  0.4380961991612903  0.1919930086988579   T   T   T
  0.2467638977796233  0.4381260076142575  0.1919818940534922   T   T   T
  0.4134071341694124  0.4382190715157681  0.1919812503008639   T   T   T
  0.0798144702270580  0.1861353293776966  0.0858167341642291   T   T   T
  0.2464709102427538  0.1861454063933909  0.0858559212591208   T   T   T
  0.4131045633088904  0.1861714047262578  0.0858426283366915   T   T   T
  0.0798200175657039  0.4361920228297110  0.0858484516858751   T   T   T
  0.2464658926172340  0.4361843833368291  0.0858617341255798   T   T   T
  0.4131161287902393  0.4361798609441460  0.0858538003462064   T   T   T
  0.1631359357360614  0.0609278551524092  0.1130123670326983   T   T   T
  0.3297859979365501  0.0609886582605553  0.1130260202190078   T   T   T
  0.4964266088811951  0.0610205601887898  0.1130421168894157   T   T   T
  0.1631336196078320  0.3110199712222901  0.1130247612937059   T   T   T
  0.3298036175730644  0.3110318631505835  0.1130389015675018   T   T   T
  0.4964335265966567  0.3110329098253923  0.1130447138714468   T   T   T
  0.4966310546283844  0.5631550338498453  0.0605094707811544   T   T   T
  0.1632425391195940  0.5632072415868121  0.0605024461108049   T   T   T
  0.3299671221642475  0.5631758653384212  0.0605026062953363   T   T   T
  0.4965829814552429  0.8132205844944128  0.0605130170191341   T   T   T
  0.1631637559868767  0.8131069469071502  0.0604848392054958   T   T   T
  0.3298840234400109  0.8131607663671234  0.0604883612944482   T   T   T
  0.0798089392879589  0.6860761910155521  0.1394272648617579   T   T   T
  0.2464871192163444  0.6860371118679489  0.1394407864272231   T   T   T
  0.4131463663800651  0.6860882927760894  0.1394389311242248   T   T   T
  0.0799305009484278  0.9358340766669913  0.1393807333384321   T   T   T
  0.2465258448236450  0.9359259800211441  0.1394037200814940   T   T   T
  0.4131636816459338  0.9359680007794831  0.1394196757213846   T   T   T
  0.1632128068497271  0.5611315439242170  0.1666355818595719   T   T   T
  0.3299291126450335  0.5611619513269698  0.1666406486848505   T   T   T
  0.4965085343907235  0.5612874504857096  0.1666079821627935   T   T   T
  0.1632567768950118  0.8111092764673186  0.1666225047151891   T   T   T
  0.3299472218726819  0.8111346872502695  0.1666382471090365   T   T   T
  0.4966240058447032  0.8111947922330861  0.1666536712568334   T   T   T
  0.0801646641318749  0.6882176532094966  0.1919921600964617   T   T   T
  0.2468053347169045  0.6881979414135091  0.1920090380301127   T   T   T
  0.4134380205768581  0.6882438656344453  0.1919960273743350   T   T   T
  0.0802305226136969  0.9381125826456772  0.1919759551547274   T   T   T
  0.2468457776808076  0.9381025758198537  0.1919830972712514   T   T   T
  0.4134757739593459  0.9381691026674712  0.1919828095881652   T   T   T
  0.0797844115912425  0.6861669253829172  0.0858525516707015   T   T   T
  0.2464949494021213  0.6861293281518811  0.0858634744972329   T   T   T
  0.4131615309699987  0.6861661853175627  0.0858613379143809   T   T   T
  0.0798160582481707  0.9360803251361001  0.0858165802092274   T   T   T
  0.2464873107579537  0.9360996307505132  0.0858374943592659   T   T   T
  0.4131408253107280  0.9361456900152112  0.0858418375189315   T   T   T
  0.1630959776236908  0.5610638534757600  0.1130409355905908   T   T   T
  0.3297861694110568  0.5610565243080062  0.1130426165999716   T   T   T
  0.4964316634132235  0.5610451966797594  0.1130441222883258   T   T   T
  0.1631599416420546  0.8109435478755772  0.1130160633144741   T   T   T
  0.3298345095211202  0.8109861044252576  0.1130326928922496   T   T   T
  0.4965109461471242  0.8110701558235456  0.1130603859949878   T   T   T
  0.9965396049169566  0.0631557452235847  0.0604489201506126   T   T   T
  0.6632477828411870  0.0632379730231955  0.0605736759662431   T   T   T
  0.8298756828410089  0.0632210233029918  0.0605367495646797   T   T   T
  0.9964877791656386  0.3132258420003617  0.0604527501619918   T   T   T
  0.6631601735415359  0.3131779700383265  0.0605744124248826   T   T   T
  0.8298406875716948  0.3131757662172409  0.0605282390761526   T   T   T
  0.5797843591829119  0.1860449707734331  0.1394422472286085   T   T   T
  0.7464702337632076  0.1862463178883360  0.1396357456116616   T   T   T
  0.9132182351197807  0.1858766977798906  0.1393092715630535   T   T   T
  0.5797697361709142  0.4360684487212280  0.1394664713473604   T   T   T
  0.7464780061760419  0.4359677505857186  0.1394806985005234   T   T   T
  0.9131867044702460  0.4360608695482606  0.1394101788822568   T   T   T
  0.6634191680329615  0.0614485600197455  0.1667751813863787   T   T   T
  0.8297190737761175  0.0612787632355281  0.1667041155602674   T   T   T
  0.9968453866449547  0.0607114133811031  0.1664931338849837   T   T   T
  0.6631281040332533  0.3111961418834820  0.1668145645681982   T   T   T
  0.8301031619263333  0.3111925477558904  0.1666473033520411   T   T   T
  0.9966968906323773  0.3110702785623793  0.1664776578624613   T   T   T
  0.5798559300689233  0.1877063058999535  0.1918280873695296   T   T   T
  0.7468171569237736  0.1898550145440097  0.1927076692368909   T   T   T
  0.9139520087142203  0.1868472034360293  0.1914783930636995   T   T   T
  0.5800028611260520  0.4385405449338794  0.1920024074698963   T   T   T
  0.7467510989360738  0.4380552223338967  0.1920169102016027   T   T   T
  0.9135542150608384  0.4384582468475242  0.1919113875558338   T   T   T
  0.5797840160987103  0.1862062899527638  0.0858805590604082   T   T   T
  0.7464426803909245  0.1862186602702391  0.0859715177443683   T   T   T
  0.9131054537930514  0.1861436922449819  0.0857996970119041   T   T   T
  0.5798148010292200  0.4361637834123680  0.0858897052903494   T   T   T
  0.7464577190403914  0.4361560098764798  0.0858983516499842   T   T   T
  0.9131050544077537  0.4361746184074393  0.0858436754027352   T   T   T
  0.6631026770186265  0.0611164104422349  0.1131187365447591   T   T   T
  0.8297244002500516  0.0610749274889383  0.1130765552820106   T   T   T
  0.9964796017149071  0.0609123161864550  0.1129797788749363   T   T   T
  0.6630990129750662  0.3110466244914037  0.1131430984841365   T   T   T
  0.8298313117833231  0.3110400979946715  0.1130725285815168   T   T   T
  0.9965058544804886  0.3110188359888498  0.1129706064361456   T   T   T
  0.9965644980602690  0.5631753761059838  0.0605001378788471   T   T   T
  0.6632563238920192  0.5631708991420480  0.0605375382085686   T   T   T
  0.8299237181115505  0.5631713453358943  0.0605278260317586   T   T   T
  0.9964537809031900  0.8131675761670125  0.0604923578560360   T   T   T
  0.6631766431124514  0.8132127088705897  0.0605365533696907   T   T   T
  0.8298231829111355  0.8131960447763397  0.0605145998160966   T   T   T
  0.5798186780649598  0.6860790238327287  0.1394538030066626   T   T   T
  0.7464596506773479  0.6861024965792328  0.1394594809150317   T   T   T
  0.9131015169242956  0.6860623103697759  0.1394475397331709   T   T   T
  0.5799033498860456  0.9361582343985165  0.1394916463484193   T   T   T
  0.7464374402344636  0.9360777264968206  0.1394719842238360   T   T   T
  0.9130576167293084  0.9361100025362133  0.1394436113001410   T   T   T
  0.6632584237049545  0.5611977002844318  0.1666420949637121   T   T   T
  0.8298507721115986  0.5611483913324997  0.1666340826085579   T   T   T
  0.9966356504797110  0.5612518623387072  0.1665977361890570   T   T   T
  0.6632643749557772  0.8111792442108602  0.1666698571391409   T   T   T
  0.8299364974532162  0.8111807218609594  0.1666540309118414   T   T   T
  0.9965936880267304  0.8111677960166326  0.1666309529411436   T   T   T
  0.5801752844149304  0.6882199906175156  0.1920116242483938   T   T   T
  0.7468192755756111  0.6882354451127585  0.1920205586797486   T   T   T
  0.9134611506716995  0.6882078133055672  0.1919899703696783   T   T   T
  0.5802224720066556  0.9382586710880496  0.1920310756779839   T   T   T
  0.7468304795565489  0.9382092691985224  0.1920446472672049   T   T   T
  0.9134935944334394  0.9382172031816876  0.1919762046776897   T   T   T
  0.5798278748569136  0.6861702836854390  0.0858810075818026   T   T   T
  0.7464490016982045  0.6861755779206916  0.0858928310504919   T   T   T
  0.9130620505757454  0.6861744352184470  0.0858754222970863   T   T   T
  0.5798290999161424  0.9362255333084845  0.0858929860064632   T   T   T
  0.7464402768489953  0.9361890966282369  0.0858920974508123   T   T   T
  0.9130521354905280  0.9361862055273145  0.0858506864385416   T   T   T
  0.6631013102610944  0.5610295194096844  0.1130734478024026   T   T   T
  0.8297465952102941  0.5610246096973394  0.1130604801940207   T   T   T
  0.9964311734466479  0.5610484799691702  0.1130319636813509   T   T   T
  0.6631211877039684  0.8110747666196628  0.1130678927590227   T   T   T
  0.8297576730447945  0.8110701019750064  0.1130628872876975   T   T   T
  0.9964177852362462  0.8110242953975371  0.1130391580382295   T   T   T
  0.0372492601619102  0.1769361577909907  0.0271359215978202   T   T   T
  0.2036516969525571  0.1769638277371627  0.0272080708818387   T   T   T
  0.3702997243423162  0.1768878290990412  0.0271829453691599   T   T   T
  0.0370882406984597  0.4269706530698582  0.0271432043057790   T   T   T
  0.2034161103596075  0.4268942424123952  0.0271885594051792   T   T   T
  0.3700549511992192  0.4268669883799718  0.0271825205381368   T   T   T
  0.1620526588854493  0.0266835086342322  0.0450127978172012   T   T   T
  0.3286488752067094  0.0267016387550896  0.0450189870750651   T   T   T
  0.4954125398409374  0.0267394803630591  0.0450347281990575   T   T   T
  0.1619204018281503  0.2767644011601588  0.0450277215653199   T   T   T
  0.3285422631013736  0.2767506473661732  0.0450305060372628   T   T   T
  0.4952800047925696  0.2767421067248197  0.0450344843931288   T   T   T
  0.4144815299496437  0.4016813187120775  0.2074421300620986   T   T   T
  0.4143446790260542  0.1514739816624940  0.2074069561292178   T   T   T
  0.0811731910088130  0.1514650454724221  0.2073867942473662   T   T   T
  0.2478248933513221  0.1515793161041759  0.2074417106380089   T   T   T
  0.0811296950122002  0.4015407023246523  0.2074516052608004   T   T   T
  0.2477316388192276  0.4016016023655117  0.2074403925855099   T   T   T
  0.0404424742400605  0.0516854396651079  0.2252656126836874   T   T   T
  0.2072197290191578  0.0516571201330591  0.2252906669546007   T   T   T
  0.3739249015924891  0.0517187790141741  0.2252577366622033   T   T   T
  0.0352320015766110  0.3017462221658866  0.2259231959965650   T   T   T
  0.2068741240057970  0.3016962670713771  0.2253230363957882   T   T   T
  0.3741959630453891  0.3015254426145649  0.2252027805466447   T   T   T
  0.0370927473691802  0.6769638327872477  0.0271827271461945   T   T   T
  0.2037176878763515  0.6769326297184118  0.0272008153943064   T   T   T
  0.3703886916315122  0.6768906800854460  0.0272053175249188   T   T   T
  0.0369117861929072  0.9268877524294853  0.0271575034865857   T   T   T
  0.2033857934165854  0.9268357281545102  0.0271801943502399   T   T   T
  0.3701514829079365  0.9268552525201158  0.0271815413462056   T   T   T
  0.1620048866781915  0.5267150921021715  0.0450393518848820   T   T   T
  0.3287095358880424  0.5267030053283335  0.0450394481141185   T   T   T
  0.4954039789707145  0.5267013316474157  0.0450419115871223   T   T   T
  0.1619306584700419  0.7766201969203739  0.0450193330602241   T   T   T
  0.3286003917865102  0.7766641671137575  0.0450269135915488   T   T   T
  0.4953735744760754  0.7767308102232955  0.0450529947235788   T   T   T
  0.4144570053037768  0.9016186419681624  0.2074390636325786   T   T   T
  0.4144684716824323  0.6516733308696160  0.2074500013821640   T   T   T
  0.0811776631357181  0.6516836604744425  0.2074490541025860   T   T   T
  0.2478714938724881  0.6517560984061125  0.2074818118542814   T   T   T
  0.0811767607096372  0.9015643495395463  0.2074288175913748   T   T   T
  0.2478686174646000  0.9015683622165827  0.2074357203106286   T   T   T
  0.0401430588336450  0.5526570391011596  0.2252497703395691   T   T   T
  0.2070806300896023  0.5525863615717287  0.2251737376537075   T   T   T
  0.3736686225468133  0.5522925249761658  0.2252367642297530   T   T   T
  0.0404434514811138  0.8018411408008631  0.2253070892641656   T   T   T
  0.2068413261452355  0.8020767536625428  0.2253561720619325   T   T   T
  0.3740624047852773  0.8016826161878270  0.2252557356270470   T   T   T
  0.5373205905901492  0.1769339949771856  0.0271660331826509   T   T   T
  0.7035912503275042  0.1770037092245794  0.0273019216290166   T   T   T
  0.8700793919981916  0.1769053774550794  0.0271619962428224   T   T   T
  0.5371669062984553  0.4269065623844505  0.0271718097136129   T   T   T
  0.7034129124166423  0.4268257207080727  0.0272363699942912   T   T   T
  0.8697913628282240  0.4268648377886388  0.0271910150239711   T   T   T
  0.6621086419374160  0.0267447203369628  0.0451133047870273   T   T   T
  0.8284163845925001  0.0267407223054374  0.0450740798021425   T   T   T
  0.9953004001988667  0.0267086987160245  0.0449788996562375   T   T   T
  0.6618668978827481  0.2766022800509099  0.0451331860577839   T   T   T
  0.8285334543348143  0.2766785315609753  0.0450672092197654   T   T   T
  0.9952164192197014  0.2768165690750030  0.0449733938738829   T   T   T
  0.9143119546041233  0.4022893865053690  0.2074185793098751   T   T   T
  0.9151425291943712  0.1506568689056441  0.2070017260959152   T   T   T
  0.5807062979525770  0.1513536726792322  0.2073215708868084   T   T   T
  0.7481862664987974  0.1528640864165372  0.2080691861152481   T   T   T
  0.5807884717047899  0.4019416307711995  0.2074362217454635   T   T   T
  0.7468246894962786  0.4015750835612094  0.2074838563210138   T   T   T
  0.5402684645747627  0.0519708249007000  0.2253225019473326   T   T   T
  0.7074269115211056  0.0512064579450022  0.2254196433551760   T   T   T
  0.8740438188524302  0.0514839671879872  0.2253470037096411   T   T   T
  0.5424533167974697  0.3009737925491085  0.2244058678420123   T   T   T
  0.6896093632180031  0.3096981118128077  0.2287307030093463   T   T   T
  0.8910456208632807  0.2948452259836646  0.2229388819275666   T   T   T
  0.7738569052599743  0.3061098046425569  0.2737205152737842   T   T   T
  0.7469301398627515  0.2382940509812053  0.2930966155325792   T   T   T
  0.7864495465386913  0.3197447359607386  0.3029129547307185   T   T   T
  0.6576576740459281  0.1952432111004359  0.3098592460609100   T   T   T
  0.7102150911040033  0.1302111855624246  0.3022286212563547   T   T   T
  0.8250319122397476  0.3663135366804964  0.3337888062263230   T   T   T
  0.7418882758560964  0.3762430153529945  0.3309401490217136   T   T   T
  0.7598293230831452  0.3958270302082867  0.2518962876537663   T   T   T
  0.7933565048714457  0.3233198275772837  0.2386489738878849   T   T   T
  0.5372096114825545  0.6769442771002080  0.0271981773997142   T   T   T
  0.7036608668254327  0.6769277863367441  0.0272318948720330   T   T   T
  0.8702703693675196  0.6769172194712334  0.0272188424488924   T   T   T
  0.5371062889333778  0.9269301848631664  0.0271925225706834   T   T   T
  0.7034528413694832  0.9268762180860797  0.0272260495799550   T   T   T
  0.8700305059856690  0.9269339718718689  0.0271945466256001   T   T   T
  0.6620124052210284  0.5266982852395308  0.0450706240224264   T   T   T
  0.8286461901774604  0.5267048445080170  0.0450617391933975   T   T   T
  0.9952714841753101  0.5267212007322547  0.0450330867021823   T   T   T
  0.6618805032584890  0.7767293052261044  0.0450722764406366   T   T   T
  0.8284866188180219  0.7767005424227592  0.0450561264833865   T   T   T
  0.9951066616939804  0.7766641499503475  0.0450386015795714   T   T   T
  0.9145458491906520  0.9017020186470819  0.2074426189291722   T   T   T
  0.9145359212863529  0.6517300464634680  0.2074617736548947   T   T   T
  0.5811594668373855  0.6516808531814345  0.2074665251352771   T   T   T
  0.7479851053546513  0.6518620874281923  0.2075036376428448   T   T   T
  0.5811363470609526  0.9017432879614836  0.2074923608882171   T   T   T
  0.7479102975600600  0.9016662598532654  0.2074973288317487   T   T   T
  0.5398835213072105  0.5527065939172624  0.2252650588579833   T   T   T
  0.7071943149279286  0.5539310619367765  0.2249895983717250   T   T   T
  0.8735810544031669  0.5528242960127668  0.2251920133808798   T   T   T
  0.5405294058439832  0.8018166902862948  0.2253106745333149   T   T   T
  0.7069399402702956  0.8021059158734553  0.2253643229098018   T   T   T
  0.8741582869375364  0.8016528759498566  0.2252507353255958   T   T   T
  0.0843268902462546  0.1665639412075426  0.0339546369031814   T   T   T
  0.2508266353363834  0.1666329105271370  0.0339760769858055   T   T   T
  0.4174677673079131  0.1665349324725005  0.0339518943628880   T   T   T
  0.0841835413953215  0.4166803738563030  0.0339664819228210   T   T   T
  0.2506277469351815  0.4166614860888960  0.0339539960132210   T   T   T
  0.4172601794183209  0.4166097156670200  0.0339436346780383   T   T   T
  0.1599168901564300  0.0414764102395618  0.2185597129677172   T   T   T
  0.3265649921964321  0.0414578920945349  0.2185695838876574   T   T   T
  0.4930674618376012  0.0415681866490505  0.2185583991779556   T   T   T
  0.1597031782032592  0.2914849019793139  0.2185156381345576   T   T   T
  0.3267515524243625  0.2914586971610312  0.2185594377107443   T   T   T
  0.4937040703438662  0.2913132708870112  0.2185113228969971   T   T   T
  0.0842184776856279  0.6665836547701762  0.0339715736782735   T   T   T
  0.2508793448694673  0.6666361367337246  0.0339794820805171   T   T   T
  0.4175513141095836  0.6666169433431061  0.0339866066963916   T   T   T
  0.0840546166840956  0.9165119378056552  0.0339407235844333   T   T   T
  0.2506071809061229  0.9164929034916320  0.0339257023012329   T   T   T
  0.4173418525456999  0.9165119777687250  0.0339411778404444   T   T   T
  0.1598013372664299  0.5415450000620121  0.2185614091436167   T   T   T
  0.3263919995648030  0.5415768685865229  0.2185602977388009   T   T   T
  0.4927530990072609  0.5419089021694562  0.2185154565920586   T   T   T
  0.1596997443528071  0.7916208968769851  0.2185582158808281   T   T   T
  0.3266524354610343  0.7915311625042193  0.2185939365709661   T   T   T
  0.4932188077351010  0.7915854467890650  0.2185887104745657   T   T   T
  0.5843912580488819  0.1666270051950676  0.0340007655194279   T   T   T
  0.7507939600013758  0.1667092948007063  0.0340588947775618   T   T   T
  0.9172887350906613  0.1665316123648077  0.0339033484529755   T   T   T
  0.5842558648899435  0.4166214142639793  0.0340016160793713   T   T   T
  0.7506348145356897  0.4165175229437577  0.0339844068798765   T   T   T
  0.9170461562555180  0.4165444159815219  0.0339178953779082   T   T   T
  0.6600701325316560  0.0416407640477384  0.2186553534100435   T   T   T
  0.8266995288851651  0.0416133218041286  0.2186115253703779   T   T   T
  0.9932060618799836  0.0416973883905565  0.2184678725982487   T   T   T
  0.6504578239527911  0.2918277290200662  0.2186558831550309   T   T   T
  0.8396700066236645  0.2914258684771534  0.2185222049657506   T   T   T
  0.9898990540934541  0.2902245620038379  0.2181762085689162   T   T   T
  0.7857234298313326  0.2799510841138972  0.2895232792448209   T   T   T
  0.6904764638812656  0.1795336505986580  0.2976015972450883   T   T   T
  0.7872955307578506  0.3762326663476223  0.3224577736579701   T   T   T
  0.7567493504207065  0.3403040124275085  0.2507211824951776   T   T   T
  0.5843205138684295  0.6666132174796325  0.0340031150294501   T   T   T
  0.7508404001805592  0.6666197791774520  0.0340010145777880   T   T   T
  0.9174498711571272  0.6666214659337544  0.0339900454665270   T   T   T
  0.5842235247659330  0.9166556367463710  0.0340019624798471   T   T   T
  0.7506656257470935  0.9167210745900372  0.0339971076523374   T   T   T
  0.9172321651778499  0.9165766061717636  0.0339435688270926   T   T   T
  0.6599094894505372  0.5416147111474272  0.2185784239803996   T   T   T
  0.8263911979445570  0.5415368533772238  0.2185378944877926   T   T   T
  0.9929976990273965  0.5417419395624306  0.2185119349307972   T   T   T
  0.6597770526343057  0.7915778349733876  0.2186021864871790   T   T   T
  0.8267401268554958  0.7915125219611726  0.2186028433047928   T   T   T
  0.9931726268077973  0.7915592324389861  0.2185728601921323   T   T   T
  0.2466504046044317  0.1217784482245840  0.0598442105043198   T   T   T
  0.4133151794826065  0.1217886138774632  0.0598391322853127   T   T   T
  0.0799279460492579  0.3718273711639377  0.0598393113802931   T   T   T
  0.2465818839952731  0.3718484113210292  0.0598340137298905   T   T   T
  0.4132445510654495  0.3718503312524428  0.0598311630219687   T   T   T
  0.0799843076477157  0.1217289788370193  0.0598231767642559   T   T   T
  0.4964317124526354  0.4985300180309262  0.1396825657919280   T   T   T
  0.1631700439436293  0.4985265158028037  0.1396774881283870   T   T   T
  0.3297850606675676  0.4985166919571489  0.1396802488608838   T   T   T
  0.4964647313787743  0.2485046307770198  0.1396814391567562   T   T   T
  0.1632023338246661  0.2484270507802405  0.1396482244834742   T   T   T
  0.3297931018147747  0.2484666064295586  0.1396733390279358   T   T   T
  0.0800837060769387  0.1229728097001529  0.1658907669726434   T   T   T
  0.2466403649157488  0.1231541028286212  0.1659645329072635   T   T   T
  0.4132327564041814  0.1231459945959932  0.1659614575987931   T   T   T
  0.0800349409286599  0.3732473400707578  0.1659521879016281   T   T   T
  0.2465886078881977  0.3732250373843870  0.1659720788084720   T   T   T
  0.4132072589678342  0.3732534475575335  0.1659875627747500   T   T   T
  0.1633705324274141  0.4967792949587981  0.1926672215600336   T   T   T
  0.3300004439482017  0.4968113993247544  0.1926687818365278   T   T   T
  0.4965656902305295  0.4970115295935761  0.1926377177653085   T   T   T
  0.1634923505047670  0.2468062883688044  0.1926424036469313   T   T   T
  0.4965116252329461  0.2466186341923435  0.1926247995478771   T   T   T
  0.3300386892253663  0.2467449354422903  0.1926541915486762   T   T   T
  0.4964861597155019  0.4982368641104629  0.0865016611663658   T   T   T
  0.1631502841202109  0.4982656244173234  0.0864944074050837   T   T   T
  0.3298337302807040  0.4982561936996689  0.0864990512228859   T   T   T
  0.4964380370397332  0.2482782209381829  0.0864890585000821   T   T   T
  0.1631355966990399  0.2482234257641838  0.0864747971167486   T   T   T
  0.3298056275072950  0.2482603603113131  0.0864853526658248   T   T   T
  0.0798073747312388  0.1233529799863353  0.1127291509750128   T   T   T
  0.2464689703797907  0.1234151853047820  0.1127855058533164   T   T   T
  0.4130980848854774  0.1234696896392484  0.1127784531321286   T   T   T
  0.0798342740965724  0.3734880738617783  0.1127633972990848   T   T   T
  0.2464889507156345  0.3734765691417217  0.1127931207070672   T   T   T
  0.4131214667362526  0.3734983203135393  0.1127882439789870   T   T   T
  0.2466800348179690  0.6217826442456151  0.0598469310844154   T   T   T
  0.4133637135957035  0.6217821488603410  0.0598610331383680   T   T   T
  0.0799032803249533  0.8717055669702141  0.0598215549729308   T   T   T
  0.2465849349685805  0.8717394711707692  0.0598151145567620   T   T   T
  0.4132750698293056  0.8717858538091755  0.0598353112436374   T   T   T
  0.0799726168709422  0.6217822461665375  0.0598505378436899   T   T   T
  0.4964707412390785  0.9984290741381253  0.1396742259988705   T   T   T
  0.1632271561892257  0.9983446667729597  0.1396407293712283   T   T   T
  0.3298129621138487  0.9984150986829428  0.1396596434285888   T   T   T
  0.4964961182218455  0.7485329863742658  0.1396976317770408   T   T   T
  0.1631639205490210  0.7484807121481697  0.1396690555814118   T   T   T
  0.3297921663886920  0.7485050531011952  0.1396814818513437   T   T   T
  0.0799352287182231  0.6233134156965610  0.1659775623810381   T   T   T
  0.2465778235496551  0.6232471471200751  0.1659989801368233   T   T   T
  0.4132109481579275  0.6233308875854980  0.1659868311879748   T   T   T
  0.0799617054676075  0.8731866197450942  0.1659634730640436   T   T   T
  0.2466154992597344  0.8732048803770485  0.1659726712362501   T   T   T
  0.4132801052355785  0.8732425136814093  0.1659860948156583   T   T   T
  0.1634475555838890  0.9967203819101980  0.1926584744099384   T   T   T
  0.3300844461206831  0.9967489014626252  0.1926537944085283   T   T   T
  0.4967220070704032  0.9968171107544238  0.1926624714537044   T   T   T
  0.1633931327396154  0.7468551839038990  0.1926722299031044   T   T   T
  0.4967305032950573  0.7468497188872346  0.1926859265590753   T   T   T
  0.3300609396886810  0.7468435931399096  0.1926778306585782   T   T   T
  0.4964791347409906  0.9982542601788249  0.0864918750454732   T   T   T
  0.1631506924018086  0.9981414561802648  0.0864660627165857   T   T   T
  0.3298254102469421  0.9981921341906821  0.0864796386734209   T   T   T
  0.4965122082351618  0.7482704848980043  0.0865035491435152   T   T   T
  0.1631510223432622  0.7481761024126744  0.0864759331404569   T   T   T
  0.3298362880959846  0.7482217745294553  0.0864856094232239   T   T   T
  0.0797537461347442  0.6235107356580807  0.1127864094449117   T   T   T
  0.2464551769883592  0.6234794880596201  0.1128078627682309   T   T   T
  0.4131144280269001  0.6235186342442279  0.1127993106275648   T   T   T
  0.0798360919961080  0.8733410145535371  0.1127457222307783   T   T   T
  0.2465044785335784  0.8733807234697647  0.1127725250910212   T   T   T
  0.4131474239326591  0.8734551397630056  0.1127802091572696   T   T   T
  0.7466280959632695  0.1218700239595403  0.0599390522889353   T   T   T
  0.9132645661298896  0.1218152166054907  0.0597880799322015   T   T   T
  0.5799348092182222  0.3718107595877215  0.0598787566923355   T   T   T
  0.7465688367058227  0.3717673215476370  0.0598790564914613   T   T   T
  0.9131910725051264  0.3718576674778145  0.0598124489831785   T   T   T
  0.5799912072241939  0.1218336415565777  0.0598770459713337   T   T   T
  0.9964994333274366  0.4985363380449545  0.1396585901738113   T   T   T
  0.6630912033356325  0.4984769533352319  0.1397080275846389   T   T   T
  0.8297951889582750  0.4984731403764694  0.1396887993547901   T   T   T
  0.9965405690792850  0.2483304762466393  0.1395293982907305   T   T   T
  0.6630144062176546  0.2485584692195439  0.1398138046189507   T   T   T
  0.8299335828907929  0.2484105392670515  0.1396674046493654   T   T   T
  0.5797893930446588  0.1231175154475922  0.1659496186424448   T   T   T
  0.7465281900656749  0.1239871971240760  0.1663372689309502   T   T   T
  0.9134455883220793  0.1224505097580102  0.1656785378697604   T   T   T
  0.5797676811296477  0.3733945196692199  0.1660321767787318   T   T   T
  0.7464841333726541  0.3731291897155398  0.1660214791733378   T   T   T
  0.9134293005028721  0.3733712692152271  0.1659379010771584   T   T   T
  0.6632754679910480  0.4969862870981502  0.1926640126095625   T   T   T
  0.8300926403374514  0.4968671352383754  0.1926423872238585   T   T   T
  0.9968069681159342  0.4969837072439329  0.1926236438262987   T   T   T
  0.6622751879493547  0.2475461795892681  0.1930544012226635   T   T   T
  0.9968240887757895  0.2458643012049359  0.1921781214593212   T   T   T
  0.8314103340600392  0.2463516821940048  0.1924136759844229   T   T   T
  0.9964875086957860  0.4982464266160776  0.0864864761971997   T   T   T
  0.6631636944726425  0.4982319000744749  0.0865248446362162   T   T   T
  0.8297891300956662  0.4982425152092488  0.0865115661644565   T   T   T
  0.9964744439826186  0.2482268032032513  0.0864224085996876   T   T   T
  0.6631234540226900  0.2482710396667618  0.0865777955214587   T   T   T
  0.8297920052413946  0.2482539224303145  0.0865145622755294   T   T   T
  0.5797412055642548  0.1235299635372136  0.1128165885978253   T   T   T
  0.7464091129344117  0.1235535478356179  0.1129193002598286   T   T   T
  0.9131359622926642  0.1233728751096117  0.1127013314108178   T   T   T