C H O Si                                
   1.00000000000000     
    18.5749199999999988    0.0000000000000000    0.0000000000000000
     0.0000000000000000   17.5126199999999983    0.0000000000000000
     0.0000000000000000    0.0000000000000000   58.0000000000000000
   C    H    O    Si
   144   105    52   144
Selective dynamics
Direct
  0.4965886937424763  0.0632333482085329  0.0605034114339065   T   T   T
  0.1632469366290669  0.0631284147916335  0.0604894696710842   T   T   T
  0.3298982223789476  0.0631631611585260  0.0604928566699504   T   T   T
  0.4965080993444741  0.3132737270782670  0.0604972980370122   T   T   T
  0.1631815106919796  0.3132305875423952  0.0605000686341158   T   T   T
  0.3298294013131413  0.3132622676885664  0.0604946089837759   T   T   T
  0.0798705952105971  0.1859055727225951  0.1393654579530215   T   T   T
  0.2464601782524402  0.1859930473658178  0.1394080658964844   T   T   T
  0.4130924082162190  0.1860274728333052  0.1394095962922493   T   T   T
  0.0798030188584237  0.4360823995517736  0.1394050909206289   T   T   T
  0.2464488654359376  0.4360751346693844  0.1394125503134895   T   T   T
  0.4130805518747344  0.4360891697959836  0.1394193935214609   T   T   T
  0.1633138046896360  0.0609401505958776  0.1666030401424995   T   T   T
  0.3298960012366115  0.0610071135263321  0.1666095215962967   T   T   T
  0.4964972280312199  0.0609728012881594  0.1665937137690240   T   T   T
  0.1632280852019420  0.3110421729971976  0.1665940441376543   T   T   T
  0.3298496894038010  0.3110926250033059  0.1666314039264185   T   T   T
  0.4964675557530007  0.3111350604302258  0.1666320090307826   T   T   T
  0.0803218403652994  0.1879176810537675  0.1919198251671390   T   T   T
  0.2468019088367113  0.1880521672546681  0.1919751716244268   T   T   T
  0.4132984989798927  0.1880095931689428  0.1919550139079820   T   T   T
  0.0800396573041634  0.4380534211110292  0.1919863044351270   T   T   T
  0.2467110293908911  0.4381193918130674  0.1919826276457758   T   T   T
  0.4133727373261444  0.4381613927607845  0.1919812051424324   T   T   T
  0.0797885419260823  0.1860884958630324  0.0858152029714562   T   T   T
  0.2464663558258050  0.1861097171822568  0.0858443816145038   T   T   T
  0.4131186657310340  0.1861279908139132  0.0858376160573573   T   T   T
  0.0798122412844680  0.4361503317721701  0.0858373318248012   T   T   T
  0.2464753115807550  0.4361445847639590  0.0858439894279569   T   T   T
  0.4131379423981977  0.4361415844295548  0.0858413914404885   T   T   T
  0.1631366323765680  0.0609536491429720  0.1130182840793902   T   T   T
  0.3297684910878819  0.0609804788958494  0.1130310847795558   T   T   T
  0.4964198158656735  0.0610446711236022  0.1130509196985998   T   T   T
  0.1631580009427562  0.3110187583619075  0.1130340829738280   T   T   T
  0.3298089480876581  0.3110303904465991  0.1130461784628717   T   T   T
  0.4964339558033789  0.3110578051005580  0.1130536933319708   T   T   T
  0.4966208947275455  0.5631768332105149  0.0605115449682817   T   T   T
  0.1632438072579278  0.5632085010527172  0.0605017248494451   T   T   T
  0.3299322669467226  0.5631919400959916  0.0605063366676685   T   T   T
  0.4965608602975564  0.8132590536112516  0.0605146428879552   T   T   T
  0.1631766154638107  0.8131196628810105  0.0604859638620472   T   T   T
  0.3298508267700395  0.8131739783153182  0.0604908873896996   T   T   T
  0.0797758774036184  0.6861086090686658  0.1394156336205927   T   T   T
  0.2464428370222278  0.6860539376422645  0.1394298142106412   T   T   T
  0.4131030060949633  0.6861318913650645  0.1394215480048508   T   T   T
  0.0798999132149533  0.9358505008879793  0.1393612261581271   T   T   T
  0.2465173639655876  0.9359255940474244  0.1393895098292930   T   T   T
  0.4131276483013882  0.9359974675759953  0.1394002189057188   T   T   T
  0.1632126332362908  0.5611229616188121  0.1666380262560453   T   T   T
  0.3298579493018584  0.5611335792875989  0.1666312230085704   T   T   T
  0.4964676869546492  0.5612331254805428  0.1666041699888640   T   T   T
  0.1632550872866302  0.8110794063157102  0.1666177694799813   T   T   T
  0.3299013364858623  0.8111086919099144  0.1666433055705074   T   T   T
  0.4965819020115972  0.8111437588332229  0.1666511911255606   T   T   T
  0.0801031263078511  0.6881710724326169  0.1919903919429943   T   T   T
  0.2467484818469209  0.6881907141939240  0.1920085467586973   T   T   T
  0.4134164905410350  0.6882197174107135  0.1920035033922337   T   T   T
  0.0801491317790903  0.9380934761614748  0.1919759079280199   T   T   T
  0.2468041101932222  0.9381026617610737  0.1919819017677685   T   T   T
  0.4134610468091028  0.9381324708716204  0.1919838773273490   T   T   T
  0.0797687386942045  0.6861264914440526  0.0858433775549125   T   T   T
  0.2465048702736324  0.6860804239509053  0.0858513555281904   T   T   T
  0.4131802168611902  0.6861299992923834  0.0858534119515359   T   T   T
  0.0798041921044548  0.9360236021564226  0.0858095566053786   T   T   T
  0.2464840161379969  0.9360426785024308  0.0858265848952487   T   T   T
  0.4131555662152041  0.9361060915920916  0.0858387980504166   T   T   T
  0.1630815031563467  0.5610707865134039  0.1130524871922639   T   T   T
  0.3297736590554313  0.5610639232712965  0.1130554061894842   T   T   T
  0.4964137524828141  0.5610639539983480  0.1130586886165747   T   T   T
  0.1631898297048198  0.8109344752771723  0.1130217702815774   T   T   T
  0.3298348780328560  0.8109903464797543  0.1130383933758787   T   T   T
  0.4965036454202778  0.8110901480965227  0.1130681669581562   T   T   T
  0.9965109677971264  0.0631735292992951  0.0604524355484517   T   T   T
  0.6632467117961398  0.0632716197146299  0.0605732989116437   T   T   T
  0.8298340826828404  0.0632685824360621  0.0605327357911618   T   T   T
  0.9964767628426792  0.3132856082478845  0.0604465892760178   T   T   T
  0.6631618545123228  0.3132005667951330  0.0605785903460021   T   T   T
  0.8298182130408770  0.3132127705339028  0.0605242759171135   T   T   T
  0.5797510373040957  0.1860540721876834  0.1394271210208774   T   T   T
  0.7464551117014367  0.1862080347711163  0.1396302006852038   T   T   T
  0.9132069328649883  0.1858940218816589  0.1392962066445721   T   T   T
  0.5797247759886877  0.4361125305434198  0.1394484323962864   T   T   T
  0.7464386871720430  0.4359670192290045  0.1394748937855525   T   T   T
  0.9131502469136510  0.4360829860997763  0.1394000300814807   T   T   T
  0.6633760807164447  0.0614606275342740  0.1667868155190814   T   T   T
  0.8296464041074976  0.0612956912587661  0.1667218260196404   T   T   T
  0.9968149462407780  0.0606971030780205  0.1664931682720565   T   T   T
  0.6630991264139890  0.3112065806249134  0.1668062192114408   T   T   T
  0.8300372594037607  0.3111331200879212  0.1666515884093141   T   T   T
  0.9966663612953880  0.3110375687191897  0.1664628566022218   T   T   T
  0.5797950696146386  0.1877152732595285  0.1918285026428073   T   T   T
  0.7467895230012576  0.1898325338769746  0.1927136341817008   T   T   T
  0.9138657687240882  0.1868925385798430  0.1914938076689557   T   T   T
  0.5799475461694289  0.4385218836553950  0.1920029560581182   T   T   T
  0.7466927708695204  0.4380494889789872  0.1920158720263910   T   T   T
  0.9135534612678147  0.4384002589596928  0.1919024467526583   T   T   T
  0.5797716077944841  0.1861567192467364  0.0858676905329550   T   T   T
  0.7464523869068382  0.1861808431357404  0.0859605323374264   T   T   T
  0.9131098905666902  0.1861292023408658  0.0857900699815508   T   T   T
  0.5798060937184999  0.4361129776318766  0.0858750450596617   T   T   T
  0.7464725304037068  0.4360902435051348  0.0858794006542293   T   T   T
  0.9131296097657147  0.4361288290664700  0.0858372986206209   T   T   T
  0.6630797696588469  0.0611253973214611  0.1131135838161840   T   T   T
  0.8296942554715062  0.0610936036664675  0.1130900371168475   T   T   T
  0.9964662276033839  0.0609231728317655  0.1129866630241625   T   T   T
  0.6630948560757822  0.3110384023691934  0.1131457754039883   T   T   T
  0.8298108981700770  0.3110464387693324  0.1130874986490676   T   T   T
  0.9965018310609920  0.3110326433506987  0.1129830209445598   T   T   T
  0.9965502836615930  0.5632092134457091  0.0605025217794761   T   T   T
  0.6632640358359952  0.5631930564947066  0.0605341652476965   T   T   T
  0.8298942115725344  0.5632197096514405  0.0605229833440728   T   T   T
  0.9964160851697443  0.8132140728101720  0.0604989770387079   T   T   T
  0.6631954684104233  0.8132453120781528  0.0605336701720374   T   T   T
  0.8298041476319290  0.8132400697130302  0.0605121806963871   T   T   T
  0.5797742937837179  0.6861108715919426  0.1394404946441617   T   T   T
  0.7464144199423900  0.6861193719260325  0.1394479433760518   T   T   T
  0.9130640230771493  0.6860722673626881  0.1394352733166518   T   T   T
  0.5798895988195991  0.9361758945666071  0.1394708615647382   T   T   T
  0.7463951451797122  0.9361032514021133  0.1394540571415515   T   T   T
  0.9130429156616895  0.9361331138715512  0.1394303222641073   T   T   T
  0.6632277325734888  0.5611833971389263  0.1666411326966500   T   T   T
  0.8297785944372296  0.5611391569035500  0.1666245615309491   T   T   T
  0.9965735480489344  0.5612088762950117  0.1665926709782042   T   T   T
  0.6632491283595645  0.8111509936762131  0.1666598727509465   T   T   T
  0.8298774410023431  0.8111654277676046  0.1666630483424481   T   T   T
  0.9965432383620938  0.8111367478933550  0.1666278758117978   T   T   T
  0.5801073000276576  0.6881776575458851  0.1920076385717185   T   T   T
  0.7467879162757540  0.6882335700955720  0.1920196105470609   T   T   T
  0.9134293697532706  0.6881849710021006  0.1919958331752522   T   T   T
  0.5801662703893640  0.9382465348809287  0.1920298434527786   T   T   T
  0.7468161617208442  0.9382116724384466  0.1920429049854865   T   T   T
  0.9134458228661694  0.9381843214016727  0.1919771655053870   T   T   T
  0.5798215234760131  0.6861260531690144  0.0858678554728574   T   T   T
  0.7464517834144376  0.6861317976459224  0.0858721258455045   T   T   T
  0.9130884382346208  0.6861297320108813  0.0858622420861412   T   T   T
  0.5798276187192510  0.9361920054404168  0.0858775297173347   T   T   T
  0.7464392220545808  0.9361525724460510  0.0858721925240541   T   T   T
  0.9130665358218331  0.9361354304758145  0.0858356953192666   T   T   T
  0.6630842678627885  0.5610185568672411  0.1130858226479685   T   T   T
  0.8297200596114276  0.5610226054061528  0.1130781720215857   T   T   T
  0.9964139227870900  0.5610644449727278  0.1130468628859787   T   T   T
  0.6631214115039371  0.8110840093832694  0.1130750505761853   T   T   T
  0.8297479915115672  0.8110810534724657  0.1130724394168161   T   T   T
  0.9964085283400437  0.8110473860195440  0.1130491156699023   T   T   T
  0.0372484242523456  0.1768706525988680  0.0271392303522019   T   T   T
  0.2036489773001940  0.1769091414577853  0.0272071732301127   T   T   T
  0.3703011283801860  0.1768311622887482  0.0271816355366713   T   T   T
  0.0370846132437941  0.4269139506605818  0.0271432275659053   T   T   T
  0.2034085864948521  0.4268460859311929  0.0271846462318698   T   T   T
  0.3700369808594730  0.4268228354670987  0.0271775495495221   T   T   T
  0.1620474315790914  0.0266949465330981  0.0450169056702658   T   T   T
  0.3286420066768844  0.0267099793954727  0.0450228356754187   T   T   T
  0.4954079882574189  0.0267522395561700  0.0450402078414272   T   T   T
  0.1619057294774870  0.2767748513347125  0.0450315720586194   T   T   T
  0.3285255050945963  0.2767583718736181  0.0450353620606052   T   T   T
  0.4952644317492312  0.2767549381790255  0.0450423280111439   T   T   T
  0.4144576169267487  0.4016693271281010  0.2074456109653236   T   T   T
  0.4143243019513498  0.1514569062995088  0.2074030336076607   T   T   T
  0.0811851108931090  0.1514539523440967  0.2073849907249491   T   T   T
  0.2478158210055909  0.1515729392234933  0.2074441870503003   T   T   T
  0.0811159996221487  0.4015446052556974  0.2074554620629571   T   T   T
  0.2477126634536280  0.4015953942846159  0.2074425021879937   T   T   T
  0.0404900022557229  0.0516965021122281  0.2252900539940348   T   T   T
  0.2072772171427068  0.0516629862425829  0.2253127752282260   T   T   T
  0.3739776678177961  0.0517221025632568  0.2252766730813037   T   T   T
  0.0352295166598957  0.3016640905558756  0.2259129563224056   T   T   T
  0.2068938290010162  0.3017101962768098  0.2253536268477050   T   T   T
  0.3742740535015368  0.3015180898546714  0.2252170543301098   T   T   T
  0.0370963684482948  0.6769024660532467  0.0271840825843438   T   T   T
  0.2037115481680450  0.6768760601634022  0.0272003713695486   T   T   T
  0.3703893932676213  0.6768306856492805  0.0272055004761693   T   T   T
  0.0368979527748372  0.9268389844990196  0.0271554391063612   T   T   T
  0.2033713237423510  0.9267927726470688  0.0271765139454459   T   T   T
  0.3701410760496006  0.9268084881076900  0.0271794727104469   T   T   T
  0.1619994649157809  0.5267144198967691  0.0450394015123324   T   T   T
  0.3287015661073430  0.5267075078040881  0.0450411724802630   T   T   T
  0.4953981044432280  0.5267050987394847  0.0450422117085309   T   T   T
  0.1619142827305575  0.7766393819508656  0.0450261835755457   T   T   T
  0.3285812378554032  0.7766788674513924  0.0450320246200098   T   T   T
  0.4953565518609103  0.7767421175817456  0.0450582086865366   T   T   T
  0.4144404381813840  0.9016072821127328  0.2074411592054041   T   T   T
  0.4144535410583129  0.6516631285613472  0.2074506666176212   T   T   T
  0.0811600669622879  0.6516715051116254  0.2074530166467367   T   T   T
  0.2478669927834054  0.6517594191204027  0.2074851828479728   T   T   T
  0.0811661628276274  0.9015599766573904  0.2074310039348564   T   T   T
  0.2478545898646680  0.9015597540524517  0.2074379548164641   T   T   T
  0.0401682865973193  0.5526894291275110  0.2252747343804151   T   T   T
  0.2071624109811067  0.5526373422927577  0.2251983642658509   T   T   T
  0.3737284974148783  0.5523238043346759  0.2252657422652690   T   T   T
  0.0405186850082043  0.8018588229244813  0.2253365962355408   T   T   T
  0.2068845434506492  0.8021040452541451  0.2253890096468719   T   T   T
  0.3741304603754562  0.8016848692480468  0.2252739734110007   T   T   T
  0.5373245252990131  0.1768680978627515  0.0271673574117366   T   T   T
  0.7035958489254666  0.1769389171474580  0.0273070362977300   T   T   T
  0.8700671324959588  0.1768559665724924  0.0271581101509905   T   T   T
  0.5371617000923362  0.4268497569881964  0.0271711257093239   T   T   T
  0.7034074364387458  0.4267713712244999  0.0272360942487306   T   T   T
  0.8697723854477668  0.4268304860614986  0.0271822506861255   T   T   T
  0.6621083366122765  0.0267486290351863  0.0451170672113847   T   T   T
  0.8284120203439930  0.0267484050473927  0.0450788082550185   T   T   T
  0.9952992339808229  0.0267114686874870  0.0449829903566792   T   T   T
  0.6618552273157727  0.2766085511722885  0.0451385433121037   T   T   T
  0.8285188753708668  0.2766885015771442  0.0450699069752636   T   T   T
  0.9951993362281460  0.2768190920283760  0.0449785424648937   T   T   T
  0.9142980889310556  0.4022890290024983  0.2074259422122879   T   T   T
  0.9151582827314927  0.1506257323598686  0.2070094427964930   T   T   T
  0.5807043462273935  0.1513452359345229  0.2073197337965049   T   T   T
  0.7481947893789195  0.1528732605649931  0.2080780672761935   T   T   T
  0.5807755039853301  0.4019333859353418  0.2074371281516782   T   T   T
  0.7468008753519850  0.4015629479783370  0.2074880153747735   T   T   T
  0.5403333719638175  0.0519846319971903  0.2253494727748670   T   T   T
  0.7074819890183188  0.0511938412123982  0.2254369269397303   T   T   T
  0.8741182224535061  0.0514873815908818  0.2253694974935040   T   T   T
  0.5424539025643765  0.3010180364083835  0.2244296236913842   T   T   T
  0.6896744198725514  0.3096983689450582  0.2287515202356795   T   T   T
  0.8910203405957545  0.2948452942859217  0.2229383021513269   T   T   T
  0.7739213303383782  0.3061330805394216  0.2736936875073966   T   T   T
  0.7469521070880792  0.2382820996396546  0.2930900506112011   T   T   T
  0.7864832510157607  0.3198020574181066  0.3029103007123451   T   T   T
  0.6576878739723283  0.1952737963358117  0.3098653749030473   T   T   T
  0.7101763601054319  0.1302121519050094  0.3022308375059894   T   T   T
  0.8250296142668034  0.3663477925877826  0.3338067968975939   T   T   T
  0.7418536200786703  0.3762028355646088  0.3309409935012642   T   T   T
  0.7599002553638461  0.3957870992202821  0.2518718327394378   T   T   T
  0.7934274836005500  0.3233084903638658  0.2386523939581652   T   T   T
  0.5372151054375908  0.6768798981543579  0.0272003194620438   T   T   T
  0.7036640525913086  0.6768660977081721  0.0272334547349687   T   T   T
  0.8702837529940382  0.6768539574574463  0.0272214361279660   T   T   T
  0.5371005024289864  0.9268702420144632  0.0271933969554523   T   T   T
  0.7034443372178488  0.9268177393594909  0.0272261549181844   T   T   T
  0.8700149093758961  0.9268869771130728  0.0271908972162828   T   T   T
  0.6620068786795847  0.5267006086269428  0.0450722739207600   T   T   T
  0.8286378358446584  0.5267069304009291  0.0450663288557015   T   T   T
  0.9952677092490206  0.5267275205344100  0.0450373568854118   T   T   T
  0.6618661728595914  0.7767356065901604  0.0450778728251888   T   T   T
  0.8284725553020097  0.7767027786854608  0.0450599686771723   T   T   T
  0.9951004616763308  0.7766848719416509  0.0450475254828023   T   T   T
  0.9145313525785066  0.9017037476852460  0.2074405163639354   T   T   T
  0.9145195763539189  0.6517201685074485  0.2074631536953762   T   T   T
  0.5811444460854966  0.6516716048613652  0.2074692640559588   T   T   T
  0.7479765067872323  0.6518674546047024  0.2075073614290193   T   T   T
  0.5811245267963214  0.9017419109296098  0.2074916248677329   T   T   T
  0.7479018377954366  0.9016720386171696  0.2074960745471106   T   T   T
  0.5399312387490280  0.5527422362899354  0.2252965873262717   T   T   T
  0.7072476506692471  0.5539907080689931  0.2250046789766790   T   T   T
  0.8736164850681458  0.5528593094293862  0.2252197250745357   T   T   T
  0.5405846585388057  0.8018257089651453  0.2253342556458620   T   T   T
  0.7070135706997488  0.8021417327284117  0.2254007220081401   T   T   T
  0.8742391436271326  0.8016597497044856  0.2252708469490652   T   T   T
  0.0843900396900406  0.1665908153443194  0.0339493187114017   T   T   T
  0.2508498638564520  0.1666479311005529  0.0339793415399377   T   T   T
  0.4175008413218463  0.1665451829649879  0.0339478067567262   T   T   T
  0.0842100511494571  0.4166951942963900  0.0339663471484605   T   T   T
  0.2506282829715924  0.4166746712055782  0.0339466800043113   T   T   T
  0.4172743375231782  0.4166290615705887  0.0339322822593883   T   T   T
  0.1600184418614241  0.0414775033239982  0.2185900260427777   T   T   T
  0.3266883562996710  0.0414643255120225  0.2185920499071032   T   T   T
  0.4931855762045017  0.0415636612664370  0.2185822099332191   T   T   T
  0.1598058559280178  0.2915027793435347  0.2185346791729263   T   T   T
  0.3268326697364597  0.2914961936158193  0.2185909822846646   T   T   T
  0.4937456020455361  0.2913148849287892  0.2185338355635324   T   T   T
  0.0842682125480434  0.6666029328605457  0.0339693614409294   T   T   T
  0.2509076932924829  0.6666511434206752  0.0339821139846688   T   T   T
  0.4175876397006255  0.6666425322657428  0.0339892316955025   T   T   T
  0.0840862442556036  0.9165532494555315  0.0339315510945355   T   T   T
  0.2506019255878477  0.9165014019839547  0.0339114646654292   T   T   T
  0.4173548493379456  0.9165244185412588  0.0339326388845140   T   T   T
  0.1598920141310740  0.5415562768684049  0.2185849744716052   T   T   T
  0.3265162393135465  0.5416058434913168  0.2185840945098170   T   T   T
  0.4929039739612077  0.5418882391569438  0.2185059610849146   T   T   T
  0.1598255646772394  0.7916374985117247  0.2185812010124785   T   T   T
  0.3267656802461524  0.7915335471904578  0.2186152522010416   T   T   T
  0.4933320815484907  0.7915921487160867  0.2186166409323703   T   T   T
  0.5844416645841337  0.1666424236915339  0.0339999862854697   T   T   T
  0.7508335993239895  0.1666946642601551  0.0340542968580142   T   T   T
  0.9173167659425528  0.1665777293606129  0.0338876521495646   T   T   T
  0.5842857795007798  0.4166370059900233  0.0339991194311647   T   T   T
  0.7506479483073387  0.4165227376248467  0.0339774374806511   T   T   T
  0.9170381511786314  0.4165599481987972  0.0338964587621999   T   T   T
  0.6601440634435517  0.0416522308328778  0.2186679132023292   T   T   T
  0.8267931633512806  0.0416110892714761  0.2186239733460340   T   T   T
  0.9933121300272708  0.0416746118172060  0.2184882553146856   T   T   T
  0.6506501335726982  0.2917816353537190  0.2186544836284600   T   T   T
  0.8396532632872510  0.2914285447283246  0.2185354057056215   T   T   T
  0.9899141731564826  0.2901800619298707  0.2181391393272792   T   T   T
  0.7858242862966246  0.2799684521185125  0.2894854930974763   T   T   T
  0.6904668494826711  0.1795435557877239  0.2976019425467302   T   T   T
  0.7872768329433605  0.3762416123484373  0.3224914819066557   T   T   T
  0.7567238501579162  0.3402636132421439  0.2507002231037341   T   T   T
  0.5843738565653525  0.6666316253367596  0.0340016491507796   T   T   T
  0.7508689581701544  0.6666359550866322  0.0340005860710020   T   T   T
  0.9174798157132162  0.6666457016643116  0.0339874995595210   T   T   T
  0.5842675429200952  0.9166665671141936  0.0339980365540255   T   T   T
  0.7506880438562958  0.9167431781252283  0.0339931002717099   T   T   T
  0.9172517193797893  0.9165942009088440  0.0339320066698791   T   T   T
  0.6600248468667591  0.5416178708149906  0.2186093048006270   T   T   T
  0.8265240353130213  0.5415494412750971  0.2185609442424062   T   T   T
  0.9931260891618745  0.5417551842898062  0.2185333759235314   T   T   T
  0.6598908088488649  0.7915682489971912  0.2186103149139901   T   T   T
  0.8268359403330785  0.7914962479325763  0.2186171124002631   T   T   T
  0.9932722780277672  0.7915560021529723  0.2186011041459515   T   T   T
  0.2466520054889892  0.1217505619152955  0.0598345946919576   T   T   T
  0.4133158453524907  0.1217743026295320  0.0598255979410026   T   T   T
  0.0799365025430102  0.3718220368829491  0.0598256369925387   T   T   T
  0.2465749528425925  0.3718501706400822  0.0598249091633863   T   T   T
  0.4132406975868399  0.3718496262765875  0.0598187339344267   T   T   T
  0.0799973216111816  0.1217128061315412  0.0598100883205370   T   T   T
  0.4964089242063495  0.4985493405751409  0.1396814722398751   T   T   T
  0.1631712994725532  0.4985301400609879  0.1396754883574977   T   T   T
  0.3297647526870827  0.4985275304603870  0.1396775107758523   T   T   T
  0.4964433968851189  0.2485128333778378  0.1396865760246900   T   T   T
  0.1632006321048412  0.2484342541061620  0.1396439985645081   T   T   T
  0.3297804740202318  0.2484775100419790  0.1396760712843252   T   T   T
  0.0800227976842589  0.1229526457141148  0.1658828502198038   T   T   T
  0.2465832066707649  0.1231636288517747  0.1659555770251417   T   T   T
  0.4131860793879517  0.1231706282762915  0.1659563506182332   T   T   T
  0.0799713003132880  0.3732556658255694  0.1659389992539522   T   T   T
  0.2465211611027199  0.3732459295440467  0.1659626974536255   T   T   T
  0.4131577023699954  0.3732582232679843  0.1659761005218678   T   T   T
  0.1633913763794413  0.4967747655041578  0.1926754981514515   T   T   T
  0.3300467996727680  0.4967840389305976  0.1926693090366333   T   T   T
  0.4965956686397591  0.4969830521556324  0.1926365352164459   T   T   T
  0.1635528137336255  0.2467611229730912  0.1926439725990218   T   T   T
  0.4965374997897263  0.2466126322917117  0.1926307902954586   T   T   T
  0.3300883827041620  0.2467290436834720  0.1926631848295362   T   T   T
  0.4964886530747870  0.4982744100727949  0.0864973309976113   T   T   T
  0.1631614698402139  0.4982954504223571  0.0864836914844462   T   T   T
  0.3298430962433417  0.4982803416869486  0.0864873912953144   T   T   T
  0.4964447725319245  0.2483109397673228  0.0864856070725650   T   T   T
  0.1631507086162040  0.2482412251038629  0.0864686862587571   T   T   T
  0.3298240507214121  0.2482761943417680  0.0864756480688585   T   T   T
  0.0797999998694476  0.1233879976710798  0.1127338336904952   T   T   T
  0.2464320647297654  0.1234489437422557  0.1127787703242777   T   T   T
  0.4130717009313626  0.1234911863610301  0.1127772455810275   T   T   T
  0.0798381283232304  0.3735216217790695  0.1127667423716801   T   T   T
  0.2464688812074566  0.3735075708673064  0.1127881639958869   T   T   T
  0.4131078545450163  0.3735283227392577  0.1127850165524398   T   T   T
  0.2466868597307474  0.6217666038388959  0.0598402312693142   T   T   T
  0.4133765404641173  0.6217643631638922  0.0598466664946002   T   T   T
  0.0799131357915776  0.8716903619034400  0.0598015602102736   T   T   T
  0.2465821098510145  0.8717371977162249  0.0598032867905984   T   T   T
  0.4132706711710801  0.8717726475124421  0.0598201456342455   T   T   T
  0.0799837166824116  0.6217852680649675  0.0598366968148029   T   T   T
  0.4964599802588228  0.9984496644772527  0.1396703975674901   T   T   T
  0.1632290275786338  0.9983388714230039  0.1396354536264435   T   T   T
  0.3298045801206745  0.9984232591727012  0.1396566881984886   T   T   T
  0.4964958653027107  0.7485497645502034  0.1396965043743048   T   T   T
  0.1631690346596687  0.7484825067821135  0.1396686110250538   T   T   T
  0.3297836704785954  0.7485149800163040  0.1396835257221786   T   T   T
  0.0798902444785246  0.6233185344769946  0.1659688288391360   T   T   T
  0.2465268115514412  0.6232823104189072  0.1659934280049909   T   T   T
  0.4131397531579725  0.6233670326871443  0.1659837605203283   T   T   T
  0.0798986818280411  0.8732151156065809  0.1659598376180312   T   T   T
  0.2465517124096836  0.8732257093976369  0.1659668106766365   T   T   T
  0.4132010999034278  0.8732552843792256  0.1659768354719274   T   T   T
  0.1634778352466190  0.9967238228903686  0.1926713607102287   T   T   T
  0.3301231474138268  0.9967694236488137  0.1926664724158975   T   T   T
  0.4967662962042689  0.9967998977749032  0.1926646254899814   T   T   T
  0.1634295391570985  0.7468165510413701  0.1926687317396638   T   T   T
  0.4967485245687386  0.7468377101705789  0.1926967369600051   T   T   T
  0.3300698165150474  0.7468311501899775  0.1926914734511840   T   T   T
  0.4964832557687898  0.9983012099280740  0.0864890386245008   T   T   T
  0.1631799252486149  0.9981557630938767  0.0864558308825956   T   T   T
  0.3298461142268956  0.9982055012381765  0.0864678221036892   T   T   T
  0.4965136035775399  0.7483064790817384  0.0865011294559845   T   T   T
  0.1631754098403790  0.7481782958817549  0.0864683317004973   T   T   T
  0.3298654368641439  0.7482213257089041  0.0864799469779812   T   T   T
  0.0797437615851034  0.6235399406789733  0.1127891053476581   T   T   T
  0.2464312483237517  0.6235099250940430  0.1128018228493329   T   T   T
  0.4130944238391552  0.6235382810180655  0.1127949491392212   T   T   T
  0.0798406610530413  0.8733617135922034  0.1127436433171977   T   T   T
  0.2464860653269225  0.8734017020202073  0.1127658798359616   T   T   T
  0.4131282795256107  0.8734777750391000  0.1127783847999238   T   T   T
  0.7466271313416206  0.1218641876600764  0.0599218483534987   T   T   T
  0.9132565467292598  0.1218050499965990  0.0597799483554261   T   T   T
  0.5799515941343053  0.3718025260615131  0.0598655671105686   T   T   T
  0.7465711294285829  0.3717693754435253  0.0598624532360747   T   T   T
  0.9131924732381231  0.3718413465944231  0.0598018919309213   T   T   T
  0.5800255761996373  0.1218254719631391  0.0598665973800746   T   T   T
  0.9964948552700413  0.4985510290885868  0.1396601515766388   T   T   T
  0.6630944707701857  0.4984773685253084  0.1397062333922650   T   T   T
  0.8297762397513329  0.4984634553598805  0.1396868563883751   T   T   T
  0.9965619794930661  0.2483144246586437  0.1395304479112471   T   T   T
  0.6630132063743651  0.2485714274338884  0.1398108977358393   T   T   T
  0.8299324392120944  0.2483856048129867  0.1396686748491003   T   T   T
  0.5797445903714763  0.1231668368623185  0.1659550852299616   T   T   T
  0.7465103589637263  0.1239863165186029  0.1663339034114456   T   T   T
  0.9134426908881371  0.1224431092369758  0.1656807095262631   T   T   T
  0.5797135976645648  0.3734195640771387  0.1660305353689954   T   T   T
  0.7464418540683901  0.3731361173149201  0.1660174464789270   T   T   T
  0.9133867735403720  0.3733765530339368  0.1659247260118266   T   T   T
  0.6632736008060705  0.4970007389636696  0.1926742789734678   T   T   T
  0.8301381593467931  0.4968573003625587  0.1926360312273366   T   T   T
  0.9968367829659773  0.4969842662867268  0.1926243828804702   T   T   T
  0.6622779665070129  0.2475735105001644  0.1930654120626915   T   T   T
  0.9968500875202788  0.2458228981632215  0.1921671583174257   T   T   T
  0.8314062160754710  0.2463230832120572  0.1924101481881500   T   T   T
  0.9965016631644545  0.4982795465958856  0.0864824504571054   T   T   T
  0.6631653443821568  0.4982549774808253  0.0865185062220604   T   T   T
  0.8297991702570547  0.4982762184097544  0.0865049759298484   T   T   T
  0.9964913467916320  0.2482549189220241  0.0864206604546107   T   T   T
  0.6631225720904677  0.2482866401716297  0.0865697077784763   T   T   T
  0.8298011618739695  0.2482964204841867  0.0865103294331902   T   T   T
  0.5797137945952746  0.1235512629578170  0.1128126402023963   T   T   T
  0.7463746108272006  0.1235818743465778  0.1129186010980595   T   T   T
  0.9131165638150989  0.1234035925882431  0.1127062251130751   T   T   T