C H O Si                                
   1.00000000000000     
     9.2874599999999994    0.0000000000000000    0.0000000000000000
     0.0000000000000000   17.5126199999999983    0.0000000000000000
     0.0000000000000000    0.0000000000000000   58.0000000000000000
   C    H    O    Si
    72    57    28    72
Selective dynamics
Direct
  0.9932741189125882  0.0631095936592941  0.0604604227159469   T   T   T
  0.3266315564884263  0.0631228549089331  0.0605481726772780   T   T   T
  0.6599085436469788  0.0631055863022405  0.0605204377857923   T   T   T
  0.9930822379656331  0.3131668092157083  0.0604523921828175   T   T   T
  0.3263976370847471  0.3130935691517843  0.0605507146128888   T   T   T
  0.6597779273737571  0.3131207996694743  0.0605108638515887   T   T   T
  0.1601079389075048  0.1859490208601455  0.1393914379087292   T   T   T
  0.4933619962137589  0.1862521682878984  0.1396318898669295   T   T   T
  0.8267494761034839  0.1859460605726224  0.1393120876023067   T   T   T
  0.1599436269114015  0.4360836633760231  0.1394342484370016   T   T   T
  0.4933051146224137  0.4359965140420975  0.1394769639605132   T   T   T
  0.8266639844757904  0.4360872776270520  0.1394159663702941   T   T   T
  0.3275036924196566  0.0613606468754122  0.1667088173865591   T   T   T
  0.6598039517207442  0.0612938781943841  0.1666682421003583   T   T   T
  0.9938682113032753  0.0606643262378570  0.1664467628311823   T   T   T
  0.3266945785632895  0.3111954639341458  0.1667764279077481   T   T   T
  0.6606197052108989  0.3112609766003412  0.1666516534295879   T   T   T
  0.9936804130211380  0.3111473962889054  0.1664862217905068   T   T   T
  0.1606848876005283  0.1872703083703866  0.1917325461707981   T   T   T
  0.4940704211020624  0.1898710530468254  0.1927210507950282   T   T   T
  0.8279042070695053  0.1868163838360465  0.1915017727120533   T   T   T
  0.1599592500585410  0.4383932238632205  0.1919723508741188   T   T   T
  0.4934965836039181  0.4380240272290890  0.1920088801612772   T   T   T
  0.8269905205386744  0.4384703719178468  0.1919150622785324   T   T   T
  0.1597168932850219  0.1861636403173357  0.0858473610230936   T   T   T
  0.4930299551765937  0.1861842283069419  0.0859680456668384   T   T   T
  0.8263185625276013  0.1861313413050160  0.0857943699500681   T   T   T
  0.1597520654866177  0.4361412336632144  0.0858713934936495   T   T   T
  0.4930425492148298  0.4361247466038282  0.0858957050940122   T   T   T
  0.8263503308798889  0.4361460196591685  0.0858544868795572   T   T   T
  0.3264622643149414  0.0610555033738282  0.1130842341117259   T   T   T
  0.6596977179909557  0.0610522242489101  0.1130685717710917   T   T   T
  0.9931159484171829  0.0609739204952352  0.1129925718854057   T   T   T
  0.3264065340617067  0.3110248177689060  0.1131309171002073   T   T   T
  0.6598502953754274  0.3110369213549206  0.1130783434801144   T   T   T
  0.9931064224020912  0.3110237780570743  0.1129921938739248   T   T   T
  0.9933078703502546  0.5630782531290224  0.0605070770302920   T   T   T
  0.3265889707627104  0.5630977503481008  0.0605177894864521   T   T   T
  0.6600189319645465  0.5630963987207019  0.0605141983501645   T   T   T
  0.9931128595093552  0.8131189959990028  0.0605046227280246   T   T   T
  0.3264152019719657  0.8130850450617384  0.0605100576667595   T   T   T
  0.6598033899812799  0.8131008696180928  0.0605065007659828   T   T   T
  0.1599160905757430  0.6860975029104195  0.1394287283373070   T   T   T
  0.4931678911935733  0.6860901748770042  0.1394371809296131   T   T   T
  0.8265100094327656  0.6860839710434489  0.1394276031979185   T   T   T
  0.1603772568512283  0.9360407026034299  0.1394304370457954   T   T   T
  0.4933000895486814  0.9359975292993806  0.1394384280359754   T   T   T
  0.8264583920301516  0.9360636750394258  0.1394239272299909   T   T   T
  0.3267057227924224  0.5612218632765908  0.1665950014638149   T   T   T
  0.6598980171638076  0.5612215819974982  0.1665862671499196   T   T   T
  0.9933383469496977  0.5613694675759188  0.1665598324361894   T   T   T
  0.3267766669345052  0.8111654879017708  0.1666062624537248   T   T   T
  0.6601180058023696  0.8111853073359319  0.1666161786115877   T   T   T
  0.9934650283713088  0.8112266087901353  0.1665946074003958   T   T   T
  0.1602738272080261  0.6881321391557141  0.1919745117061653   T   T   T
  0.4935475911267154  0.6881790738996956  0.1920000786841383   T   T   T
  0.8267537741213329  0.6881676848270887  0.1919682013472921   T   T   T
  0.1605334712232872  0.9381257614349291  0.1919847934202112   T   T   T
  0.4937668249676227  0.9380583324745965  0.1920090513587880   T   T   T
  0.8269816893574709  0.9380919958583297  0.1919569129681493   T   T   T
  0.1597318167493947  0.6861507351786572  0.0858725509865615   T   T   T
  0.4930750600086871  0.6861300872206635  0.0858789106662727   T   T   T
  0.8263558737027332  0.6861663937505159  0.0858736129119186   T   T   T
  0.1598013117687982  0.9361475950696133  0.0858637019943589   T   T   T
  0.4930481895545984  0.9361354095926151  0.0858776675466303   T   T   T
  0.8263169863411221  0.9361651048613697  0.0858546184274029   T   T   T
  0.3264213488943542  0.5610270163948469  0.1130589185424329   T   T   T
  0.6597532495736667  0.5610276824182460  0.1130568852669663   T   T   T
  0.9930773722926995  0.5610476110101902  0.1130388030574466   T   T   T
  0.3264887337774119  0.8110003275914318  0.1130437942095455   T   T   T
  0.6597434913057793  0.8110284197187417  0.1130485018456363   T   T   T
  0.9931180846252023  0.8110963240807315  0.1130546367844623   T   T   T
  0.0742185888157761  0.1774001827764063  0.0273499505252330   T   T   T
  0.4067468720856703  0.1774394877172028  0.0275156935879805   T   T   T
  0.7397969442907513  0.1773691989220630  0.0273726505060424   T   T   T
  0.0739906937168377  0.4274623763518094  0.0273548605092682   T   T   T
  0.4064137448968926  0.4273383867116774  0.0274388392272697   T   T   T
  0.7393832087473882  0.4273669321885396  0.0274040171596606   T   T   T
  0.3243921325925875  0.0266833087130725  0.0450848425202943   T   T   T
  0.6569126793246663  0.0266690564994562  0.0450571172746886   T   T   T
  0.9908551388108728  0.0267129478636465  0.0449882563586505   T   T   T
  0.3238158921182266  0.2765965134363619  0.0451007086859478   T   T   T
  0.6570844691181289  0.2766826875010135  0.0450460053932994   T   T   T
  0.9905140503610147  0.2767976774684432  0.0449688685226965   T   T   T
  0.8286375629721143  0.4024157533774569  0.2074405149609546   T   T   T
  0.8304543724354175  0.1506145805008896  0.2070098186848173   T   T   T
  0.1620149421601841  0.1511198628884455  0.2072579096778312   T   T   T
  0.4971296476684299  0.1528859172778799  0.2080664135888244   T   T   T
  0.1620485136313494  0.4018977101187587  0.2074198724838180   T   T   T
  0.4941400859105862  0.4017546346115882  0.2075182386491540   T   T   T
  0.0801318695197171  0.0523285014063477  0.2250940009655629   T   T   T
  0.4144351581953281  0.0518619747962021  0.2252319297779922   T   T   T
  0.7477286199312819  0.0521040399969340  0.2251423165441522   T   T   T
  0.0783798157359615  0.3009877343834156  0.2247230226180249   T   T   T
  0.3782594946600176  0.3102446262399433  0.2285663028759321   T   T   T
  0.7822758648096808  0.2950614176337320  0.2229594099715228   T   T   T
  0.5472944573805957  0.3055070752220686  0.2739899854275093   T   T   T
  0.4933254062379029  0.2379065643726868  0.2933797736024193   T   T   T
  0.5723382982610357  0.3199928858794862  0.3031018282716055   T   T   T
  0.3153296877899333  0.1948512907700350  0.3097304512046355   T   T   T
  0.4222300619618199  0.1304550846095250  0.3021980922295846   T   T   T
  0.6502999020095798  0.3660077682733822  0.3335360650683740   T   T   T
  0.4843153615232850  0.3770486045746844  0.3308352469673264   T   T   T
  0.5186555419333359  0.3953855312430655  0.2521980005529797   T   T   T
  0.5857794019554272  0.3232947870856514  0.2387710338086651   T   T   T
  0.0738655029188216  0.6774511589938823  0.0274099743589370   T   T   T
  0.4069330354054412  0.6773937195725913  0.0274396738869402   T   T   T
  0.7401259084154989  0.6773730232147520  0.0274406638611511   T   T   T
  0.0736209004185849  0.9274305619494310  0.0273921238807708   T   T   T
  0.4064975331640412  0.9273477744671533  0.0274305464376371   T   T   T
  0.7398095647260000  0.9274102460966155  0.0274132318498860   T   T   T
  0.3240569104003297  0.5266851872896784  0.0450487582169028   T   T   T
  0.6574581397702924  0.5266971578494417  0.0450441236155733   T   T   T
  0.9906970880052032  0.5267028211128846  0.0450322285030630   T   T   T
  0.3238696518682740  0.7766442698549524  0.0450472494577764   T   T   T
  0.6571027178527902  0.7766570313204594  0.0450447978466882   T   T   T
  0.9904745141207867  0.7766685007016043  0.0450449668339276   T   T   T
  0.8294528521613062  0.9016809791961843  0.2074295154070261   T   T   T
  0.8291855174229381  0.6517311468101007  0.2074355346106468   T   T   T
  0.1625027408348883  0.6517297109681832  0.2074468690372395   T   T   T
  0.4959902550065869  0.6518184925194311  0.2074774421428204   T   T   T
  0.1626469798219429  0.9016925085972903  0.2074536475714570   T   T   T
  0.4961604959470911  0.9016040323058244  0.2074675622048030   T   T   T
  0.0794549273225200  0.5533960213687510  0.2250884714623522   T   T   T
  0.4136020588799348  0.5538282704702556  0.2249233782113657   T   T   T
  0.7467518295699938  0.5532289523961740  0.2250244508590627   T   T   T
  0.0804662257728503  0.8023615717181001  0.2251090719785316   T   T   T
  0.4130699649961393  0.8026681794995152  0.2251799782573699   T   T   T
  0.7482153627187329  0.8021328647223877  0.2250483642629541   T   T   T
  0.1687193002675062  0.1664092400479057  0.0339589511093843   T   T   T
  0.5015273267937871  0.1664867552134669  0.0340414236038989   T   T   T
  0.8345693594241965  0.1662227007199558  0.0338698076870676   T   T   T
  0.1684886914256934  0.4165010924782619  0.0339729318088391   T   T   T
  0.5012018086895815  0.4163808810706460  0.0339634618898808   T   T   T
  0.8342036988103869  0.4164570280123439  0.0339234018512661   T   T   T
  0.3197177523271547  0.0414200889959835  0.2186090712714067   T   T   T
  0.6529310088351246  0.0414312680039980  0.2185793442275286   T   T   T
  0.9856666127381629  0.0414741365503726  0.2184508515918247   T   T   T
  0.3000600971380730  0.2916145333964774  0.2186225583370530   T   T   T
  0.6795742521708279  0.2913407941196990  0.2186146401014596   T   T   T
  0.9831720724776899  0.2895290421973986  0.2182726581436137   T   T   T
  0.5713416840003714  0.2796390192521340  0.2897958903528184   T   T   T
  0.3812879114926857  0.1793803689069563  0.2974987020648612   T   T   T
  0.5749671220900356  0.3773617340752855  0.3223134460338785   T   T   T
  0.5125922940461189  0.3399070333417876  0.2508704300923524   T   T   T
  0.1684738065915418  0.6664145113225982  0.0339786193320587   T   T   T
  0.5016705316885786  0.6663892839788865  0.0339720440947947   T   T   T
  0.8348781401177406  0.6664354792959063  0.0339766600449281   T   T   T
  0.1682411364744882  0.9164465980494735  0.0339669315860968   T   T   T
  0.5012746989453286  0.9164039904206380  0.0339582783532546   T   T   T
  0.8345550997987156  0.9163548203175894  0.0339340941320678   T   T   T
  0.3190748980483197  0.5415017446655398  0.2185368309669464   T   T   T
  0.6522341924940951  0.5415926682370125  0.2185107331990844   T   T   T
  0.9851503473121993  0.5417687263237341  0.2185080776028897   T   T   T
  0.3187348767493964  0.7914339033997059  0.2185529899702081   T   T   T
  0.6531412098365402  0.7914185596548573  0.2185848968511808   T   T   T
  0.9858035480464739  0.7914217727300084  0.2185377053147571   T   T   T
  0.4934263757055534  0.1217677118983553  0.0599816762649193   T   T   T
  0.8266996624692491  0.1217184524152772  0.0598400931155829   T   T   T
  0.1599763402307811  0.3717572705366334  0.0599024619866813   T   T   T
  0.4932594929876428  0.3717252231095815  0.0599149167564943   T   T   T
  0.8265452641638106  0.3717908994512688  0.0598719293066628   T   T   T
  0.1601333599074226  0.1217271639423810  0.0598933245928792   T   T   T
  0.9932625182426504  0.4985122009256130  0.1396388613388437   T   T   T
  0.3265917166678854  0.4984424301490181  0.1396573011727183   T   T   T
  0.6598505116975336  0.4984317006450290  0.1396530366704642   T   T   T
  0.9933900989918735  0.2483183682693231  0.1395329127346280   T   T   T
  0.3265343624273020  0.2484701452339849  0.1397689014686658   T   T   T
  0.6601556156614613  0.2483782610990932  0.1396544419980017   T   T   T
  0.1602904078257523  0.1227922200870318  0.1658215658430031   T   T   T
  0.4935717140098143  0.1239718975634050  0.1663035411160176   T   T   T
  0.8272002263779805  0.1224542689062063  0.1656570005461697   T   T   T
  0.1600719153089827  0.3733581783466190  0.1659623908039720   T   T   T
  0.4933705298454926  0.3731180605960084  0.1659931768372355   T   T   T
  0.8271413358985179  0.3733838160429419  0.1659307748974654   T   T   T
  0.3264688701262731  0.4969587581570448  0.1925639299636696   T   T   T
  0.6600797946262763  0.4969699971514742  0.1925537482624800   T   T   T
  0.9933502197778947  0.4971591026752246  0.1925399245852230   T   T   T
  0.3249851475992972  0.2475567578355146  0.1929818874836822   T   T   T
  0.9939168105223238  0.2456573127955582  0.1921273287041491   T   T   T
  0.6631684096928553  0.2464451261215228  0.1923840320863278   T   T   T
  0.9930845340657197  0.4981498828465502  0.0865160614598880   T   T   T
  0.3264204190587821  0.4981632826225473  0.0865318550169439   T   T   T
  0.6597292516139298  0.4981604819605831  0.0865283187047070   T   T   T
  0.9930229714726931  0.2481705592368085  0.0864520312320291   T   T   T
  0.3263790131969923  0.2481787414024716  0.0865748773313381   T   T   T
  0.6597097438553482  0.2481968452129849  0.0865319563888485   T   T   T
  0.1598118677114566  0.1233892620518124  0.1127842814791936   T   T   T
  0.4931015883500306  0.1234694138482835  0.1129327991025209   T   T   T
  0.8264761104970243  0.1233347067555976  0.1127236971466052   T   T   T
  0.1598086405854741  0.3734234205409283  0.1128295283764195   T   T   T
  0.4930957299985503  0.3733793168382417  0.1128508686257790   T   T   T
  0.8265279527365608  0.3734279200111461  0.1128106306769790   T   T   T
  0.4934814752670559  0.6217105827772286  0.0599161201194220   T   T   T
  0.8267979235111653  0.6217393330910016  0.0599193135468649   T   T   T
  0.1599851727696902  0.8717284108541613  0.0599052221431342   T   T   T
  0.4932928094282564  0.8717252141376336  0.0599034449987291   T   T   T
  0.8265849291136879  0.8717384630645518  0.0598922003855509   T   T   T
  0.1601025987408053  0.6217240355987856  0.0599192091012269   T   T   T
  0.9934411007914620  0.9981670338620434  0.1395601449898584   T   T   T
  0.3270009208258515  0.9985408715934676  0.1397023293488698   T   T   T
  0.6596246451919697  0.9984706982363987  0.1396736725198984   T   T   T
  0.9932184208057798  0.7484692321605003  0.1396482371270122   T   T   T
  0.3265436109042676  0.7484742480486237  0.1396519708488687   T   T   T
  0.6598383085722900  0.7484648178527996  0.1396600196306687   T   T   T
  0.1599564424075838  0.6232981397680493  0.1659392649631264   T   T   T
  0.4932843802622989  0.6233090559263104  0.1659592747887176   T   T   T
  0.8265434491098761  0.6233029153404696  0.1659430490541234   T   T   T
  0.1601435795355139  0.8732109243035265  0.1659585330407864   T   T   T
  0.4934099166621003  0.8731967353962352  0.1659706009787213   T   T   T
  0.8266721773329140  0.8731951690034574  0.1659418053236860   T   T   T
  0.3270079461890620  0.9967857209072132  0.1926540428281732   T   T   T
  0.6602366085291208  0.9967570329508617  0.1926201830390314   T   T   T
  0.9935686682547357  0.9966792111738220  0.1925117740886847   T   T   T
  0.3266943051102274  0.7468119065488864  0.1925879443894288   T   T   T
  0.9933617366095978  0.7468080753042902  0.1925722375479664   T   T   T
  0.6600253916096861  0.7468737481240615  0.1926082432869591   T   T   T
  0.9930798778056148  0.9981425952465446  0.0864685793567854   T   T   T
  0.3264534650039723  0.9981731460040656  0.0865498379796874   T   T   T
  0.6596727294687694  0.9981660525002777  0.0865326992079410   T   T   T
  0.9930623221049777  0.7481963077133060  0.0865225959682105   T   T   T
  0.3264129014466636  0.7481487237809641  0.0865203761514314   T   T   T
  0.6597044916604371  0.7481694887837975  0.0865212291303465   T   T   T
  0.1597878874347315  0.6234321132755624  0.1128293160356120   T   T   T
  0.4931073925818124  0.6234215847734301  0.1128343097426666   T   T   T
  0.8264461993809824  0.6234227418974738  0.1128258016902006   T   T   T
  0.1599477364398485  0.8734094223316198  0.1128220542208778   T   T   T
  0.4931197932483320  0.8733924635181556  0.1128257896550966   T   T   T
  0.8263642795862686  0.8734222718544989  0.1128151355657126   T   T   T
 
  0.00000000E+00  0.00000000E+00  0.00000000E+00
  0.00000000E+00  0.00000000E+00  0.00000000E+00
  0.00000000E+00  0.00000000E+00  0.00000000E+00
  0.00000000E+00  0.00000000E+00  0.00000000E+00
  0.00000000E+00  0.00000000E+00  0.00000000E+00
  0.00000000E+00  0.00000000E+00  0.00000000E+00
  0.00000000E+00  0.00000000E+00  0.00000000E+00
  0.00000000E+00  0.00000000E+00  0.00000000E+00
  0.00000000E+00  0.00000000E+00  0.00000000E+00
  0.00000000E+00  0.00000000E+00  0.00000000E+00
  0.00000000E+00  0.00000000E+00  0.00000000E+00
  0.00000000E+00  0.00000000E+00  0.00000000E+00
  0.00000000E+00  0.00000000E+00  0.00000000E+00
  0.00000000E+00  0.00000000E+00  0.00000000E+00
  0.00000000E+00  0.00000000E+00  0.00000000E+00
  0.00000000E+00  0.00000000E+00  0.00000000E+00
  0.00000000E+00  0.00000000E+00  0.00000000E+00
  0.00000000E+00  0.00000000E+00  0.00000000E+00
  0.00000000E+00  0.00000000E+00  0.00000000E+00
  0.00000000E+00  0.00000000E+00  0.00000000E+00
  0.00000000E+00  0.00000000E+00  0.00000000E+00
  0.00000000E+00  0.00000000E+00  0.00000000E+00
  0.00000000E+00  0.00000000E+00  0.00000000E+00
  0.00000000E+00  0.00000000E+00  0.00000000E+00
  0.00000000E+00  0.00000000E+00  0.00000000E+00
  0.00000000E+00  0.00000000E+00  0.00000000E+00
  0.00000000E+00  0.00000000E+00  0.00000000E+00
  0.00000000E+00  0.00000000E+00  0.00000000E+00
  0.00000000E+00  0.00000000E+00  0.00000000E+00
  0.00000000E+00  0.00000000E+00  0.00000000E+00
  0.00000000E+00  0.00000000E+00  0.00000000E+00
  0.00000000E+00  0.00000000E+00  0.00000000E+00
  0.00000000E+00  0.00000000E+00  0.00000000E+00
  0.00000000E+00  0.00000000E+00  0.00000000E+00
  0.00000000E+00  0.00000000E+00  0.00000000E+00
  0.00000000E+00  0.00000000E+00  0.00000000E+00
  0.00000000E+00  0.00000000E+00  0.00000000E+00
  0.00000000E+00  0.00000000E+00  0.00000000E+00
  0.00000000E+00  0.00000000E+00  0.00000000E+00
  0.00000000E+00  0.00000000E+00  0.00000000E+00
  0.00000000E+00  0.00000000E+00  0.00000000E+00
  0.00000000E+00  0.00000000E+00  0.00000000E+00
  0.00000000E+00  0.00000000E+00  0.00000000E+00
  0.00000000E+00  0.00000000E+00  0.00000000E+00
  0.00000000E+00  0.00000000E+00  0.00000000E+00
  0.00000000E+00  0.00000000E+00  0.00000000E+00
  0.00000000E+00  0.00000000E+00  0.00000000E+00
  0.00000000E+00  0.00000000E+00  0.00000000E+00
  0.00000000E+00  0.00000000E+00  0.00000000E+00
  0.00000000E+00  0.00000000E+00  0.00000000E+00
  0.00000000E+00  0.00000000E+00  0.00000000E+00
  0.00000000E+00  0.00000000E+00  0.00000000E+00
  0.00000000E+00  0.00000000E+00  0.00000000E+00
  0.00000000E+00  0.00000000E+00  0.00000000E+00
  0.00000000E+00  0.00000000E+00  0.00000000E+00
  0.00000000E+00  0.00000000E+00  0.00000000E+00
  0.00000000E+00  0.00000000E+00  0.00000000E+00
  0.00000000E+00  0.00000000E+00  0.00000000E+00
  0.00000000E+00  0.00000000E+00  0.00000000E+00
  0.00000000E+00  0.00000000E+00  0.00000000E+00
  0.00000000E+00  0.00000000E+00  0.00000000E+00
  0.00000000E+00  0.00000000E+00  0.00000000E+00
  0.00000000E+00  0.00000000E+00  0.00000000E+00
  0.00000000E+00  0.00000000E+00  0.00000000E+00
  0.00000000E+00  0.00000000E+00  0.00000000E+00
  0.00000000E+00  0.00000000E+00  0.00000000E+00
  0.00000000E+00  0.00000000E+00  0.00000000E+00
  0.00000000E+00  0.00000000E+00  0.00000000E+00
  0.00000000E+00  0.00000000E+00  0.00000000E+00
  0.00000000E+00  0.00000000E+00  0.00000000E+00
  0.00000000E+00  0.00000000E+00  0.00000000E+00
  0.00000000E+00  0.00000000E+00  0.00000000E+00
  0.00000000E+00  0.00000000E+00  0.00000000E+00
  0.00000000E+00  0.00000000E+00  0.00000000E+00
  0.00000000E+00  0.00000000E+00  0.00000000E+00
  0.00000000E+00  0.00000000E+00  0.00000000E+00
  0.00000000E+00  0.00000000E+00  0.00000000E+00
  0.00000000E+00  0.00000000E+00  0.00000000E+00
  0.00000000E+00  0.00000000E+00  0.00000000E+00
  0.00000000E+00  0.00000000E+00  0.00000000E+00
  0.00000000E+00  0.00000000E+00  0.00000000E+00
  0.00000000E+00  0.00000000E+00  0.00000000E+00
  0.00000000E+00  0.00000000E+00  0.00000000E+00
  0.00000000E+00  0.00000000E+00  0.00000000E+00
  0.00000000E+00  0.00000000E+00  0.00000000E+00
  0.00000000E+00  0.00000000E+00  0.00000000E+00
  0.00000000E+00  0.00000000E+00  0.00000000E+00
  0.00000000E+00  0.00000000E+00  0.00000000E+00
  0.00000000E+00  0.00000000E+00  0.00000000E+00
  0.00000000E+00  0.00000000E+00  0.00000000E+00
  0.00000000E+00  0.00000000E+00  0.00000000E+00
  0.00000000E+00  0.00000000E+00  0.00000000E+00
  0.00000000E+00  0.00000000E+00  0.00000000E+00
  0.00000000E+00  0.00000000E+00  0.00000000E+00
  0.00000000E+00  0.00000000E+00  0.00000000E+00
  0.00000000E+00  0.00000000E+00  0.00000000E+00
  0.00000000E+00  0.00000000E+00  0.00000000E+00
  0.00000000E+00  0.00000000E+00  0.00000000E+00
  0.00000000E+00  0.00000000E+00  0.00000000E+00
  0.00000000E+00  0.00000000E+00  0.00000000E+00
  0.00000000E+00  0.00000000E+00  0.00000000E+00
  0.00000000E+00  0.00000000E+00  0.00000000E+00
  0.00000000E+00  0.00000000E+00  0.00000000E+00
  0.00000000E+00  0.00000000E+00  0.00000000E+00
  0.00000000E+00  0.00000000E+00  0.00000000E+00
  0.00000000E+00  0.00000000E+00  0.00000000E+00
  0.00000000E+00  0.00000000E+00  0.00000000E+00
  0.00000000E+00  0.00000000E+00  0.00000000E+00
  0.00000000E+00  0.00000000E+00  0.00000000E+00
  0.00000000E+00  0.00000000E+00  0.00000000E+00
  0.00000000E+00  0.00000000E+00  0.00000000E+00
  0.00000000E+00  0.00000000E+00  0.00000000E+00
  0.00000000E+00  0.00000000E+00  0.00000000E+00
  0.00000000E+00  0.00000000E+00  0.00000000E+00
  0.00000000E+00  0.00000000E+00  0.00000000E+00
  0.00000000E+00  0.00000000E+00  0.00000000E+00
  0.00000000E+00  0.00000000E+00  0.00000000E+00
  0.00000000E+00  0.00000000E+00  0.00000000E+00
  0.00000000E+00  0.00000000E+00  0.00000000E+00
  0.00000000E+00  0.00000000E+00  0.00000000E+00
  0.00000000E+00  0.00000000E+00  0.00000000E+00
  0.00000000E+00  0.00000000E+00  0.00000000E+00
  0.00000000E+00  0.00000000E+00  0.00000000E+00
  0.00000000E+00  0.00000000E+00  0.00000000E+00
  0.00000000E+00  0.00000000E+00  0.00000000E+00
  0.00000000E+00  0.00000000E+00  0.00000000E+00
  0.00000000E+00  0.00000000E+00  0.00000000E+00
  0.00000000E+00  0.00000000E+00  0.00000000E+00
  0.00000000E+00  0.00000000E+00  0.00000000E+00
  0.00000000E+00  0.00000000E+00  0.00000000E+00
  0.00000000E+00  0.00000000E+00  0.00000000E+00
  0.00000000E+00  0.00000000E+00  0.00000000E+00
  0.00000000E+00  0.00000000E+00  0.00000000E+00
  0.00000000E+00  0.00000000E+00  0.00000000E+00
  0.00000000E+00  0.00000000E+00  0.00000000E+00
  0.00000000E+00  0.00000000E+00  0.00000000E+00
  0.00000000E+00  0.00000000E+00  0.00000000E+00
  0.00000000E+00  0.00000000E+00  0.00000000E+00
  0.00000000E+00  0.00000000E+00  0.00000000E+00
  0.00000000E+00  0.00000000E+00  0.00000000E+00
  0.00000000E+00  0.00000000E+00  0.00000000E+00
  0.00000000E+00  0.00000000E+00  0.00000000E+00
  0.00000000E+00  0.00000000E+00  0.00000000E+00
  0.00000000E+00  0.00000000E+00  0.00000000E+00
  0.00000000E+00  0.00000000E+00  0.00000000E+00
  0.00000000E+00  0.00000000E+00  0.00000000E+00
  0.00000000E+00  0.00000000E+00  0.00000000E+00
  0.00000000E+00  0.00000000E+00  0.00000000E+00
  0.00000000E+00  0.00000000E+00  0.00000000E+00
  0.00000000E+00  0.00000000E+00  0.00000000E+00
  0.00000000E+00  0.00000000E+00  0.00000000E+00
  0.00000000E+00  0.00000000E+00  0.00000000E+00
  0.00000000E+00  0.00000000E+00  0.00000000E+00
  0.00000000E+00  0.00000000E+00  0.00000000E+00
  0.00000000E+00  0.00000000E+00  0.00000000E+00
  0.00000000E+00  0.00000000E+00  0.00000000E+00
  0.00000000E+00  0.00000000E+00  0.00000000E+00
  0.00000000E+00  0.00000000E+00  0.00000000E+00
  0.00000000E+00  0.00000000E+00  0.00000000E+00
  0.00000000E+00  0.00000000E+00  0.00000000E+00
  0.00000000E+00  0.00000000E+00  0.00000000E+00
  0.00000000E+00  0.00000000E+00  0.00000000E+00
  0.00000000E+00  0.00000000E+00  0.00000000E+00
  0.00000000E+00  0.00000000E+00  0.00000000E+00
  0.00000000E+00  0.00000000E+00  0.00000000E+00
  0.00000000E+00  0.00000000E+00  0.00000000E+00
  0.00000000E+00  0.00000000E+00  0.00000000E+00
  0.00000000E+00  0.00000000E+00  0.00000000E+00
  0.00000000E+00  0.00000000E+00  0.00000000E+00
  0.00000000E+00  0.00000000E+00  0.00000000E+00
  0.00000000E+00  0.00000000E+00  0.00000000E+00
  0.00000000E+00  0.00000000E+00  0.00000000E+00
  0.00000000E+00  0.00000000E+00  0.00000000E+00
  0.00000000E+00  0.00000000E+00  0.00000000E+00
  0.00000000E+00  0.00000000E+00  0.00000000E+00
  0.00000000E+00  0.00000000E+00  0.00000000E+00
  0.00000000E+00  0.00000000E+00  0.00000000E+00
  0.00000000E+00  0.00000000E+00  0.00000000E+00
  0.00000000E+00  0.00000000E+00  0.00000000E+00
  0.00000000E+00  0.00000000E+00  0.00000000E+00
  0.00000000E+00  0.00000000E+00  0.00000000E+00
  0.00000000E+00  0.00000000E+00  0.00000000E+00
  0.00000000E+00  0.00000000E+00  0.00000000E+00
  0.00000000E+00  0.00000000E+00  0.00000000E+00
  0.00000000E+00  0.00000000E+00  0.00000000E+00
  0.00000000E+00  0.00000000E+00  0.00000000E+00
  0.00000000E+00  0.00000000E+00  0.00000000E+00
  0.00000000E+00  0.00000000E+00  0.00000000E+00
  0.00000000E+00  0.00000000E+00  0.00000000E+00
  0.00000000E+00  0.00000000E+00  0.00000000E+00
  0.00000000E+00  0.00000000E+00  0.00000000E+00
  0.00000000E+00  0.00000000E+00  0.00000000E+00
  0.00000000E+00  0.00000000E+00  0.00000000E+00
  0.00000000E+00  0.00000000E+00  0.00000000E+00
  0.00000000E+00  0.00000000E+00  0.00000000E+00
  0.00000000E+00  0.00000000E+00  0.00000000E+00
  0.00000000E+00  0.00000000E+00  0.00000000E+00
  0.00000000E+00  0.00000000E+00  0.00000000E+00
  0.00000000E+00  0.00000000E+00  0.00000000E+00
  0.00000000E+00  0.00000000E+00  0.00000000E+00
  0.00000000E+00  0.00000000E+00  0.00000000E+00
  0.00000000E+00  0.00000000E+00  0.00000000E+00
  0.00000000E+00  0.00000000E+00  0.00000000E+00
  0.00000000E+00  0.00000000E+00  0.00000000E+00
  0.00000000E+00  0.00000000E+00  0.00000000E+00
  0.00000000E+00  0.00000000E+00  0.00000000E+00
  0.00000000E+00  0.00000000E+00  0.00000000E+00
  0.00000000E+00  0.00000000E+00  0.00000000E+00
  0.00000000E+00  0.00000000E+00  0.00000000E+00
  0.00000000E+00  0.00000000E+00  0.00000000E+00
  0.00000000E+00  0.00000000E+00  0.00000000E+00
  0.00000000E+00  0.00000000E+00  0.00000000E+00
  0.00000000E+00  0.00000000E+00  0.00000000E+00
  0.00000000E+00  0.00000000E+00  0.00000000E+00
  0.00000000E+00  0.00000000E+00  0.00000000E+00
  0.00000000E+00  0.00000000E+00  0.00000000E+00
  0.00000000E+00  0.00000000E+00  0.00000000E+00
  0.00000000E+00  0.00000000E+00  0.00000000E+00
  0.00000000E+00  0.00000000E+00  0.00000000E+00
  0.00000000E+00  0.00000000E+00  0.00000000E+00
  0.00000000E+00  0.00000000E+00  0.00000000E+00
  0.00000000E+00  0.00000000E+00  0.00000000E+00
  0.00000000E+00  0.00000000E+00  0.00000000E+00
  0.00000000E+00  0.00000000E+00  0.00000000E+00
  0.00000000E+00  0.00000000E+00  0.00000000E+00
  0.00000000E+00  0.00000000E+00  0.00000000E+00
  0.00000000E+00  0.00000000E+00  0.00000000E+00
  0.00000000E+00  0.00000000E+00  0.00000000E+00
  0.00000000E+00  0.00000000E+00  0.00000000E+00
