C H O Si                                
   1.00000000000000     
     9.2874599999999994    0.0000000000000000    0.0000000000000000
     0.0000000000000000   17.5126199999999983    0.0000000000000000
     0.0000000000000000    0.0000000000000000   58.0000000000000000
   C    H    O    Si
    72    57    28    72
Selective dynamics
Direct
  0.9931544763433872  0.0630999894653495  0.0604777096569720   T   T   T
  0.3265816619519980  0.0631069209362681  0.0605628593870223   T   T   T
  0.6597824289132805  0.0630722684024430  0.0605352544771474   T   T   T
  0.9929901375061652  0.3131439600131011  0.0604673137224998   T   T   T
  0.3263651001370153  0.3130903189511605  0.0605633115353148   T   T   T
  0.6596501491216502  0.3131057544219613  0.0605241770937852   T   T   T
  0.1600545394922721  0.1859780068352885  0.1393915734695212   T   T   T
  0.4932949446014908  0.1861671941578782  0.1396156645312390   T   T   T
  0.8267894154118522  0.1858939709789404  0.1393084670662236   T   T   T
  0.1599146260313793  0.4361341716631653  0.1394294125264119   T   T   T
  0.4932684239959229  0.4359792444412739  0.1394753969851515   T   T   T
  0.8266272151798392  0.4361379845349913  0.1394224526669917   T   T   T
  0.3274686190550501  0.0613613281891228  0.1667263942226709   T   T   T
  0.6597207162215510  0.0613157615674260  0.1666731292817682   T   T   T
  0.9937226753384572  0.0606671391187102  0.1664402794027916   T   T   T
  0.3266736180394706  0.3112617195080215  0.1667813758064879   T   T   T
  0.6604994345851090  0.3112589302617906  0.1666704108280889   T   T   T
  0.9935298584744385  0.3110882783474796  0.1664834914599468   T   T   T
  0.1605329382467153  0.1873151043376987  0.1917404055647953   T   T   T
  0.4940315944545259  0.1898814676120200  0.1927146222795211   T   T   T
  0.8279162993895387  0.1868857849715901  0.1915001746138578   T   T   T
  0.1598310773250185  0.4383716004146831  0.1919575562397056   T   T   T
  0.4933990748743953  0.4380442038258032  0.1920076888816267   T   T   T
  0.8269669104697208  0.4384416460724530  0.1918988424038765   T   T   T
  0.1597073810485528  0.1861000513110630  0.0858561788121709   T   T   T
  0.4930338726452446  0.1861411627934798  0.0859836584155113   T   T   T
  0.8263215085110029  0.1861157393056974  0.0858116999635682   T   T   T
  0.1597395619707552  0.4360736761614587  0.0858812127911942   T   T   T
  0.4930109301137242  0.4360688976571361  0.0858961577613771   T   T   T
  0.8263773424936046  0.4360956569081681  0.0858645899735145   T   T   T
  0.3264515056038147  0.0610578940471971  0.1130695751107993   T   T   T
  0.6596683478914118  0.0610427142382109  0.1130535463870809   T   T   T
  0.9930994820898530  0.0609698495964252  0.1129800175954983   T   T   T
  0.3263897828353676  0.3109803001669834  0.1131139944920272   T   T   T
  0.6597867033693111  0.3110367714939826  0.1130586755991896   T   T   T
  0.9931609421868107  0.3110148957656350  0.1129773058864412   T   T   T
  0.9932071685336119  0.5630793755127286  0.0605234486731244   T   T   T
  0.3265582448372282  0.5630732567454161  0.0605343389531650   T   T   T
  0.6598896927362397  0.5630793932578119  0.0605326144400784   T   T   T
  0.9930165105949095  0.8131167730989318  0.0605195654870300   T   T   T
  0.3263888045311367  0.8130642941857008  0.0605277950515164   T   T   T
  0.6596689028940096  0.8130867565014441  0.0605212021763945   T   T   T
  0.1598979265370559  0.6861529441027104  0.1394281518931605   T   T   T
  0.4931827496810269  0.6861508751140000  0.1394359707947664   T   T   T
  0.8264979691650435  0.6861539481200312  0.1394239314676607   T   T   T
  0.1603685795953939  0.9360646806755440  0.1394302928490039   T   T   T
  0.4932549068902895  0.9360404399007702  0.1394347048123468   T   T   T
  0.8264291992710956  0.9361205836931411  0.1394163597173260   T   T   T
  0.3266076201758532  0.5612504457586294  0.1666015206000959   T   T   T
  0.6597152238804094  0.5612440129269836  0.1665875279299003   T   T   T
  0.9932190109955416  0.5613655452317894  0.1665674440883393   T   T   T
  0.3266833607431320  0.8111594194119395  0.1666204728465876   T   T   T
  0.6599733581392857  0.8111673086923383  0.1666108790611762   T   T   T
  0.9933351609933816  0.8111855832188274  0.1666037606037824   T   T   T
  0.1600814218047900  0.6881131559402949  0.1919674433175600   T   T   T
  0.4934655306378323  0.6881657722717829  0.1919917297502376   T   T   T
  0.8266911040914405  0.6881229128558004  0.1919592804134522   T   T   T
  0.1603968163608373  0.9380991083105841  0.1919757044686287   T   T   T
  0.4936548211889167  0.9380559794836595  0.1919941226216632   T   T   T
  0.8269417769980414  0.9380591603625956  0.1919472554741881   T   T   T
  0.1597102323616821  0.6860986746548512  0.0858835633469322   T   T   T
  0.4930507184898736  0.6860682659111300  0.0858847237720728   T   T   T
  0.8264013488914654  0.6861103802326235  0.0858868354121198   T   T   T
  0.1597537603598749  0.9360981626741299  0.0858741972529180   T   T   T
  0.4930408643862557  0.9360825043122761  0.0858853513951235   T   T   T
  0.8263333599812325  0.9361085092263242  0.0858699205167787   T   T   T
  0.3264395420042037  0.5610092778066673  0.1130426072721836   T   T   T
  0.6597316150475010  0.5610154015849899  0.1130395921349295   T   T   T
  0.9930790554215865  0.5610370142470911  0.1130277242724443   T   T   T
  0.3264658329976142  0.8109714189535155  0.1130321492494326   T   T   T
  0.6597147176404934  0.8109988973892197  0.1130394903730950   T   T   T
  0.9930994368233927  0.8110764282551205  0.1130466145258664   T   T   T
  0.0741809033705409  0.1773243365956164  0.0273612273726646   T   T   T
  0.4067059498978265  0.1773732800902457  0.0275258063918730   T   T   T
  0.7397390527839216  0.1773143937409706  0.0273779251350565   T   T   T
  0.0739344805053204  0.4273950776545695  0.0273628709149449   T   T   T
  0.4063604763211168  0.4272788937408522  0.0274455386295799   T   T   T
  0.7393042675542236  0.4273181876661000  0.0274064878139649   T   T   T
  0.3243935099929066  0.0266666103530646  0.0450811633090245   T   T   T
  0.6569119056471401  0.0266527352177803  0.0450511933914763   T   T   T
  0.9908688111184182  0.0267158407811018  0.0449892831066446   T   T   T
  0.3237918300624876  0.2765911482865294  0.0450961026381416   T   T   T
  0.6570636484414446  0.2766847466181571  0.0450413614837154   T   T   T
  0.9904902900656665  0.2768129975326420  0.0449702182434955   T   T   T
  0.8285955971567264  0.4024241463413948  0.2074469886101969   T   T   T
  0.8304612216857843  0.1505990110924276  0.2070092594355178   T   T   T
  0.1620284607566945  0.1510901154807780  0.2072657311773142   T   T   T
  0.4972336652741635  0.1528877229662476  0.2080776395680368   T   T   T
  0.1620718789634787  0.4019049252199534  0.2074290611806399   T   T   T
  0.4941568774224590  0.4017642707072616  0.2075266899365089   T   T   T
  0.0801637583796290  0.0523390233858260  0.2251250289780720   T   T   T
  0.4145180329845593  0.0518773542693212  0.2252697826644467   T   T   T
  0.7478055777210504  0.0521190068650096  0.2251724751880655   T   T   T
  0.0783206763900939  0.3009900818824496  0.2247394204982452   T   T   T
  0.3783861975869375  0.3102968184780707  0.2285918134777607   T   T   T
  0.7822472116876162  0.2950360595292558  0.2229344431702990   T   T   T
  0.5473922997749771  0.3054204583151681  0.2740102568746986   T   T   T
  0.4935309131322904  0.2379754162629381  0.2933858273506230   T   T   T
  0.5723679624411208  0.3198673643077200  0.3030924229515311   T   T   T
  0.3153977674043230  0.1949656460971477  0.3097324585710041   T   T   T
  0.4223116060605859  0.1304870018969468  0.3021858154514947   T   T   T
  0.6503449161357381  0.3659522510916794  0.3335407899389934   T   T   T
  0.4841668899536154  0.3769562122450665  0.3308326188044557   T   T   T
  0.5187571195715928  0.3953662104729311  0.2521972840404983   T   T   T
  0.5859541368252289  0.3232590642627047  0.2387544944790050   T   T   T
  0.0738447135408721  0.6773801395227841  0.0274201823743706   T   T   T
  0.4068927735822733  0.6773226325671787  0.0274517052127683   T   T   T
  0.7400954326133987  0.6773030756954660  0.0274514434633423   T   T   T
  0.0735779573245056  0.9273678936069916  0.0274001182822542   T   T   T
  0.4064407210713639  0.9272851639654975  0.0274401719193971   T   T   T
  0.7397547514800790  0.9273517247574270  0.0274216856464322   T   T   T
  0.3240598987153283  0.5266826446342816  0.0450457022283012   T   T   T
  0.6574503872339058  0.5266943241665505  0.0450415982491047   T   T   T
  0.9906935003282362  0.5267022946564984  0.0450291024141119   T   T   T
  0.3238488527541409  0.7766439690253831  0.0450472131743733   T   T   T
  0.6570777479634397  0.7766499124309523  0.0450425948820780   T   T   T
  0.9904488491228393  0.7766641740744660  0.0450427877988317   T   T   T
  0.8294670067587633  0.9016778915162899  0.2074385577278037   T   T   T
  0.8291736920494827  0.6517212076009674  0.2074446130471998   T   T   T
  0.1625011094940010  0.6517225013848834  0.2074569651329260   T   T   T
  0.4960032893757489  0.6518148966467876  0.2074883051093223   T   T   T
  0.1626602337956048  0.9016936210220485  0.2074618488692752   T   T   T
  0.4961679363509465  0.9016111322810041  0.2074737006917206   T   T   T
  0.0794497429091983  0.5534367506797372  0.2251256773832157   T   T   T
  0.4136306882545794  0.5538664207418874  0.2249539999969613   T   T   T
  0.7467624276684039  0.5532568188664694  0.2250600271749500   T   T   T
  0.0805179455785683  0.8023846992633826  0.2251480549928686   T   T   T
  0.4130438457833513  0.8026937353292850  0.2252172224491286   T   T   T
  0.7483564960616904  0.8021312578963596  0.2250694438352308   T   T   T
  0.1689577487151308  0.1665220267414240  0.0339220919643102   T   T   T
  0.5016974100171500  0.1665477156306291  0.0340102039005271   T   T   T
  0.8347456696658194  0.1663160804137727  0.0338249301246927   T   T   T
  0.1686955711801707  0.4166274025875942  0.0339339299467037   T   T   T
  0.5013407396713108  0.4164627601965830  0.0339290287016602   T   T   T
  0.8343504687553139  0.4165762851816642  0.0338756754568911   T   T   T
  0.3198886149362890  0.0414608069064166  0.2186135509056313   T   T   T
  0.6530979823477728  0.0414803792962887  0.2185929431521806   T   T   T
  0.9858668892567345  0.0414482675166658  0.2184480498695995   T   T   T
  0.3005390982638896  0.2915847884402160  0.2186171787966902   T   T   T
  0.6794415983196690  0.2913768490167866  0.2186560282859216   T   T   T
  0.9833194598753515  0.2894189029762665  0.2182418570610777   T   T   T
  0.5713751885859109  0.2797119419890023  0.2897882392664893   T   T   T
  0.3812520306511200  0.1793987615340540  0.2974906010887500   T   T   T
  0.5749625603089847  0.3775453190476692  0.3223392481440290   T   T   T
  0.5123533442900631  0.3398857227454405  0.2508365835310379   T   T   T
  0.1686799855048803  0.6665114944974849  0.0339505800583995   T   T   T
  0.5018539275848887  0.6664787344640237  0.0339448607030484   T   T   T
  0.8350649516944542  0.6665370345046291  0.0339498628968074   T   T   T
  0.1684276931783717  0.9165599910766770  0.0339343794948564   T   T   T
  0.5014338543947949  0.9164954128023907  0.0339203745343279   T   T   T
  0.8347224536082469  0.9164522140849202  0.0338929343158332   T   T   T
  0.3192627876370212  0.5415295572734912  0.2185331627157165   T   T   T
  0.6524576340735366  0.5416294526033645  0.2185057529969686   T   T   T
  0.9854266528327646  0.5417595049452658  0.2184883850637453   T   T   T
  0.3190126277207677  0.7914263497159362  0.2185299692501779   T   T   T
  0.6532245950451316  0.7914905425502394  0.2186192062107817   T   T   T
  0.9860615171020573  0.7914161791271244  0.2185285856136093   T   T   T
  0.4934225413668556  0.1217978733373010  0.0599723779880946   T   T   T
  0.8266217026049497  0.1217513101674701  0.0598219352985215   T   T   T
  0.1599453260836257  0.3717818013708361  0.0598845004051318   T   T   T
  0.4931796560837318  0.3717512013527880  0.0598994113292075   T   T   T
  0.8264596973246507  0.3718279820929141  0.0598503864218536   T   T   T
  0.1601325361516860  0.1217403592387344  0.0598805275942143   T   T   T
  0.9933404458587980  0.4985416949585727  0.1396469668230799   T   T   T
  0.3266624601684518  0.4984509600463723  0.1396616941915126   T   T   T
  0.6599146483304957  0.4984574586238659  0.1396574215882236   T   T   T
  0.9934944679998088  0.2483111299399338  0.1395373266436743   T   T   T
  0.3265354601006774  0.2484846064074147  0.1397728698606043   T   T   T
  0.6602879048007011  0.2483449798640605  0.1396493400163170   T   T   T
  0.1602701146349586  0.1228082540754462  0.1658274469128050   T   T   T
  0.4936026320938662  0.1240122780959253  0.1662948154691154   T   T   T
  0.8271847751117094  0.1224710196631403  0.1656612668091468   T   T   T
  0.1600276383076369  0.3734135081021426  0.1659549966196714   T   T   T
  0.4933379663781610  0.3731590710815369  0.1659912566251910   T   T   T
  0.8271164728120496  0.3734265237978389  0.1659265248431795   T   T   T
  0.3264756692252583  0.4968959481077336  0.1925665581845215   T   T   T
  0.6600905106798919  0.4968982520277511  0.1925530871548045   T   T   T
  0.9933466147317745  0.4970865168334008  0.1925350902611764   T   T   T
  0.3249520723850171  0.2475687123735738  0.1929864125632968   T   T   T
  0.9939877995982910  0.2455738646051229  0.1921132089442242   T   T   T
  0.6631849320687668  0.2464711491270564  0.1924234391207418   T   T   T
  0.9931454195768973  0.4981151821975949  0.0865301393772408   T   T   T
  0.3264463551889302  0.4981161852837075  0.0865372312293393   T   T   T
  0.6597696787648935  0.4981119131965241  0.0865357693715547   T   T   T
  0.9930762461344617  0.2481279336541591  0.0864769460402634   T   T   T
  0.3263517607180017  0.2481582522530535  0.0865904364131224   T   T   T
  0.6597477809785917  0.2481494828451631  0.0865404923280045   T   T   T
  0.1596858008137193  0.1234208254810659  0.1127853259226523   T   T   T
  0.4929874287716122  0.1234466276785872  0.1129348634985077   T   T   T
  0.8263604764784380  0.1233783650689341  0.1127259483991844   T   T   T
  0.1597436314575980  0.3734438394064745  0.1128249632551556   T   T   T
  0.4929819532923964  0.3734109609351008  0.1128447982595704   T   T   T
  0.8264245919966460  0.3734544999891891  0.1128088039580978   T   T   T
  0.4934361143916151  0.6217262109105234  0.0598998477634020   T   T   T
  0.8267634341246243  0.6217586740849644  0.0599014396414300   T   T   T
  0.1599457580918421  0.8717510295266755  0.0598860704698804   T   T   T
  0.4932026324005195  0.8717554133887129  0.0598897856024836   T   T   T
  0.8265014586799428  0.8717812464108101  0.0598722584853763   T   T   T
  0.1601043769632072  0.6217356709703609  0.0599012551348592   T   T   T
  0.9935574456873146  0.9981635771612818  0.1395498516978488   T   T   T
  0.3270810719383062  0.9985603593965775  0.1396940439848242   T   T   T
  0.6596615532396669  0.9985104657144201  0.1396757240803233   T   T   T
  0.9932547705987802  0.7484974404244523  0.1396587329885506   T   T   T
  0.3265827948937874  0.7484892446404015  0.1396659785979838   T   T   T
  0.6599002535093007  0.7484729499467877  0.1396600455745030   T   T   T
  0.1598848998111480  0.6233536158958056  0.1659355359981568   T   T   T
  0.4931806881132506  0.6233796897389988  0.1659486326850579   T   T   T
  0.8264912022536262  0.6233245617514748  0.1659240231799192   T   T   T
  0.1601023493346184  0.8732378939193770  0.1659442220366406   T   T   T
  0.4933516064141270  0.8732374927319955  0.1659599742970289   T   T   T
  0.8266521112963524  0.8732453272436256  0.1659232266742665   T   T   T
  0.3270049977128847  0.9967141529757362  0.1926490667927055   T   T   T
  0.6602524998818116  0.9966924633766260  0.1926191114281481   T   T   T
  0.9935863188576283  0.9965980113078629  0.1924997862357871   T   T   T
  0.3266696804990849  0.7467300929889797  0.1925792240891342   T   T   T
  0.9933535160892013  0.7466990968979889  0.1925656286145794   T   T   T
  0.6600473722097103  0.7468392577253562  0.1926196378774613   T   T   T
  0.9931432615778538  0.9981029947528828  0.0864941436664041   T   T   T
  0.3265202340548384  0.9981305727104232  0.0865581473664006   T   T   T
  0.6597314809012980  0.9981377415508266  0.0865446031853390   T   T   T
  0.9930892110064248  0.7481671780535480  0.0865417604962591   T   T   T
  0.3264575073226994  0.7480981087049636  0.0865400037264267   T   T   T
  0.6597280051685829  0.7481246804559250  0.0865385457304601   T   T   T
  0.1596775257455288  0.6234585608715174  0.1128252147531352   T   T   T
  0.4930045031630290  0.6234504773813776  0.1128321041112384   T   T   T
  0.8263312046941691  0.6234659921311406  0.1128251390261387   T   T   T
  0.1599137713397418  0.8734215515648402  0.1128122296610980   T   T   T
  0.4930196424624313  0.8734083965890758  0.1128213176727264   T   T   T
  0.8262433011526412  0.8734404275412202  0.1128130003897573   T   T   T
 
  0.00000000E+00  0.00000000E+00  0.00000000E+00
  0.00000000E+00  0.00000000E+00  0.00000000E+00
  0.00000000E+00  0.00000000E+00  0.00000000E+00
  0.00000000E+00  0.00000000E+00  0.00000000E+00
  0.00000000E+00  0.00000000E+00  0.00000000E+00
  0.00000000E+00  0.00000000E+00  0.00000000E+00
  0.00000000E+00  0.00000000E+00  0.00000000E+00
  0.00000000E+00  0.00000000E+00  0.00000000E+00
  0.00000000E+00  0.00000000E+00  0.00000000E+00
  0.00000000E+00  0.00000000E+00  0.00000000E+00
  0.00000000E+00  0.00000000E+00  0.00000000E+00
  0.00000000E+00  0.00000000E+00  0.00000000E+00
  0.00000000E+00  0.00000000E+00  0.00000000E+00
  0.00000000E+00  0.00000000E+00  0.00000000E+00
  0.00000000E+00  0.00000000E+00  0.00000000E+00
  0.00000000E+00  0.00000000E+00  0.00000000E+00
  0.00000000E+00  0.00000000E+00  0.00000000E+00
  0.00000000E+00  0.00000000E+00  0.00000000E+00
  0.00000000E+00  0.00000000E+00  0.00000000E+00
  0.00000000E+00  0.00000000E+00  0.00000000E+00
  0.00000000E+00  0.00000000E+00  0.00000000E+00
  0.00000000E+00  0.00000000E+00  0.00000000E+00
  0.00000000E+00  0.00000000E+00  0.00000000E+00
  0.00000000E+00  0.00000000E+00  0.00000000E+00
  0.00000000E+00  0.00000000E+00  0.00000000E+00
  0.00000000E+00  0.00000000E+00  0.00000000E+00
  0.00000000E+00  0.00000000E+00  0.00000000E+00
  0.00000000E+00  0.00000000E+00  0.00000000E+00
  0.00000000E+00  0.00000000E+00  0.00000000E+00
  0.00000000E+00  0.00000000E+00  0.00000000E+00
  0.00000000E+00  0.00000000E+00  0.00000000E+00
  0.00000000E+00  0.00000000E+00  0.00000000E+00
  0.00000000E+00  0.00000000E+00  0.00000000E+00
  0.00000000E+00  0.00000000E+00  0.00000000E+00
  0.00000000E+00  0.00000000E+00  0.00000000E+00
  0.00000000E+00  0.00000000E+00  0.00000000E+00
  0.00000000E+00  0.00000000E+00  0.00000000E+00
  0.00000000E+00  0.00000000E+00  0.00000000E+00
  0.00000000E+00  0.00000000E+00  0.00000000E+00
  0.00000000E+00  0.00000000E+00  0.00000000E+00
  0.00000000E+00  0.00000000E+00  0.00000000E+00
  0.00000000E+00  0.00000000E+00  0.00000000E+00
  0.00000000E+00  0.00000000E+00  0.00000000E+00
  0.00000000E+00  0.00000000E+00  0.00000000E+00
  0.00000000E+00  0.00000000E+00  0.00000000E+00
  0.00000000E+00  0.00000000E+00  0.00000000E+00
  0.00000000E+00  0.00000000E+00  0.00000000E+00
  0.00000000E+00  0.00000000E+00  0.00000000E+00
  0.00000000E+00  0.00000000E+00  0.00000000E+00
  0.00000000E+00  0.00000000E+00  0.00000000E+00
  0.00000000E+00  0.00000000E+00  0.00000000E+00
  0.00000000E+00  0.00000000E+00  0.00000000E+00
  0.00000000E+00  0.00000000E+00  0.00000000E+00
  0.00000000E+00  0.00000000E+00  0.00000000E+00
  0.00000000E+00  0.00000000E+00  0.00000000E+00
  0.00000000E+00  0.00000000E+00  0.00000000E+00
  0.00000000E+00  0.00000000E+00  0.00000000E+00
  0.00000000E+00  0.00000000E+00  0.00000000E+00
  0.00000000E+00  0.00000000E+00  0.00000000E+00
  0.00000000E+00  0.00000000E+00  0.00000000E+00
  0.00000000E+00  0.00000000E+00  0.00000000E+00
  0.00000000E+00  0.00000000E+00  0.00000000E+00
  0.00000000E+00  0.00000000E+00  0.00000000E+00
  0.00000000E+00  0.00000000E+00  0.00000000E+00
  0.00000000E+00  0.00000000E+00  0.00000000E+00
  0.00000000E+00  0.00000000E+00  0.00000000E+00
  0.00000000E+00  0.00000000E+00  0.00000000E+00
  0.00000000E+00  0.00000000E+00  0.00000000E+00
  0.00000000E+00  0.00000000E+00  0.00000000E+00
  0.00000000E+00  0.00000000E+00  0.00000000E+00
  0.00000000E+00  0.00000000E+00  0.00000000E+00
  0.00000000E+00  0.00000000E+00  0.00000000E+00
  0.00000000E+00  0.00000000E+00  0.00000000E+00
  0.00000000E+00  0.00000000E+00  0.00000000E+00
  0.00000000E+00  0.00000000E+00  0.00000000E+00
  0.00000000E+00  0.00000000E+00  0.00000000E+00
  0.00000000E+00  0.00000000E+00  0.00000000E+00
  0.00000000E+00  0.00000000E+00  0.00000000E+00
  0.00000000E+00  0.00000000E+00  0.00000000E+00
  0.00000000E+00  0.00000000E+00  0.00000000E+00
  0.00000000E+00  0.00000000E+00  0.00000000E+00
  0.00000000E+00  0.00000000E+00  0.00000000E+00
  0.00000000E+00  0.00000000E+00  0.00000000E+00
  0.00000000E+00  0.00000000E+00  0.00000000E+00
  0.00000000E+00  0.00000000E+00  0.00000000E+00
  0.00000000E+00  0.00000000E+00  0.00000000E+00
  0.00000000E+00  0.00000000E+00  0.00000000E+00
  0.00000000E+00  0.00000000E+00  0.00000000E+00
  0.00000000E+00  0.00000000E+00  0.00000000E+00
  0.00000000E+00  0.00000000E+00  0.00000000E+00
  0.00000000E+00  0.00000000E+00  0.00000000E+00
  0.00000000E+00  0.00000000E+00  0.00000000E+00
  0.00000000E+00  0.00000000E+00  0.00000000E+00
  0.00000000E+00  0.00000000E+00  0.00000000E+00
  0.00000000E+00  0.00000000E+00  0.00000000E+00
  0.00000000E+00  0.00000000E+00  0.00000000E+00
  0.00000000E+00  0.00000000E+00  0.00000000E+00
  0.00000000E+00  0.00000000E+00  0.00000000E+00
  0.00000000E+00  0.00000000E+00  0.00000000E+00
  0.00000000E+00  0.00000000E+00  0.00000000E+00
  0.00000000E+00  0.00000000E+00  0.00000000E+00
  0.00000000E+00  0.00000000E+00  0.00000000E+00
  0.00000000E+00  0.00000000E+00  0.00000000E+00
  0.00000000E+00  0.00000000E+00  0.00000000E+00
  0.00000000E+00  0.00000000E+00  0.00000000E+00
  0.00000000E+00  0.00000000E+00  0.00000000E+00
  0.00000000E+00  0.00000000E+00  0.00000000E+00
  0.00000000E+00  0.00000000E+00  0.00000000E+00
  0.00000000E+00  0.00000000E+00  0.00000000E+00
  0.00000000E+00  0.00000000E+00  0.00000000E+00
  0.00000000E+00  0.00000000E+00  0.00000000E+00
  0.00000000E+00  0.00000000E+00  0.00000000E+00
  0.00000000E+00  0.00000000E+00  0.00000000E+00
  0.00000000E+00  0.00000000E+00  0.00000000E+00
  0.00000000E+00  0.00000000E+00  0.00000000E+00
  0.00000000E+00  0.00000000E+00  0.00000000E+00
  0.00000000E+00  0.00000000E+00  0.00000000E+00
  0.00000000E+00  0.00000000E+00  0.00000000E+00
  0.00000000E+00  0.00000000E+00  0.00000000E+00
  0.00000000E+00  0.00000000E+00  0.00000000E+00
  0.00000000E+00  0.00000000E+00  0.00000000E+00
  0.00000000E+00  0.00000000E+00  0.00000000E+00
  0.00000000E+00  0.00000000E+00  0.00000000E+00
  0.00000000E+00  0.00000000E+00  0.00000000E+00
  0.00000000E+00  0.00000000E+00  0.00000000E+00
  0.00000000E+00  0.00000000E+00  0.00000000E+00
  0.00000000E+00  0.00000000E+00  0.00000000E+00
  0.00000000E+00  0.00000000E+00  0.00000000E+00
  0.00000000E+00  0.00000000E+00  0.00000000E+00
  0.00000000E+00  0.00000000E+00  0.00000000E+00
  0.00000000E+00  0.00000000E+00  0.00000000E+00
  0.00000000E+00  0.00000000E+00  0.00000000E+00
  0.00000000E+00  0.00000000E+00  0.00000000E+00
  0.00000000E+00  0.00000000E+00  0.00000000E+00
  0.00000000E+00  0.00000000E+00  0.00000000E+00
  0.00000000E+00  0.00000000E+00  0.00000000E+00
  0.00000000E+00  0.00000000E+00  0.00000000E+00
  0.00000000E+00  0.00000000E+00  0.00000000E+00
  0.00000000E+00  0.00000000E+00  0.00000000E+00
  0.00000000E+00  0.00000000E+00  0.00000000E+00
  0.00000000E+00  0.00000000E+00  0.00000000E+00
  0.00000000E+00  0.00000000E+00  0.00000000E+00
  0.00000000E+00  0.00000000E+00  0.00000000E+00
  0.00000000E+00  0.00000000E+00  0.00000000E+00
  0.00000000E+00  0.00000000E+00  0.00000000E+00
  0.00000000E+00  0.00000000E+00  0.00000000E+00
  0.00000000E+00  0.00000000E+00  0.00000000E+00
  0.00000000E+00  0.00000000E+00  0.00000000E+00
  0.00000000E+00  0.00000000E+00  0.00000000E+00
  0.00000000E+00  0.00000000E+00  0.00000000E+00
  0.00000000E+00  0.00000000E+00  0.00000000E+00
  0.00000000E+00  0.00000000E+00  0.00000000E+00
  0.00000000E+00  0.00000000E+00  0.00000000E+00
  0.00000000E+00  0.00000000E+00  0.00000000E+00
  0.00000000E+00  0.00000000E+00  0.00000000E+00
  0.00000000E+00  0.00000000E+00  0.00000000E+00
  0.00000000E+00  0.00000000E+00  0.00000000E+00
  0.00000000E+00  0.00000000E+00  0.00000000E+00
  0.00000000E+00  0.00000000E+00  0.00000000E+00
  0.00000000E+00  0.00000000E+00  0.00000000E+00
  0.00000000E+00  0.00000000E+00  0.00000000E+00
  0.00000000E+00  0.00000000E+00  0.00000000E+00
  0.00000000E+00  0.00000000E+00  0.00000000E+00
  0.00000000E+00  0.00000000E+00  0.00000000E+00
  0.00000000E+00  0.00000000E+00  0.00000000E+00
  0.00000000E+00  0.00000000E+00  0.00000000E+00
  0.00000000E+00  0.00000000E+00  0.00000000E+00
  0.00000000E+00  0.00000000E+00  0.00000000E+00
  0.00000000E+00  0.00000000E+00  0.00000000E+00
  0.00000000E+00  0.00000000E+00  0.00000000E+00
  0.00000000E+00  0.00000000E+00  0.00000000E+00
  0.00000000E+00  0.00000000E+00  0.00000000E+00
  0.00000000E+00  0.00000000E+00  0.00000000E+00
  0.00000000E+00  0.00000000E+00  0.00000000E+00
  0.00000000E+00  0.00000000E+00  0.00000000E+00
  0.00000000E+00  0.00000000E+00  0.00000000E+00
  0.00000000E+00  0.00000000E+00  0.00000000E+00
  0.00000000E+00  0.00000000E+00  0.00000000E+00
  0.00000000E+00  0.00000000E+00  0.00000000E+00
  0.00000000E+00  0.00000000E+00  0.00000000E+00
  0.00000000E+00  0.00000000E+00  0.00000000E+00
  0.00000000E+00  0.00000000E+00  0.00000000E+00
  0.00000000E+00  0.00000000E+00  0.00000000E+00
  0.00000000E+00  0.00000000E+00  0.00000000E+00
  0.00000000E+00  0.00000000E+00  0.00000000E+00
  0.00000000E+00  0.00000000E+00  0.00000000E+00
  0.00000000E+00  0.00000000E+00  0.00000000E+00
  0.00000000E+00  0.00000000E+00  0.00000000E+00
  0.00000000E+00  0.00000000E+00  0.00000000E+00
  0.00000000E+00  0.00000000E+00  0.00000000E+00
  0.00000000E+00  0.00000000E+00  0.00000000E+00
  0.00000000E+00  0.00000000E+00  0.00000000E+00
  0.00000000E+00  0.00000000E+00  0.00000000E+00
  0.00000000E+00  0.00000000E+00  0.00000000E+00
  0.00000000E+00  0.00000000E+00  0.00000000E+00
  0.00000000E+00  0.00000000E+00  0.00000000E+00
  0.00000000E+00  0.00000000E+00  0.00000000E+00
  0.00000000E+00  0.00000000E+00  0.00000000E+00
  0.00000000E+00  0.00000000E+00  0.00000000E+00
  0.00000000E+00  0.00000000E+00  0.00000000E+00
  0.00000000E+00  0.00000000E+00  0.00000000E+00
  0.00000000E+00  0.00000000E+00  0.00000000E+00
  0.00000000E+00  0.00000000E+00  0.00000000E+00
  0.00000000E+00  0.00000000E+00  0.00000000E+00
  0.00000000E+00  0.00000000E+00  0.00000000E+00
  0.00000000E+00  0.00000000E+00  0.00000000E+00
  0.00000000E+00  0.00000000E+00  0.00000000E+00
  0.00000000E+00  0.00000000E+00  0.00000000E+00
  0.00000000E+00  0.00000000E+00  0.00000000E+00
  0.00000000E+00  0.00000000E+00  0.00000000E+00
  0.00000000E+00  0.00000000E+00  0.00000000E+00
  0.00000000E+00  0.00000000E+00  0.00000000E+00
  0.00000000E+00  0.00000000E+00  0.00000000E+00
  0.00000000E+00  0.00000000E+00  0.00000000E+00
  0.00000000E+00  0.00000000E+00  0.00000000E+00
  0.00000000E+00  0.00000000E+00  0.00000000E+00
  0.00000000E+00  0.00000000E+00  0.00000000E+00
  0.00000000E+00  0.00000000E+00  0.00000000E+00
  0.00000000E+00  0.00000000E+00  0.00000000E+00
  0.00000000E+00  0.00000000E+00  0.00000000E+00
  0.00000000E+00  0.00000000E+00  0.00000000E+00
  0.00000000E+00  0.00000000E+00  0.00000000E+00
  0.00000000E+00  0.00000000E+00  0.00000000E+00
  0.00000000E+00  0.00000000E+00  0.00000000E+00
  0.00000000E+00  0.00000000E+00  0.00000000E+00
  0.00000000E+00  0.00000000E+00  0.00000000E+00
  0.00000000E+00  0.00000000E+00  0.00000000E+00
  0.00000000E+00  0.00000000E+00  0.00000000E+00
  0.00000000E+00  0.00000000E+00  0.00000000E+00
