C H O Si                                
   1.00000000000000     
     9.2874599999999994    0.0000000000000000    0.0000000000000000
     0.0000000000000000    8.7563099999999991    0.0000000000000000
     0.0000000000000000    0.0000000000000000   58.0000000000000000
   C    H    O    Si
    36    32    16    36
Selective dynamics
Direct
  0.9931036396093289  0.1258197714971808  0.0606255380177021   T   T   T
  0.3265455073790425  0.1257247113414275  0.0605690914939588   T   T   T
  0.6597454958759178  0.1256473103574735  0.0607571126749812   T   T   T
  0.9930210774207318  0.6258585606814006  0.0606257384820676   T   T   T
  0.3265450179015890  0.6257688078474478  0.0607372034689402   T   T   T
  0.6598004584338785  0.6256826983674748  0.0607604663937370   T   T   T
  0.1597433653021069  0.3717362792799048  0.1393624364270984   T   T   T
  0.4930525092209221  0.3707788469204490  0.1396963993610232   T   T   T
  0.8262223701274062  0.3714536875100862  0.1395421602604192   T   T   T
  0.1597660850146933  0.8715721071169160  0.1395065538725328   T   T   T
  0.4929345860301810  0.8709719332934093  0.1397264483620087   T   T   T
  0.8255997373870174  0.8712475020685490  0.1395495824847650   T   T   T
  0.3267891860874960  0.1226879328041566  0.1661272400733713   T   T   T
  0.6590903706156670  0.1220016224072594  0.1669622843563571   T   T   T
  0.9931998989121453  0.1206538561998736  0.1664363332912443   T   T   T
  0.3258061128850182  0.6220578030941346  0.1670146388025281   T   T   T
  0.6595271465706131  0.6204764386514338  0.1671953732361222   T   T   T
  0.9932888314941752  0.6222156340772673  0.1664929580312007   T   T   T
  0.1578877940466621  0.3744424050086667  0.1914430709502593   T   T   T
  0.4893648925627140  0.3721713182044664  0.1935483405083469   T   T   T
  0.8260790218603070  0.3733306132930596  0.1917756654499066   T   T   T
  0.1622495633695169  0.8775039227728465  0.1921643253944536   T   T   T
  0.4932258124107113  0.8783354863376799  0.1924412854004322   T   T   T
  0.8281902842228006  0.8748958775950861  0.1918209651506701   T   T   T
  0.1595642186135089  0.3716769991648128  0.0859429105688952   T   T   T
  0.4928657373575253  0.3715610479842277  0.0860584448429286   T   T   T
  0.8260729223783210  0.3715916700493675  0.0860277369819911   T   T   T
  0.1595845643072340  0.8716104691039893  0.0860033325903322   T   T   T
  0.4928828080175904  0.8715338759249391  0.0861167285497397   T   T   T
  0.8260663875651592  0.8716609702810970  0.0860344342431602   T   T   T
  0.3262881635661776  0.1212891810037189  0.1130062034761948   T   T   T
  0.6593653422454276  0.1213473800027423  0.1132983217112098   T   T   T
  0.9927725324400314  0.1213496775995332  0.1131114814731602   T   T   T
  0.3262625364266974  0.6212593367312026  0.1132755447300151   T   T   T
  0.6594754799262793  0.6211858325466336  0.1133115099665217   T   T   T
  0.9927572894882413  0.6215206925124469  0.1130888193460578   T   T   T
  0.0746919763356739  0.3569583104409751  0.0275406771821563   T   T   T
  0.4082329359938633  0.3564381012298283  0.0276046476718553   T   T   T
  0.7400352769483313  0.3564656881679478  0.0276981278658428   T   T   T
  0.0749358533632577  0.8567927826159459  0.0275967509511754   T   T   T
  0.4078469793299062  0.8566025720263621  0.0277130741676505   T   T   T
  0.7402820060688212  0.8566119379428699  0.0276725741904571   T   T   T
  0.3241589948776036  0.0534678925968854  0.0450362521253980   T   T   T
  0.6568944689952647  0.0527731333835900  0.0452908401046522   T   T   T
  0.9902054758441046  0.0531840487073020  0.0451337312488254   T   T   T
  0.3241105847665696  0.5529334478249304  0.0452604477517348   T   T   T
  0.6568994265302417  0.5528322821065386  0.0452939765304575   T   T   T
  0.9902331666516186  0.5533546203217747  0.0451209168024412   T   T   T
  0.8301294414954067  0.8026937265820718  0.2073440509007386   T   T   T
  0.8302620957234504  0.2996403198323027  0.2071427719828030   T   T   T
  0.1572008088095155  0.3019734535527848  0.2069259463380562   T   T   T
  0.1646712892401551  0.8037033815298502  0.2075175764371917   T   T   T
  0.4905732535947627  0.8060823785241789  0.2079730513475555   T   T   T
  0.0832523881083255  0.1115368265413168  0.2239044232104669   T   T   T
  0.3862991382650721  0.1995606783204551  0.2133327598146982   T   T   T
  0.7721198623163181  0.0901175884429080  0.2240713036033650   T   T   T
  0.0859888065562514  0.5995676659903988  0.2236904338350419   T   T   T
  0.3742337029423977  0.6138584035970268  0.2286906967459958   T   T   T
  0.7798620263201514  0.5913865110549966  0.2226695489846782   T   T   T
  0.5454904182653660  0.6084972146721530  0.2738907522908915   T   T   T
  0.4908539392162303  0.4734840906262361  0.2935988609430264   T   T   T
  0.5700502019990504  0.6376471866205677  0.3031664912520998   T   T   T
  0.3109125663093280  0.3808132785733152  0.3095797761527851   T   T   T
  0.4228696944824312  0.2556287485636643  0.3026157993150257   T   T   T
  0.6517197316884011  0.7333929321647263  0.3334026176390656   T   T   T
  0.4865431320329677  0.7618086646438946  0.3307358465398493   T   T   T
  0.5189275919314367  0.7862044441239986  0.2524027008575693   T   T   T
  0.5851386407178927  0.6409079213842350  0.2388400373954325   T   T   T
  0.1688813276045916  0.3327346844171323  0.0340961391744622   T   T   T
  0.5024780925247768  0.3325920861471366  0.0341768077392662   T   T   T
  0.8345446330386650  0.3326877146156773  0.0341782704283928   T   T   T
  0.1690829876882157  0.8323730840812110  0.0341501410510576   T   T   T
  0.5021625757672622  0.8328660661787293  0.0342699060969876   T   T   T
  0.8346816971508979  0.8327385807237865  0.0341767420924982   T   T   T
  0.3227569922538893  0.1083211869093695  0.2164184401208682   T   T   T
  0.6712937377808399  0.0770718686943530  0.2194610804853178   T   T   T
  0.9875306786267557  0.0815397679403509  0.2184911707127681   T   T   T
  0.2955654635806694  0.5840928555033594  0.2183437125086030   T   T   T
  0.6768430535211292  0.5810604393773597  0.2189314046841891   T   T   T
  0.9871999237517378  0.5802562738312813  0.2182129213010034   T   T   T
  0.5682060248645178  0.5567060019682107  0.2899986272501180   T   T   T
  0.3800125847131422  0.3519974749823760  0.2976796768782611   T   T   T
  0.5767171662077880  0.7560719843032396  0.3221272003286894   T   T   T
  0.5135623299823923  0.6750539435738918  0.2513610204434472   T   T   T
  0.4933868120034633  0.2431300065822792  0.0600620368699654   T   T   T
  0.8264300745959174  0.2430097883125112  0.0600364923416437   T   T   T
  0.1600356394462840  0.7429338114386064  0.0600206592994622   T   T   T
  0.4933853707207781  0.7429816098097698  0.0601177551404976   T   T   T
  0.8264350120265831  0.7431089978053166  0.0600351418611118   T   T   T
  0.1600610005670144  0.2430471924656065  0.0599558487321523   T   T   T
  0.9927173229548837  0.9954680708215041  0.1397483247600869   T   T   T
  0.3268128612257293  0.9967917618955524  0.1397378851513535   T   T   T
  0.6588408289313602  0.9967968079561733  0.1401286465621264   T   T   T
  0.9930938225244718  0.4962744160216236  0.1397515006579949   T   T   T
  0.3271680549056901  0.4964480693115230  0.1401416540757176   T   T   T
  0.6586639145463496  0.4961100354473158  0.1401599227240345   T   T   T
  0.1597565441771141  0.2450766410138733  0.1658144126592990   T   T   T
  0.4925154391125604  0.2505446060944543  0.1675017622861585   T   T   T
  0.8259930234749155  0.2444007446793534  0.1660503584305076   T   T   T
  0.1609398877754163  0.7461300335996183  0.1662610292797424   T   T   T
  0.4929129557160070  0.7453617286062965  0.1665814597920265   T   T   T
  0.8257585734619403  0.7445196596223834  0.1661639419213113   T   T   T
  0.3270830514895602  0.9988631255555658  0.1924279298027777   T   T   T
  0.6617938679466637  0.9940635798278269  0.1932129957657212   T   T   T
  0.9942792784377914  0.9922007655298746  0.1924632354777655   T   T   T
  0.3276302961916487  0.4885227440532974  0.1931838536217584   T   T   T
  0.9920376900673644  0.4911307871816867  0.1921554573689376   T   T   T
  0.6542309855480177  0.4837773924283183  0.1931341109568002   T   T   T
  0.9928584785227336  0.9958459231521131  0.0866200207431956   T   T   T
  0.3263112353574679  0.9959664416001838  0.0865833544374557   T   T   T
  0.6594118130636444  0.9959572718044021  0.0867724904955812   T   T   T
  0.9928352300624731  0.4958670758020734  0.0866043854965088   T   T   T
  0.3263781571184073  0.4958827238929936  0.0867411478884624   T   T   T
  0.6593918495924905  0.4958387047215937  0.0867706635947238   T   T   T
  0.1597411805137616  0.2462507221786240  0.1129037691393306   T   T   T
  0.4928417985539225  0.2467049622250776  0.1131898842000977   T   T   T
  0.8259486345285775  0.2462577683669278  0.1130242930745669   T   T   T
  0.1597492441642184  0.7461588725554242  0.1130177915943010   T   T   T
  0.4928975356368098  0.7461264697683261  0.1131522836122946   T   T   T
  0.8257832799217747  0.7462327649530478  0.1130245559866462   T   T   T
 
  0.00000000E+00  0.00000000E+00  0.00000000E+00
  0.00000000E+00  0.00000000E+00  0.00000000E+00
  0.00000000E+00  0.00000000E+00  0.00000000E+00
  0.00000000E+00  0.00000000E+00  0.00000000E+00
  0.00000000E+00  0.00000000E+00  0.00000000E+00
  0.00000000E+00  0.00000000E+00  0.00000000E+00
  0.00000000E+00  0.00000000E+00  0.00000000E+00
  0.00000000E+00  0.00000000E+00  0.00000000E+00
  0.00000000E+00  0.00000000E+00  0.00000000E+00
  0.00000000E+00  0.00000000E+00  0.00000000E+00
  0.00000000E+00  0.00000000E+00  0.00000000E+00
  0.00000000E+00  0.00000000E+00  0.00000000E+00
  0.00000000E+00  0.00000000E+00  0.00000000E+00
  0.00000000E+00  0.00000000E+00  0.00000000E+00
  0.00000000E+00  0.00000000E+00  0.00000000E+00
  0.00000000E+00  0.00000000E+00  0.00000000E+00
  0.00000000E+00  0.00000000E+00  0.00000000E+00
  0.00000000E+00  0.00000000E+00  0.00000000E+00
  0.00000000E+00  0.00000000E+00  0.00000000E+00
  0.00000000E+00  0.00000000E+00  0.00000000E+00
  0.00000000E+00  0.00000000E+00  0.00000000E+00
  0.00000000E+00  0.00000000E+00  0.00000000E+00
  0.00000000E+00  0.00000000E+00  0.00000000E+00
  0.00000000E+00  0.00000000E+00  0.00000000E+00
  0.00000000E+00  0.00000000E+00  0.00000000E+00
  0.00000000E+00  0.00000000E+00  0.00000000E+00
  0.00000000E+00  0.00000000E+00  0.00000000E+00
  0.00000000E+00  0.00000000E+00  0.00000000E+00
  0.00000000E+00  0.00000000E+00  0.00000000E+00
  0.00000000E+00  0.00000000E+00  0.00000000E+00
  0.00000000E+00  0.00000000E+00  0.00000000E+00
  0.00000000E+00  0.00000000E+00  0.00000000E+00
  0.00000000E+00  0.00000000E+00  0.00000000E+00
  0.00000000E+00  0.00000000E+00  0.00000000E+00
  0.00000000E+00  0.00000000E+00  0.00000000E+00
  0.00000000E+00  0.00000000E+00  0.00000000E+00
  0.00000000E+00  0.00000000E+00  0.00000000E+00
  0.00000000E+00  0.00000000E+00  0.00000000E+00
  0.00000000E+00  0.00000000E+00  0.00000000E+00
  0.00000000E+00  0.00000000E+00  0.00000000E+00
  0.00000000E+00  0.00000000E+00  0.00000000E+00
  0.00000000E+00  0.00000000E+00  0.00000000E+00
  0.00000000E+00  0.00000000E+00  0.00000000E+00
  0.00000000E+00  0.00000000E+00  0.00000000E+00
  0.00000000E+00  0.00000000E+00  0.00000000E+00
  0.00000000E+00  0.00000000E+00  0.00000000E+00
  0.00000000E+00  0.00000000E+00  0.00000000E+00
  0.00000000E+00  0.00000000E+00  0.00000000E+00
  0.00000000E+00  0.00000000E+00  0.00000000E+00
  0.00000000E+00  0.00000000E+00  0.00000000E+00
  0.00000000E+00  0.00000000E+00  0.00000000E+00
  0.00000000E+00  0.00000000E+00  0.00000000E+00
  0.00000000E+00  0.00000000E+00  0.00000000E+00
  0.00000000E+00  0.00000000E+00  0.00000000E+00
  0.00000000E+00  0.00000000E+00  0.00000000E+00
  0.00000000E+00  0.00000000E+00  0.00000000E+00
  0.00000000E+00  0.00000000E+00  0.00000000E+00
  0.00000000E+00  0.00000000E+00  0.00000000E+00
  0.00000000E+00  0.00000000E+00  0.00000000E+00
  0.00000000E+00  0.00000000E+00  0.00000000E+00
  0.00000000E+00  0.00000000E+00  0.00000000E+00
  0.00000000E+00  0.00000000E+00  0.00000000E+00
  0.00000000E+00  0.00000000E+00  0.00000000E+00
  0.00000000E+00  0.00000000E+00  0.00000000E+00
  0.00000000E+00  0.00000000E+00  0.00000000E+00
  0.00000000E+00  0.00000000E+00  0.00000000E+00
  0.00000000E+00  0.00000000E+00  0.00000000E+00
  0.00000000E+00  0.00000000E+00  0.00000000E+00
  0.00000000E+00  0.00000000E+00  0.00000000E+00
  0.00000000E+00  0.00000000E+00  0.00000000E+00
  0.00000000E+00  0.00000000E+00  0.00000000E+00
  0.00000000E+00  0.00000000E+00  0.00000000E+00
  0.00000000E+00  0.00000000E+00  0.00000000E+00
  0.00000000E+00  0.00000000E+00  0.00000000E+00
  0.00000000E+00  0.00000000E+00  0.00000000E+00
  0.00000000E+00  0.00000000E+00  0.00000000E+00
  0.00000000E+00  0.00000000E+00  0.00000000E+00
  0.00000000E+00  0.00000000E+00  0.00000000E+00
  0.00000000E+00  0.00000000E+00  0.00000000E+00
  0.00000000E+00  0.00000000E+00  0.00000000E+00
  0.00000000E+00  0.00000000E+00  0.00000000E+00
  0.00000000E+00  0.00000000E+00  0.00000000E+00
  0.00000000E+00  0.00000000E+00  0.00000000E+00
  0.00000000E+00  0.00000000E+00  0.00000000E+00
  0.00000000E+00  0.00000000E+00  0.00000000E+00
  0.00000000E+00  0.00000000E+00  0.00000000E+00
  0.00000000E+00  0.00000000E+00  0.00000000E+00
  0.00000000E+00  0.00000000E+00  0.00000000E+00
  0.00000000E+00  0.00000000E+00  0.00000000E+00
  0.00000000E+00  0.00000000E+00  0.00000000E+00
  0.00000000E+00  0.00000000E+00  0.00000000E+00
  0.00000000E+00  0.00000000E+00  0.00000000E+00
  0.00000000E+00  0.00000000E+00  0.00000000E+00
  0.00000000E+00  0.00000000E+00  0.00000000E+00
  0.00000000E+00  0.00000000E+00  0.00000000E+00
  0.00000000E+00  0.00000000E+00  0.00000000E+00
  0.00000000E+00  0.00000000E+00  0.00000000E+00
  0.00000000E+00  0.00000000E+00  0.00000000E+00
  0.00000000E+00  0.00000000E+00  0.00000000E+00
  0.00000000E+00  0.00000000E+00  0.00000000E+00
  0.00000000E+00  0.00000000E+00  0.00000000E+00
  0.00000000E+00  0.00000000E+00  0.00000000E+00
  0.00000000E+00  0.00000000E+00  0.00000000E+00
  0.00000000E+00  0.00000000E+00  0.00000000E+00
  0.00000000E+00  0.00000000E+00  0.00000000E+00
  0.00000000E+00  0.00000000E+00  0.00000000E+00
  0.00000000E+00  0.00000000E+00  0.00000000E+00
  0.00000000E+00  0.00000000E+00  0.00000000E+00
  0.00000000E+00  0.00000000E+00  0.00000000E+00
  0.00000000E+00  0.00000000E+00  0.00000000E+00
  0.00000000E+00  0.00000000E+00  0.00000000E+00
  0.00000000E+00  0.00000000E+00  0.00000000E+00
  0.00000000E+00  0.00000000E+00  0.00000000E+00
  0.00000000E+00  0.00000000E+00  0.00000000E+00
  0.00000000E+00  0.00000000E+00  0.00000000E+00
  0.00000000E+00  0.00000000E+00  0.00000000E+00
  0.00000000E+00  0.00000000E+00  0.00000000E+00
  0.00000000E+00  0.00000000E+00  0.00000000E+00
  0.00000000E+00  0.00000000E+00  0.00000000E+00
  0.00000000E+00  0.00000000E+00  0.00000000E+00
