C H O Si                                
   1.00000000000000     
     9.2874599999999994    0.0000000000000000    0.0000000000000000
     0.0000000000000000    8.7563099999999991    0.0000000000000000
     0.0000000000000000    0.0000000000000000   58.0000000000000000
   C    H    O    Si
    36    32    16    36
Selective dynamics
Direct
  0.9930913791368958  0.1258101707678261  0.0606380133368822   T   T   T
  0.3265087007504047  0.1256402961257792  0.0605798489782472   T   T   T
  0.6596575502155498  0.1256119511159332  0.0607621651853673   T   T   T
  0.9930042674272106  0.6258414152316405  0.0606392185008587   T   T   T
  0.3265151378605959  0.6257185471911694  0.0607431997902315   T   T   T
  0.6597018293088043  0.6256543815667228  0.0607683656022332   T   T   T
  0.1596860530246901  0.3717262944697748  0.1393569419611062   T   T   T
  0.4929836239815417  0.3707299759393879  0.1396926854066795   T   T   T
  0.8262797805667914  0.3714403532606213  0.1395374216061941   T   T   T
  0.1597252113869563  0.8715673830539622  0.1395018349009133   T   T   T
  0.4928661185251740  0.8708687200847876  0.1397312334175487   T   T   T
  0.8256380126626378  0.8712517458326043  0.1395520027926932   T   T   T
  0.3267905134208637  0.1226598476177283  0.1661143920305143   T   T   T
  0.6590338514598713  0.1219388851553300  0.1669627219384230   T   T   T
  0.9930758512238843  0.1206580472879417  0.1664386175020814   T   T   T
  0.3258324011201575  0.6220050680525352  0.1670191948876500   T   T   T
  0.6594134100104916  0.6206066073098561  0.1671867261409071   T   T   T
  0.9932219370622729  0.6221479829187929  0.1664843354386752   T   T   T
  0.1579270133482097  0.3744740759783001  0.1914451139939474   T   T   T
  0.4893324007740087  0.3720958106698561  0.1935408384023380   T   T   T
  0.8260134149454370  0.3733792261234680  0.1917737522184882   T   T   T
  0.1621145010864274  0.8775818476162475  0.1921591479167105   T   T   T
  0.4931815639096156  0.8784262782187033  0.1924242619977283   T   T   T
  0.8281672472229518  0.8749249594748432  0.1918184342419289   T   T   T
  0.1595705450134583  0.3715876360145299  0.0859457174170892   T   T   T
  0.4928181439699596  0.3715328510422304  0.0860597688715523   T   T   T
  0.8260824222238387  0.3716031913841118  0.0860302164776295   T   T   T
  0.1595864088158016  0.8715728921221392  0.0860070672500241   T   T   T
  0.4928223116147807  0.8715033498865333  0.0861119038942487   T   T   T
  0.8260295254914793  0.8716344356048247  0.0860375302493685   T   T   T
  0.3262626912971194  0.1214153165188262  0.1130085917514398   T   T   T
  0.6593213657749087  0.1212415265183033  0.1132966719944650   T   T   T
  0.9928110541364501  0.1213907897521936  0.1131108098460667   T   T   T
  0.3261882641407253  0.6212369623914549  0.1132751688112724   T   T   T
  0.6594759549811217  0.6211531665173107  0.1133142333287276   T   T   T
  0.9927854144082167  0.6215300755550959  0.1130864538555279   T   T   T
  0.0746909594408831  0.3569040212108990  0.0275638873885010   T   T   T
  0.4081742612976618  0.3563882380892553  0.0276261314430435   T   T   T
  0.7399983277352047  0.3564648500479746  0.0277104802063774   T   T   T
  0.0749101213182402  0.8567479057317142  0.0276212049716747   T   T   T
  0.4078198229855254  0.8565715759508327  0.0277311283567267   T   T   T
  0.7402379487845037  0.8566018678107339  0.0276847694651684   T   T   T
  0.3241589645198528  0.0534575829295016  0.0450343168266019   T   T   T
  0.6568745767141148  0.0527596038603740  0.0452856799915077   T   T   T
  0.9901958962577888  0.0531881156319437  0.0451390219519255   T   T   T
  0.3240998358558010  0.5529367929118043  0.0452592086361412   T   T   T
  0.6568851315630604  0.5528090706813417  0.0452858628374246   T   T   T
  0.9902222171127918  0.5533598977730393  0.0451250829123857   T   T   T
  0.8301221904063180  0.8027213967784366  0.2073516500333186   T   T   T
  0.8303240502012615  0.2996277517789150  0.2071544187074286   T   T   T
  0.1571407556292315  0.3019901709896204  0.2069362577374775   T   T   T
  0.1646614582195533  0.8036677242845296  0.2075223961640707   T   T   T
  0.4905234050622072  0.8061226495774830  0.2079818977304922   T   T   T
  0.0833479396803071  0.1115002405503245  0.2239001361653608   T   T   T
  0.3862166978453887  0.1996199741221900  0.2133223676890359   T   T   T
  0.7721139817160592  0.0901139937933147  0.2240807130215094   T   T   T
  0.0860676321129208  0.5995562656905841  0.2236965937422165   T   T   T
  0.3742819971265025  0.6138413359712407  0.2286896695740321   T   T   T
  0.7798654522993681  0.5914400148727192  0.2226683069773823   T   T   T
  0.5456256583647766  0.6084530564384453  0.2739171580740151   T   T   T
  0.4910088429271918  0.4735776645896971  0.2935957915640509   T   T   T
  0.5701116245249541  0.6374930341853626  0.3031411597981702   T   T   T
  0.3109317542822481  0.3809025280169259  0.3095825114345742   T   T   T
  0.4229030369707418  0.2556560774905333  0.3026132258510328   T   T   T
  0.6516859628661413  0.7333614860099672  0.3334086343170676   T   T   T
  0.4865325762119879  0.7617319938353024  0.3307397656064170   T   T   T
  0.5190544835977684  0.7861572033940063  0.2524011160026761   T   T   T
  0.5852029974207741  0.6410029886907014  0.2388418239552549   T   T   T
  0.1690351303400487  0.3328550478085768  0.0340817802616583   T   T   T
  0.5025939404404134  0.3326739502721599  0.0341568472466235   T   T   T
  0.8346200490161906  0.3328100050812093  0.0341689868997732   T   T   T
  0.1692570102789038  0.8324724508041987  0.0341277407487799   T   T   T
  0.5022430245691856  0.8329500491114120  0.0342662756345033   T   T   T
  0.8347931709474434  0.8328897580683967  0.0341575062353102   T   T   T
  0.3226862864715117  0.1083359810903233  0.2164054278113192   T   T   T
  0.6713709786008831  0.0770683217172464  0.2194408037834163   T   T   T
  0.9877033430987541  0.0814951547747769  0.2184754026134574   T   T   T
  0.2955267142668967  0.5841310596421850  0.2183486285045607   T   T   T
  0.6769112379521758  0.5808880730922852  0.2189069485465336   T   T   T
  0.9873185345727574  0.5802553054396105  0.2182025797566441   T   T   T
  0.5680755645371119  0.5568792735940026  0.2899944090687864   T   T   T
  0.3799966181136510  0.3520204307455846  0.2976702919694939   T   T   T
  0.5767176515563398  0.7562120689743290  0.3221375608016828   T   T   T
  0.5135182327627648  0.6749979165393304  0.2513585621752082   T   T   T
  0.4933695811462828  0.2431405630627293  0.0600600654044317   T   T   T
  0.8264471301344025  0.2429668577797031  0.0600358100831025   T   T   T
  0.1600697330033483  0.7429540491818331  0.0600165931558562   T   T   T
  0.4933753283029045  0.7429834253055398  0.0601162366495585   T   T   T
  0.8264243235522085  0.7430839658733022  0.0600362369700553   T   T   T
  0.1601044245843913  0.2430715918419367  0.0599378387028540   T   T   T
  0.9927597059073192  0.9954823290708709  0.1397551263474995   T   T   T
  0.3268777676595209  0.9967843336669003  0.1397328985213398   T   T   T
  0.6587783678763258  0.9967759830607456  0.1401407258842823   T   T   T
  0.9931688492130728  0.4963175235511649  0.1397481993392473   T   T   T
  0.3271627567744005  0.4964621696474020  0.1401465702094775   T   T   T
  0.6586294315496313  0.4960915857561216  0.1401720506328669   T   T   T
  0.1597195069579974  0.2450577434312917  0.1658125894350216   T   T   T
  0.4925445624481788  0.2504991911924995  0.1675120553042568   T   T   T
  0.8259800097055158  0.2444498848420312  0.1660452145427236   T   T   T
  0.1609121409961575  0.7461683914698053  0.1662509449094529   T   T   T
  0.4929468809491694  0.7453648041282963  0.1665830713769891   T   T   T
  0.8257164911042005  0.7445966946299634  0.1661490632357397   T   T   T
  0.3270487350507105  0.9989029468114585  0.1924201316183742   T   T   T
  0.6618700875967798  0.9940181952190725  0.1932121421718014   T   T   T
  0.9942637916114661  0.9921162694611558  0.1924556844827767   T   T   T
  0.3277198912120169  0.4885232661345693  0.1931918823566555   T   T   T
  0.9920802585266296  0.4910333623831559  0.1921553543941443   T   T   T
  0.6542349449751953  0.4837619309090795  0.1931347755363106   T   T   T
  0.9928794426365067  0.9958041754489152  0.0866350460927297   T   T   T
  0.3263628032287542  0.9959326365439423  0.0865887651884150   T   T   T
  0.6593745544354048  0.9959470171590825  0.0867848454737246   T   T   T
  0.9928545953633595  0.4958067194362687  0.0866136626708368   T   T   T
  0.3263609816600893  0.4958362558877019  0.0867562960972456   T   T   T
  0.6593459956612455  0.4958390406472472  0.0867865018052806   T   T   T
  0.1596763530821476  0.2463116023031224  0.1129076954510571   T   T   T
  0.4927752006082589  0.2466518641020747  0.1131808092067963   T   T   T
  0.8259417850996003  0.2463223853998266  0.1130153869477031   T   T   T
  0.1596908136992257  0.7461910576814280  0.1130097012613718   T   T   T
  0.4928506554304631  0.7461422358717282  0.1131479263346392   T   T   T
  0.8258008341157177  0.7462725489583113  0.1130238387802012   T   T   T
 
  0.00000000E+00  0.00000000E+00  0.00000000E+00
  0.00000000E+00  0.00000000E+00  0.00000000E+00
  0.00000000E+00  0.00000000E+00  0.00000000E+00
  0.00000000E+00  0.00000000E+00  0.00000000E+00
  0.00000000E+00  0.00000000E+00  0.00000000E+00
  0.00000000E+00  0.00000000E+00  0.00000000E+00
  0.00000000E+00  0.00000000E+00  0.00000000E+00
  0.00000000E+00  0.00000000E+00  0.00000000E+00
  0.00000000E+00  0.00000000E+00  0.00000000E+00
  0.00000000E+00  0.00000000E+00  0.00000000E+00
  0.00000000E+00  0.00000000E+00  0.00000000E+00
  0.00000000E+00  0.00000000E+00  0.00000000E+00
  0.00000000E+00  0.00000000E+00  0.00000000E+00
  0.00000000E+00  0.00000000E+00  0.00000000E+00
  0.00000000E+00  0.00000000E+00  0.00000000E+00
  0.00000000E+00  0.00000000E+00  0.00000000E+00
  0.00000000E+00  0.00000000E+00  0.00000000E+00
  0.00000000E+00  0.00000000E+00  0.00000000E+00
  0.00000000E+00  0.00000000E+00  0.00000000E+00
  0.00000000E+00  0.00000000E+00  0.00000000E+00
  0.00000000E+00  0.00000000E+00  0.00000000E+00
  0.00000000E+00  0.00000000E+00  0.00000000E+00
  0.00000000E+00  0.00000000E+00  0.00000000E+00
  0.00000000E+00  0.00000000E+00  0.00000000E+00
  0.00000000E+00  0.00000000E+00  0.00000000E+00
  0.00000000E+00  0.00000000E+00  0.00000000E+00
  0.00000000E+00  0.00000000E+00  0.00000000E+00
  0.00000000E+00  0.00000000E+00  0.00000000E+00
  0.00000000E+00  0.00000000E+00  0.00000000E+00
  0.00000000E+00  0.00000000E+00  0.00000000E+00
  0.00000000E+00  0.00000000E+00  0.00000000E+00
  0.00000000E+00  0.00000000E+00  0.00000000E+00
  0.00000000E+00  0.00000000E+00  0.00000000E+00
  0.00000000E+00  0.00000000E+00  0.00000000E+00
  0.00000000E+00  0.00000000E+00  0.00000000E+00
  0.00000000E+00  0.00000000E+00  0.00000000E+00
  0.00000000E+00  0.00000000E+00  0.00000000E+00
  0.00000000E+00  0.00000000E+00  0.00000000E+00
  0.00000000E+00  0.00000000E+00  0.00000000E+00
  0.00000000E+00  0.00000000E+00  0.00000000E+00
  0.00000000E+00  0.00000000E+00  0.00000000E+00
  0.00000000E+00  0.00000000E+00  0.00000000E+00
  0.00000000E+00  0.00000000E+00  0.00000000E+00
  0.00000000E+00  0.00000000E+00  0.00000000E+00
  0.00000000E+00  0.00000000E+00  0.00000000E+00
  0.00000000E+00  0.00000000E+00  0.00000000E+00
  0.00000000E+00  0.00000000E+00  0.00000000E+00
  0.00000000E+00  0.00000000E+00  0.00000000E+00
  0.00000000E+00  0.00000000E+00  0.00000000E+00
  0.00000000E+00  0.00000000E+00  0.00000000E+00
  0.00000000E+00  0.00000000E+00  0.00000000E+00
  0.00000000E+00  0.00000000E+00  0.00000000E+00
  0.00000000E+00  0.00000000E+00  0.00000000E+00
  0.00000000E+00  0.00000000E+00  0.00000000E+00
  0.00000000E+00  0.00000000E+00  0.00000000E+00
  0.00000000E+00  0.00000000E+00  0.00000000E+00
  0.00000000E+00  0.00000000E+00  0.00000000E+00
  0.00000000E+00  0.00000000E+00  0.00000000E+00
  0.00000000E+00  0.00000000E+00  0.00000000E+00
  0.00000000E+00  0.00000000E+00  0.00000000E+00
  0.00000000E+00  0.00000000E+00  0.00000000E+00
  0.00000000E+00  0.00000000E+00  0.00000000E+00
  0.00000000E+00  0.00000000E+00  0.00000000E+00
  0.00000000E+00  0.00000000E+00  0.00000000E+00
  0.00000000E+00  0.00000000E+00  0.00000000E+00
  0.00000000E+00  0.00000000E+00  0.00000000E+00
  0.00000000E+00  0.00000000E+00  0.00000000E+00
  0.00000000E+00  0.00000000E+00  0.00000000E+00
  0.00000000E+00  0.00000000E+00  0.00000000E+00
  0.00000000E+00  0.00000000E+00  0.00000000E+00
  0.00000000E+00  0.00000000E+00  0.00000000E+00
  0.00000000E+00  0.00000000E+00  0.00000000E+00
  0.00000000E+00  0.00000000E+00  0.00000000E+00
  0.00000000E+00  0.00000000E+00  0.00000000E+00
  0.00000000E+00  0.00000000E+00  0.00000000E+00
  0.00000000E+00  0.00000000E+00  0.00000000E+00
  0.00000000E+00  0.00000000E+00  0.00000000E+00
  0.00000000E+00  0.00000000E+00  0.00000000E+00
  0.00000000E+00  0.00000000E+00  0.00000000E+00
  0.00000000E+00  0.00000000E+00  0.00000000E+00
  0.00000000E+00  0.00000000E+00  0.00000000E+00
  0.00000000E+00  0.00000000E+00  0.00000000E+00
  0.00000000E+00  0.00000000E+00  0.00000000E+00
  0.00000000E+00  0.00000000E+00  0.00000000E+00
  0.00000000E+00  0.00000000E+00  0.00000000E+00
  0.00000000E+00  0.00000000E+00  0.00000000E+00
  0.00000000E+00  0.00000000E+00  0.00000000E+00
  0.00000000E+00  0.00000000E+00  0.00000000E+00
  0.00000000E+00  0.00000000E+00  0.00000000E+00
  0.00000000E+00  0.00000000E+00  0.00000000E+00
  0.00000000E+00  0.00000000E+00  0.00000000E+00
  0.00000000E+00  0.00000000E+00  0.00000000E+00
  0.00000000E+00  0.00000000E+00  0.00000000E+00
  0.00000000E+00  0.00000000E+00  0.00000000E+00
  0.00000000E+00  0.00000000E+00  0.00000000E+00
  0.00000000E+00  0.00000000E+00  0.00000000E+00
  0.00000000E+00  0.00000000E+00  0.00000000E+00
  0.00000000E+00  0.00000000E+00  0.00000000E+00
  0.00000000E+00  0.00000000E+00  0.00000000E+00
  0.00000000E+00  0.00000000E+00  0.00000000E+00
  0.00000000E+00  0.00000000E+00  0.00000000E+00
  0.00000000E+00  0.00000000E+00  0.00000000E+00
  0.00000000E+00  0.00000000E+00  0.00000000E+00
  0.00000000E+00  0.00000000E+00  0.00000000E+00
  0.00000000E+00  0.00000000E+00  0.00000000E+00
  0.00000000E+00  0.00000000E+00  0.00000000E+00
  0.00000000E+00  0.00000000E+00  0.00000000E+00
  0.00000000E+00  0.00000000E+00  0.00000000E+00
  0.00000000E+00  0.00000000E+00  0.00000000E+00
  0.00000000E+00  0.00000000E+00  0.00000000E+00
  0.00000000E+00  0.00000000E+00  0.00000000E+00
  0.00000000E+00  0.00000000E+00  0.00000000E+00
  0.00000000E+00  0.00000000E+00  0.00000000E+00
  0.00000000E+00  0.00000000E+00  0.00000000E+00
  0.00000000E+00  0.00000000E+00  0.00000000E+00
  0.00000000E+00  0.00000000E+00  0.00000000E+00
  0.00000000E+00  0.00000000E+00  0.00000000E+00
  0.00000000E+00  0.00000000E+00  0.00000000E+00
  0.00000000E+00  0.00000000E+00  0.00000000E+00
  0.00000000E+00  0.00000000E+00  0.00000000E+00
