C H O Si                                
   1.00000000000000     
     9.2874599999999994    0.0000000000000000    0.0000000000000000
     0.0000000000000000   17.5126199999999983    0.0000000000000000
     0.0000000000000000    0.0000000000000000   58.0000000000000000
   C    H    O    Si
    72    57    28    72
Selective dynamics
Direct
  0.9961348448307564  0.0650343998479264  0.0595542235861707   T   T   T
  0.3296496541784784  0.0651138961050380  0.0596278892918648   T   T   T
  0.6628437574592819  0.0650875856099568  0.0596674430792930   T   T   T
  0.9961291137182549  0.3151599611714668  0.0595565876615266   T   T   T
  0.3295125242321117  0.3150434372936744  0.0595815581894834   T   T   T
  0.6628670220034086  0.3150393261573486  0.0596205078894290   T   T   T
  0.1625789870943738  0.1878907512458375  0.1384134673336520   T   T   T
  0.4957953975852365  0.1882327774726478  0.1386895700216067   T   T   T
  0.8293170496741517  0.1879624900047425  0.1384269320332112   T   T   T
  0.1624776651360783  0.4380622016108549  0.1384814297992476   T   T   T
  0.4957865695932645  0.4376835936510665  0.1383019902893384   T   T   T
  0.8292662768783299  0.4380504923408596  0.1385282511122661   T   T   T
  0.3301838041765698  0.0632456041477184  0.1657441307972782   T   T   T
  0.6624708115027378  0.0634269297652532  0.1657705115071544   T   T   T
  0.9961655334432760  0.0626074324581725  0.1655391315196441   T   T   T
  0.3288590823075849  0.3132397258896163  0.1656878797414821   T   T   T
  0.6633070248340448  0.3131299243322670  0.1657053004184535   T   T   T
  0.9961504360496327  0.3130413585556230  0.1655585657905608   T   T   T
  0.1630434076223783  0.1892803598209468  0.1906547195476688   T   T   T
  0.4957204057165003  0.1922796468450305  0.1917516430749473   T   T   T
  0.8300876578269645  0.1895055083093232  0.1907628893972336   T   T   T
  0.1621729167043915  0.4402301723850608  0.1910317371334116   T   T   T
  0.4961091288479735  0.4430917940948556  0.1895323701277822   T   T   T
  0.8302460188834208  0.4401709156420313  0.1911433302942151   T   T   T
  0.1625777620562463  0.1879629014620861  0.0849022047621505   T   T   T
  0.4958923712159446  0.1880237414534974  0.0850383732881832   T   T   T
  0.8293597453183259  0.1880178370472675  0.0849180237649206   T   T   T
  0.1626298805668540  0.4380525067991963  0.0849440526286316   T   T   T
  0.4959553998164966  0.4380046091821544  0.0848648694616992   T   T   T
  0.8293002705364260  0.4380585219081395  0.0849684014408369   T   T   T
  0.3293563750188943  0.0629522612325297  0.1121611119099437   T   T   T
  0.6626147254433357  0.0629801492033179  0.1121686219733198   T   T   T
  0.9959013717070491  0.0628693288309861  0.1120750863652004   T   T   T
  0.3291190774168952  0.3128654695709920  0.1121050876554395   T   T   T
  0.6627662130743889  0.3128875522532253  0.1121371010067732   T   T   T
  0.9958716566465284  0.3129526644907967  0.1120679876624764   T   T   T
  0.9961732959152720  0.5652079630871940  0.0596097957506781   T   T   T
  0.3295333514543751  0.5651627711627683  0.0596051036736911   T   T   T
  0.6629730443718853  0.5651489926748144  0.0596448153112466   T   T   T
  0.9962093043958061  0.8152362821153908  0.0596181091344397   T   T   T
  0.3295880334748161  0.8150941694888562  0.0596421000738012   T   T   T
  0.6629149991116066  0.8150885289644914  0.0596510753470367   T   T   T
  0.1625298587902255  0.6880715842139365  0.1384856742407542   T   T   T
  0.4959862608236185  0.6879101749837627  0.1385549240673284   T   T   T
  0.8294392406875750  0.6880625683439329  0.1385083129067230   T   T   T
  0.1628752164909993  0.9379631891186103  0.1385125122246116   T   T   T
  0.4959204125428411  0.9378947040766562  0.1385242490942106   T   T   T
  0.8290182458206028  0.9379975044385176  0.1385237696076922   T   T   T
  0.3289835432167124  0.5633064158798587  0.1656934418198096   T   T   T
  0.6635398168768897  0.5631277135100885  0.1657328170440991   T   T   T
  0.9961793763746269  0.5632524632248289  0.1656558077307277   T   T   T
  0.3297335163222770  0.8130109675047448  0.1657148667675136   T   T   T
  0.6630823830499685  0.8130086404357141  0.1656931962766286   T   T   T
  0.9962958024493195  0.8130836393388492  0.1656896232146534   T   T   T
  0.1630226645801756  0.6901790937558023  0.1910967139879797   T   T   T
  0.4964666281557482  0.6901555612861832  0.1911517507077582   T   T   T
  0.8299250769793650  0.6901953333891222  0.1910952217934064   T   T   T
  0.1631357847089361  0.9401344129407261  0.1910631338681877   T   T   T
  0.4964143265826692  0.9401820247582968  0.1910940464759145   T   T   T
  0.8296193177702179  0.9402917142829851  0.1910728489385461   T   T   T
  0.1626159232517144  0.6880688522476279  0.0849746211879883   T   T   T
  0.4959798871667312  0.6879804688770239  0.0849990634125572   T   T   T
  0.8293352448301795  0.6880741095027412  0.0849775844569541   T   T   T
  0.1627309652016079  0.9380304399967178  0.0849781421323446   T   T   T
  0.4959324599970580  0.9379911599513748  0.0850060683392182   T   T   T
  0.8292544111547769  0.9380461260201910  0.0849800225259004   T   T   T
  0.3292551372894658  0.5628893246173493  0.1121311737094082   T   T   T
  0.6626696417084955  0.5628733411541628  0.1121602444405178   T   T   T
  0.9958402182069910  0.5629541607453188  0.1121159274867979   T   T   T
  0.3293414457725319  0.8128697627799292  0.1121523243280621   T   T   T
  0.6627002035467146  0.8128693956834954  0.1121536809921186   T   T   T
  0.9958851788510747  0.8130612296129396  0.1121342907539432   T   T   T
  0.0800247413587473  0.1792529713315595  0.0258270757939999   T   T   T
  0.4133534213728333  0.1794208140354343  0.0259628391031105   T   T   T
  0.7460142076018902  0.1792137184803528  0.0258962096126273   T   T   T
  0.0799813854480661  0.4293574706778399  0.0258490190279552   T   T   T
  0.4131781288043892  0.4291673382316354  0.0258026489332746   T   T   T
  0.7457802048876450  0.4291831046095356  0.0259075314607580   T   T   T
  0.3274972448062735  0.0287661656373365  0.0441283703723500   T   T   T
  0.6600484000307115  0.0287738370521829  0.0441611714478611   T   T   T
  0.9936192383131154  0.0287211463647413  0.0440558197654916   T   T   T
  0.3267838307010755  0.2787208745879108  0.0440762024415383   T   T   T
  0.6606247824449738  0.2787296721090716  0.0441046476319799   T   T   T
  0.9936492539539928  0.2788863437963305  0.0440411848562649   T   T   T
  0.8330762153064112  0.4038870977013531  0.2066259580634008   T   T   T
  0.8325231914644802  0.1534305715657363  0.2063073802325495   T   T   T
  0.1649771081246589  0.1535790554225526  0.2062770823657216   T   T   T
  0.4982285897447223  0.1554570678592860  0.2071309911356114   T   T   T
  0.1649615800662099  0.4038372948875512  0.2064897980379979   T   T   T
  0.5404645403560926  0.4642713834904699  0.2612325465153825   T   T   T
  0.0816048044719972  0.0545610512930217  0.2244570723042240   T   T   T
  0.4146019707300876  0.0544549918284496  0.2245715117369805   T   T   T
  0.7471761496592948  0.0545997140294960  0.2246631218425713   T   T   T
  0.0878461033127579  0.3033092045832749  0.2231451266344486   T   T   T
  0.3672684393915178  0.2847158390033749  0.2302960936548247   T   T   T
  0.7766809973870875  0.2990541323141387  0.2229165873663395   T   T   T
  0.4942082507758672  0.2711515423452545  0.2661381876400492   T   T   T
  0.4713906872765891  0.2275974179221948  0.3004588652981026   T   T   T
  0.5191139153740814  0.3122938553571090  0.3081888966068498   T   T   T
  0.2906351929888047  0.1360412511452556  0.2960941816911839   T   T   T
  0.4383779062154148  0.1073920297750682  0.2874208722993239   T   T   T
  0.6379810124055726  0.3854454804594176  0.3348840824338479   T   T   T
  0.5034401666688317  0.4313734330806570  0.3272795453412002   T   T   T
  0.5044669028800389  0.4386291126158766  0.2698732165198491   T   T   T
  0.5648309493439905  0.2690569693214307  0.2408871071625499   T   T   T
  0.0799300638082359  0.6794405238219550  0.0258867319435742   T   T   T
  0.4132827607590597  0.6794098216658744  0.0259148840886200   T   T   T
  0.7462169230286341  0.6793460905776408  0.0259169958203400   T   T   T
  0.0806126698824151  0.9294169748366066  0.0258349239857883   T   T   T
  0.4131762218699579  0.9292717699542511  0.0259180757159400   T   T   T
  0.7459044039398947  0.9292132271419460  0.0259296570880737   T   T   T
  0.3270922711740579  0.5288835593909641  0.0440925921585903   T   T   T
  0.6604714739639177  0.5288912801922656  0.0441196699658148   T   T   T
  0.9937213258512357  0.5289074608675313  0.0440991197115326   T   T   T
  0.3271579721248831  0.7788333614639850  0.0441223587464449   T   T   T
  0.6603474100653836  0.7788199917309315  0.0441381994838831   T   T   T
  0.9937665125678312  0.7789222351884787  0.0441083510312903   T   T   T
  0.8320150322824772  0.9040899253305837  0.2065939271014138   T   T   T
  0.8320340633684291  0.6538087214829452  0.2065772831150680   T   T   T
  0.1655743727613817  0.6537960791113618  0.2065723663819829   T   T   T
  0.4986129183981535  0.6538477750626720  0.2066511569575201   T   T   T
  0.1655285075200063  0.9039904747557861  0.2065926071222596   T   T   T
  0.4988556580675267  0.9039769648289337  0.2066148980316546   T   T   T
  0.0829855524922516  0.5534284652336680  0.2245725505258956   T   T   T
  0.4164972761549480  0.5513655969583603  0.2246733152776525   T   T   T
  0.7492310285622532  0.5529443712475233  0.2247076284316555   T   T   T
  0.0814058089868820  0.8038235503183391  0.2246820058148472   T   T   T
  0.4138790295316206  0.8039704586747912  0.2247481408053127   T   T   T
  0.7495134488159063  0.8034038341415063  0.2245818322105737   T   T   T
  0.1726391958170690  0.1687940476374757  0.0331454896977419   T   T   T
  0.5060630247025181  0.1691659477869303  0.0332855887385632   T   T   T
  0.8388721055097772  0.1688503891560668  0.0331561072349650   T   T   T
  0.1725981038293049  0.4189971491300103  0.0331797153727830   T   T   T
  0.5058833846277525  0.4187819287803707  0.0331079371619170   T   T   T
  0.8386249849882035  0.4190472541369626  0.0331987014294145   T   T   T
  0.3211094672611956  0.0440772596686961  0.2175123221738421   T   T   T
  0.6539451885036082  0.0441458157434026  0.2175304689427206   T   T   T
  0.9880845401111328  0.0442837028839968  0.2173910738323369   T   T   T
  0.3063362338019954  0.2998703457075191  0.2166956521924384   T   T   T
  0.6763241406350456  0.2945109176542884  0.2177164343658486   T   T   T
  0.9904740595858691  0.2927483685177221  0.2172692664836905   T   T   T
  0.5234916181284723  0.2741862002486106  0.2955512588875888   T   T   T
  0.3917343148502107  0.1322673136147641  0.3004736056055859   T   T   T
  0.5364482445991579  0.3799596944084557  0.3309565974362234   T   T   T
  0.4793760260956167  0.2534442036299415  0.2500034845996346   T   T   T
  0.1725671728905569  0.6691256790033221  0.0332186818863507   T   T   T
  0.5059175096399777  0.6691436828092846  0.0332532577569534   T   T   T
  0.8390203208797057  0.6691263477661823  0.0332135834169216   T   T   T
  0.1730220576168784  0.9191094619980962  0.0332341627105240   T   T   T
  0.5058397744973151  0.9190856979905754  0.0332623619221041   T   T   T
  0.8387760792133890  0.9190633718409309  0.0332098725045561   T   T   T
  0.3222281797376657  0.5444951434975195  0.2174762394172196   T   T   T
  0.6552567338133335  0.5444689464801779  0.2175889178814682   T   T   T
  0.9890939862491555  0.5446799453171713  0.2174430408637718   T   T   T
  0.3207400697027917  0.7943014012447005  0.2174946143720568   T   T   T
  0.6556730276964128  0.7943671553783704  0.2174686120932844   T   T   T
  0.9879706303780756  0.7943117265467021  0.2174928028138980   T   T   T
  0.4964082735524949  0.1237939685366024  0.0588950628425649   T   T   T
  0.8296244735195965  0.1237458549734576  0.0588113916370678   T   T   T
  0.1629953423878374  0.3737882174499204  0.0588176798433420   T   T   T
  0.4963620144999668  0.3737185843009351  0.0587784035777583   T   T   T
  0.8295297651343371  0.3738191606122814  0.0588430066444209   T   T   T
  0.1629760393839189  0.1236821743516833  0.0587932005105848   T   T   T
  0.9958815802408925  0.0002921945939779  0.1387250887014866   T   T   T
  0.3296064696009271  0.0006024116158924  0.1388401115410793   T   T   T
  0.6622348202204100  0.0006532006713707  0.1388491131741084   T   T   T
  0.9959511827273643  0.2504784235546276  0.1387161187015918   T   T   T
  0.3289397023876183  0.2507749500167144  0.1388857357892845   T   T   T
  0.6626426670294846  0.2506437636817458  0.1388515042204464   T   T   T
  0.1629319920874007  0.1248138712075395  0.1649792745224280   T   T   T
  0.4960717623760644  0.1264127319016440  0.1655528132522596   T   T   T
  0.8298399320700227  0.1249530392004810  0.1649935843837843   T   T   T
  0.1627627284612877  0.3754502492863477  0.1651317877158409   T   T   T
  0.4960456723294230  0.3753855337694263  0.1654844134489523   T   T   T
  0.8296317308837560  0.3754222556267036  0.1651913377078314   T   T   T
  0.3303117005641211  0.4976905789900930  0.1919964410325041   T   T   T
  0.6617482070686763  0.4976042282809237  0.1921205694225523   T   T   T
  0.9962787038803252  0.4990071255602942  0.1918109976162097   T   T   T
  0.3268669652860796  0.2507323911453526  0.1921618035876248   T   T   T
  0.9967537022263795  0.2479402707222496  0.1914653104452884   T   T   T
  0.6649165435641121  0.2494772797438160  0.1918895608428605   T   T   T
  0.9960455497249523  0.0001651334649290  0.0854833116028455   T   T   T
  0.3294165455425358  0.0002147463260841  0.0855470447808330   T   T   T
  0.6626511711176560  0.0001476868417407  0.0855583731640182   T   T   T
  0.9960850442705665  0.2502299735585203  0.0854648496035984   T   T   T
  0.3292319641149565  0.2501943553946135  0.0855179497028784   T   T   T
  0.6626891882884709  0.2501496553424353  0.0855420516473342   T   T   T
  0.1626045727852208  0.1254424750368343  0.1118224946342459   T   T   T
  0.4959721290418554  0.1255855616870454  0.1119948771020888   T   T   T
  0.8293654838971924  0.1255075778881633  0.1118237172561286   T   T   T
  0.1626223069124167  0.3754823534969364  0.1118654918510734   T   T   T
  0.4958928785433344  0.3753561770623855  0.1117961923846178   T   T   T
  0.8292374524748155  0.3755209843613776  0.1118918234926221   T   T   T
  0.4964062528076866  0.6237513448346977  0.0588651378790568   T   T   T
  0.8296443838115474  0.6238429698458381  0.0588444824450739   T   T   T
  0.1631248246682914  0.8738053762947131  0.0588464579650503   T   T   T
  0.4963828676033592  0.8737393659953231  0.0588767640438922   T   T   T
  0.8295815332472299  0.8738213556774839  0.0588421251889055   T   T   T
  0.1630002990976436  0.6238247738656304  0.0588388438051510   T   T   T
  0.9958960247559027  0.5005382518247855  0.1388022460610429   T   T   T
  0.3295048524134407  0.5004221005860425  0.1388725356614836   T   T   T
  0.6621418038614255  0.5003493255231327  0.1388925799012662   T   T   T
  0.9959847636393744  0.7505168338150821  0.1387813851721059   T   T   T
  0.3293280134193841  0.7503769762346203  0.1388245218759866   T   T   T
  0.6626897517504006  0.7503292902764596  0.1388119667095668   T   T   T
  0.1628654336856595  0.6252590298956862  0.1651479919624311   T   T   T
  0.4963701798876840  0.6248247147238311  0.1652436838932121   T   T   T
  0.8297066174718107  0.6252277562930370  0.1651704704303917   T   T   T
  0.1631244136398532  0.8751696423526214  0.1651400335570577   T   T   T
  0.4964810828748151  0.8751783056223090  0.1651712000199151   T   T   T
  0.8296298344438935  0.8752285021341571  0.1651619755113112   T   T   T
  0.3295976701257129  0.9988738597684770  0.1918489260188568   T   T   T
  0.6628568907837978  0.9989842389830276  0.1918663873117979   T   T   T
  0.9963268521787834  0.9988201577661872  0.1917674937332325   T   T   T
  0.3296515676871880  0.7487305863667378  0.1918762179303819   T   T   T
  0.9963728835632275  0.7488033123614749  0.1918606040879303   T   T   T
  0.6630942049572770  0.7487341852422763  0.1918541511402397   T   T   T
  0.9960586051768866  0.5002067282718172  0.0855082341733095   T   T   T
  0.3294195550557415  0.5001724676032770  0.0855098833852041   T   T   T
  0.6626722138189125  0.5001598926631523  0.0855436133363429   T   T   T
  0.9960473092381157  0.7502160451615471  0.0855197475025463   T   T   T
  0.3293908891935005  0.7501418449216616  0.0855468303842557   T   T   T
  0.6626760239536145  0.7501106826541186  0.0855466586233939   T   T   T
  0.1626468850028487  0.6253754678637559  0.1118705889995354   T   T   T
  0.4960025319548013  0.6253307176726566  0.1119145035361613   T   T   T
  0.8292221850555311  0.6254330259179205  0.1118810713260707   T   T   T
  0.1627980029373097  0.8754026031924503  0.1118689244737778   T   T   T
  0.4960329414603252  0.8753429578585959  0.1118892507090526   T   T   T
  0.8291434560933071  0.8754929228727248  0.1118764209023349   T   T   T
 
  0.00000000E+00  0.00000000E+00  0.00000000E+00
  0.00000000E+00  0.00000000E+00  0.00000000E+00
  0.00000000E+00  0.00000000E+00  0.00000000E+00
  0.00000000E+00  0.00000000E+00  0.00000000E+00
  0.00000000E+00  0.00000000E+00  0.00000000E+00
  0.00000000E+00  0.00000000E+00  0.00000000E+00
  0.00000000E+00  0.00000000E+00  0.00000000E+00
  0.00000000E+00  0.00000000E+00  0.00000000E+00
  0.00000000E+00  0.00000000E+00  0.00000000E+00
  0.00000000E+00  0.00000000E+00  0.00000000E+00
  0.00000000E+00  0.00000000E+00  0.00000000E+00
  0.00000000E+00  0.00000000E+00  0.00000000E+00
  0.00000000E+00  0.00000000E+00  0.00000000E+00
  0.00000000E+00  0.00000000E+00  0.00000000E+00
  0.00000000E+00  0.00000000E+00  0.00000000E+00
  0.00000000E+00  0.00000000E+00  0.00000000E+00
  0.00000000E+00  0.00000000E+00  0.00000000E+00
  0.00000000E+00  0.00000000E+00  0.00000000E+00
  0.00000000E+00  0.00000000E+00  0.00000000E+00
  0.00000000E+00  0.00000000E+00  0.00000000E+00
  0.00000000E+00  0.00000000E+00  0.00000000E+00
  0.00000000E+00  0.00000000E+00  0.00000000E+00
  0.00000000E+00  0.00000000E+00  0.00000000E+00
  0.00000000E+00  0.00000000E+00  0.00000000E+00
  0.00000000E+00  0.00000000E+00  0.00000000E+00
  0.00000000E+00  0.00000000E+00  0.00000000E+00
  0.00000000E+00  0.00000000E+00  0.00000000E+00
  0.00000000E+00  0.00000000E+00  0.00000000E+00
  0.00000000E+00  0.00000000E+00  0.00000000E+00
  0.00000000E+00  0.00000000E+00  0.00000000E+00
  0.00000000E+00  0.00000000E+00  0.00000000E+00
  0.00000000E+00  0.00000000E+00  0.00000000E+00
  0.00000000E+00  0.00000000E+00  0.00000000E+00
  0.00000000E+00  0.00000000E+00  0.00000000E+00
  0.00000000E+00  0.00000000E+00  0.00000000E+00
  0.00000000E+00  0.00000000E+00  0.00000000E+00
  0.00000000E+00  0.00000000E+00  0.00000000E+00
  0.00000000E+00  0.00000000E+00  0.00000000E+00
  0.00000000E+00  0.00000000E+00  0.00000000E+00
  0.00000000E+00  0.00000000E+00  0.00000000E+00
  0.00000000E+00  0.00000000E+00  0.00000000E+00
  0.00000000E+00  0.00000000E+00  0.00000000E+00
  0.00000000E+00  0.00000000E+00  0.00000000E+00
  0.00000000E+00  0.00000000E+00  0.00000000E+00
  0.00000000E+00  0.00000000E+00  0.00000000E+00
  0.00000000E+00  0.00000000E+00  0.00000000E+00
  0.00000000E+00  0.00000000E+00  0.00000000E+00
  0.00000000E+00  0.00000000E+00  0.00000000E+00
  0.00000000E+00  0.00000000E+00  0.00000000E+00
  0.00000000E+00  0.00000000E+00  0.00000000E+00
  0.00000000E+00  0.00000000E+00  0.00000000E+00
  0.00000000E+00  0.00000000E+00  0.00000000E+00
  0.00000000E+00  0.00000000E+00  0.00000000E+00
  0.00000000E+00  0.00000000E+00  0.00000000E+00
  0.00000000E+00  0.00000000E+00  0.00000000E+00
  0.00000000E+00  0.00000000E+00  0.00000000E+00
  0.00000000E+00  0.00000000E+00  0.00000000E+00
  0.00000000E+00  0.00000000E+00  0.00000000E+00
  0.00000000E+00  0.00000000E+00  0.00000000E+00
  0.00000000E+00  0.00000000E+00  0.00000000E+00
  0.00000000E+00  0.00000000E+00  0.00000000E+00
  0.00000000E+00  0.00000000E+00  0.00000000E+00
  0.00000000E+00  0.00000000E+00  0.00000000E+00
  0.00000000E+00  0.00000000E+00  0.00000000E+00
  0.00000000E+00  0.00000000E+00  0.00000000E+00
  0.00000000E+00  0.00000000E+00  0.00000000E+00
  0.00000000E+00  0.00000000E+00  0.00000000E+00
  0.00000000E+00  0.00000000E+00  0.00000000E+00
  0.00000000E+00  0.00000000E+00  0.00000000E+00
  0.00000000E+00  0.00000000E+00  0.00000000E+00
  0.00000000E+00  0.00000000E+00  0.00000000E+00
  0.00000000E+00  0.00000000E+00  0.00000000E+00
  0.00000000E+00  0.00000000E+00  0.00000000E+00
  0.00000000E+00  0.00000000E+00  0.00000000E+00
  0.00000000E+00  0.00000000E+00  0.00000000E+00
  0.00000000E+00  0.00000000E+00  0.00000000E+00
  0.00000000E+00  0.00000000E+00  0.00000000E+00
  0.00000000E+00  0.00000000E+00  0.00000000E+00
  0.00000000E+00  0.00000000E+00  0.00000000E+00
  0.00000000E+00  0.00000000E+00  0.00000000E+00
  0.00000000E+00  0.00000000E+00  0.00000000E+00
  0.00000000E+00  0.00000000E+00  0.00000000E+00
  0.00000000E+00  0.00000000E+00  0.00000000E+00
  0.00000000E+00  0.00000000E+00  0.00000000E+00
  0.00000000E+00  0.00000000E+00  0.00000000E+00
  0.00000000E+00  0.00000000E+00  0.00000000E+00
  0.00000000E+00  0.00000000E+00  0.00000000E+00
  0.00000000E+00  0.00000000E+00  0.00000000E+00
  0.00000000E+00  0.00000000E+00  0.00000000E+00
  0.00000000E+00  0.00000000E+00  0.00000000E+00
  0.00000000E+00  0.00000000E+00  0.00000000E+00
  0.00000000E+00  0.00000000E+00  0.00000000E+00
  0.00000000E+00  0.00000000E+00  0.00000000E+00
  0.00000000E+00  0.00000000E+00  0.00000000E+00
  0.00000000E+00  0.00000000E+00  0.00000000E+00
  0.00000000E+00  0.00000000E+00  0.00000000E+00
  0.00000000E+00  0.00000000E+00  0.00000000E+00
  0.00000000E+00  0.00000000E+00  0.00000000E+00
  0.00000000E+00  0.00000000E+00  0.00000000E+00
  0.00000000E+00  0.00000000E+00  0.00000000E+00
  0.00000000E+00  0.00000000E+00  0.00000000E+00
  0.00000000E+00  0.00000000E+00  0.00000000E+00
  0.00000000E+00  0.00000000E+00  0.00000000E+00
  0.00000000E+00  0.00000000E+00  0.00000000E+00
  0.00000000E+00  0.00000000E+00  0.00000000E+00
  0.00000000E+00  0.00000000E+00  0.00000000E+00
  0.00000000E+00  0.00000000E+00  0.00000000E+00
  0.00000000E+00  0.00000000E+00  0.00000000E+00
  0.00000000E+00  0.00000000E+00  0.00000000E+00
  0.00000000E+00  0.00000000E+00  0.00000000E+00
  0.00000000E+00  0.00000000E+00  0.00000000E+00
  0.00000000E+00  0.00000000E+00  0.00000000E+00
  0.00000000E+00  0.00000000E+00  0.00000000E+00
  0.00000000E+00  0.00000000E+00  0.00000000E+00
  0.00000000E+00  0.00000000E+00  0.00000000E+00
  0.00000000E+00  0.00000000E+00  0.00000000E+00
  0.00000000E+00  0.00000000E+00  0.00000000E+00
  0.00000000E+00  0.00000000E+00  0.00000000E+00
  0.00000000E+00  0.00000000E+00  0.00000000E+00
  0.00000000E+00  0.00000000E+00  0.00000000E+00
  0.00000000E+00  0.00000000E+00  0.00000000E+00
  0.00000000E+00  0.00000000E+00  0.00000000E+00
  0.00000000E+00  0.00000000E+00  0.00000000E+00
  0.00000000E+00  0.00000000E+00  0.00000000E+00
  0.00000000E+00  0.00000000E+00  0.00000000E+00
  0.00000000E+00  0.00000000E+00  0.00000000E+00
  0.00000000E+00  0.00000000E+00  0.00000000E+00
  0.00000000E+00  0.00000000E+00  0.00000000E+00
  0.00000000E+00  0.00000000E+00  0.00000000E+00
  0.00000000E+00  0.00000000E+00  0.00000000E+00
  0.00000000E+00  0.00000000E+00  0.00000000E+00
  0.00000000E+00  0.00000000E+00  0.00000000E+00
  0.00000000E+00  0.00000000E+00  0.00000000E+00
  0.00000000E+00  0.00000000E+00  0.00000000E+00
  0.00000000E+00  0.00000000E+00  0.00000000E+00
  0.00000000E+00  0.00000000E+00  0.00000000E+00
  0.00000000E+00  0.00000000E+00  0.00000000E+00
  0.00000000E+00  0.00000000E+00  0.00000000E+00
  0.00000000E+00  0.00000000E+00  0.00000000E+00
  0.00000000E+00  0.00000000E+00  0.00000000E+00
  0.00000000E+00  0.00000000E+00  0.00000000E+00
  0.00000000E+00  0.00000000E+00  0.00000000E+00
  0.00000000E+00  0.00000000E+00  0.00000000E+00
  0.00000000E+00  0.00000000E+00  0.00000000E+00
  0.00000000E+00  0.00000000E+00  0.00000000E+00
  0.00000000E+00  0.00000000E+00  0.00000000E+00
  0.00000000E+00  0.00000000E+00  0.00000000E+00
  0.00000000E+00  0.00000000E+00  0.00000000E+00
  0.00000000E+00  0.00000000E+00  0.00000000E+00
  0.00000000E+00  0.00000000E+00  0.00000000E+00
  0.00000000E+00  0.00000000E+00  0.00000000E+00
  0.00000000E+00  0.00000000E+00  0.00000000E+00
  0.00000000E+00  0.00000000E+00  0.00000000E+00
  0.00000000E+00  0.00000000E+00  0.00000000E+00
  0.00000000E+00  0.00000000E+00  0.00000000E+00
  0.00000000E+00  0.00000000E+00  0.00000000E+00
  0.00000000E+00  0.00000000E+00  0.00000000E+00
  0.00000000E+00  0.00000000E+00  0.00000000E+00
  0.00000000E+00  0.00000000E+00  0.00000000E+00
  0.00000000E+00  0.00000000E+00  0.00000000E+00
  0.00000000E+00  0.00000000E+00  0.00000000E+00
  0.00000000E+00  0.00000000E+00  0.00000000E+00
  0.00000000E+00  0.00000000E+00  0.00000000E+00
  0.00000000E+00  0.00000000E+00  0.00000000E+00
  0.00000000E+00  0.00000000E+00  0.00000000E+00
  0.00000000E+00  0.00000000E+00  0.00000000E+00
  0.00000000E+00  0.00000000E+00  0.00000000E+00
  0.00000000E+00  0.00000000E+00  0.00000000E+00
  0.00000000E+00  0.00000000E+00  0.00000000E+00
  0.00000000E+00  0.00000000E+00  0.00000000E+00
  0.00000000E+00  0.00000000E+00  0.00000000E+00
  0.00000000E+00  0.00000000E+00  0.00000000E+00
  0.00000000E+00  0.00000000E+00  0.00000000E+00
  0.00000000E+00  0.00000000E+00  0.00000000E+00
  0.00000000E+00  0.00000000E+00  0.00000000E+00
  0.00000000E+00  0.00000000E+00  0.00000000E+00
  0.00000000E+00  0.00000000E+00  0.00000000E+00
  0.00000000E+00  0.00000000E+00  0.00000000E+00
  0.00000000E+00  0.00000000E+00  0.00000000E+00
  0.00000000E+00  0.00000000E+00  0.00000000E+00
  0.00000000E+00  0.00000000E+00  0.00000000E+00
  0.00000000E+00  0.00000000E+00  0.00000000E+00
  0.00000000E+00  0.00000000E+00  0.00000000E+00
  0.00000000E+00  0.00000000E+00  0.00000000E+00
  0.00000000E+00  0.00000000E+00  0.00000000E+00
  0.00000000E+00  0.00000000E+00  0.00000000E+00
  0.00000000E+00  0.00000000E+00  0.00000000E+00
  0.00000000E+00  0.00000000E+00  0.00000000E+00
  0.00000000E+00  0.00000000E+00  0.00000000E+00
  0.00000000E+00  0.00000000E+00  0.00000000E+00
  0.00000000E+00  0.00000000E+00  0.00000000E+00
  0.00000000E+00  0.00000000E+00  0.00000000E+00
  0.00000000E+00  0.00000000E+00  0.00000000E+00
  0.00000000E+00  0.00000000E+00  0.00000000E+00
  0.00000000E+00  0.00000000E+00  0.00000000E+00
  0.00000000E+00  0.00000000E+00  0.00000000E+00
  0.00000000E+00  0.00000000E+00  0.00000000E+00
  0.00000000E+00  0.00000000E+00  0.00000000E+00
  0.00000000E+00  0.00000000E+00  0.00000000E+00
  0.00000000E+00  0.00000000E+00  0.00000000E+00
  0.00000000E+00  0.00000000E+00  0.00000000E+00
  0.00000000E+00  0.00000000E+00  0.00000000E+00
  0.00000000E+00  0.00000000E+00  0.00000000E+00
  0.00000000E+00  0.00000000E+00  0.00000000E+00
  0.00000000E+00  0.00000000E+00  0.00000000E+00
  0.00000000E+00  0.00000000E+00  0.00000000E+00
  0.00000000E+00  0.00000000E+00  0.00000000E+00
  0.00000000E+00  0.00000000E+00  0.00000000E+00
  0.00000000E+00  0.00000000E+00  0.00000000E+00
  0.00000000E+00  0.00000000E+00  0.00000000E+00
  0.00000000E+00  0.00000000E+00  0.00000000E+00
  0.00000000E+00  0.00000000E+00  0.00000000E+00
  0.00000000E+00  0.00000000E+00  0.00000000E+00
  0.00000000E+00  0.00000000E+00  0.00000000E+00
  0.00000000E+00  0.00000000E+00  0.00000000E+00
  0.00000000E+00  0.00000000E+00  0.00000000E+00
  0.00000000E+00  0.00000000E+00  0.00000000E+00
  0.00000000E+00  0.00000000E+00  0.00000000E+00
  0.00000000E+00  0.00000000E+00  0.00000000E+00
  0.00000000E+00  0.00000000E+00  0.00000000E+00
  0.00000000E+00  0.00000000E+00  0.00000000E+00
  0.00000000E+00  0.00000000E+00  0.00000000E+00
  0.00000000E+00  0.00000000E+00  0.00000000E+00
  0.00000000E+00  0.00000000E+00  0.00000000E+00
  0.00000000E+00  0.00000000E+00  0.00000000E+00
  0.00000000E+00  0.00000000E+00  0.00000000E+00
  0.00000000E+00  0.00000000E+00  0.00000000E+00
  0.00000000E+00  0.00000000E+00  0.00000000E+00
  0.00000000E+00  0.00000000E+00  0.00000000E+00
