C H O Si                                
   1.00000000000000     
     9.2874599999999994    0.0000000000000000    0.0000000000000000
     0.0000000000000000   17.5126199999999983    0.0000000000000000
     0.0000000000000000    0.0000000000000000   58.0000000000000000
   C    H    O    Si
    72    57    28    72
Selective dynamics
Direct
  0.9962704746715884  0.0650654982105416  0.0595678068473453   T   T   T
  0.3296531600664153  0.0651360247069645  0.0596298624539646   T   T   T
  0.6629124251914994  0.0651136304888802  0.0596473431527304   T   T   T
  0.9962254332073331  0.3151552714004267  0.0595755572815295   T   T   T
  0.3295402888286692  0.3150569287341406  0.0595737118649377   T   T   T
  0.6629105823227691  0.3150831134562957  0.0595894530500065   T   T   T
  0.1622197783550340  0.1879177460712706  0.1384169639874970   T   T   T
  0.4956094732967623  0.1882157996020808  0.1386923658453595   T   T   T
  0.8289570385790895  0.1879542155329603  0.1384432745366549   T   T   T
  0.1621758454907669  0.4381158162448118  0.1385022769896760   T   T   T
  0.4955221461457781  0.4376541733642202  0.1383169163491807   T   T   T
  0.8288836845939171  0.4380155148656918  0.1385423320051724   T   T   T
  0.3297164658033511  0.0633154608632569  0.1657196585364328   T   T   T
  0.6620641199263777  0.0634392685816781  0.1657679144797850   T   T   T
  0.9958045412354075  0.0627066185015292  0.1655267290899774   T   T   T
  0.3285199160207273  0.3132593935767506  0.1656623401852194   T   T   T
  0.6626852208281505  0.3132336111639725  0.1657122283588612   T   T   T
  0.9957738457182839  0.3131617558635265  0.1655779258707971   T   T   T
  0.1629630851088270  0.1893665307640933  0.1906496836809088   T   T   T
  0.4958031144508572  0.1922450802065791  0.1916590046589617   T   T   T
  0.8300263722476844  0.1895313594914641  0.1907509374997481   T   T   T
  0.1625787127592791  0.4404557251394121  0.1910415135865553   T   T   T
  0.4964022311436451  0.4430739359179303  0.1895895334599478   T   T   T
  0.8304584738095360  0.4403823373607081  0.1911218784845750   T   T   T
  0.1622433969217769  0.1879737048039232  0.0848949558079081   T   T   T
  0.4957745840925143  0.1880557804231151  0.0850650960756549   T   T   T
  0.8290424386775431  0.1879678688476486  0.0849178008036768   T   T   T
  0.1623538584578079  0.4380569991757371  0.0849360730631274   T   T   T
  0.4956308170086182  0.4379560513904850  0.0848603867493667   T   T   T
  0.8290364691899207  0.4380320455320192  0.0849495622186561   T   T   T
  0.3288553583272780  0.0629919806758305  0.1121852841050921   T   T   T
  0.6620198806340770  0.0629978985456309  0.1122075448946251   T   T   T
  0.9954071502153617  0.0628623815228205  0.1121252795369595   T   T   T
  0.3287016882286078  0.3128664372215674  0.1121317287187506   T   T   T
  0.6621728352676299  0.3129137527094930  0.1121403394636939   T   T   T
  0.9954244998092218  0.3129493036983962  0.1121000520372216   T   T   T
  0.9962854653346147  0.5651922157038871  0.0596186811282318   T   T   T
  0.3296196017694880  0.5651809013030510  0.0596153731640189   T   T   T
  0.6629532396264541  0.5651820341379573  0.0596182855318018   T   T   T
  0.9963640887594533  0.8152561910592735  0.0596136919743281   T   T   T
  0.3297174243289028  0.8151531184801956  0.0596350026028957   T   T   T
  0.6629348958651580  0.8151365789459328  0.0596482960867638   T   T   T
  0.1621609712848668  0.6880706608496362  0.1385284091808598   T   T   T
  0.4956612410427803  0.6878081157837646  0.1385935964847933   T   T   T
  0.8289411832722849  0.6880708111793148  0.1385444287876617   T   T   T
  0.1625888547821055  0.9380062126084929  0.1385468230484540   T   T   T
  0.4956426406282892  0.9379431524221392  0.1385565194746287   T   T   T
  0.8287136301704038  0.9379762485497274  0.1385465267528726   T   T   T
  0.3285936128696137  0.5632750905488598  0.1657085783658042   T   T   T
  0.6629962366169007  0.5630986725077290  0.1657833460981586   T   T   T
  0.9957266807423311  0.5632616182899347  0.1656973076773326   T   T   T
  0.3292420661978156  0.8130623139239685  0.1657081469239882   T   T   T
  0.6625566338094386  0.8130976677247642  0.1657246743607935   T   T   T
  0.9958365455039356  0.8131268821644594  0.1657081496529976   T   T   T
  0.1632971473714483  0.6903205896896447  0.1910563590027925   T   T   T
  0.4967615035859816  0.6903073980446376  0.1911117467547679   T   T   T
  0.8300902012313482  0.6902965326587147  0.1910695881192266   T   T   T
  0.1634256197212778  0.9403762502785532  0.1910305293268884   T   T   T
  0.4967098022000899  0.9403507044397250  0.1910572680437342   T   T   T
  0.8299480190432362  0.9403628087287051  0.1910653749581173   T   T   T
  0.1623270303179731  0.6880873768460082  0.0849885736363574   T   T   T
  0.4957689860162741  0.6880049251982513  0.0850037837986306   T   T   T
  0.8290847495836318  0.6880840114870961  0.0849885237179254   T   T   T
  0.1624363907113873  0.9380568822226004  0.0849821062878540   T   T   T
  0.4957393329461883  0.9380387502005024  0.0850023015458092   T   T   T
  0.8289953274438888  0.9380534904137271  0.0849831691890481   T   T   T
  0.3287081265739149  0.5628794153713619  0.1121701400046006   T   T   T
  0.6621131166295723  0.5628567496992164  0.1121862804210261   T   T   T
  0.9953873274612844  0.5629485031389918  0.1121657835927510   T   T   T
  0.3288211007886235  0.8128880970382600  0.1121735008828304   T   T   T
  0.6620563758244145  0.8128891950000267  0.1121830601473416   T   T   T
  0.9954199882962520  0.8130140534544995  0.1121827237788707   T   T   T
  0.0802149128081796  0.1791559273503802  0.0258184147289842   T   T   T
  0.4137517762540215  0.1792759247280228  0.0259710687953492   T   T   T
  0.7462973039686264  0.1791315794824253  0.0258676411938938   T   T   T
  0.0802514201966994  0.4292220746705092  0.0258448506614951   T   T   T
  0.4134456383769357  0.4290553846006831  0.0257682429933299   T   T   T
  0.7459913501940896  0.4290452288578242  0.0259031775063457   T   T   T
  0.3277893816667814  0.0288645369259879  0.0441173516643214   T   T   T
  0.6604381776659537  0.0288518695138158  0.0441353420989729   T   T   T
  0.9940493864345276  0.0287453200948883  0.0440657117253704   T   T   T
  0.3271015247884332  0.2788128308077465  0.0440562617109431   T   T   T
  0.6610633001684215  0.2788238247244758  0.0440766046591530   T   T   T
  0.9939866008216125  0.2789438387328453  0.0440517402571669   T   T   T
  0.8334552854056166  0.4039757568196905  0.2065787474380414   T   T   T
  0.8328225033262452  0.1535134209496804  0.2063202223226273   T   T   T
  0.1653770071458319  0.1537391470736583  0.2063021120747473   T   T   T
  0.4984588977637313  0.1555460173088612  0.2070832173897541   T   T   T
  0.1650969230440630  0.4038740597799729  0.2064676983399113   T   T   T
  0.5404312897554642  0.4641493997444280  0.2611403981937985   T   T   T
  0.0821476264208939  0.0545709345148493  0.2244743162325586   T   T   T
  0.4151351195401782  0.0545422103281586  0.2245861729640242   T   T   T
  0.7477992176008648  0.0546152227765137  0.2246850157455422   T   T   T
  0.0880299834184982  0.3035842649671304  0.2231453581568110   T   T   T
  0.3675469174490026  0.2847452435169440  0.2303415459439610   T   T   T
  0.7768244392190301  0.2991471033868187  0.2229533071322693   T   T   T
  0.4939631185842515  0.2712353761327157  0.2660946520321043   T   T   T
  0.4706722048787922  0.2279132389402137  0.3004891648536162   T   T   T
  0.5188084480742235  0.3125477999259146  0.3080794434883797   T   T   T
  0.2908737224977020  0.1361769078235519  0.2959598312588878   T   T   T
  0.4387747221788981  0.1076783217939707  0.2871810378031109   T   T   T
  0.6384853582117122  0.3854864380128596  0.3348851049103802   T   T   T
  0.5038701488934955  0.4315468772673837  0.3273565107574254   T   T   T
  0.5042214426894733  0.4383829377763699  0.2697170298192112   T   T   T
  0.5648789088127476  0.2687141770437187  0.2408781306397389   T   T   T
  0.0802805738478566  0.6792839666337228  0.0259000789377867   T   T   T
  0.4136050895226823  0.6792765865785614  0.0259173133108208   T   T   T
  0.7465705326066863  0.6792099345720924  0.0259177003957877   T   T   T
  0.0810074468543509  0.9292493993136941  0.0258423372361158   T   T   T
  0.4134879115222057  0.9291118973723941  0.0259242775339888   T   T   T
  0.7461924785899273  0.9290946664840681  0.0259142794251445   T   T   T
  0.3274384200164064  0.5290127488511318  0.0440792753436080   T   T   T
  0.6608116624431286  0.5290059624914950  0.0440866581387968   T   T   T
  0.9940615442090094  0.5290085474406562  0.0440888345610641   T   T   T
  0.3274098249438893  0.7789450527982711  0.0441100467859049   T   T   T
  0.6606688517711317  0.7789599453187789  0.0441156542891651   T   T   T
  0.9940943514939850  0.7790143603348975  0.0440958809207771   T   T   T
  0.8323164247371355  0.9041314131663112  0.2065904319755597   T   T   T
  0.8322953535147517  0.6538758193491706  0.2065549231690880   T   T   T
  0.1659634522303597  0.6539234856687585  0.2065425655480198   T   T   T
  0.4987979809841496  0.6539742420922773  0.2066176438222971   T   T   T
  0.1660398429883859  0.9041153955365485  0.2065475389279583   T   T   T
  0.4991128168151002  0.9040996181741568  0.2065756393352834   T   T   T
  0.0837283725826240  0.5534632569312077  0.2245877076748447   T   T   T
  0.4174123960899933  0.5514028298815470  0.2247200357515127   T   T   T
  0.7501196634885858  0.5530015744151842  0.2247751270480575   T   T   T
  0.0819270711319356  0.8037930668393828  0.2247016255126736   T   T   T
  0.4144057379960810  0.8040066601508351  0.2247761388678760   T   T   T
  0.7505382246098626  0.8034003136578504  0.2246320825979201   T   T   T
  0.1730015203698350  0.1686306844602573  0.0330782173391227   T   T   T
  0.5064727673785148  0.1688639401154316  0.0332700835361330   T   T   T
  0.8392394871693611  0.1685666109634552  0.0330820979499379   T   T   T
  0.1730672343925042  0.4187534805584177  0.0331001795280984   T   T   T
  0.5062657034715279  0.4186725395974484  0.0330430825419380   T   T   T
  0.8391330582618248  0.4186967286079874  0.0330813135333198   T   T   T
  0.3217189706498399  0.0439220214049940  0.2175345044955649   T   T   T
  0.6547164801198998  0.0439392409834870  0.2175356979708287   T   T   T
  0.9886801418766471  0.0440245453527324  0.2174261744707313   T   T   T
  0.3064730146299531  0.2994800949229963  0.2166775032605194   T   T   T
  0.6764639176168601  0.2944650521603490  0.2177698988923401   T   T   T
  0.9906247298661937  0.2928134265335611  0.2173117889479271   T   T   T
  0.5233218835610187  0.2741784748023985  0.2955154659080619   T   T   T
  0.3917677982404480  0.1314737487684311  0.3003915450786128   T   T   T
  0.5368662997073363  0.3801113591771470  0.3310024064104164   T   T   T
  0.4788292226455678  0.2537987262750679  0.2499453476985718   T   T   T
  0.1731322764169653  0.6688103905885759  0.0331478839583561   T   T   T
  0.5064774018900026  0.6688054776144148  0.0331551664168699   T   T   T
  0.8395160526010689  0.6687311401811239  0.0331420140678919   T   T   T
  0.1735435064867069  0.9188968818860820  0.0331949264508690   T   T   T
  0.5064144927512840  0.9189191589696111  0.0331885738830384   T   T   T
  0.8391549141360660  0.9187246615553255  0.0331432485024276   T   T   T
  0.3230721435024301  0.5443259068485266  0.2175679456931894   T   T   T
  0.6561504006698267  0.5443209323704137  0.2176756424225713   T   T   T
  0.9895960878221880  0.5443942859809555  0.2175712406690541   T   T   T
  0.3214120623960715  0.7939875859897472  0.2175199969642797   T   T   T
  0.6565474493462597  0.7943485134429292  0.2175608797265750   T   T   T
  0.9885000713103562  0.7940219604948111  0.2175395364536702   T   T   T
  0.4964309681301594  0.1237993123340468  0.0589207840240334   T   T   T
  0.8297381855261653  0.1237096032896406  0.0587827428034070   T   T   T
  0.1630755519559511  0.3738041727768963  0.0587930425275630   T   T   T
  0.4963521083356483  0.3737265476228738  0.0587440578791872   T   T   T
  0.8296807514486415  0.3737970741575088  0.0587994923530347   T   T   T
  0.1630576266864178  0.1237239951831457  0.0587666211752483   T   T   T
  0.9955631624311139  0.0002594413575176  0.1387526962046702   T   T   T
  0.3292977218980013  0.0006178082576305  0.1388481363736957   T   T   T
  0.6619664015197347  0.0006339169533452  0.1388735808094575   T   T   T
  0.9955833182648128  0.2504944571426078  0.1387389776673145   T   T   T
  0.3286931041966870  0.2507046984281252  0.1388785848071638   T   T   T
  0.6623205712046318  0.2506870512196807  0.1388531632057417   T   T   T
  0.1625156712985054  0.1249257920031450  0.1649812805175017   T   T   T
  0.4956627192400534  0.1263540184696394  0.1655058350472976   T   T   T
  0.8293810169120170  0.1249378526037860  0.1649899644904201   T   T   T
  0.1625180575696761  0.3755714179535702  0.1651551309812599   T   T   T
  0.4955590723586892  0.3754876934480210  0.1655019518366796   T   T   T
  0.8291506116405313  0.3755020078075547  0.1652151876539659   T   T   T
  0.3308851346474334  0.4977929697380000  0.1920353194373627   T   T   T
  0.6620479746263916  0.4976775949552062  0.1921740207170690   T   T   T
  0.9965208053874421  0.4990937694195029  0.1918644283347114   T   T   T
  0.3269663062552146  0.2506798010894571  0.1921257142653672   T   T   T
  0.9966898748445292  0.2480572789190906  0.1914894898697510   T   T   T
  0.6648540559618193  0.2495550243987859  0.1919030539832792   T   T   T
  0.9957493556812693  0.0002054877153562  0.0855164524053843   T   T   T
  0.3291724216463736  0.0002348949157200  0.0855600801617951   T   T   T
  0.6624115630040494  0.0002303630792034  0.0855658024134244   T   T   T
  0.9957235022930763  0.2502148956683142  0.0854943793770982   T   T   T
  0.3290163544187202  0.2502105628741648  0.0855329441811858   T   T   T
  0.6624896213173712  0.2502171057333541  0.0855389294394972   T   T   T
  0.1620847114058671  0.1254546305150697  0.1118187345446058   T   T   T
  0.4954967493685863  0.1256203879228895  0.1120127979820656   T   T   T
  0.8288062138585015  0.1254736119232970  0.1118371374156199   T   T   T
  0.1622147916384732  0.3755174406504761  0.1118764673130601   T   T   T
  0.4953753448859857  0.3753643554462993  0.1117924040737654   T   T   T
  0.8286848972098030  0.3754838599852228  0.1118927856022441   T   T   T
  0.4964259529647421  0.6238082470344097  0.0588470178244972   T   T   T
  0.8297287852635655  0.6238060291253920  0.0588419899123772   T   T   T
  0.1632796352188163  0.8738255225055757  0.0588457337519052   T   T   T
  0.4964906552006805  0.8738074480581329  0.0588568052741195   T   T   T
  0.8296505858237067  0.8737877535311216  0.0588327251733002   T   T   T
  0.1631169663845620  0.6238302429829011  0.0588309630357825   T   T   T
  0.9954914464510958  0.5005053351938075  0.1388393442123088   T   T   T
  0.3292758780298263  0.5003427686804921  0.1388835131915366   T   T   T
  0.6618018810649686  0.5003132336291942  0.1389256349545931   T   T   T
  0.9955518751078626  0.7504715701584618  0.1388204698513861   T   T   T
  0.3290202959801555  0.7503269003008106  0.1388314384322549   T   T   T
  0.6621796063494751  0.7503391912221615  0.1388425978226547   T   T   T
  0.1624315100174462  0.6252335348967188  0.1651697719036642   T   T   T
  0.4959211577158899  0.6247709710040348  0.1652715568292787   T   T   T
  0.8291905229111660  0.6252133863421088  0.1651883069860201   T   T   T
  0.1626880425070292  0.8752379387458080  0.1651652842032884   T   T   T
  0.4960027181300702  0.8752250090801842  0.1651840566357202   T   T   T
  0.8291982306075384  0.8752572699198297  0.1651802264685649   T   T   T
  0.3299447573945086  0.9990317124330242  0.1918338497471904   T   T   T
  0.6632300947790190  0.9990294732870817  0.1918500497265408   T   T   T
  0.9965685717316533  0.9989571678941489  0.1917547618196748   T   T   T
  0.3299694758983709  0.7487856250162460  0.1918541192825642   T   T   T
  0.9965817116430605  0.7488200090582589  0.1918598901884971   T   T   T
  0.6633797317568595  0.7488865980423788  0.1918978939128685   T   T   T
  0.9957774736924810  0.5002094293160743  0.0855366976989375   T   T   T
  0.3291568951425742  0.5001741661538773  0.0855297478470411   T   T   T
  0.6623390316222703  0.5001681359623075  0.0855357749444776   T   T   T
  0.9957618877046734  0.7502606402675973  0.0855394044621331   T   T   T
  0.3291544712757277  0.7501739277685533  0.0855504788199955   T   T   T
  0.6623948754684388  0.7501642658898982  0.0855568565973252   T   T   T
  0.1621608526296359  0.6254119894143728  0.1119085724503848   T   T   T
  0.4954745011979999  0.6253146870618366  0.1119294362812341   T   T   T
  0.8287134381012370  0.6254193199772835  0.1119096138219568   T   T   T
  0.1622770640183911  0.8754426418404831  0.1118887132702662   T   T   T
  0.4955024438802996  0.8754163217163335  0.1119029718249550   T   T   T
  0.8286193513113085  0.8754388257698330  0.1118885094186184   T   T   T
 
  0.00000000E+00  0.00000000E+00  0.00000000E+00
  0.00000000E+00  0.00000000E+00  0.00000000E+00
  0.00000000E+00  0.00000000E+00  0.00000000E+00
  0.00000000E+00  0.00000000E+00  0.00000000E+00
  0.00000000E+00  0.00000000E+00  0.00000000E+00
  0.00000000E+00  0.00000000E+00  0.00000000E+00
  0.00000000E+00  0.00000000E+00  0.00000000E+00
  0.00000000E+00  0.00000000E+00  0.00000000E+00
  0.00000000E+00  0.00000000E+00  0.00000000E+00
  0.00000000E+00  0.00000000E+00  0.00000000E+00
  0.00000000E+00  0.00000000E+00  0.00000000E+00
  0.00000000E+00  0.00000000E+00  0.00000000E+00
  0.00000000E+00  0.00000000E+00  0.00000000E+00
  0.00000000E+00  0.00000000E+00  0.00000000E+00
  0.00000000E+00  0.00000000E+00  0.00000000E+00
  0.00000000E+00  0.00000000E+00  0.00000000E+00
  0.00000000E+00  0.00000000E+00  0.00000000E+00
  0.00000000E+00  0.00000000E+00  0.00000000E+00
  0.00000000E+00  0.00000000E+00  0.00000000E+00
  0.00000000E+00  0.00000000E+00  0.00000000E+00
  0.00000000E+00  0.00000000E+00  0.00000000E+00
  0.00000000E+00  0.00000000E+00  0.00000000E+00
  0.00000000E+00  0.00000000E+00  0.00000000E+00
  0.00000000E+00  0.00000000E+00  0.00000000E+00
  0.00000000E+00  0.00000000E+00  0.00000000E+00
  0.00000000E+00  0.00000000E+00  0.00000000E+00
  0.00000000E+00  0.00000000E+00  0.00000000E+00
  0.00000000E+00  0.00000000E+00  0.00000000E+00
  0.00000000E+00  0.00000000E+00  0.00000000E+00
  0.00000000E+00  0.00000000E+00  0.00000000E+00
  0.00000000E+00  0.00000000E+00  0.00000000E+00
  0.00000000E+00  0.00000000E+00  0.00000000E+00
  0.00000000E+00  0.00000000E+00  0.00000000E+00
  0.00000000E+00  0.00000000E+00  0.00000000E+00
  0.00000000E+00  0.00000000E+00  0.00000000E+00
  0.00000000E+00  0.00000000E+00  0.00000000E+00
  0.00000000E+00  0.00000000E+00  0.00000000E+00
  0.00000000E+00  0.00000000E+00  0.00000000E+00
  0.00000000E+00  0.00000000E+00  0.00000000E+00
  0.00000000E+00  0.00000000E+00  0.00000000E+00
  0.00000000E+00  0.00000000E+00  0.00000000E+00
  0.00000000E+00  0.00000000E+00  0.00000000E+00
  0.00000000E+00  0.00000000E+00  0.00000000E+00
  0.00000000E+00  0.00000000E+00  0.00000000E+00
  0.00000000E+00  0.00000000E+00  0.00000000E+00
  0.00000000E+00  0.00000000E+00  0.00000000E+00
  0.00000000E+00  0.00000000E+00  0.00000000E+00
  0.00000000E+00  0.00000000E+00  0.00000000E+00
  0.00000000E+00  0.00000000E+00  0.00000000E+00
  0.00000000E+00  0.00000000E+00  0.00000000E+00
  0.00000000E+00  0.00000000E+00  0.00000000E+00
  0.00000000E+00  0.00000000E+00  0.00000000E+00
  0.00000000E+00  0.00000000E+00  0.00000000E+00
  0.00000000E+00  0.00000000E+00  0.00000000E+00
  0.00000000E+00  0.00000000E+00  0.00000000E+00
  0.00000000E+00  0.00000000E+00  0.00000000E+00
  0.00000000E+00  0.00000000E+00  0.00000000E+00
  0.00000000E+00  0.00000000E+00  0.00000000E+00
  0.00000000E+00  0.00000000E+00  0.00000000E+00
  0.00000000E+00  0.00000000E+00  0.00000000E+00
  0.00000000E+00  0.00000000E+00  0.00000000E+00
  0.00000000E+00  0.00000000E+00  0.00000000E+00
  0.00000000E+00  0.00000000E+00  0.00000000E+00
  0.00000000E+00  0.00000000E+00  0.00000000E+00
  0.00000000E+00  0.00000000E+00  0.00000000E+00
  0.00000000E+00  0.00000000E+00  0.00000000E+00
  0.00000000E+00  0.00000000E+00  0.00000000E+00
  0.00000000E+00  0.00000000E+00  0.00000000E+00
  0.00000000E+00  0.00000000E+00  0.00000000E+00
  0.00000000E+00  0.00000000E+00  0.00000000E+00
  0.00000000E+00  0.00000000E+00  0.00000000E+00
  0.00000000E+00  0.00000000E+00  0.00000000E+00
  0.00000000E+00  0.00000000E+00  0.00000000E+00
  0.00000000E+00  0.00000000E+00  0.00000000E+00
  0.00000000E+00  0.00000000E+00  0.00000000E+00
  0.00000000E+00  0.00000000E+00  0.00000000E+00
  0.00000000E+00  0.00000000E+00  0.00000000E+00
  0.00000000E+00  0.00000000E+00  0.00000000E+00
  0.00000000E+00  0.00000000E+00  0.00000000E+00
  0.00000000E+00  0.00000000E+00  0.00000000E+00
  0.00000000E+00  0.00000000E+00  0.00000000E+00
  0.00000000E+00  0.00000000E+00  0.00000000E+00
  0.00000000E+00  0.00000000E+00  0.00000000E+00
  0.00000000E+00  0.00000000E+00  0.00000000E+00
  0.00000000E+00  0.00000000E+00  0.00000000E+00
  0.00000000E+00  0.00000000E+00  0.00000000E+00
  0.00000000E+00  0.00000000E+00  0.00000000E+00
  0.00000000E+00  0.00000000E+00  0.00000000E+00
  0.00000000E+00  0.00000000E+00  0.00000000E+00
  0.00000000E+00  0.00000000E+00  0.00000000E+00
  0.00000000E+00  0.00000000E+00  0.00000000E+00
  0.00000000E+00  0.00000000E+00  0.00000000E+00
  0.00000000E+00  0.00000000E+00  0.00000000E+00
  0.00000000E+00  0.00000000E+00  0.00000000E+00
  0.00000000E+00  0.00000000E+00  0.00000000E+00
  0.00000000E+00  0.00000000E+00  0.00000000E+00
  0.00000000E+00  0.00000000E+00  0.00000000E+00
  0.00000000E+00  0.00000000E+00  0.00000000E+00
  0.00000000E+00  0.00000000E+00  0.00000000E+00
  0.00000000E+00  0.00000000E+00  0.00000000E+00
  0.00000000E+00  0.00000000E+00  0.00000000E+00
  0.00000000E+00  0.00000000E+00  0.00000000E+00
  0.00000000E+00  0.00000000E+00  0.00000000E+00
  0.00000000E+00  0.00000000E+00  0.00000000E+00
  0.00000000E+00  0.00000000E+00  0.00000000E+00
  0.00000000E+00  0.00000000E+00  0.00000000E+00
  0.00000000E+00  0.00000000E+00  0.00000000E+00
  0.00000000E+00  0.00000000E+00  0.00000000E+00
  0.00000000E+00  0.00000000E+00  0.00000000E+00
  0.00000000E+00  0.00000000E+00  0.00000000E+00
  0.00000000E+00  0.00000000E+00  0.00000000E+00
  0.00000000E+00  0.00000000E+00  0.00000000E+00
  0.00000000E+00  0.00000000E+00  0.00000000E+00
  0.00000000E+00  0.00000000E+00  0.00000000E+00
  0.00000000E+00  0.00000000E+00  0.00000000E+00
  0.00000000E+00  0.00000000E+00  0.00000000E+00
  0.00000000E+00  0.00000000E+00  0.00000000E+00
  0.00000000E+00  0.00000000E+00  0.00000000E+00
  0.00000000E+00  0.00000000E+00  0.00000000E+00
  0.00000000E+00  0.00000000E+00  0.00000000E+00
  0.00000000E+00  0.00000000E+00  0.00000000E+00
  0.00000000E+00  0.00000000E+00  0.00000000E+00
  0.00000000E+00  0.00000000E+00  0.00000000E+00
  0.00000000E+00  0.00000000E+00  0.00000000E+00
  0.00000000E+00  0.00000000E+00  0.00000000E+00
  0.00000000E+00  0.00000000E+00  0.00000000E+00
  0.00000000E+00  0.00000000E+00  0.00000000E+00
  0.00000000E+00  0.00000000E+00  0.00000000E+00
  0.00000000E+00  0.00000000E+00  0.00000000E+00
  0.00000000E+00  0.00000000E+00  0.00000000E+00
  0.00000000E+00  0.00000000E+00  0.00000000E+00
  0.00000000E+00  0.00000000E+00  0.00000000E+00
  0.00000000E+00  0.00000000E+00  0.00000000E+00
  0.00000000E+00  0.00000000E+00  0.00000000E+00
  0.00000000E+00  0.00000000E+00  0.00000000E+00
  0.00000000E+00  0.00000000E+00  0.00000000E+00
  0.00000000E+00  0.00000000E+00  0.00000000E+00
  0.00000000E+00  0.00000000E+00  0.00000000E+00
  0.00000000E+00  0.00000000E+00  0.00000000E+00
  0.00000000E+00  0.00000000E+00  0.00000000E+00
  0.00000000E+00  0.00000000E+00  0.00000000E+00
  0.00000000E+00  0.00000000E+00  0.00000000E+00
  0.00000000E+00  0.00000000E+00  0.00000000E+00
  0.00000000E+00  0.00000000E+00  0.00000000E+00
  0.00000000E+00  0.00000000E+00  0.00000000E+00
  0.00000000E+00  0.00000000E+00  0.00000000E+00
  0.00000000E+00  0.00000000E+00  0.00000000E+00
  0.00000000E+00  0.00000000E+00  0.00000000E+00
  0.00000000E+00  0.00000000E+00  0.00000000E+00
  0.00000000E+00  0.00000000E+00  0.00000000E+00
  0.00000000E+00  0.00000000E+00  0.00000000E+00
  0.00000000E+00  0.00000000E+00  0.00000000E+00
  0.00000000E+00  0.00000000E+00  0.00000000E+00
  0.00000000E+00  0.00000000E+00  0.00000000E+00
  0.00000000E+00  0.00000000E+00  0.00000000E+00
  0.00000000E+00  0.00000000E+00  0.00000000E+00
  0.00000000E+00  0.00000000E+00  0.00000000E+00
  0.00000000E+00  0.00000000E+00  0.00000000E+00
  0.00000000E+00  0.00000000E+00  0.00000000E+00
  0.00000000E+00  0.00000000E+00  0.00000000E+00
  0.00000000E+00  0.00000000E+00  0.00000000E+00
  0.00000000E+00  0.00000000E+00  0.00000000E+00
  0.00000000E+00  0.00000000E+00  0.00000000E+00
  0.00000000E+00  0.00000000E+00  0.00000000E+00
  0.00000000E+00  0.00000000E+00  0.00000000E+00
  0.00000000E+00  0.00000000E+00  0.00000000E+00
  0.00000000E+00  0.00000000E+00  0.00000000E+00
  0.00000000E+00  0.00000000E+00  0.00000000E+00
  0.00000000E+00  0.00000000E+00  0.00000000E+00
  0.00000000E+00  0.00000000E+00  0.00000000E+00
  0.00000000E+00  0.00000000E+00  0.00000000E+00
  0.00000000E+00  0.00000000E+00  0.00000000E+00
  0.00000000E+00  0.00000000E+00  0.00000000E+00
  0.00000000E+00  0.00000000E+00  0.00000000E+00
  0.00000000E+00  0.00000000E+00  0.00000000E+00
  0.00000000E+00  0.00000000E+00  0.00000000E+00
  0.00000000E+00  0.00000000E+00  0.00000000E+00
  0.00000000E+00  0.00000000E+00  0.00000000E+00
  0.00000000E+00  0.00000000E+00  0.00000000E+00
  0.00000000E+00  0.00000000E+00  0.00000000E+00
  0.00000000E+00  0.00000000E+00  0.00000000E+00
  0.00000000E+00  0.00000000E+00  0.00000000E+00
  0.00000000E+00  0.00000000E+00  0.00000000E+00
  0.00000000E+00  0.00000000E+00  0.00000000E+00
  0.00000000E+00  0.00000000E+00  0.00000000E+00
  0.00000000E+00  0.00000000E+00  0.00000000E+00
  0.00000000E+00  0.00000000E+00  0.00000000E+00
  0.00000000E+00  0.00000000E+00  0.00000000E+00
  0.00000000E+00  0.00000000E+00  0.00000000E+00
  0.00000000E+00  0.00000000E+00  0.00000000E+00
  0.00000000E+00  0.00000000E+00  0.00000000E+00
  0.00000000E+00  0.00000000E+00  0.00000000E+00
  0.00000000E+00  0.00000000E+00  0.00000000E+00
  0.00000000E+00  0.00000000E+00  0.00000000E+00
  0.00000000E+00  0.00000000E+00  0.00000000E+00
  0.00000000E+00  0.00000000E+00  0.00000000E+00
  0.00000000E+00  0.00000000E+00  0.00000000E+00
  0.00000000E+00  0.00000000E+00  0.00000000E+00
  0.00000000E+00  0.00000000E+00  0.00000000E+00
  0.00000000E+00  0.00000000E+00  0.00000000E+00
  0.00000000E+00  0.00000000E+00  0.00000000E+00
  0.00000000E+00  0.00000000E+00  0.00000000E+00
  0.00000000E+00  0.00000000E+00  0.00000000E+00
  0.00000000E+00  0.00000000E+00  0.00000000E+00
  0.00000000E+00  0.00000000E+00  0.00000000E+00
  0.00000000E+00  0.00000000E+00  0.00000000E+00
  0.00000000E+00  0.00000000E+00  0.00000000E+00
  0.00000000E+00  0.00000000E+00  0.00000000E+00
  0.00000000E+00  0.00000000E+00  0.00000000E+00
  0.00000000E+00  0.00000000E+00  0.00000000E+00
  0.00000000E+00  0.00000000E+00  0.00000000E+00
  0.00000000E+00  0.00000000E+00  0.00000000E+00
  0.00000000E+00  0.00000000E+00  0.00000000E+00
  0.00000000E+00  0.00000000E+00  0.00000000E+00
  0.00000000E+00  0.00000000E+00  0.00000000E+00
  0.00000000E+00  0.00000000E+00  0.00000000E+00
  0.00000000E+00  0.00000000E+00  0.00000000E+00
  0.00000000E+00  0.00000000E+00  0.00000000E+00
  0.00000000E+00  0.00000000E+00  0.00000000E+00
  0.00000000E+00  0.00000000E+00  0.00000000E+00
  0.00000000E+00  0.00000000E+00  0.00000000E+00
  0.00000000E+00  0.00000000E+00  0.00000000E+00
  0.00000000E+00  0.00000000E+00  0.00000000E+00
  0.00000000E+00  0.00000000E+00  0.00000000E+00
  0.00000000E+00  0.00000000E+00  0.00000000E+00
  0.00000000E+00  0.00000000E+00  0.00000000E+00
  0.00000000E+00  0.00000000E+00  0.00000000E+00
  0.00000000E+00  0.00000000E+00  0.00000000E+00
  0.00000000E+00  0.00000000E+00  0.00000000E+00
