C H O Si                                
   1.00000000000000     
     9.2874599999999994    0.0000000000000000    0.0000000000000000
     0.0000000000000000    8.7563099999999991    0.0000000000000000
     0.0000000000000000    0.0000000000000000   58.0000000000000000
   C    H    O    Si
    36    32    16    36
Selective dynamics
Direct
  0.9943365146176615  0.1265231884261265  0.0603839887211754   T   T   T
  0.3277251618620124  0.1265569039781801  0.0604905538886581   T   T   T
  0.6610217614643578  0.1265248025645435  0.0604676250569385   T   T   T
  0.9943007319297845  0.6266752389815483  0.0603917986019982   T   T   T
  0.3276904599051658  0.6264026758120297  0.0605169136116967   T   T   T
  0.6609992342605123  0.6265183987506622  0.0604462627950807   T   T   T
  0.1602646998608515  0.3724313495287134  0.1392704307303831   T   T   T
  0.4934566876113166  0.3729090975336550  0.1395680899401873   T   T   T
  0.8268215550467298  0.3723425270687944  0.1392334565620141   T   T   T
  0.1605232814895799  0.8725200822891910  0.1393463053725467   T   T   T
  0.4934965389987793  0.8722449410338040  0.1394321535535489   T   T   T
  0.8265728829255248  0.8726077508411212  0.1393252778552178   T   T   T
  0.3273772027053728  0.1231033371043705  0.1666168497274196   T   T   T
  0.6594534936569613  0.1231869131606166  0.1666330092489762   T   T   T
  0.9935709436399167  0.1218925548216126  0.1663343467255577   T   T   T
  0.3265669998558581  0.6226468058230644  0.1667889703446231   T   T   T
  0.6604460916894184  0.6228003044581609  0.1665538266138101   T   T   T
  0.9934676136508465  0.6227159198167362  0.1664011418595107   T   T   T
  0.1600026848556237  0.3743924334417222  0.1915114107206072   T   T   T
  0.4934771275777322  0.3806116064150892  0.1927318294661936   T   T   T
  0.8276766295609423  0.3743224244337064  0.1914656081679355   T   T   T
  0.1600672193365764  0.8771346463373895  0.1918715128010358   T   T   T
  0.4934642781373617  0.8762054568657797  0.1920365770644758   T   T   T
  0.8269716045245737  0.8771178947749204  0.1918412591968682   T   T   T
  0.1606226170125828  0.3727803485334463  0.0857528200968031   T   T   T
  0.4939101291394929  0.3727169803026529  0.0858895546448781   T   T   T
  0.8271983020253765  0.3727000403499806  0.0857032456348790   T   T   T
  0.1606709528121561  0.8727350062498063  0.0857873441618890   T   T   T
  0.4938779461569176  0.8726743665579232  0.0858298204357985   T   T   T
  0.8271447619381432  0.8727261581778614  0.0857501020182244   T   T   T
  0.3270181017397005  0.1224505558868665  0.1130195477593415   T   T   T
  0.6601695160588129  0.1225240855331044  0.1130165828993004   T   T   T
  0.9936518486298642  0.1224714142261111  0.1129088761337761   T   T   T
  0.3269611698137761  0.6223811083819157  0.1130679584649466   T   T   T
  0.6602823065954351  0.6224389383395761  0.1129915406440638   T   T   T
  0.9935824452309415  0.6227261069936825  0.1129144622471400   T   T   T
  0.0737941551627046  0.3565486214466840  0.0277021766399774   T   T   T
  0.4061965668360147  0.3562872437622753  0.0278923458551228   T   T   T
  0.7390386797124894  0.3562337860534456  0.0277517682826438   T   T   T
  0.0741773423939106  0.8566114835433440  0.0277311200663921   T   T   T
  0.4056447217335590  0.8560804078713438  0.0278543445754988   T   T   T
  0.7390315125039545  0.8563679371542441  0.0277717556990229   T   T   T
  0.3254575653722542  0.0531863096809356  0.0450694302690795   T   T   T
  0.6580139126798851  0.0531710909637772  0.0450562535500286   T   T   T
  0.9919246390393204  0.0532743252604294  0.0449624720708817   T   T   T
  0.3252383179553219  0.5528931264286107  0.0451074928519448   T   T   T
  0.6583046775122224  0.5531833362058339  0.0450356074431856   T   T   T
  0.9918721006981445  0.5534201358042220  0.0449694050054631   T   T   T
  0.8285890058923530  0.8041344544789311  0.2072875007317266   T   T   T
  0.8300197382347766  0.3014613596980669  0.2069366564580483   T   T   T
  0.1613799018504817  0.3016706639150988  0.2070025582601229   T   T   T
  0.4969451014060640  0.3056937404479802  0.2079978155639088   T   T   T
  0.1619553946492075  0.8034326304981607  0.2072504740329322   T   T   T
  0.4938353458513564  0.8037439841621240  0.2075698059515685   T   T   T
  0.0822158238258281  0.1070632678123177  0.2244933925173672   T   T   T
  0.4157890488424492  0.1049214030290980  0.2247427553956821   T   T   T
  0.7499598475434619  0.1064596191595693  0.2245013193705752   T   T   T
  0.0871401708822117  0.5994622719758069  0.2235990585242511   T   T   T
  0.3714518841559619  0.6186799411648553  0.2295305767587875   T   T   T
  0.7808890583030428  0.5935666883535577  0.2227255579903042   T   T   T
  0.5171217372167778  0.6379059314566990  0.2645864039556818   T   T   T
  0.5048335158531555  0.4761383497171441  0.2940195628412847   T   T   T
  0.5772736978147242  0.6291328765155398  0.3029523599656467   T   T   T
  0.3036440822695015  0.3722906901491444  0.3101981198398937   T   T   T
  0.4087102902509398  0.2416709107566611  0.3035568427056251   T   T   T
  0.6498001316815388  0.7417882579147522  0.3371933445380281   T   T   T
  0.4863848975385549  0.7663526354103816  0.3332238318827397   T   T   T
  0.5707964063708063  0.6559903699528450  0.2389094760458989   T   T   T
  0.1692759884838062  0.3315120921335082  0.0336865118176140   T   T   T
  0.5020215474608940  0.3319294007732119  0.0338147729525965   T   T   T
  0.8349007798008891  0.3312128496545839  0.0335990121999020   T   T   T
  0.1696094974516376  0.8318575161156382  0.0337561804019727   T   T   T
  0.5015764190086398  0.8316894801196770  0.0337413857916853   T   T   T
  0.8348517754532245  0.8313861948440453  0.0336368436299509   T   T   T
  0.3200453303739584  0.0831307503608484  0.2185726747945255   T   T   T
  0.6539080662180337  0.0832934542969658  0.2185657684864384   T   T   T
  0.9865379300014938  0.0828181265508725  0.2184934305194617   T   T   T
  0.2956505923298219  0.5823418095376057  0.2187020726708057   T   T   T
  0.6786413440387368  0.5841018097952870  0.2184419877189397   T   T   T
  0.9880183699885500  0.5800102003073977  0.2182438038042523   T   T   T
  0.5781111163023694  0.5546022050904744  0.2900369864720644   T   T   T
  0.3693703430609235  0.3383725371460340  0.2981325221260619   T   T   T
  0.5792725165719658  0.7679574488700982  0.3253989741299734   T   T   T
  0.4929525317500164  0.6890397935928424  0.2496879430181149   T   T   T
  0.4945661802756992  0.2436154752592723  0.0600350426536091   T   T   T
  0.8278354815681601  0.2435809410075223  0.0598710603960518   T   T   T
  0.1613498503723782  0.7435480876134869  0.0599736495231604   T   T   T
  0.4944810105504067  0.7435590894958795  0.0599799325939594   T   T   T
  0.8277659602972629  0.7437123185585756  0.0598997324372703   T   T   T
  0.1612789778116962  0.2435481100741993  0.0599291379891483   T   T   T
  0.9936004103560774  0.9967492647152126  0.1394807738149086   T   T   T
  0.3272635025515871  0.9973845349501068  0.1396387230915916   T   T   T
  0.6597394529698014  0.9974010035438913  0.1396370908787753   T   T   T
  0.9935862589752710  0.4971345441671075  0.1394710683431715   T   T   T
  0.3267316464817374  0.4974013592565176  0.1397459073794372   T   T   T
  0.6603131286228638  0.4972217785622818  0.1395911740493113   T   T   T
  0.1601055430604172  0.2458780726793767  0.1656271338330328   T   T   T
  0.4932922354093947  0.2487272466141894  0.1662325494157758   T   T   T
  0.8270602636564018  0.2455408656780067  0.1655613921200347   T   T   T
  0.1601711441060147  0.7469794433965651  0.1658343206829568   T   T   T
  0.4933021430313571  0.7465006825111524  0.1659501086541516   T   T   T
  0.8269884809603686  0.7469869578556204  0.1657906899158393   T   T   T
  0.3266916643211134  0.9939448291264565  0.1924669233893880   T   T   T
  0.6599595093969212  0.9938008553866878  0.1924723526611386   T   T   T
  0.9934169992073776  0.9940474055025115  0.1923170175239074   T   T   T
  0.3239118514544791  0.4955230134190249  0.1930227841822335   T   T   T
  0.9937391075251649  0.4917196053275885  0.1920030129720174   T   T   T
  0.6628726461563507  0.4938547126043629  0.1923467532613256   T   T   T
  0.9939366975900834  0.9967022080008381  0.0864796278885017   T   T   T
  0.3273397045009165  0.9967309723582896  0.0865726717882293   T   T   T
  0.6604959081820191  0.9967323537715893  0.0865586054083227   T   T   T
  0.9939203549782417  0.4967896434171392  0.0864755806798314   T   T   T
  0.3273052575188219  0.4966950975545016  0.0866080194023017   T   T   T
  0.6605617871334476  0.4967234723473780  0.0865396244038144   T   T   T
  0.1603208121809974  0.2471755875116928  0.1127202034174129   T   T   T
  0.4935746494284379  0.2473181381737093  0.1129057349776913   T   T   T
  0.8269187848199447  0.2471170321501615  0.1126799033116838   T   T   T
  0.1604816720756164  0.7471982468293021  0.1127756522883654   T   T   T
  0.4935746854560459  0.7471195305874367  0.1128190611553164   T   T   T
  0.8268113618885501  0.7472519307840197  0.1127411181734215   T   T   T
 
  0.00000000E+00  0.00000000E+00  0.00000000E+00
  0.00000000E+00  0.00000000E+00  0.00000000E+00
  0.00000000E+00  0.00000000E+00  0.00000000E+00
  0.00000000E+00  0.00000000E+00  0.00000000E+00
  0.00000000E+00  0.00000000E+00  0.00000000E+00
  0.00000000E+00  0.00000000E+00  0.00000000E+00
  0.00000000E+00  0.00000000E+00  0.00000000E+00
  0.00000000E+00  0.00000000E+00  0.00000000E+00
  0.00000000E+00  0.00000000E+00  0.00000000E+00
  0.00000000E+00  0.00000000E+00  0.00000000E+00
  0.00000000E+00  0.00000000E+00  0.00000000E+00
  0.00000000E+00  0.00000000E+00  0.00000000E+00
  0.00000000E+00  0.00000000E+00  0.00000000E+00
  0.00000000E+00  0.00000000E+00  0.00000000E+00
  0.00000000E+00  0.00000000E+00  0.00000000E+00
  0.00000000E+00  0.00000000E+00  0.00000000E+00
  0.00000000E+00  0.00000000E+00  0.00000000E+00
  0.00000000E+00  0.00000000E+00  0.00000000E+00
  0.00000000E+00  0.00000000E+00  0.00000000E+00
  0.00000000E+00  0.00000000E+00  0.00000000E+00
  0.00000000E+00  0.00000000E+00  0.00000000E+00
  0.00000000E+00  0.00000000E+00  0.00000000E+00
  0.00000000E+00  0.00000000E+00  0.00000000E+00
  0.00000000E+00  0.00000000E+00  0.00000000E+00
  0.00000000E+00  0.00000000E+00  0.00000000E+00
  0.00000000E+00  0.00000000E+00  0.00000000E+00
  0.00000000E+00  0.00000000E+00  0.00000000E+00
  0.00000000E+00  0.00000000E+00  0.00000000E+00
  0.00000000E+00  0.00000000E+00  0.00000000E+00
  0.00000000E+00  0.00000000E+00  0.00000000E+00
  0.00000000E+00  0.00000000E+00  0.00000000E+00
  0.00000000E+00  0.00000000E+00  0.00000000E+00
  0.00000000E+00  0.00000000E+00  0.00000000E+00
  0.00000000E+00  0.00000000E+00  0.00000000E+00
  0.00000000E+00  0.00000000E+00  0.00000000E+00
  0.00000000E+00  0.00000000E+00  0.00000000E+00
  0.00000000E+00  0.00000000E+00  0.00000000E+00
  0.00000000E+00  0.00000000E+00  0.00000000E+00
  0.00000000E+00  0.00000000E+00  0.00000000E+00
  0.00000000E+00  0.00000000E+00  0.00000000E+00
  0.00000000E+00  0.00000000E+00  0.00000000E+00
  0.00000000E+00  0.00000000E+00  0.00000000E+00
  0.00000000E+00  0.00000000E+00  0.00000000E+00
  0.00000000E+00  0.00000000E+00  0.00000000E+00
  0.00000000E+00  0.00000000E+00  0.00000000E+00
  0.00000000E+00  0.00000000E+00  0.00000000E+00
  0.00000000E+00  0.00000000E+00  0.00000000E+00
  0.00000000E+00  0.00000000E+00  0.00000000E+00
  0.00000000E+00  0.00000000E+00  0.00000000E+00
  0.00000000E+00  0.00000000E+00  0.00000000E+00
  0.00000000E+00  0.00000000E+00  0.00000000E+00
  0.00000000E+00  0.00000000E+00  0.00000000E+00
  0.00000000E+00  0.00000000E+00  0.00000000E+00
  0.00000000E+00  0.00000000E+00  0.00000000E+00
  0.00000000E+00  0.00000000E+00  0.00000000E+00
  0.00000000E+00  0.00000000E+00  0.00000000E+00
  0.00000000E+00  0.00000000E+00  0.00000000E+00
  0.00000000E+00  0.00000000E+00  0.00000000E+00
  0.00000000E+00  0.00000000E+00  0.00000000E+00
  0.00000000E+00  0.00000000E+00  0.00000000E+00
  0.00000000E+00  0.00000000E+00  0.00000000E+00
  0.00000000E+00  0.00000000E+00  0.00000000E+00
  0.00000000E+00  0.00000000E+00  0.00000000E+00
  0.00000000E+00  0.00000000E+00  0.00000000E+00
  0.00000000E+00  0.00000000E+00  0.00000000E+00
  0.00000000E+00  0.00000000E+00  0.00000000E+00
  0.00000000E+00  0.00000000E+00  0.00000000E+00
  0.00000000E+00  0.00000000E+00  0.00000000E+00
  0.00000000E+00  0.00000000E+00  0.00000000E+00
  0.00000000E+00  0.00000000E+00  0.00000000E+00
  0.00000000E+00  0.00000000E+00  0.00000000E+00
  0.00000000E+00  0.00000000E+00  0.00000000E+00
  0.00000000E+00  0.00000000E+00  0.00000000E+00
  0.00000000E+00  0.00000000E+00  0.00000000E+00
  0.00000000E+00  0.00000000E+00  0.00000000E+00
  0.00000000E+00  0.00000000E+00  0.00000000E+00
  0.00000000E+00  0.00000000E+00  0.00000000E+00
  0.00000000E+00  0.00000000E+00  0.00000000E+00
  0.00000000E+00  0.00000000E+00  0.00000000E+00
  0.00000000E+00  0.00000000E+00  0.00000000E+00
  0.00000000E+00  0.00000000E+00  0.00000000E+00
  0.00000000E+00  0.00000000E+00  0.00000000E+00
  0.00000000E+00  0.00000000E+00  0.00000000E+00
  0.00000000E+00  0.00000000E+00  0.00000000E+00
  0.00000000E+00  0.00000000E+00  0.00000000E+00
  0.00000000E+00  0.00000000E+00  0.00000000E+00
  0.00000000E+00  0.00000000E+00  0.00000000E+00
  0.00000000E+00  0.00000000E+00  0.00000000E+00
  0.00000000E+00  0.00000000E+00  0.00000000E+00
  0.00000000E+00  0.00000000E+00  0.00000000E+00
  0.00000000E+00  0.00000000E+00  0.00000000E+00
  0.00000000E+00  0.00000000E+00  0.00000000E+00
  0.00000000E+00  0.00000000E+00  0.00000000E+00
  0.00000000E+00  0.00000000E+00  0.00000000E+00
  0.00000000E+00  0.00000000E+00  0.00000000E+00
  0.00000000E+00  0.00000000E+00  0.00000000E+00
  0.00000000E+00  0.00000000E+00  0.00000000E+00
  0.00000000E+00  0.00000000E+00  0.00000000E+00
  0.00000000E+00  0.00000000E+00  0.00000000E+00
  0.00000000E+00  0.00000000E+00  0.00000000E+00
  0.00000000E+00  0.00000000E+00  0.00000000E+00
  0.00000000E+00  0.00000000E+00  0.00000000E+00
  0.00000000E+00  0.00000000E+00  0.00000000E+00
  0.00000000E+00  0.00000000E+00  0.00000000E+00
  0.00000000E+00  0.00000000E+00  0.00000000E+00
  0.00000000E+00  0.00000000E+00  0.00000000E+00
  0.00000000E+00  0.00000000E+00  0.00000000E+00
  0.00000000E+00  0.00000000E+00  0.00000000E+00
  0.00000000E+00  0.00000000E+00  0.00000000E+00
  0.00000000E+00  0.00000000E+00  0.00000000E+00
  0.00000000E+00  0.00000000E+00  0.00000000E+00
  0.00000000E+00  0.00000000E+00  0.00000000E+00
  0.00000000E+00  0.00000000E+00  0.00000000E+00
  0.00000000E+00  0.00000000E+00  0.00000000E+00
  0.00000000E+00  0.00000000E+00  0.00000000E+00
  0.00000000E+00  0.00000000E+00  0.00000000E+00
  0.00000000E+00  0.00000000E+00  0.00000000E+00
  0.00000000E+00  0.00000000E+00  0.00000000E+00
  0.00000000E+00  0.00000000E+00  0.00000000E+00
  0.00000000E+00  0.00000000E+00  0.00000000E+00
