C H O Si                                
   1.00000000000000     
     9.2874599999999994    0.0000000000000000    0.0000000000000000
     0.0000000000000000    8.7563099999999991    0.0000000000000000
     0.0000000000000000    0.0000000000000000   58.0000000000000000
   C    H    O    Si
    36    32    16    36
Selective dynamics
Direct
  0.9943495606987949  0.1265711658704882  0.0603989206410107   T   T   T
  0.3276995539524458  0.1264967171997578  0.0604968458016673   T   T   T
  0.6609436533559284  0.1265560655894113  0.0604814507411403   T   T   T
  0.9943019283619906  0.6267219527497923  0.0604065946359779   T   T   T
  0.3277062992720042  0.6263902394564792  0.0605102191230272   T   T   T
  0.6609085112914579  0.6265711580580962  0.0604606465364208   T   T   T
  0.1602624607513639  0.3725153695826425  0.1392672211361978   T   T   T
  0.4935024173703078  0.3729281437426483  0.1395511513066927   T   T   T
  0.8269509766473961  0.3724253444035996  0.1392265939084518   T   T   T
  0.1605377213067349  0.8726059227587983  0.1393448021270164   T   T   T
  0.4935460308025343  0.8723074377716391  0.1394282040309202   T   T   T
  0.8265947087121114  0.8727308935425663  0.1393296340821008   T   T   T
  0.3272916723588797  0.1231284454497487  0.1666392360535806   T   T   T
  0.6593762459263548  0.1231651594697533  0.1666407363261050   T   T   T
  0.9935262028959119  0.1218030137542005  0.1663416987548338   T   T   T
  0.3265517113399613  0.6227182717771214  0.1667976288936484   T   T   T
  0.6602592495506385  0.6227712690172739  0.1665757447846018   T   T   T
  0.9934720695572580  0.6226510324747629  0.1664201755278996   T   T   T
  0.1599290516454614  0.3743814923773126  0.1915251730957688   T   T   T
  0.4934557998615353  0.3805035463798013  0.1927522492018827   T   T   T
  0.8275886718339965  0.3743167183806489  0.1914736980757496   T   T   T
  0.1599809077891960  0.8770290117155769  0.1918738177887314   T   T   T
  0.4934236594132387  0.8761428249823091  0.1920406582124009   T   T   T
  0.8269675997920928  0.8769565682458322  0.1918445416679284   T   T   T
  0.1606426593506029  0.3726643571167750  0.0857429942805212   T   T   T
  0.4939603070959511  0.3726299712753939  0.0858742341158319   T   T   T
  0.8272835310275195  0.3726636562637696  0.0856967268282544   T   T   T
  0.1606957483204181  0.8726635752705315  0.0857810504896317   T   T   T
  0.4939522555348251  0.8725857498301187  0.0858152601912882   T   T   T
  0.8272385992552725  0.8727295441817717  0.0857455126760792   T   T   T
  0.3269642911792261  0.1225693961824242  0.1130189589336943   T   T   T
  0.6600806058880538  0.1225327153494670  0.1130111420496056   T   T   T
  0.9935238243177709  0.1225174529702551  0.1129155923117850   T   T   T
  0.3269120842736526  0.6224264200191790  0.1130708214121426   T   T   T
  0.6601695499928555  0.6224931406918306  0.1129801130697795   T   T   T
  0.9935656957011311  0.6227266712992833  0.1129168194993041   T   T   T
  0.0737834801051727  0.3564417993710858  0.0276996951067308   T   T   T
  0.4061867018586545  0.3561571991080129  0.0278968069591004   T   T   T
  0.7389896653502981  0.3561428696692956  0.0277514407035151   T   T   T
  0.0742003341566160  0.8564669571293497  0.0277334513598949   T   T   T
  0.4056219130744899  0.8559857651526567  0.0278502177227675   T   T   T
  0.7389771976235269  0.8562779687990002  0.0277714109305131   T   T   T
  0.3254777697822996  0.0532492108355735  0.0450795049940326   T   T   T
  0.6580200255632623  0.0532395914393590  0.0450690324649121   T   T   T
  0.9919208395315576  0.0533321812481032  0.0449727550470504   T   T   T
  0.3252595182334840  0.5529243948297895  0.0451159149243171   T   T   T
  0.6583251579671917  0.5532310217079844  0.0450472918221098   T   T   T
  0.9918734902913854  0.5534728031757113  0.0449812236911419   T   T   T
  0.8285653912454903  0.8041554198523968  0.2072882256272939   T   T   T
  0.8300045208876567  0.3014680081458059  0.2069335324803990   T   T   T
  0.1614092908870697  0.3016785604342330  0.2070009198614282   T   T   T
  0.4969771656021265  0.3056982356415254  0.2079971467509523   T   T   T
  0.1619311847645928  0.8034842020040956  0.2072492337777762   T   T   T
  0.4938040808356098  0.8037909154384031  0.2075700121234279   T   T   T
  0.0823060936354175  0.1071221880336173  0.2245372890509032   T   T   T
  0.4159068653977395  0.1049811936199211  0.2247900632479185   T   T   T
  0.7500656102266245  0.1064589955859061  0.2245309904006838   T   T   T
  0.0871332529896535  0.5995114341867330  0.2236263172408421   T   T   T
  0.3714003221043803  0.6186385142198204  0.2295378563390680   T   T   T
  0.7809417358356460  0.5935777726420887  0.2227321296177215   T   T   T
  0.5170764589948419  0.6378990933797684  0.2645774324926442   T   T   T
  0.5049254087687590  0.4762516232281427  0.2940155262269191   T   T   T
  0.5772503395586873  0.6291626528057038  0.3029336898035633   T   T   T
  0.3037802371420733  0.3723738001369373  0.3101935929287514   T   T   T
  0.4086893876702883  0.2417944671747693  0.3035523531165265   T   T   T
  0.6497449908890374  0.7417819496256864  0.3371985531392138   T   T   T
  0.4864074095607076  0.7662193089332161  0.3332225403788567   T   T   T
  0.5707798629635698  0.6559474349304809  0.2389111930505409   T   T   T
  0.1693988965237790  0.3314901874243416  0.0336667839319465   T   T   T
  0.5021626757246930  0.3319110362444518  0.0337937374379589   T   T   T
  0.8350578693080891  0.3312447999058812  0.0335488256944603   T   T   T
  0.1697718802486174  0.8318901845480532  0.0337511699174835   T   T   T
  0.5016536731344629  0.8316681836588037  0.0337160570004894   T   T   T
  0.8350082046627006  0.8314059557290452  0.0335816676756861   T   T   T
  0.3202220039601869  0.0831599116853383  0.2185767154930416   T   T   T
  0.6539479110425113  0.0833539986859896  0.2185761624668643   T   T   T
  0.9867329275123269  0.0828221457983798  0.2185063338193088   T   T   T
  0.2955372732669913  0.5824578864171331  0.2187089049063871   T   T   T
  0.6786955222573786  0.5841564192186326  0.2184643367833416   T   T   T
  0.9881346151077038  0.5800932464829827  0.2182400655977566   T   T   T
  0.5783183182878625  0.5545793766987214  0.2900365636111399   T   T   T
  0.3694232750655666  0.3384409675394510  0.2981162558758190   T   T   T
  0.5793241452922877  0.7680533964534783  0.3253906163221196   T   T   T
  0.4929768692473561  0.6890416855724717  0.2496898335026083   T   T   T
  0.4945237394128426  0.2436265348505594  0.0600143863998980   T   T   T
  0.8278406052295054  0.2436690207806151  0.0598405403533190   T   T   T
  0.1613562449144898  0.7435616100837212  0.0599528711709256   T   T   T
  0.4944559803177376  0.7436327605943093  0.0599614129245420   T   T   T
  0.8277446353567290  0.7437469161693206  0.0598733828078478   T   T   T
  0.1612948672938289  0.2436149610526302  0.0599149772920822   T   T   T
  0.9936393386428566  0.9967557114284611  0.1394595039208811   T   T   T
  0.3272748999043740  0.9974651359174328  0.1396379557279810   T   T   T
  0.6597290564688794  0.9975026558020508  0.1396335641191228   T   T   T
  0.9936007803388022  0.4971916251060076  0.1394494724818184   T   T   T
  0.3266921008231920  0.4974784096294891  0.1397406668311367   T   T   T
  0.6603611306790760  0.4972600796908448  0.1395778760248400   T   T   T
  0.1600099148514581  0.2458781338103781  0.1656205285304160   T   T   T
  0.4931751451890604  0.2487356202228178  0.1662223177588811   T   T   T
  0.8269997642015715  0.2454428168699407  0.1655491016654649   T   T   T
  0.1600549856098885  0.7469053992385398  0.1658250491414379   T   T   T
  0.4932195140050749  0.7464882704423320  0.1659326400375615   T   T   T
  0.8268236782254257  0.7469547166820160  0.1657724816968021   T   T   T
  0.3266595452171314  0.9937460167297272  0.1924504972672571   T   T   T
  0.6599725032060673  0.9936863658812728  0.1924729761550628   T   T   T
  0.9934225468361229  0.9939000916785916  0.1923012802886576   T   T   T
  0.3238845493219162  0.4955182268202455  0.1930266791109396   T   T   T
  0.9937453547527186  0.4916915671218975  0.1920014007546537   T   T   T
  0.6628938467121763  0.4937389089322668  0.1923482480143179   T   T   T
  0.9939658423090469  0.9966279545820005  0.0865072710203127   T   T   T
  0.3273375058951541  0.9966076997716020  0.0865867540515884   T   T   T
  0.6605352372498230  0.9966542352640189  0.0865733227620117   T   T   T
  0.9939416164138366  0.4966941604060635  0.0865034832669888   T   T   T
  0.3273127557159832  0.4965949825935088  0.0866226435920343   T   T   T
  0.6605785689224263  0.4966136081318481  0.0865530508219373   T   T   T
  0.1602519339227384  0.2472119623779108  0.1127292312178308   T   T   T
  0.4934455160752818  0.2473497359604774  0.1129026420307093   T   T   T
  0.8267953057734485  0.2471253474102290  0.1126879452271993   T   T   T
  0.1603584956414433  0.7472853464108439  0.1127809819754118   T   T   T
  0.4934815460628972  0.7471551485023297  0.1128249298064112   T   T   T
  0.8266834094577324  0.7473112278234302  0.1127573366203653   T   T   T
 
  0.00000000E+00  0.00000000E+00  0.00000000E+00
  0.00000000E+00  0.00000000E+00  0.00000000E+00
  0.00000000E+00  0.00000000E+00  0.00000000E+00
  0.00000000E+00  0.00000000E+00  0.00000000E+00
  0.00000000E+00  0.00000000E+00  0.00000000E+00
  0.00000000E+00  0.00000000E+00  0.00000000E+00
  0.00000000E+00  0.00000000E+00  0.00000000E+00
  0.00000000E+00  0.00000000E+00  0.00000000E+00
  0.00000000E+00  0.00000000E+00  0.00000000E+00
  0.00000000E+00  0.00000000E+00  0.00000000E+00
  0.00000000E+00  0.00000000E+00  0.00000000E+00
  0.00000000E+00  0.00000000E+00  0.00000000E+00
  0.00000000E+00  0.00000000E+00  0.00000000E+00
  0.00000000E+00  0.00000000E+00  0.00000000E+00
  0.00000000E+00  0.00000000E+00  0.00000000E+00
  0.00000000E+00  0.00000000E+00  0.00000000E+00
  0.00000000E+00  0.00000000E+00  0.00000000E+00
  0.00000000E+00  0.00000000E+00  0.00000000E+00
  0.00000000E+00  0.00000000E+00  0.00000000E+00
  0.00000000E+00  0.00000000E+00  0.00000000E+00
  0.00000000E+00  0.00000000E+00  0.00000000E+00
  0.00000000E+00  0.00000000E+00  0.00000000E+00
  0.00000000E+00  0.00000000E+00  0.00000000E+00
  0.00000000E+00  0.00000000E+00  0.00000000E+00
  0.00000000E+00  0.00000000E+00  0.00000000E+00
  0.00000000E+00  0.00000000E+00  0.00000000E+00
  0.00000000E+00  0.00000000E+00  0.00000000E+00
  0.00000000E+00  0.00000000E+00  0.00000000E+00
  0.00000000E+00  0.00000000E+00  0.00000000E+00
  0.00000000E+00  0.00000000E+00  0.00000000E+00
  0.00000000E+00  0.00000000E+00  0.00000000E+00
  0.00000000E+00  0.00000000E+00  0.00000000E+00
  0.00000000E+00  0.00000000E+00  0.00000000E+00
  0.00000000E+00  0.00000000E+00  0.00000000E+00
  0.00000000E+00  0.00000000E+00  0.00000000E+00
  0.00000000E+00  0.00000000E+00  0.00000000E+00
  0.00000000E+00  0.00000000E+00  0.00000000E+00
  0.00000000E+00  0.00000000E+00  0.00000000E+00
  0.00000000E+00  0.00000000E+00  0.00000000E+00
  0.00000000E+00  0.00000000E+00  0.00000000E+00
  0.00000000E+00  0.00000000E+00  0.00000000E+00
  0.00000000E+00  0.00000000E+00  0.00000000E+00
  0.00000000E+00  0.00000000E+00  0.00000000E+00
  0.00000000E+00  0.00000000E+00  0.00000000E+00
  0.00000000E+00  0.00000000E+00  0.00000000E+00
  0.00000000E+00  0.00000000E+00  0.00000000E+00
  0.00000000E+00  0.00000000E+00  0.00000000E+00
  0.00000000E+00  0.00000000E+00  0.00000000E+00
  0.00000000E+00  0.00000000E+00  0.00000000E+00
  0.00000000E+00  0.00000000E+00  0.00000000E+00
  0.00000000E+00  0.00000000E+00  0.00000000E+00
  0.00000000E+00  0.00000000E+00  0.00000000E+00
  0.00000000E+00  0.00000000E+00  0.00000000E+00
  0.00000000E+00  0.00000000E+00  0.00000000E+00
  0.00000000E+00  0.00000000E+00  0.00000000E+00
  0.00000000E+00  0.00000000E+00  0.00000000E+00
  0.00000000E+00  0.00000000E+00  0.00000000E+00
  0.00000000E+00  0.00000000E+00  0.00000000E+00
  0.00000000E+00  0.00000000E+00  0.00000000E+00
  0.00000000E+00  0.00000000E+00  0.00000000E+00
  0.00000000E+00  0.00000000E+00  0.00000000E+00
  0.00000000E+00  0.00000000E+00  0.00000000E+00
  0.00000000E+00  0.00000000E+00  0.00000000E+00
  0.00000000E+00  0.00000000E+00  0.00000000E+00
  0.00000000E+00  0.00000000E+00  0.00000000E+00
  0.00000000E+00  0.00000000E+00  0.00000000E+00
  0.00000000E+00  0.00000000E+00  0.00000000E+00
  0.00000000E+00  0.00000000E+00  0.00000000E+00
  0.00000000E+00  0.00000000E+00  0.00000000E+00
  0.00000000E+00  0.00000000E+00  0.00000000E+00
  0.00000000E+00  0.00000000E+00  0.00000000E+00
  0.00000000E+00  0.00000000E+00  0.00000000E+00
  0.00000000E+00  0.00000000E+00  0.00000000E+00
  0.00000000E+00  0.00000000E+00  0.00000000E+00
  0.00000000E+00  0.00000000E+00  0.00000000E+00
  0.00000000E+00  0.00000000E+00  0.00000000E+00
  0.00000000E+00  0.00000000E+00  0.00000000E+00
  0.00000000E+00  0.00000000E+00  0.00000000E+00
  0.00000000E+00  0.00000000E+00  0.00000000E+00
  0.00000000E+00  0.00000000E+00  0.00000000E+00
  0.00000000E+00  0.00000000E+00  0.00000000E+00
  0.00000000E+00  0.00000000E+00  0.00000000E+00
  0.00000000E+00  0.00000000E+00  0.00000000E+00
  0.00000000E+00  0.00000000E+00  0.00000000E+00
  0.00000000E+00  0.00000000E+00  0.00000000E+00
  0.00000000E+00  0.00000000E+00  0.00000000E+00
  0.00000000E+00  0.00000000E+00  0.00000000E+00
  0.00000000E+00  0.00000000E+00  0.00000000E+00
  0.00000000E+00  0.00000000E+00  0.00000000E+00
  0.00000000E+00  0.00000000E+00  0.00000000E+00
  0.00000000E+00  0.00000000E+00  0.00000000E+00
  0.00000000E+00  0.00000000E+00  0.00000000E+00
  0.00000000E+00  0.00000000E+00  0.00000000E+00
  0.00000000E+00  0.00000000E+00  0.00000000E+00
  0.00000000E+00  0.00000000E+00  0.00000000E+00
  0.00000000E+00  0.00000000E+00  0.00000000E+00
  0.00000000E+00  0.00000000E+00  0.00000000E+00
  0.00000000E+00  0.00000000E+00  0.00000000E+00
  0.00000000E+00  0.00000000E+00  0.00000000E+00
  0.00000000E+00  0.00000000E+00  0.00000000E+00
  0.00000000E+00  0.00000000E+00  0.00000000E+00
  0.00000000E+00  0.00000000E+00  0.00000000E+00
  0.00000000E+00  0.00000000E+00  0.00000000E+00
  0.00000000E+00  0.00000000E+00  0.00000000E+00
  0.00000000E+00  0.00000000E+00  0.00000000E+00
  0.00000000E+00  0.00000000E+00  0.00000000E+00
  0.00000000E+00  0.00000000E+00  0.00000000E+00
  0.00000000E+00  0.00000000E+00  0.00000000E+00
  0.00000000E+00  0.00000000E+00  0.00000000E+00
  0.00000000E+00  0.00000000E+00  0.00000000E+00
  0.00000000E+00  0.00000000E+00  0.00000000E+00
  0.00000000E+00  0.00000000E+00  0.00000000E+00
  0.00000000E+00  0.00000000E+00  0.00000000E+00
  0.00000000E+00  0.00000000E+00  0.00000000E+00
  0.00000000E+00  0.00000000E+00  0.00000000E+00
  0.00000000E+00  0.00000000E+00  0.00000000E+00
  0.00000000E+00  0.00000000E+00  0.00000000E+00
  0.00000000E+00  0.00000000E+00  0.00000000E+00
  0.00000000E+00  0.00000000E+00  0.00000000E+00
  0.00000000E+00  0.00000000E+00  0.00000000E+00
