C H O Si                                
   1.00000000000000     
     9.2874599999999994    0.0000000000000000    0.0000000000000000
     0.0000000000000000   17.5126199999999983    0.0000000000000000
     0.0000000000000000    0.0000000000000000   58.0000000000000000
   C    H    O    Si
    72    57    28    72
Selective dynamics
Direct
  0.9963814895216366  0.0651995540485826  0.0595357183793360   T   T   T
  0.3298673089609037  0.0652346673187885  0.0596283391907992   T   T   T
  0.6630068566224413  0.0652249599421147  0.0596442789122705   T   T   T
  0.9963630514282247  0.3152413316663738  0.0595466817866285   T   T   T
  0.3297451886732524  0.3151340323804078  0.0595745720215647   T   T   T
  0.6631344611040084  0.3150963765577363  0.0596105595860008   T   T   T
  0.1624857740718940  0.1879727532627614  0.1383605685678584   T   T   T
  0.4956027115756144  0.1884309321807547  0.1387349458357082   T   T   T
  0.8288889814048526  0.1880562987789852  0.1383828131437627   T   T   T
  0.1624512669766192  0.4381082037375804  0.1384635084665772   T   T   T
  0.4955789251425014  0.4372654934505993  0.1384021302358055   T   T   T
  0.8290714411613173  0.4381138622796270  0.1385463191480764   T   T   T
  0.3299910460872512  0.0633165928959519  0.1657147403850254   T   T   T
  0.6620043742670011  0.0634924032642774  0.1657593462787124   T   T   T
  0.9957481452583031  0.0625823355184442  0.1654448152509598   T   T   T
  0.3286342841481517  0.3133785491058093  0.1657832293395045   T   T   T
  0.6629945199529156  0.3134108244206884  0.1657832459214305   T   T   T
  0.9957596368906998  0.3131695784202460  0.1654978321461462   T   T   T
  0.1623538725802370  0.1889742081515533  0.1904745306727143   T   T   T
  0.4953975324541527  0.1925507766777042  0.1918269981401422   T   T   T
  0.8296806253507750  0.1893760022571311  0.1906380245059998   T   T   T
  0.1624799646381897  0.4404470525256375  0.1909055814741365   T   T   T
  0.4956877086645469  0.4394256875229413  0.1911658057847100   T   T   T
  0.8295493589788656  0.4404661742553931  0.1911055504639236   T   T   T
  0.1626942388509624  0.1881248844199534  0.0848812809127137   T   T   T
  0.4958983871429387  0.1882009674144464  0.0850509197652314   T   T   T
  0.8293490799495843  0.1881489885513125  0.0849133751758358   T   T   T
  0.1627122173533157  0.4381586997693023  0.0849278138202009   T   T   T
  0.4958714396979047  0.4380638844376094  0.0848325882756799   T   T   T
  0.8292523623953368  0.4381677994078612  0.0849573232471380   T   T   T
  0.3292971018646135  0.0630919455119158  0.1121455752762250   T   T   T
  0.6624051401104141  0.0630786814344957  0.1121574130349851   T   T   T
  0.9956668108407094  0.0629543545408675  0.1120547115839365   T   T   T
  0.3290699839590292  0.3129618856106230  0.1121338209863182   T   T   T
  0.6626054730884701  0.3129830473468388  0.1121493856293378   T   T   T
  0.9956633094831467  0.3130483565446860  0.1120539542474879   T   T   T
  0.9963418815917209  0.5652535964700708  0.0596063142115879   T   T   T
  0.3297219225273108  0.5652425120499521  0.0595794102648910   T   T   T
  0.6631115070764118  0.5652076706684260  0.0596191487056068   T   T   T
  0.9963838507485191  0.8153222431153586  0.0595990328042513   T   T   T
  0.3298283193267211  0.8152513534882821  0.0595972257216076   T   T   T
  0.6630637429926923  0.8152078212607794  0.0596166214580282   T   T   T
  0.1623064304034948  0.6881930898766314  0.1384660857253029   T   T   T
  0.4957309687440030  0.6879542699870845  0.1385130604261246   T   T   T
  0.8293170599122606  0.6881932682644166  0.1384895402048069   T   T   T
  0.1627754423106909  0.9380375574729819  0.1384894173837599   T   T   T
  0.4957197668054694  0.9379437293254190  0.1385001889211492   T   T   T
  0.8287635076932436  0.9380415359332142  0.1384875999776772   T   T   T
  0.3284871897017449  0.5632966594320902  0.1656832507144793   T   T   T
  0.6634431176149783  0.5631371282674191  0.1657985375632446   T   T   T
  0.9958705547370158  0.5634208018559772  0.1656345969756245   T   T   T
  0.3295519405096403  0.8131104662995353  0.1656708472578944   T   T   T
  0.6628418764683393  0.8130820067713300  0.1656581222091646   T   T   T
  0.9960800426184814  0.8132172113375450  0.1656543770875443   T   T   T
  0.1629561143158491  0.6903570007869890  0.1909954001204212   T   T   T
  0.4964024719885471  0.6902267717618807  0.1910434643427395   T   T   T
  0.8298641358095080  0.6903777739782154  0.1910141302186163   T   T   T
  0.1629826905615815  0.9402772761458948  0.1910005343338671   T   T   T
  0.4963301971031512  0.9402472759677540  0.1910490043218831   T   T   T
  0.8294748831480586  0.9403245655216544  0.1910227162390093   T   T   T
  0.1627267438787975  0.6881780188165172  0.0849412734275700   T   T   T
  0.4959621508237932  0.6881320224950740  0.0849407015263256   T   T   T
  0.8293985298460632  0.6882047781158968  0.0849467548858650   T   T   T
  0.1627737172253179  0.9382200521845611  0.0849406927013110   T   T   T
  0.4959314901023941  0.9381914055701073  0.0849594903258061   T   T   T
  0.8292640808848596  0.9382260258419942  0.0849496909807953   T   T   T
  0.3291718335714356  0.5629140161842900  0.1121133223582401   T   T   T
  0.6625418450102795  0.5628740013680208  0.1121630598067975   T   T   T
  0.9957033390861947  0.5630294501711450  0.1121190032038507   T   T   T
  0.3292855129204906  0.8129799955172925  0.1121193557815293   T   T   T
  0.6625883112318132  0.8129644991491431  0.1121264423066270   T   T   T
  0.9957194816487658  0.8131934170905606  0.1121086678316682   T   T   T
  0.0790926872969636  0.1795742006537690  0.0260655706222879   T   T   T
  0.4118845099336256  0.1796568755058228  0.0262444140364178   T   T   T
  0.7448912764395367  0.1795290962493766  0.0261466246979155   T   T   T
  0.0786896832633948  0.4295523760170550  0.0261377155351750   T   T   T
  0.4122259472512305  0.4293235663503899  0.0260263338002721   T   T   T
  0.7446768572421447  0.4293761148104775  0.0261958846492919   T   T   T
  0.3279753272432919  0.0289203134786030  0.0441205591796024   T   T   T
  0.6603508618998571  0.0289178512835116  0.0441382834978034   T   T   T
  0.9940299615612610  0.0288544410239938  0.0440399426349013   T   T   T
  0.3271206138674297  0.2787110081792613  0.0440939504552438   T   T   T
  0.6611246009462656  0.2787179790995086  0.0441163547873739   T   T   T
  0.9940625874811748  0.2789625860191541  0.0440346158656275   T   T   T
  0.8321512639026974  0.4037341663545813  0.2065123460338193   T   T   T
  0.8328014277895442  0.1532892852945525  0.2061892798329343   T   T   T
  0.1642344738583310  0.1532805214002612  0.2061068181873378   T   T   T
  0.4983958562932945  0.1557618417581917  0.2072305024527432   T   T   T
  0.1651011959838416  0.4037279984164620  0.2063121942835746   T   T   T
  0.5391096061754472  0.4650188251733282  0.2616412204811885   T   T   T
  0.0822235421797545  0.0555184830549176  0.2240929357205775   T   T   T
  0.4153840047835615  0.0554565431855355  0.2242503435589498   T   T   T
  0.7479358416141002  0.0556399288434579  0.2243270412577977   T   T   T
  0.0914767398359795  0.3011519427492494  0.2226504094962294   T   T   T
  0.3665784024664834  0.2835538767521452  0.2304785289341525   T   T   T
  0.7812782055977444  0.2965657892180021  0.2229220005166445   T   T   T
  0.4987035711693026  0.2710444345745973  0.2660944188721509   T   T   T
  0.4710742404002959  0.2281468124130356  0.3005983004368659   T   T   T
  0.5191400241149722  0.3124273591040700  0.3084628236979194   T   T   T
  0.2890260081807255  0.1366031514755515  0.2960143948941458   T   T   T
  0.4372900960533574  0.1077446688613203  0.2876146481264045   T   T   T
  0.6372466024293985  0.3860472144767668  0.3348546117032007   T   T   T
  0.5031735029941510  0.4321491861575942  0.3271263531911958   T   T   T
  0.5051978427767733  0.4397809773345619  0.2705949734592218   T   T   T
  0.5674283998842744  0.2683651849361151  0.2406791132641247   T   T   T
  0.0783778548709684  0.6795870488070026  0.0261515167998978   T   T   T
  0.4119918005563499  0.6795613378482087  0.0261461670694077   T   T   T
  0.7451413823708570  0.6795278273124161  0.0261588599035837   T   T   T
  0.0790638772475912  0.9295715335057892  0.0260794507403573   T   T   T
  0.4119795884470633  0.9294683928777790  0.0261334036021998   T   T   T
  0.7449974967518024  0.9294676122048279  0.0261402925076212   T   T   T
  0.3274737595678862  0.5289858672814259  0.0440597682533556   T   T   T
  0.6608633986845653  0.5289745553211264  0.0440947686557323   T   T   T
  0.9940843201367902  0.5289657003208094  0.0440935457079878   T   T   T
  0.3275298660943359  0.7789325700061025  0.0440889000653484   T   T   T
  0.6607348951436327  0.7789388918712723  0.0440976280955462   T   T   T
  0.9941008454412981  0.7790142150483912  0.0440862285076920   T   T   T
  0.8319960225448557  0.9040105990070918  0.2065321060307899   T   T   T
  0.8319792817932483  0.6538237575230638  0.2064683039592412   T   T   T
  0.1661006886873361  0.6536833614304511  0.2064195521031667   T   T   T
  0.4984851176171729  0.6534260765355868  0.2064572381629845   T   T   T
  0.1653742598368554  0.9039961927797751  0.2065138319486439   T   T   T
  0.4988152112626424  0.9039119706310943  0.2065492787679539   T   T   T
  0.0877372751233277  0.5537156122378998  0.2237330925089867   T   T   T
  0.4155210931764222  0.5500581561015927  0.2244991561371740   T   T   T
  0.7546488641302707  0.5547513264218905  0.2233594716602832   T   T   T
  0.0828517782180131  0.8043294797106173  0.2243144743054962   T   T   T
  0.4154322826971200  0.8044005854091638  0.2243750322927024   T   T   T
  0.7504208091575537  0.8040187002074649  0.2242464736883893   T   T   T
  0.1725797549064277  0.1687079671821816  0.0330524925752816   T   T   T
  0.5055688979655312  0.1688229564213351  0.0331755747394740   T   T   T
  0.8386274083522764  0.1687893446316978  0.0330683589805620   T   T   T
  0.1723373222702668  0.4188373624741313  0.0330860621501175   T   T   T
  0.5058299217980409  0.4185008585733193  0.0329779885344835   T   T   T
  0.8385393941500551  0.4188479843076051  0.0331075207199562   T   T   T
  0.3213140589042021  0.0437253141047770  0.2175860650551290   T   T   T
  0.6541529020190486  0.0436316959064238  0.2176093207170963   T   T   T
  0.9881087665766261  0.0438413868281008  0.2174380146304014   T   T   T
  0.2996590151122585  0.2957592484931156  0.2173970063940753   T   T   T
  0.6799100358996677  0.2919899543540969  0.2182315575453281   T   T   T
  0.9920691386900019  0.2919409822907423  0.2172592282288834   T   T   T
  0.5260176152712229  0.2740391091101405  0.2959355869969741   T   T   T
  0.3896423652280053  0.1322819564949262  0.3006429371341375   T   T   T
  0.5353260282381047  0.3808501632472616  0.3311204616139152   T   T   T
  0.4827033775838939  0.2530108461572299  0.2500705478289758   T   T   T
  0.1720764573822608  0.6687446792498142  0.0330716014024099   T   T   T
  0.5056652250852527  0.6686768148314793  0.0330693629294523   T   T   T
  0.8388393715011809  0.6687228197093132  0.0330852393818795   T   T   T
  0.1725351938950099  0.9188124821790538  0.0330851225767329   T   T   T
  0.5055896822043537  0.9188352649151595  0.0331163363910591   T   T   T
  0.8386887910893712  0.9188114364559731  0.0330894040479173   T   T   T
  0.3212849088369217  0.5458301881468967  0.2171208260008060   T   T   T
  0.6576679580844188  0.5451637151453056  0.2175147038921957   T   T   T
  0.9912789697982427  0.5444445505084411  0.2175371003775432   T   T   T
  0.3214027683525471  0.7939260581458565  0.2175188901592814   T   T   T
  0.6557970632393545  0.7941613125571619  0.2175019400546389   T   T   T
  0.9885677419202743  0.7940340576106669  0.2175154323009388   T   T   T
  0.4965577329844701  0.1239905257144769  0.0589707391397511   T   T   T
  0.8298094561728402  0.1239252191419821  0.0588597919049089   T   T   T
  0.1632633997125986  0.3739190658207455  0.0588802953942350   T   T   T
  0.4965946987968143  0.3738645747638939  0.0588353251532933   T   T   T
  0.8297770964968210  0.3739145983589865  0.0589039692256182   T   T   T
  0.1632661142563057  0.1238833221760767  0.0588430678999953   T   T   T
  0.9956840041949317  0.0002512473883662  0.1386821831796837   T   T   T
  0.3295387150067952  0.0006575443147634  0.1388169527423528   T   T   T
  0.6619996722056168  0.0007038155819749  0.1388369751235723   T   T   T
  0.9957102067021714  0.2506324086094325  0.1387301815444555   T   T   T
  0.3289049801560107  0.2511839805654928  0.1390114802110862   T   T   T
  0.6623270566407804  0.2511628172501298  0.1389876378591808   T   T   T
  0.1624053978750481  0.1248606674007354  0.1648644510028154   T   T   T
  0.4956656820964673  0.1267201150762058  0.1655857232960030   T   T   T
  0.8293304202536603  0.1250424292183490  0.1649087098686611   T   T   T
  0.1627545261318275  0.3755115822111934  0.1651685152735949   T   T   T
  0.4955732239840290  0.3770686379199545  0.1663724848472321   T   T   T
  0.8289378115402359  0.3755975177944879  0.1652754859819214   T   T   T
  0.3343192414620229  0.4959693132508178  0.1918538019056634   T   T   T
  0.6569341740962275  0.4958928074754652  0.1921293316510716   T   T   T
  0.9961286058496747  0.4987699379319128  0.1917213634906169   T   T   T
  0.3258292975090639  0.2507682463339566  0.1921876816713790   T   T   T
  0.9962321997454520  0.2478917633941042  0.1912564186063944   T   T   T
  0.6647130846858185  0.2499613643983015  0.1919190142925498   T   T   T
  0.9959906614087360  0.0003262536691265  0.0854953685345527   T   T   T
  0.3293777898836773  0.0003516473204253  0.0855627281526012   T   T   T
  0.6625882839140984  0.0003447913396652  0.0855731224372274   T   T   T
  0.9959886140141591  0.2503924452448086  0.0855159702221312   T   T   T
  0.3292724092872008  0.2504406300040124  0.0855997355871933   T   T   T
  0.6627260586245768  0.2504155651014323  0.0856191161141919   T   T   T
  0.1624641636318255  0.1256054577319410  0.1118322471782086   T   T   T
  0.4957977709509779  0.1258599949646773  0.1120705446751280   T   T   T
  0.8290368102999833  0.1256284162535655  0.1118499157384287   T   T   T
  0.1625910962204570  0.3755967503910583  0.1119376675741231   T   T   T
  0.4957610608891553  0.3756776370531912  0.1119740033686105   T   T   T
  0.8289846239497329  0.3756521292141446  0.1119847888883047   T   T   T
  0.4965809543003579  0.6238189418725752  0.0588779775440220   T   T   T
  0.8298216174115634  0.6238669626378927  0.0588909171334244   T   T   T
  0.1632912642709239  0.8739017744405768  0.0588652698468491   T   T   T
  0.4965895470919969  0.8738853254618946  0.0588861396852394   T   T   T
  0.8297689398293243  0.8739030996436581  0.0588693384676292   T   T   T
  0.1631897655564385  0.6238589295732836  0.0588716428950842   T   T   T
  0.9957424975380791  0.5004551436853646  0.1388605927290191   T   T   T
  0.3300704018471047  0.5002752852954703  0.1389644815984769   T   T   T
  0.6612652737423520  0.5002238188433256  0.1390447755002124   T   T   T
  0.9957643636033605  0.7503854821777360  0.1387538662253554   T   T   T
  0.3292118345447002  0.7501678911239714  0.1387894369682220   T   T   T
  0.6624373957194213  0.7501735836911452  0.1387846713611976   T   T   T
  0.1631383549036184  0.6248598509138297  0.1651089907775106   T   T   T
  0.4960224780102020  0.6242804520396149  0.1651912653690585   T   T   T
  0.8286418674804644  0.6247859888964348  0.1651453841887510   T   T   T
  0.1628297363081537  0.8751543439768555  0.1650956002064401   T   T   T
  0.4960851853008005  0.8751325599441508  0.1651272513706878   T   T   T
  0.8292731565914832  0.8751762065760897  0.1651097859060391   T   T   T
  0.3294642064804464  0.9989834114698039  0.1917697773159998   T   T   T
  0.6626834462797054  0.9990247257782581  0.1917849281175158   T   T   T
  0.9960553544533747  0.9989131664073140  0.1916468776508833   T   T   T
  0.3296586011221412  0.7485387523181859  0.1917532717511268   T   T   T
  0.9963075113985591  0.7486979967132361  0.1917442965097149   T   T   T
  0.6628430229134675  0.7485736651155686  0.1917625279262315   T   T   T
  0.9959550885656600  0.5002573066171389  0.0855707537722978   T   T   T
  0.3294347955677239  0.5002616291759405  0.0855649902195550   T   T   T
  0.6624323259444286  0.5002454716464522  0.0855964844744095   T   T   T
  0.9960433856539217  0.7502581694707198  0.0855446259532201   T   T   T
  0.3293984397038836  0.7501791673041827  0.0855409305511129   T   T   T
  0.6626865097248407  0.7501532080869738  0.0855490090133437   T   T   T
  0.1626104760586586  0.6253256687848335  0.1119129690665184   T   T   T
  0.4958081113895325  0.6252357569547551  0.1119305078956894   T   T   T
  0.8289283936175548  0.6253406563624883  0.1119356110546235   T   T   T
  0.1626617433783824  0.8754347818000948  0.1118666338802359   T   T   T
  0.4958942489980857  0.8753859843857552  0.1118810341364169   T   T   T
  0.8289075862166345  0.8754726566638977  0.1118749823468881   T   T   T
 
  0.00000000E+00  0.00000000E+00  0.00000000E+00
  0.00000000E+00  0.00000000E+00  0.00000000E+00
  0.00000000E+00  0.00000000E+00  0.00000000E+00
  0.00000000E+00  0.00000000E+00  0.00000000E+00
  0.00000000E+00  0.00000000E+00  0.00000000E+00
  0.00000000E+00  0.00000000E+00  0.00000000E+00
  0.00000000E+00  0.00000000E+00  0.00000000E+00
  0.00000000E+00  0.00000000E+00  0.00000000E+00
  0.00000000E+00  0.00000000E+00  0.00000000E+00
  0.00000000E+00  0.00000000E+00  0.00000000E+00
  0.00000000E+00  0.00000000E+00  0.00000000E+00
  0.00000000E+00  0.00000000E+00  0.00000000E+00
  0.00000000E+00  0.00000000E+00  0.00000000E+00
  0.00000000E+00  0.00000000E+00  0.00000000E+00
  0.00000000E+00  0.00000000E+00  0.00000000E+00
  0.00000000E+00  0.00000000E+00  0.00000000E+00
  0.00000000E+00  0.00000000E+00  0.00000000E+00
  0.00000000E+00  0.00000000E+00  0.00000000E+00
  0.00000000E+00  0.00000000E+00  0.00000000E+00
  0.00000000E+00  0.00000000E+00  0.00000000E+00
  0.00000000E+00  0.00000000E+00  0.00000000E+00
  0.00000000E+00  0.00000000E+00  0.00000000E+00
  0.00000000E+00  0.00000000E+00  0.00000000E+00
  0.00000000E+00  0.00000000E+00  0.00000000E+00
  0.00000000E+00  0.00000000E+00  0.00000000E+00
  0.00000000E+00  0.00000000E+00  0.00000000E+00
  0.00000000E+00  0.00000000E+00  0.00000000E+00
  0.00000000E+00  0.00000000E+00  0.00000000E+00
  0.00000000E+00  0.00000000E+00  0.00000000E+00
  0.00000000E+00  0.00000000E+00  0.00000000E+00
  0.00000000E+00  0.00000000E+00  0.00000000E+00
  0.00000000E+00  0.00000000E+00  0.00000000E+00
  0.00000000E+00  0.00000000E+00  0.00000000E+00
  0.00000000E+00  0.00000000E+00  0.00000000E+00
  0.00000000E+00  0.00000000E+00  0.00000000E+00
  0.00000000E+00  0.00000000E+00  0.00000000E+00
  0.00000000E+00  0.00000000E+00  0.00000000E+00
  0.00000000E+00  0.00000000E+00  0.00000000E+00
  0.00000000E+00  0.00000000E+00  0.00000000E+00
  0.00000000E+00  0.00000000E+00  0.00000000E+00
  0.00000000E+00  0.00000000E+00  0.00000000E+00
  0.00000000E+00  0.00000000E+00  0.00000000E+00
  0.00000000E+00  0.00000000E+00  0.00000000E+00
  0.00000000E+00  0.00000000E+00  0.00000000E+00
  0.00000000E+00  0.00000000E+00  0.00000000E+00
  0.00000000E+00  0.00000000E+00  0.00000000E+00
  0.00000000E+00  0.00000000E+00  0.00000000E+00
  0.00000000E+00  0.00000000E+00  0.00000000E+00
  0.00000000E+00  0.00000000E+00  0.00000000E+00
  0.00000000E+00  0.00000000E+00  0.00000000E+00
  0.00000000E+00  0.00000000E+00  0.00000000E+00
  0.00000000E+00  0.00000000E+00  0.00000000E+00
  0.00000000E+00  0.00000000E+00  0.00000000E+00
  0.00000000E+00  0.00000000E+00  0.00000000E+00
  0.00000000E+00  0.00000000E+00  0.00000000E+00
  0.00000000E+00  0.00000000E+00  0.00000000E+00
  0.00000000E+00  0.00000000E+00  0.00000000E+00
  0.00000000E+00  0.00000000E+00  0.00000000E+00
  0.00000000E+00  0.00000000E+00  0.00000000E+00
  0.00000000E+00  0.00000000E+00  0.00000000E+00
  0.00000000E+00  0.00000000E+00  0.00000000E+00
  0.00000000E+00  0.00000000E+00  0.00000000E+00
  0.00000000E+00  0.00000000E+00  0.00000000E+00
  0.00000000E+00  0.00000000E+00  0.00000000E+00
  0.00000000E+00  0.00000000E+00  0.00000000E+00
  0.00000000E+00  0.00000000E+00  0.00000000E+00
  0.00000000E+00  0.00000000E+00  0.00000000E+00
  0.00000000E+00  0.00000000E+00  0.00000000E+00
  0.00000000E+00  0.00000000E+00  0.00000000E+00
  0.00000000E+00  0.00000000E+00  0.00000000E+00
  0.00000000E+00  0.00000000E+00  0.00000000E+00
  0.00000000E+00  0.00000000E+00  0.00000000E+00
  0.00000000E+00  0.00000000E+00  0.00000000E+00
  0.00000000E+00  0.00000000E+00  0.00000000E+00
  0.00000000E+00  0.00000000E+00  0.00000000E+00
  0.00000000E+00  0.00000000E+00  0.00000000E+00
  0.00000000E+00  0.00000000E+00  0.00000000E+00
  0.00000000E+00  0.00000000E+00  0.00000000E+00
  0.00000000E+00  0.00000000E+00  0.00000000E+00
  0.00000000E+00  0.00000000E+00  0.00000000E+00
  0.00000000E+00  0.00000000E+00  0.00000000E+00
  0.00000000E+00  0.00000000E+00  0.00000000E+00
  0.00000000E+00  0.00000000E+00  0.00000000E+00
  0.00000000E+00  0.00000000E+00  0.00000000E+00
  0.00000000E+00  0.00000000E+00  0.00000000E+00
  0.00000000E+00  0.00000000E+00  0.00000000E+00
  0.00000000E+00  0.00000000E+00  0.00000000E+00
  0.00000000E+00  0.00000000E+00  0.00000000E+00
  0.00000000E+00  0.00000000E+00  0.00000000E+00
  0.00000000E+00  0.00000000E+00  0.00000000E+00
  0.00000000E+00  0.00000000E+00  0.00000000E+00
  0.00000000E+00  0.00000000E+00  0.00000000E+00
  0.00000000E+00  0.00000000E+00  0.00000000E+00
  0.00000000E+00  0.00000000E+00  0.00000000E+00
  0.00000000E+00  0.00000000E+00  0.00000000E+00
  0.00000000E+00  0.00000000E+00  0.00000000E+00
  0.00000000E+00  0.00000000E+00  0.00000000E+00
  0.00000000E+00  0.00000000E+00  0.00000000E+00
  0.00000000E+00  0.00000000E+00  0.00000000E+00
  0.00000000E+00  0.00000000E+00  0.00000000E+00
  0.00000000E+00  0.00000000E+00  0.00000000E+00
  0.00000000E+00  0.00000000E+00  0.00000000E+00
  0.00000000E+00  0.00000000E+00  0.00000000E+00
  0.00000000E+00  0.00000000E+00  0.00000000E+00
  0.00000000E+00  0.00000000E+00  0.00000000E+00
  0.00000000E+00  0.00000000E+00  0.00000000E+00
  0.00000000E+00  0.00000000E+00  0.00000000E+00
  0.00000000E+00  0.00000000E+00  0.00000000E+00
  0.00000000E+00  0.00000000E+00  0.00000000E+00
  0.00000000E+00  0.00000000E+00  0.00000000E+00
  0.00000000E+00  0.00000000E+00  0.00000000E+00
  0.00000000E+00  0.00000000E+00  0.00000000E+00
  0.00000000E+00  0.00000000E+00  0.00000000E+00
  0.00000000E+00  0.00000000E+00  0.00000000E+00
  0.00000000E+00  0.00000000E+00  0.00000000E+00
  0.00000000E+00  0.00000000E+00  0.00000000E+00
  0.00000000E+00  0.00000000E+00  0.00000000E+00
  0.00000000E+00  0.00000000E+00  0.00000000E+00
  0.00000000E+00  0.00000000E+00  0.00000000E+00
  0.00000000E+00  0.00000000E+00  0.00000000E+00
  0.00000000E+00  0.00000000E+00  0.00000000E+00
  0.00000000E+00  0.00000000E+00  0.00000000E+00
  0.00000000E+00  0.00000000E+00  0.00000000E+00
  0.00000000E+00  0.00000000E+00  0.00000000E+00
  0.00000000E+00  0.00000000E+00  0.00000000E+00
  0.00000000E+00  0.00000000E+00  0.00000000E+00
  0.00000000E+00  0.00000000E+00  0.00000000E+00
  0.00000000E+00  0.00000000E+00  0.00000000E+00
  0.00000000E+00  0.00000000E+00  0.00000000E+00
  0.00000000E+00  0.00000000E+00  0.00000000E+00
  0.00000000E+00  0.00000000E+00  0.00000000E+00
  0.00000000E+00  0.00000000E+00  0.00000000E+00
  0.00000000E+00  0.00000000E+00  0.00000000E+00
  0.00000000E+00  0.00000000E+00  0.00000000E+00
  0.00000000E+00  0.00000000E+00  0.00000000E+00
  0.00000000E+00  0.00000000E+00  0.00000000E+00
  0.00000000E+00  0.00000000E+00  0.00000000E+00
  0.00000000E+00  0.00000000E+00  0.00000000E+00
  0.00000000E+00  0.00000000E+00  0.00000000E+00
  0.00000000E+00  0.00000000E+00  0.00000000E+00
  0.00000000E+00  0.00000000E+00  0.00000000E+00
  0.00000000E+00  0.00000000E+00  0.00000000E+00
  0.00000000E+00  0.00000000E+00  0.00000000E+00
  0.00000000E+00  0.00000000E+00  0.00000000E+00
  0.00000000E+00  0.00000000E+00  0.00000000E+00
  0.00000000E+00  0.00000000E+00  0.00000000E+00
  0.00000000E+00  0.00000000E+00  0.00000000E+00
  0.00000000E+00  0.00000000E+00  0.00000000E+00
  0.00000000E+00  0.00000000E+00  0.00000000E+00
  0.00000000E+00  0.00000000E+00  0.00000000E+00
  0.00000000E+00  0.00000000E+00  0.00000000E+00
  0.00000000E+00  0.00000000E+00  0.00000000E+00
  0.00000000E+00  0.00000000E+00  0.00000000E+00
  0.00000000E+00  0.00000000E+00  0.00000000E+00
  0.00000000E+00  0.00000000E+00  0.00000000E+00
  0.00000000E+00  0.00000000E+00  0.00000000E+00
  0.00000000E+00  0.00000000E+00  0.00000000E+00
  0.00000000E+00  0.00000000E+00  0.00000000E+00
  0.00000000E+00  0.00000000E+00  0.00000000E+00
  0.00000000E+00  0.00000000E+00  0.00000000E+00
  0.00000000E+00  0.00000000E+00  0.00000000E+00
  0.00000000E+00  0.00000000E+00  0.00000000E+00
  0.00000000E+00  0.00000000E+00  0.00000000E+00
  0.00000000E+00  0.00000000E+00  0.00000000E+00
  0.00000000E+00  0.00000000E+00  0.00000000E+00
  0.00000000E+00  0.00000000E+00  0.00000000E+00
  0.00000000E+00  0.00000000E+00  0.00000000E+00
  0.00000000E+00  0.00000000E+00  0.00000000E+00
  0.00000000E+00  0.00000000E+00  0.00000000E+00
  0.00000000E+00  0.00000000E+00  0.00000000E+00
  0.00000000E+00  0.00000000E+00  0.00000000E+00
  0.00000000E+00  0.00000000E+00  0.00000000E+00
  0.00000000E+00  0.00000000E+00  0.00000000E+00
  0.00000000E+00  0.00000000E+00  0.00000000E+00
  0.00000000E+00  0.00000000E+00  0.00000000E+00
  0.00000000E+00  0.00000000E+00  0.00000000E+00
  0.00000000E+00  0.00000000E+00  0.00000000E+00
  0.00000000E+00  0.00000000E+00  0.00000000E+00
  0.00000000E+00  0.00000000E+00  0.00000000E+00
  0.00000000E+00  0.00000000E+00  0.00000000E+00
  0.00000000E+00  0.00000000E+00  0.00000000E+00
  0.00000000E+00  0.00000000E+00  0.00000000E+00
  0.00000000E+00  0.00000000E+00  0.00000000E+00
  0.00000000E+00  0.00000000E+00  0.00000000E+00
  0.00000000E+00  0.00000000E+00  0.00000000E+00
  0.00000000E+00  0.00000000E+00  0.00000000E+00
  0.00000000E+00  0.00000000E+00  0.00000000E+00
  0.00000000E+00  0.00000000E+00  0.00000000E+00
  0.00000000E+00  0.00000000E+00  0.00000000E+00
  0.00000000E+00  0.00000000E+00  0.00000000E+00
  0.00000000E+00  0.00000000E+00  0.00000000E+00
  0.00000000E+00  0.00000000E+00  0.00000000E+00
  0.00000000E+00  0.00000000E+00  0.00000000E+00
  0.00000000E+00  0.00000000E+00  0.00000000E+00
  0.00000000E+00  0.00000000E+00  0.00000000E+00
  0.00000000E+00  0.00000000E+00  0.00000000E+00
  0.00000000E+00  0.00000000E+00  0.00000000E+00
  0.00000000E+00  0.00000000E+00  0.00000000E+00
  0.00000000E+00  0.00000000E+00  0.00000000E+00
  0.00000000E+00  0.00000000E+00  0.00000000E+00
  0.00000000E+00  0.00000000E+00  0.00000000E+00
  0.00000000E+00  0.00000000E+00  0.00000000E+00
  0.00000000E+00  0.00000000E+00  0.00000000E+00
  0.00000000E+00  0.00000000E+00  0.00000000E+00
  0.00000000E+00  0.00000000E+00  0.00000000E+00
  0.00000000E+00  0.00000000E+00  0.00000000E+00
  0.00000000E+00  0.00000000E+00  0.00000000E+00
  0.00000000E+00  0.00000000E+00  0.00000000E+00
  0.00000000E+00  0.00000000E+00  0.00000000E+00
  0.00000000E+00  0.00000000E+00  0.00000000E+00
  0.00000000E+00  0.00000000E+00  0.00000000E+00
  0.00000000E+00  0.00000000E+00  0.00000000E+00
  0.00000000E+00  0.00000000E+00  0.00000000E+00
  0.00000000E+00  0.00000000E+00  0.00000000E+00
  0.00000000E+00  0.00000000E+00  0.00000000E+00
  0.00000000E+00  0.00000000E+00  0.00000000E+00
  0.00000000E+00  0.00000000E+00  0.00000000E+00
  0.00000000E+00  0.00000000E+00  0.00000000E+00
  0.00000000E+00  0.00000000E+00  0.00000000E+00
  0.00000000E+00  0.00000000E+00  0.00000000E+00
  0.00000000E+00  0.00000000E+00  0.00000000E+00
  0.00000000E+00  0.00000000E+00  0.00000000E+00
  0.00000000E+00  0.00000000E+00  0.00000000E+00
  0.00000000E+00  0.00000000E+00  0.00000000E+00
  0.00000000E+00  0.00000000E+00  0.00000000E+00
  0.00000000E+00  0.00000000E+00  0.00000000E+00
  0.00000000E+00  0.00000000E+00  0.00000000E+00
  0.00000000E+00  0.00000000E+00  0.00000000E+00
  0.00000000E+00  0.00000000E+00  0.00000000E+00
