C H O Si                                
   1.00000000000000     
     9.2874599999999994    0.0000000000000000    0.0000000000000000
     0.0000000000000000   17.5126199999999983    0.0000000000000000
     0.0000000000000000    0.0000000000000000   58.0000000000000000
   C    H    O    Si
    72    57    28    72
Selective dynamics
Direct
  0.9964695252829898  0.0652336241935341  0.0595341441240502   T   T   T
  0.3298847792008057  0.0653199105610889  0.0596061255419635   T   T   T
  0.6631504421644672  0.0653316215661687  0.0596105728405949   T   T   T
  0.9964876191682208  0.3152907060744303  0.0595364518759692   T   T   T
  0.3297676367709829  0.3151628494589540  0.0595596796686608   T   T   T
  0.6631316035793066  0.3151865473483627  0.0595752753438496   T   T   T
  0.1624575525165144  0.1879603964163254  0.1383733112361751   T   T   T
  0.4957757904578675  0.1883520267114010  0.1387264038714632   T   T   T
  0.8289195031171510  0.1880006860201328  0.1383959188211192   T   T   T
  0.1625276956889146  0.4380633654562783  0.1384852852714902   T   T   T
  0.4958110254009838  0.4372085179585258  0.1384072055458647   T   T   T
  0.8290685279909422  0.4381049820062519  0.1385380437939610   T   T   T
  0.3296025263293426  0.0633402648684128  0.1657180167599644   T   T   T
  0.6615803296534392  0.0634584129905292  0.1657617177627838   T   T   T
  0.9953645814857709  0.0625553725196013  0.1654713079829245   T   T   T
  0.3285480936597900  0.3133429486613135  0.1657941507567124   T   T   T
  0.6625870958053439  0.3134460373768418  0.1658233820168551   T   T   T
  0.9955471435500047  0.3131281323209930  0.1655109055454407   T   T   T
  0.1623701092851304  0.1889326102547539  0.1904803235821740   T   T   T
  0.4954360974635552  0.1926017639729351  0.1918100928850639   T   T   T
  0.8294379696212748  0.1894747324642004  0.1906382660420621   T   T   T
  0.1623907843863366  0.4405421354873233  0.1908655409177686   T   T   T
  0.4957219653997615  0.4392570864656350  0.1911544422717701   T   T   T
  0.8294079202540218  0.4406170798258551  0.1911219325092829   T   T   T
  0.1624807564510184  0.1881065514661416  0.0848756236009734   T   T   T
  0.4958670120052079  0.1882285619807223  0.0850440180404484   T   T   T
  0.8291746482009112  0.1881044727011218  0.0848883900740943   T   T   T
  0.1623325952026209  0.4381463062215533  0.0849349242637673   T   T   T
  0.4956322626851362  0.4380412025927537  0.0848092189074642   T   T   T
  0.8289969064811574  0.4381270830913586  0.0849570616494743   T   T   T
  0.3289508733567147  0.0630769225798458  0.1121811504913330   T   T   T
  0.6621268639070320  0.0630654960251414  0.1121979788990052   T   T   T
  0.9955468312380716  0.0629204385189260  0.1121078005645031   T   T   T
  0.3288880690739808  0.3129364183537516  0.1121507698264058   T   T   T
  0.6623651057086344  0.3129848177460858  0.1121593713191028   T   T   T
  0.9956708005778679  0.3130109398082717  0.1120806612040325   T   T   T
  0.9964211519936828  0.5653061813089094  0.0595986988788824   T   T   T
  0.3297423985502267  0.5653569051572999  0.0595737419169810   T   T   T
  0.6631298957649218  0.5652997963946422  0.0596056740351263   T   T   T
  0.9965455159366791  0.8153985759789704  0.0595844251526517   T   T   T
  0.3298526105261557  0.8153004846765468  0.0595985423636943   T   T   T
  0.6632038540299325  0.8152813451938790  0.0595997261648149   T   T   T
  0.1622577791182349  0.6881908883784196  0.1384759532055869   T   T   T
  0.4958791296250862  0.6878927454808984  0.1385446519551892   T   T   T
  0.8292623829362931  0.6881035319000794  0.1384935295458944   T   T   T
  0.1628520313589892  0.9379851684888705  0.1384940619936561   T   T   T
  0.4958951974055020  0.9379170271393078  0.1385225521404565   T   T   T
  0.8288225142270493  0.9379823660145228  0.1385060124795443   T   T   T
  0.3283561167848339  0.5632783682091221  0.1656899219655886   T   T   T
  0.6627800386752145  0.5630880427213657  0.1658469526455059   T   T   T
  0.9955754266504196  0.5633602292375171  0.1656660123995806   T   T   T
  0.3291805824054062  0.8131626216912997  0.1656787324193223   T   T   T
  0.6624615876022067  0.8131466478404982  0.1656790866896157   T   T   T
  0.9957553010543976  0.8132502953749842  0.1656703554596564   T   T   T
  0.1631206968772453  0.6903753666312166  0.1909695063944030   T   T   T
  0.4965887390120637  0.6902165762233319  0.1910171557153904   T   T   T
  0.8299844064111527  0.6904147768055225  0.1909924444979507   T   T   T
  0.1630445798892594  0.9403646621835371  0.1909871903268357   T   T   T
  0.4962348245896664  0.9403231822195934  0.1910536385925965   T   T   T
  0.8295347382177105  0.9403504093291994  0.1910189598602855   T   T   T
  0.1625493548749860  0.6881844800055898  0.0849353401355384   T   T   T
  0.4959200195858613  0.6881598070748906  0.0849348247260088   T   T   T
  0.8292728917584110  0.6881705863149682  0.0849532526302692   T   T   T
  0.1625829609749568  0.9381611382732277  0.0849466484288416   T   T   T
  0.4957884617825312  0.9381285731543688  0.0849673860427581   T   T   T
  0.8289382159696956  0.9382098114233803  0.0849463640597513   T   T   T
  0.3289147794995345  0.5629063778391112  0.1121360705188208   T   T   T
  0.6622114012291889  0.5628513249818259  0.1121756756092298   T   T   T
  0.9955330599245021  0.5629964557940482  0.1121672209516679   T   T   T
  0.3290621926926988  0.8129441348491863  0.1121412912992013   T   T   T
  0.6623341536458904  0.8129389069675838  0.1121378065394202   T   T   T
  0.9957217960413334  0.8131335084435768  0.1121393298128016   T   T   T
  0.0791322537638353  0.1794941531339918  0.0260722622908798   T   T   T
  0.4119156636641638  0.1795936828897078  0.0262498026025644   T   T   T
  0.7449444401895655  0.1794489110878103  0.0261578935713605   T   T   T
  0.0787507102373895  0.4294814283542959  0.0261344189957843   T   T   T
  0.4123189578557714  0.4292265184464569  0.0260296015618412   T   T   T
  0.7447491332591819  0.4292777244348466  0.0262069699036788   T   T   T
  0.3281210604765512  0.0289151745197469  0.0441143511836674   T   T   T
  0.6604306504333991  0.0289136701156921  0.0441293570827624   T   T   T
  0.9941340569687075  0.0288588997780064  0.0440453740027821   T   T   T
  0.3272810019443041  0.2786891013786179  0.0440930164235709   T   T   T
  0.6612831838587313  0.2786875950918152  0.0441096733590783   T   T   T
  0.9941813283701919  0.2789589489308738  0.0440410661132673   T   T   T
  0.8322684190734534  0.4037770175822217  0.2064978927051124   T   T   T
  0.8329898931443379  0.1533606329696653  0.2061715445968642   T   T   T
  0.1642821073350488  0.1532814418021737  0.2061156680071238   T   T   T
  0.4985372058321514  0.1558741573682903  0.2072145996311149   T   T   T
  0.1652898440257656  0.4038788718804970  0.2062725019185891   T   T   T
  0.5391465712140271  0.4649510243928880  0.2615927458979568   T   T   T
  0.0823227460840078  0.0555300805504332  0.2241106539366013   T   T   T
  0.4155359224886203  0.0554858695456512  0.2242790275300899   T   T   T
  0.7481223276923414  0.0556349926864393  0.2243451273535482   T   T   T
  0.0913364750220916  0.3011653826875899  0.2226310902842030   T   T   T
  0.3665272147432946  0.2834948972762736  0.2304873002523805   T   T   T
  0.7811753918306510  0.2966288769094853  0.2229319357202960   T   T   T
  0.4985142389695449  0.2709501532709219  0.2660804477446675   T   T   T
  0.4708076014406640  0.2282695060542038  0.3005555468198385   T   T   T
  0.5189416423792286  0.3125896204477002  0.3084562042466276   T   T   T
  0.2890223604388009  0.1366424625986348  0.2959748610050534   T   T   T
  0.4374846859181643  0.1078656762720227  0.2875422561390676   T   T   T
  0.6374055013519530  0.3860090671601087  0.3348455536349224   T   T   T
  0.5032822095636983  0.4322036862072423  0.3271484062840336   T   T   T
  0.5050889276685445  0.4396557130279104  0.2705176867849156   T   T   T
  0.5676240598999549  0.2682506652373117  0.2406455888717712   T   T   T
  0.0784210846411277  0.6795332747254729  0.0261561625234266   T   T   T
  0.4120254189660082  0.6795061557216105  0.0261559186070104   T   T   T
  0.7451714613708325  0.6794674104492339  0.0261681915984478   T   T   T
  0.0790864838803867  0.9295146832955389  0.0260785289797638   T   T   T
  0.4119734583745989  0.9294035647543271  0.0261396234397430   T   T   T
  0.7450429541360021  0.9293989162329140  0.0261449184945687   T   T   T
  0.3276053601912902  0.5290430345965924  0.0440737618754673   T   T   T
  0.6609929033024754  0.5290271931531969  0.0440939916173217   T   T   T
  0.9942073565992855  0.5290205817611791  0.0440892209012409   T   T   T
  0.3276560936860591  0.7789693400921317  0.0440985735182229   T   T   T
  0.6608142855862410  0.7789568765146954  0.0440964636825901   T   T   T
  0.9942221938673438  0.7790188113811899  0.0440884811150487   T   T   T
  0.8321277030630977  0.9040487359190696  0.2065210729344626   T   T   T
  0.8321003630696033  0.6538914513990355  0.2064453764437962   T   T   T
  0.1662059607194238  0.6537765018523249  0.2064046990061436   T   T   T
  0.4985444239641032  0.6535066751067734  0.2064471508514221   T   T   T
  0.1654888330157312  0.9040593797170821  0.2064903353807849   T   T   T
  0.4989886025745387  0.9039249310496463  0.2065359397522934   T   T   T
  0.0878285886987617  0.5537332868553788  0.2237544263110137   T   T   T
  0.4157312114891356  0.5500451969307233  0.2244931556920438   T   T   T
  0.7547915520283187  0.5547260510226936  0.2233723557801615   T   T   T
  0.0829748492383006  0.8043209627835552  0.2243187482090992   T   T   T
  0.4155737800751350  0.8044086286495236  0.2243851686521507   T   T   T
  0.7506157769181592  0.8040001851474099  0.2242564317496951   T   T   T
  0.1726753182898197  0.1687621382480052  0.0330574278935520   T   T   T
  0.5056673755856227  0.1687199638992555  0.0331532871978189   T   T   T
  0.8387805719444418  0.1688509322969935  0.0330614982524780   T   T   T
  0.1724386971886248  0.4188677185606607  0.0330813723341069   T   T   T
  0.5060172133555950  0.4186004697368008  0.0329736118570966   T   T   T
  0.8387795011895954  0.4188733086365837  0.0330848772983292   T   T   T
  0.3216057463877576  0.0437508867627805  0.2175754896596692   T   T   T
  0.6543646242003719  0.0436805019450021  0.2176078624902228   T   T   T
  0.9884020832450442  0.0438084243267997  0.2174077596988901   T   T   T
  0.2999326998088994  0.2957509652947971  0.2173658319844710   T   T   T
  0.6797242363789375  0.2920456909246387  0.2182829763726917   T   T   T
  0.9918832353445616  0.2920920629671357  0.2172444013677379   T   T   T
  0.5261327570954930  0.2740938662617851  0.2959561186374906   T   T   T
  0.3895320885245459  0.1319344827338759  0.3006254258563083   T   T   T
  0.5355031396283187  0.3808728449854826  0.3311149707644034   T   T   T
  0.4826055023283590  0.2532153808402168  0.2500260630529467   T   T   T
  0.1722295355016926  0.6686831304859902  0.0330435927890671   T   T   T
  0.5058207356298250  0.6685678078022121  0.0330341605660480   T   T   T
  0.8390330993310332  0.6686465245359213  0.0330454112399748   T   T   T
  0.1725963080313286  0.9187699082284515  0.0330702969711347   T   T   T
  0.5057585218357725  0.9187821323183422  0.0330747265375640   T   T   T
  0.8387864691920035  0.9187274158843804  0.0330778675394720   T   T   T
  0.3216233618851511  0.5457065003224937  0.2170952795061531   T   T   T
  0.6576814190971227  0.5451111834261444  0.2175584561690100   T   T   T
  0.9913877921908713  0.5444407391020160  0.2175621318808891   T   T   T
  0.3215501380153326  0.7938720535114646  0.2175384471500057   T   T   T
  0.6560654945521517  0.7941533587207275  0.2174943893441952   T   T   T
  0.9886598066373736  0.7940026903328253  0.2175389382670643   T   T   T
  0.4966844425364982  0.1239982646212506  0.0589642302969041   T   T   T
  0.8300156123845894  0.1239472411386598  0.0588381990144718   T   T   T
  0.1633679075912308  0.3739126819807775  0.0588778090288421   T   T   T
  0.4966216467642998  0.3738622300474835  0.0588157666244581   T   T   T
  0.8299319039629914  0.3739225974359155  0.0588859842140152   T   T   T
  0.1633353404190170  0.1239044092601228  0.0588352465141714   T   T   T
  0.9958298755809246  0.0002120505433515  0.1387163996191486   T   T   T
  0.3296461196875146  0.0006069694143221  0.1388374517689633   T   T   T
  0.6621208630004309  0.0006505932121251  0.1388640775324688   T   T   T
  0.9957580964029360  0.2505921133911860  0.1387508036228656   T   T   T
  0.3290912089521812  0.2511723655103092  0.1390379258747832   T   T   T
  0.6624647756943939  0.2512088719762984  0.1390291896670263   T   T   T
  0.1621770444347786  0.1248661903901651  0.1648590132976194   T   T   T
  0.4953665352580069  0.1267426519417746  0.1655840958343920   T   T   T
  0.8289954149536580  0.1250835567445955  0.1649183675137379   T   T   T
  0.1627107484003701  0.3754718354622209  0.1651833731693152   T   T   T
  0.4955107079606146  0.3769990210867040  0.1663598915857967   T   T   T
  0.8287844853210896  0.3756691100538616  0.1652975467538846   T   T   T
  0.3344876253637206  0.4959558209408162  0.1918345573310562   T   T   T
  0.6568548076356603  0.4959166099338388  0.1921490530699973   T   T   T
  0.9960938692696429  0.4987950151423656  0.1917348939873582   T   T   T
  0.3260492159086461  0.2507327073746141  0.1921835760251366   T   T   T
  0.9963590107900643  0.2477909638509374  0.1912661712829249   T   T   T
  0.6646922257170830  0.2500088272715294  0.1919611325721761   T   T   T
  0.9958528455054865  0.0002994119241975  0.0855114006601752   T   T   T
  0.3293108822192351  0.0004077489848542  0.0855709714222686   T   T   T
  0.6624231041592926  0.0004196179187154  0.0855783188284628   T   T   T
  0.9959435445105340  0.2503989845606019  0.0855091611213188   T   T   T
  0.3292163877257179  0.2504664687289218  0.0855946958503594   T   T   T
  0.6626434840104501  0.2504975403669189  0.0855952366631478   T   T   T
  0.1621841021376657  0.1256586895157767  0.1118384352159833   T   T   T
  0.4955357763728205  0.1258099422634567  0.1120612003316934   T   T   T
  0.8288937244330215  0.1256282497332790  0.1118578158275881   T   T   T
  0.1624480273557911  0.3755973203402275  0.1119476352709818   T   T   T
  0.4956016943963662  0.3757069744718798  0.1119706778039422   T   T   T
  0.8288268434305239  0.3755857966778807  0.1119784223302709   T   T   T
  0.4966507957830643  0.6238356970008325  0.0588723581002476   T   T   T
  0.8299547736465616  0.6238651106293257  0.0588769183541038   T   T   T
  0.1634359373076064  0.8739242086906436  0.0588499218025447   T   T   T
  0.4967148666300022  0.8738792386898958  0.0588682705296401   T   T   T
  0.8299417576060950  0.8739015371372268  0.0588794562693449   T   T   T
  0.1632729940340935  0.6238722007458958  0.0588682364884227   T   T   T
  0.9959044731055459  0.5004050733004576  0.1389018773921204   T   T   T
  0.3302561480247449  0.5002002718131089  0.1389775283506549   T   T   T
  0.6614271957198098  0.5002361210198446  0.1390562001539678   T   T   T
  0.9958578148364959  0.7503460416104232  0.1387816732343244   T   T   T
  0.3293306610475497  0.7501949976838608  0.1388026467812183   T   T   T
  0.6624965309093125  0.7501868970324517  0.1388032690364631   T   T   T
  0.1630850657901001  0.6248281339447205  0.1651045090099119   T   T   T
  0.4958003937112579  0.6242452913724668  0.1651945702588251   T   T   T
  0.8282579771824216  0.6247852006851516  0.1651531498603319   T   T   T
  0.1626101644692252  0.8751798606850878  0.1651030512959416   T   T   T
  0.4958624134944191  0.8751859449116032  0.1651465196477770   T   T   T
  0.8290454034478857  0.8752107724285279  0.1651225545346437   T   T   T
  0.3295781710543631  0.9990545826659103  0.1917605106782297   T   T   T
  0.6628298160215510  0.9990232368881601  0.1917941178730877   T   T   T
  0.9962365040014446  0.9988688746305878  0.1916368626727834   T   T   T
  0.3299426371824278  0.7485246271336956  0.1917562973265956   T   T   T
  0.9965338032433481  0.7486941933487888  0.1917511032045279   T   T   T
  0.6630993874894608  0.7485834859510555  0.1917572448859446   T   T   T
  0.9957634930122434  0.5003162702143916  0.0855779893349741   T   T   T
  0.3292531067136433  0.5002782243908945  0.0855421337371221   T   T   T
  0.6622928695221153  0.5002111354674861  0.0855748809157774   T   T   T
  0.9960581132086316  0.7503099633023580  0.0855335652295179   T   T   T
  0.3293911197142642  0.7502206546885821  0.0855324037000603   T   T   T
  0.6626864911467920  0.7502196520093266  0.0855341702692657   T   T   T
  0.1624420412597836  0.6253304505815439  0.1119179970470323   T   T   T
  0.4956528210123277  0.6252693596250664  0.1119241967286239   T   T   T
  0.8287792230126374  0.6253001932991031  0.1119278797988956   T   T   T
  0.1625699937149880  0.8754152492097746  0.1118657802087674   T   T   T
  0.4957115106792250  0.8753403186689952  0.1118815719061639   T   T   T
  0.8289302528454071  0.8754075772924627  0.1118603583032141   T   T   T
 
  0.00000000E+00  0.00000000E+00  0.00000000E+00
  0.00000000E+00  0.00000000E+00  0.00000000E+00
  0.00000000E+00  0.00000000E+00  0.00000000E+00
  0.00000000E+00  0.00000000E+00  0.00000000E+00
  0.00000000E+00  0.00000000E+00  0.00000000E+00
  0.00000000E+00  0.00000000E+00  0.00000000E+00
  0.00000000E+00  0.00000000E+00  0.00000000E+00
  0.00000000E+00  0.00000000E+00  0.00000000E+00
  0.00000000E+00  0.00000000E+00  0.00000000E+00
  0.00000000E+00  0.00000000E+00  0.00000000E+00
  0.00000000E+00  0.00000000E+00  0.00000000E+00
  0.00000000E+00  0.00000000E+00  0.00000000E+00
  0.00000000E+00  0.00000000E+00  0.00000000E+00
  0.00000000E+00  0.00000000E+00  0.00000000E+00
  0.00000000E+00  0.00000000E+00  0.00000000E+00
  0.00000000E+00  0.00000000E+00  0.00000000E+00
  0.00000000E+00  0.00000000E+00  0.00000000E+00
  0.00000000E+00  0.00000000E+00  0.00000000E+00
  0.00000000E+00  0.00000000E+00  0.00000000E+00
  0.00000000E+00  0.00000000E+00  0.00000000E+00
  0.00000000E+00  0.00000000E+00  0.00000000E+00
  0.00000000E+00  0.00000000E+00  0.00000000E+00
  0.00000000E+00  0.00000000E+00  0.00000000E+00
  0.00000000E+00  0.00000000E+00  0.00000000E+00
  0.00000000E+00  0.00000000E+00  0.00000000E+00
  0.00000000E+00  0.00000000E+00  0.00000000E+00
  0.00000000E+00  0.00000000E+00  0.00000000E+00
  0.00000000E+00  0.00000000E+00  0.00000000E+00
  0.00000000E+00  0.00000000E+00  0.00000000E+00
  0.00000000E+00  0.00000000E+00  0.00000000E+00
  0.00000000E+00  0.00000000E+00  0.00000000E+00
  0.00000000E+00  0.00000000E+00  0.00000000E+00
  0.00000000E+00  0.00000000E+00  0.00000000E+00
  0.00000000E+00  0.00000000E+00  0.00000000E+00
  0.00000000E+00  0.00000000E+00  0.00000000E+00
  0.00000000E+00  0.00000000E+00  0.00000000E+00
  0.00000000E+00  0.00000000E+00  0.00000000E+00
  0.00000000E+00  0.00000000E+00  0.00000000E+00
  0.00000000E+00  0.00000000E+00  0.00000000E+00
  0.00000000E+00  0.00000000E+00  0.00000000E+00
  0.00000000E+00  0.00000000E+00  0.00000000E+00
  0.00000000E+00  0.00000000E+00  0.00000000E+00
  0.00000000E+00  0.00000000E+00  0.00000000E+00
  0.00000000E+00  0.00000000E+00  0.00000000E+00
  0.00000000E+00  0.00000000E+00  0.00000000E+00
  0.00000000E+00  0.00000000E+00  0.00000000E+00
  0.00000000E+00  0.00000000E+00  0.00000000E+00
  0.00000000E+00  0.00000000E+00  0.00000000E+00
  0.00000000E+00  0.00000000E+00  0.00000000E+00
  0.00000000E+00  0.00000000E+00  0.00000000E+00
  0.00000000E+00  0.00000000E+00  0.00000000E+00
  0.00000000E+00  0.00000000E+00  0.00000000E+00
  0.00000000E+00  0.00000000E+00  0.00000000E+00
  0.00000000E+00  0.00000000E+00  0.00000000E+00
  0.00000000E+00  0.00000000E+00  0.00000000E+00
  0.00000000E+00  0.00000000E+00  0.00000000E+00
  0.00000000E+00  0.00000000E+00  0.00000000E+00
  0.00000000E+00  0.00000000E+00  0.00000000E+00
  0.00000000E+00  0.00000000E+00  0.00000000E+00
  0.00000000E+00  0.00000000E+00  0.00000000E+00
  0.00000000E+00  0.00000000E+00  0.00000000E+00
  0.00000000E+00  0.00000000E+00  0.00000000E+00
  0.00000000E+00  0.00000000E+00  0.00000000E+00
  0.00000000E+00  0.00000000E+00  0.00000000E+00
  0.00000000E+00  0.00000000E+00  0.00000000E+00
  0.00000000E+00  0.00000000E+00  0.00000000E+00
  0.00000000E+00  0.00000000E+00  0.00000000E+00
  0.00000000E+00  0.00000000E+00  0.00000000E+00
  0.00000000E+00  0.00000000E+00  0.00000000E+00
  0.00000000E+00  0.00000000E+00  0.00000000E+00
  0.00000000E+00  0.00000000E+00  0.00000000E+00
  0.00000000E+00  0.00000000E+00  0.00000000E+00
  0.00000000E+00  0.00000000E+00  0.00000000E+00
  0.00000000E+00  0.00000000E+00  0.00000000E+00
  0.00000000E+00  0.00000000E+00  0.00000000E+00
  0.00000000E+00  0.00000000E+00  0.00000000E+00
  0.00000000E+00  0.00000000E+00  0.00000000E+00
  0.00000000E+00  0.00000000E+00  0.00000000E+00
  0.00000000E+00  0.00000000E+00  0.00000000E+00
  0.00000000E+00  0.00000000E+00  0.00000000E+00
  0.00000000E+00  0.00000000E+00  0.00000000E+00
  0.00000000E+00  0.00000000E+00  0.00000000E+00
  0.00000000E+00  0.00000000E+00  0.00000000E+00
  0.00000000E+00  0.00000000E+00  0.00000000E+00
  0.00000000E+00  0.00000000E+00  0.00000000E+00
  0.00000000E+00  0.00000000E+00  0.00000000E+00
  0.00000000E+00  0.00000000E+00  0.00000000E+00
  0.00000000E+00  0.00000000E+00  0.00000000E+00
  0.00000000E+00  0.00000000E+00  0.00000000E+00
  0.00000000E+00  0.00000000E+00  0.00000000E+00
  0.00000000E+00  0.00000000E+00  0.00000000E+00
  0.00000000E+00  0.00000000E+00  0.00000000E+00
  0.00000000E+00  0.00000000E+00  0.00000000E+00
  0.00000000E+00  0.00000000E+00  0.00000000E+00
  0.00000000E+00  0.00000000E+00  0.00000000E+00
  0.00000000E+00  0.00000000E+00  0.00000000E+00
  0.00000000E+00  0.00000000E+00  0.00000000E+00
  0.00000000E+00  0.00000000E+00  0.00000000E+00
  0.00000000E+00  0.00000000E+00  0.00000000E+00
  0.00000000E+00  0.00000000E+00  0.00000000E+00
  0.00000000E+00  0.00000000E+00  0.00000000E+00
  0.00000000E+00  0.00000000E+00  0.00000000E+00
  0.00000000E+00  0.00000000E+00  0.00000000E+00
  0.00000000E+00  0.00000000E+00  0.00000000E+00
  0.00000000E+00  0.00000000E+00  0.00000000E+00
  0.00000000E+00  0.00000000E+00  0.00000000E+00
  0.00000000E+00  0.00000000E+00  0.00000000E+00
  0.00000000E+00  0.00000000E+00  0.00000000E+00
  0.00000000E+00  0.00000000E+00  0.00000000E+00
  0.00000000E+00  0.00000000E+00  0.00000000E+00
  0.00000000E+00  0.00000000E+00  0.00000000E+00
  0.00000000E+00  0.00000000E+00  0.00000000E+00
  0.00000000E+00  0.00000000E+00  0.00000000E+00
  0.00000000E+00  0.00000000E+00  0.00000000E+00
  0.00000000E+00  0.00000000E+00  0.00000000E+00
  0.00000000E+00  0.00000000E+00  0.00000000E+00
  0.00000000E+00  0.00000000E+00  0.00000000E+00
  0.00000000E+00  0.00000000E+00  0.00000000E+00
  0.00000000E+00  0.00000000E+00  0.00000000E+00
  0.00000000E+00  0.00000000E+00  0.00000000E+00
  0.00000000E+00  0.00000000E+00  0.00000000E+00
  0.00000000E+00  0.00000000E+00  0.00000000E+00
  0.00000000E+00  0.00000000E+00  0.00000000E+00
  0.00000000E+00  0.00000000E+00  0.00000000E+00
  0.00000000E+00  0.00000000E+00  0.00000000E+00
  0.00000000E+00  0.00000000E+00  0.00000000E+00
  0.00000000E+00  0.00000000E+00  0.00000000E+00
  0.00000000E+00  0.00000000E+00  0.00000000E+00
  0.00000000E+00  0.00000000E+00  0.00000000E+00
  0.00000000E+00  0.00000000E+00  0.00000000E+00
  0.00000000E+00  0.00000000E+00  0.00000000E+00
  0.00000000E+00  0.00000000E+00  0.00000000E+00
  0.00000000E+00  0.00000000E+00  0.00000000E+00
  0.00000000E+00  0.00000000E+00  0.00000000E+00
  0.00000000E+00  0.00000000E+00  0.00000000E+00
  0.00000000E+00  0.00000000E+00  0.00000000E+00
  0.00000000E+00  0.00000000E+00  0.00000000E+00
  0.00000000E+00  0.00000000E+00  0.00000000E+00
  0.00000000E+00  0.00000000E+00  0.00000000E+00
  0.00000000E+00  0.00000000E+00  0.00000000E+00
  0.00000000E+00  0.00000000E+00  0.00000000E+00
  0.00000000E+00  0.00000000E+00  0.00000000E+00
  0.00000000E+00  0.00000000E+00  0.00000000E+00
  0.00000000E+00  0.00000000E+00  0.00000000E+00
  0.00000000E+00  0.00000000E+00  0.00000000E+00
  0.00000000E+00  0.00000000E+00  0.00000000E+00
  0.00000000E+00  0.00000000E+00  0.00000000E+00
  0.00000000E+00  0.00000000E+00  0.00000000E+00
  0.00000000E+00  0.00000000E+00  0.00000000E+00
  0.00000000E+00  0.00000000E+00  0.00000000E+00
  0.00000000E+00  0.00000000E+00  0.00000000E+00
  0.00000000E+00  0.00000000E+00  0.00000000E+00
  0.00000000E+00  0.00000000E+00  0.00000000E+00
  0.00000000E+00  0.00000000E+00  0.00000000E+00
  0.00000000E+00  0.00000000E+00  0.00000000E+00
  0.00000000E+00  0.00000000E+00  0.00000000E+00
  0.00000000E+00  0.00000000E+00  0.00000000E+00
  0.00000000E+00  0.00000000E+00  0.00000000E+00
  0.00000000E+00  0.00000000E+00  0.00000000E+00
  0.00000000E+00  0.00000000E+00  0.00000000E+00
  0.00000000E+00  0.00000000E+00  0.00000000E+00
  0.00000000E+00  0.00000000E+00  0.00000000E+00
  0.00000000E+00  0.00000000E+00  0.00000000E+00
  0.00000000E+00  0.00000000E+00  0.00000000E+00
  0.00000000E+00  0.00000000E+00  0.00000000E+00
  0.00000000E+00  0.00000000E+00  0.00000000E+00
  0.00000000E+00  0.00000000E+00  0.00000000E+00
  0.00000000E+00  0.00000000E+00  0.00000000E+00
  0.00000000E+00  0.00000000E+00  0.00000000E+00
  0.00000000E+00  0.00000000E+00  0.00000000E+00
  0.00000000E+00  0.00000000E+00  0.00000000E+00
  0.00000000E+00  0.00000000E+00  0.00000000E+00
  0.00000000E+00  0.00000000E+00  0.00000000E+00
  0.00000000E+00  0.00000000E+00  0.00000000E+00
  0.00000000E+00  0.00000000E+00  0.00000000E+00
  0.00000000E+00  0.00000000E+00  0.00000000E+00
  0.00000000E+00  0.00000000E+00  0.00000000E+00
  0.00000000E+00  0.00000000E+00  0.00000000E+00
  0.00000000E+00  0.00000000E+00  0.00000000E+00
  0.00000000E+00  0.00000000E+00  0.00000000E+00
  0.00000000E+00  0.00000000E+00  0.00000000E+00
  0.00000000E+00  0.00000000E+00  0.00000000E+00
  0.00000000E+00  0.00000000E+00  0.00000000E+00
  0.00000000E+00  0.00000000E+00  0.00000000E+00
  0.00000000E+00  0.00000000E+00  0.00000000E+00
  0.00000000E+00  0.00000000E+00  0.00000000E+00
  0.00000000E+00  0.00000000E+00  0.00000000E+00
  0.00000000E+00  0.00000000E+00  0.00000000E+00
  0.00000000E+00  0.00000000E+00  0.00000000E+00
  0.00000000E+00  0.00000000E+00  0.00000000E+00
  0.00000000E+00  0.00000000E+00  0.00000000E+00
  0.00000000E+00  0.00000000E+00  0.00000000E+00
  0.00000000E+00  0.00000000E+00  0.00000000E+00
  0.00000000E+00  0.00000000E+00  0.00000000E+00
  0.00000000E+00  0.00000000E+00  0.00000000E+00
  0.00000000E+00  0.00000000E+00  0.00000000E+00
  0.00000000E+00  0.00000000E+00  0.00000000E+00
  0.00000000E+00  0.00000000E+00  0.00000000E+00
  0.00000000E+00  0.00000000E+00  0.00000000E+00
  0.00000000E+00  0.00000000E+00  0.00000000E+00
  0.00000000E+00  0.00000000E+00  0.00000000E+00
  0.00000000E+00  0.00000000E+00  0.00000000E+00
  0.00000000E+00  0.00000000E+00  0.00000000E+00
  0.00000000E+00  0.00000000E+00  0.00000000E+00
  0.00000000E+00  0.00000000E+00  0.00000000E+00
  0.00000000E+00  0.00000000E+00  0.00000000E+00
  0.00000000E+00  0.00000000E+00  0.00000000E+00
  0.00000000E+00  0.00000000E+00  0.00000000E+00
  0.00000000E+00  0.00000000E+00  0.00000000E+00
  0.00000000E+00  0.00000000E+00  0.00000000E+00
  0.00000000E+00  0.00000000E+00  0.00000000E+00
  0.00000000E+00  0.00000000E+00  0.00000000E+00
  0.00000000E+00  0.00000000E+00  0.00000000E+00
  0.00000000E+00  0.00000000E+00  0.00000000E+00
  0.00000000E+00  0.00000000E+00  0.00000000E+00
  0.00000000E+00  0.00000000E+00  0.00000000E+00
  0.00000000E+00  0.00000000E+00  0.00000000E+00
  0.00000000E+00  0.00000000E+00  0.00000000E+00
  0.00000000E+00  0.00000000E+00  0.00000000E+00
  0.00000000E+00  0.00000000E+00  0.00000000E+00
  0.00000000E+00  0.00000000E+00  0.00000000E+00
  0.00000000E+00  0.00000000E+00  0.00000000E+00
  0.00000000E+00  0.00000000E+00  0.00000000E+00
  0.00000000E+00  0.00000000E+00  0.00000000E+00
  0.00000000E+00  0.00000000E+00  0.00000000E+00
  0.00000000E+00  0.00000000E+00  0.00000000E+00
  0.00000000E+00  0.00000000E+00  0.00000000E+00
  0.00000000E+00  0.00000000E+00  0.00000000E+00
  0.00000000E+00  0.00000000E+00  0.00000000E+00
