C H O Si                                
   1.00000000000000     
     9.2874599999999994    0.0000000000000000    0.0000000000000000
     0.0000000000000000    8.7563099999999991    0.0000000000000000
     0.0000000000000000    0.0000000000000000   58.0000000000000000
   C    H    O    Si
    36    33    16    36
Selective dynamics
Direct
  0.9958466739447503  0.1301074704002460  0.0595497676157793   T   T   T
  0.3293376272328462  0.1301306558507365  0.0596151437089404   T   T   T
  0.6624585413924278  0.1301564364953864  0.0596330585716258   T   T   T
  0.9959173030557325  0.6303160831326964  0.0595605062097298   T   T   T
  0.3292693985166176  0.6298614406789572  0.0596035043264895   T   T   T
  0.6626006387561754  0.6298399919833274  0.0596231064698106   T   T   T
  0.1621907678731887  0.3753390926098048  0.1384743760200355   T   T   T
  0.4955770709696967  0.3755181542834558  0.1387443363321234   T   T   T
  0.8289908081481038  0.3753620305596088  0.1384844335964968   T   T   T
  0.1624353005186671  0.8754313453750916  0.1385497170399080   T   T   T
  0.4956300651746898  0.8753344793291588  0.1382716687497523   T   T   T
  0.8288275991547500  0.8753669803529590  0.1385717232528791   T   T   T
  0.3289659420122215  0.1264547477892690  0.1656865449088404   T   T   T
  0.6621380892554278  0.1263066090436930  0.1657178563559232   T   T   T
  0.9956532177346497  0.1251222928752419  0.1655252199245326   T   T   T
  0.3283572950956918  0.6256586895017463  0.1656404087707139   T   T   T
  0.6625601773059366  0.6255655766066346  0.1657220564858251   T   T   T
  0.9956463408413719  0.6257262423796275  0.1655800179260147   T   T   T
  0.1631920396438075  0.3790637409312501  0.1908488571577713   T   T   T
  0.4960035253088032  0.3834798317549006  0.1916930042861895   T   T   T
  0.8301722008236371  0.3788178699908026  0.1908228889601740   T   T   T
  0.1621304533040436  0.8802633327671786  0.1911148968221106   T   T   T
  0.4961386789261094  0.8902210664454595  0.1886432476190709   T   T   T
  0.8304351503886683  0.8801511420182221  0.1911184075189378   T   T   T
  0.1622016211636906  0.3756149517789295  0.0849733210391390   T   T   T
  0.4956628203157937  0.3756413721752604  0.0851521967289143   T   T   T
  0.8290020557819874  0.3756244574154846  0.0850025812014832   T   T   T
  0.1622983516775178  0.8757185059233411  0.0850259951973521   T   T   T
  0.4955964046505143  0.8756157704600019  0.0849306024331358   T   T   T
  0.8288621194252465  0.8757337065337801  0.0850344598269893   T   T   T
  0.3287034676088872  0.1253827999100794  0.1121762489022001   T   T   T
  0.6619733131919231  0.1253680673264241  0.1121973921262181   T   T   T
  0.9953313989232750  0.1252781821536540  0.1120961461876264   T   T   T
  0.3286640916147527  0.6251263463310212  0.1121459323612578   T   T   T
  0.6621095475682426  0.6251440567597594  0.1121719338066273   T   T   T
  0.9953983777174747  0.6254481796707283  0.1121105231820352   T   T   T
  0.0821601591834792  0.3577465279878297  0.0254733183293476   T   T   T
  0.4146052227761202  0.3579291989353703  0.0256894861737662   T   T   T
  0.7469758667915665  0.3573637544157977  0.0255984829004991   T   T   T
  0.0827397652477024  0.8581005179275535  0.0255083451723980   T   T   T
  0.4150222234634625  0.8573525993662704  0.0255051120329769   T   T   T
  0.7464819006902971  0.8574082569818702  0.0256611491442558   T   T   T
  0.3273549132169369  0.0577344584115375  0.0440837514166077   T   T   T
  0.6599944758537629  0.0577564534601702  0.0441004358116454   T   T   T
  0.9935819733536142  0.0577822382609653  0.0440101718286682   T   T   T
  0.3268235032230195  0.5575980597766116  0.0440553952900565   T   T   T
  0.6605004625273558  0.5574780053086424  0.0440907693071837   T   T   T
  0.9936221836169195  0.5579606272711592  0.0440134820877439   T   T   T
  0.8335783420819880  0.8086670611986355  0.2067164412094933   T   T   T
  0.8329150884787180  0.3067172160371952  0.2063899925715711   T   T   T
  0.1651950623340175  0.3074330556457154  0.2064671572595177   T   T   T
  0.4982129377910368  0.3106757713547551  0.2071837157868165   T   T   T
  0.1649188169360081  0.8078780694196922  0.2066289854446221   T   T   T
  0.5388935726948054  0.9263991046609624  0.2603194161437373   T   T   T
  0.0785941993388949  0.1080111525724329  0.2250934204967924   T   T   T
  0.4155018249860443  0.1055795004273629  0.2250010716085135   T   T   T
  0.7434435514004414  0.1058866210563675  0.2256993431921878   T   T   T
  0.0834500158604197  0.6083317028800614  0.2238562949084920   T   T   T
  0.3685724883587391  0.5718578073919965  0.2302699243162378   T   T   T
  0.7749541825368061  0.5999040870094530  0.2231246980650134   T   T   T
  0.4918193024478101  0.5421257336566736  0.2659846532419717   T   T   T
  0.4698581336346827  0.4570970662225338  0.3003749409458574   T   T   T
  0.5186577785412937  0.6260565716914349  0.3079706655627218   T   T   T
  0.2900171673009827  0.2728818515263075  0.2958381143310050   T   T   T
  0.4394210853833494  0.2166060722908114  0.2877230812917276   T   T   T
  0.6388402573382334  0.7699788685922390  0.3348846859503795   T   T   T
  0.5031624468479577  0.8626599920677727  0.3280000123032755   T   T   T
  0.5020492667302314  0.8749897214005882  0.2688470153599407   T   T   T
  0.5647566920949924  0.5381622744379977  0.2409241313247179   T   T   T
  0.1733411183969341  0.3390829954547507  0.0333684853902718   T   T   T
  0.5060682863266476  0.3406305042571719  0.0335858891643096   T   T   T
  0.8386685787225495  0.3397893380257777  0.0334031057920611   T   T   T
  0.1738669008655715  0.8395677725000599  0.0334316847114807   T   T   T
  0.5064562731445328  0.8387768631124188  0.0333422933873228   T   T   T
  0.8383891601891817  0.8397501328520032  0.0334079944633941   T   T   T
  0.3224323700906744  0.0883514363047082  0.2175888209447215   T   T   T
  0.6529162322719425  0.0884503224888767  0.2175412805832670   T   T   T
  0.9871086937064454  0.0901047268842969  0.2172374049960109   T   T   T
  0.3114128020833821  0.6043521472365724  0.2162569406736248   T   T   T
  0.6755918536485765  0.5916881341670941  0.2174201225820898   T   T   T
  0.9885421318115322  0.5877055619884399  0.2170936883571490   T   T   T
  0.5216741080876938  0.5499398409283666  0.2952964737016767   T   T   T
  0.3902171042123278  0.2642916581510982  0.3007221517166114   T   T   T
  0.5369350838581187  0.7592877424887273  0.3311383362846858   T   T   T
  0.4776964356881840  0.5084860269147717  0.2497118917704479   T   T   T
  0.4959970685940445  0.2476940334737479  0.0588560975172715   T   T   T
  0.8292147821539398  0.2476031150623038  0.0587361834759205   T   T   T
  0.1628671257681923  0.7475017953534434  0.0587661658288391   T   T   T
  0.4960774614964966  0.7472089317008004  0.0587105534945698   T   T   T
  0.8291935975361510  0.7476198256128709  0.0587533412348590   T   T   T
  0.1627345936267467  0.2474142906535521  0.0587245147713878   T   T   T
  0.9956885946679994  0.0005049891028231  0.1387369143739639   T   T   T
  0.3291665158959275  0.0008789692765665  0.1388536216710653   T   T   T
  0.6621080807669026  0.0008435549278432  0.1388646794163195   T   T   T
  0.9956909777732807  0.5009114893659035  0.1387373016445948   T   T   T
  0.3287693891138678  0.5007040026723327  0.1388388437763703   T   T   T
  0.6623645910865301  0.5006063994707055  0.1388414942660241   T   T   T
  0.1618991775645798  0.2502339664280305  0.1651230661327778   T   T   T
  0.4955660039737544  0.2517462644472589  0.1656348126881479   T   T   T
  0.8298453865900831  0.2499144040311756  0.1650894986488313   T   T   T
  0.1623857923813308  0.7507892976016590  0.1651979485097254   T   T   T
  0.4954896030704870  0.7486067935500279  0.1650503350295627   T   T   T
  0.8291596146051677  0.7505433258401742  0.1652226103882876   T   T   T
  0.3279938638124855  0.9975522850341231  0.1921631918777118   T   T   T
  0.6644320378435308  0.9972508392901782  0.1922270436989414   T   T   T
  0.9963074294988091  0.9981943417590580  0.1918870394472753   T   T   T
  0.3277201623121912  0.5011980850036206  0.1922527395088437   T   T   T
  0.9967211840817788  0.4961021437286533  0.1916345454969708   T   T   T
  0.6649513831579589  0.4981900759524520  0.1919939666095979   T   T   T
  0.9956206571174541  0.0003454522001994  0.0854105561349870   T   T   T
  0.3290496505067246  0.0003756456599649  0.0854662918436996   T   T   T
  0.6622453091257010  0.0003920863257356  0.0854791308002013   T   T   T
  0.9956343846939935  0.5004082386980273  0.0854138215593668   T   T   T
  0.3289640296577893  0.5001474078639799  0.0854655338424089   T   T   T
  0.6624168287654261  0.5001609896882219  0.0854884031051736   T   T   T
  0.1620969000131919  0.2507432891347215  0.1118169457380869   T   T   T
  0.4954843642871370  0.2508254133883090  0.1120157857220458   T   T   T
  0.8288713375905206  0.2507259847748265  0.1118287007925967   T   T   T
  0.1623428792555105  0.7508641425204622  0.1118625829922536   T   T   T
  0.4955053244479941  0.7502811861824498  0.1117054267336960   T   T   T
  0.8287480487469729  0.7508605804339772  0.1118696825970274   T   T   T
 
  0.00000000E+00  0.00000000E+00  0.00000000E+00
  0.00000000E+00  0.00000000E+00  0.00000000E+00
  0.00000000E+00  0.00000000E+00  0.00000000E+00
  0.00000000E+00  0.00000000E+00  0.00000000E+00
  0.00000000E+00  0.00000000E+00  0.00000000E+00
  0.00000000E+00  0.00000000E+00  0.00000000E+00
  0.00000000E+00  0.00000000E+00  0.00000000E+00
  0.00000000E+00  0.00000000E+00  0.00000000E+00
  0.00000000E+00  0.00000000E+00  0.00000000E+00
  0.00000000E+00  0.00000000E+00  0.00000000E+00
  0.00000000E+00  0.00000000E+00  0.00000000E+00
  0.00000000E+00  0.00000000E+00  0.00000000E+00
  0.00000000E+00  0.00000000E+00  0.00000000E+00
  0.00000000E+00  0.00000000E+00  0.00000000E+00
  0.00000000E+00  0.00000000E+00  0.00000000E+00
  0.00000000E+00  0.00000000E+00  0.00000000E+00
  0.00000000E+00  0.00000000E+00  0.00000000E+00
  0.00000000E+00  0.00000000E+00  0.00000000E+00
  0.00000000E+00  0.00000000E+00  0.00000000E+00
  0.00000000E+00  0.00000000E+00  0.00000000E+00
  0.00000000E+00  0.00000000E+00  0.00000000E+00
  0.00000000E+00  0.00000000E+00  0.00000000E+00
  0.00000000E+00  0.00000000E+00  0.00000000E+00
  0.00000000E+00  0.00000000E+00  0.00000000E+00
  0.00000000E+00  0.00000000E+00  0.00000000E+00
  0.00000000E+00  0.00000000E+00  0.00000000E+00
  0.00000000E+00  0.00000000E+00  0.00000000E+00
  0.00000000E+00  0.00000000E+00  0.00000000E+00
  0.00000000E+00  0.00000000E+00  0.00000000E+00
  0.00000000E+00  0.00000000E+00  0.00000000E+00
  0.00000000E+00  0.00000000E+00  0.00000000E+00
  0.00000000E+00  0.00000000E+00  0.00000000E+00
  0.00000000E+00  0.00000000E+00  0.00000000E+00
  0.00000000E+00  0.00000000E+00  0.00000000E+00
  0.00000000E+00  0.00000000E+00  0.00000000E+00
  0.00000000E+00  0.00000000E+00  0.00000000E+00
  0.00000000E+00  0.00000000E+00  0.00000000E+00
  0.00000000E+00  0.00000000E+00  0.00000000E+00
  0.00000000E+00  0.00000000E+00  0.00000000E+00
  0.00000000E+00  0.00000000E+00  0.00000000E+00
  0.00000000E+00  0.00000000E+00  0.00000000E+00
  0.00000000E+00  0.00000000E+00  0.00000000E+00
  0.00000000E+00  0.00000000E+00  0.00000000E+00
  0.00000000E+00  0.00000000E+00  0.00000000E+00
  0.00000000E+00  0.00000000E+00  0.00000000E+00
  0.00000000E+00  0.00000000E+00  0.00000000E+00
  0.00000000E+00  0.00000000E+00  0.00000000E+00
  0.00000000E+00  0.00000000E+00  0.00000000E+00
  0.00000000E+00  0.00000000E+00  0.00000000E+00
  0.00000000E+00  0.00000000E+00  0.00000000E+00
  0.00000000E+00  0.00000000E+00  0.00000000E+00
  0.00000000E+00  0.00000000E+00  0.00000000E+00
  0.00000000E+00  0.00000000E+00  0.00000000E+00
  0.00000000E+00  0.00000000E+00  0.00000000E+00
  0.00000000E+00  0.00000000E+00  0.00000000E+00
  0.00000000E+00  0.00000000E+00  0.00000000E+00
  0.00000000E+00  0.00000000E+00  0.00000000E+00
  0.00000000E+00  0.00000000E+00  0.00000000E+00
  0.00000000E+00  0.00000000E+00  0.00000000E+00
  0.00000000E+00  0.00000000E+00  0.00000000E+00
  0.00000000E+00  0.00000000E+00  0.00000000E+00
  0.00000000E+00  0.00000000E+00  0.00000000E+00
  0.00000000E+00  0.00000000E+00  0.00000000E+00
  0.00000000E+00  0.00000000E+00  0.00000000E+00
  0.00000000E+00  0.00000000E+00  0.00000000E+00
  0.00000000E+00  0.00000000E+00  0.00000000E+00
  0.00000000E+00  0.00000000E+00  0.00000000E+00
  0.00000000E+00  0.00000000E+00  0.00000000E+00
  0.00000000E+00  0.00000000E+00  0.00000000E+00
  0.00000000E+00  0.00000000E+00  0.00000000E+00
  0.00000000E+00  0.00000000E+00  0.00000000E+00
  0.00000000E+00  0.00000000E+00  0.00000000E+00
  0.00000000E+00  0.00000000E+00  0.00000000E+00
  0.00000000E+00  0.00000000E+00  0.00000000E+00
  0.00000000E+00  0.00000000E+00  0.00000000E+00
  0.00000000E+00  0.00000000E+00  0.00000000E+00
  0.00000000E+00  0.00000000E+00  0.00000000E+00
  0.00000000E+00  0.00000000E+00  0.00000000E+00
  0.00000000E+00  0.00000000E+00  0.00000000E+00
  0.00000000E+00  0.00000000E+00  0.00000000E+00
  0.00000000E+00  0.00000000E+00  0.00000000E+00
  0.00000000E+00  0.00000000E+00  0.00000000E+00
  0.00000000E+00  0.00000000E+00  0.00000000E+00
  0.00000000E+00  0.00000000E+00  0.00000000E+00
  0.00000000E+00  0.00000000E+00  0.00000000E+00
  0.00000000E+00  0.00000000E+00  0.00000000E+00
  0.00000000E+00  0.00000000E+00  0.00000000E+00
  0.00000000E+00  0.00000000E+00  0.00000000E+00
  0.00000000E+00  0.00000000E+00  0.00000000E+00
  0.00000000E+00  0.00000000E+00  0.00000000E+00
  0.00000000E+00  0.00000000E+00  0.00000000E+00
  0.00000000E+00  0.00000000E+00  0.00000000E+00
  0.00000000E+00  0.00000000E+00  0.00000000E+00
  0.00000000E+00  0.00000000E+00  0.00000000E+00
  0.00000000E+00  0.00000000E+00  0.00000000E+00
  0.00000000E+00  0.00000000E+00  0.00000000E+00
  0.00000000E+00  0.00000000E+00  0.00000000E+00
  0.00000000E+00  0.00000000E+00  0.00000000E+00
  0.00000000E+00  0.00000000E+00  0.00000000E+00
  0.00000000E+00  0.00000000E+00  0.00000000E+00
  0.00000000E+00  0.00000000E+00  0.00000000E+00
  0.00000000E+00  0.00000000E+00  0.00000000E+00
  0.00000000E+00  0.00000000E+00  0.00000000E+00
  0.00000000E+00  0.00000000E+00  0.00000000E+00
  0.00000000E+00  0.00000000E+00  0.00000000E+00
  0.00000000E+00  0.00000000E+00  0.00000000E+00
  0.00000000E+00  0.00000000E+00  0.00000000E+00
  0.00000000E+00  0.00000000E+00  0.00000000E+00
  0.00000000E+00  0.00000000E+00  0.00000000E+00
  0.00000000E+00  0.00000000E+00  0.00000000E+00
  0.00000000E+00  0.00000000E+00  0.00000000E+00
  0.00000000E+00  0.00000000E+00  0.00000000E+00
  0.00000000E+00  0.00000000E+00  0.00000000E+00
  0.00000000E+00  0.00000000E+00  0.00000000E+00
  0.00000000E+00  0.00000000E+00  0.00000000E+00
  0.00000000E+00  0.00000000E+00  0.00000000E+00
  0.00000000E+00  0.00000000E+00  0.00000000E+00
  0.00000000E+00  0.00000000E+00  0.00000000E+00
  0.00000000E+00  0.00000000E+00  0.00000000E+00
  0.00000000E+00  0.00000000E+00  0.00000000E+00
  0.00000000E+00  0.00000000E+00  0.00000000E+00
