C H O Si                                
   1.00000000000000     
     9.2874599999999994    0.0000000000000000    0.0000000000000000
     0.0000000000000000   17.5126199999999983    0.0000000000000000
     0.0000000000000000    0.0000000000000000   58.0000000000000000
   C    H    O    Si
    72    57    28    72
Selective dynamics
Direct
  0.9930200547672289  0.0630450712076766  0.0604541567378692   T   T   T
  0.3264417618948167  0.0630426134835267  0.0605365454889397   T   T   T
  0.6596148952360218  0.0631668363723114  0.0604916584148138   T   T   T
  0.9928672434152591  0.3130683905440917  0.0604279862622975   T   T   T
  0.3262416041668589  0.3129754608487103  0.0605552587602006   T   T   T
  0.6596356640275596  0.3130758073599177  0.0604991305438346   T   T   T
  0.1597012955358265  0.1855916875230367  0.1394249844490181   T   T   T
  0.4930626318509145  0.1858627557389714  0.1396449500456588   T   T   T
  0.8264000768167511  0.1855646511335304  0.1393335289781191   T   T   T
  0.1596644654729578  0.4356636609824693  0.1394479212950306   T   T   T
  0.4929960490155708  0.4356152113994147  0.1394718036553340   T   T   T
  0.8263413224896707  0.4356780109950628  0.1394264086313210   T   T   T
  0.3272763840810878  0.0609568509425612  0.1667137832283351   T   T   T
  0.6596880568292305  0.0608781266169917  0.1666726532809210   T   T   T
  0.9937920884071422  0.0602864862590339  0.1664390421975547   T   T   T
  0.3266403210624502  0.3107576580865810  0.1667691335940986   T   T   T
  0.6604800319817200  0.3107998334983058  0.1666579494853672   T   T   T
  0.9935524311817086  0.3107071170205025  0.1664567658948909   T   T   T
  0.1608232311523951  0.1873258127539967  0.1918498262166176   T   T   T
  0.4942643222792198  0.1895900945754593  0.1927278850501294   T   T   T
  0.8282024783232845  0.1866822700783107  0.1915426373456122   T   T   T
  0.1602783279395794  0.4382657309857974  0.1919955146176950   T   T   T
  0.4938643055014169  0.4378162822553245  0.1920114786535621   T   T   T
  0.8273572695750756  0.4382848343888089  0.1919224780132480   T   T   T
  0.1594346205054863  0.1857952886275762  0.0858564883017819   T   T   T
  0.4927687514451745  0.1858108656666901  0.0860178668513427   T   T   T
  0.8260707680995591  0.1858181986840907  0.0858208656326455   T   T   T
  0.1595091438653614  0.4357385779825561  0.0858929795074744   T   T   T
  0.4927686019277182  0.4356941123155513  0.0859299235274597   T   T   T
  0.8261004182818082  0.4357488251887667  0.0858784759820122   T   T   T
  0.3261357761874478  0.0606896478661938  0.1130819395211762   T   T   T
  0.6594100329454409  0.0606983647732123  0.1130641608716877   T   T   T
  0.9928531435371248  0.0605758837285012  0.1129921633068922   T   T   T
  0.3260336517344219  0.3106297092072585  0.1131300857541034   T   T   T
  0.6595269478112725  0.3106598236470119  0.1130686581998706   T   T   T
  0.9928031677088872  0.3106117558148543  0.1129823551678330   T   T   T
  0.9931952068935126  0.5629194571632228  0.0604956553886363   T   T   T
  0.3264053931358374  0.5629615631736657  0.0605115939348066   T   T   T
  0.6598519411381387  0.5629771404591715  0.0605112757671888   T   T   T
  0.9929007893187206  0.8131097040066976  0.0604541729966622   T   T   T
  0.3262963442283336  0.8130247239235787  0.0604708117984974   T   T   T
  0.6596401403786059  0.8131070314488807  0.0604449572429029   T   T   T
  0.1596620280550493  0.6857124783461432  0.1394412654267251   T   T   T
  0.4929408157844004  0.6856891745428928  0.1394461774603516   T   T   T
  0.8262392005660161  0.6856941355604819  0.1394443498717841   T   T   T
  0.1600318837536405  0.9356586169527590  0.1394528086136011   T   T   T
  0.4929356413613919  0.9356503291784991  0.1394492893875573   T   T   T
  0.8261063592218267  0.9356809288334732  0.1394454532539621   T   T   T
  0.3267171099672782  0.5608239480801781  0.1665813936813279   T   T   T
  0.6598848122997766  0.5608248778679656  0.1665815736795266   T   T   T
  0.9934058623359741  0.5609271935549907  0.1665241577667083   T   T   T
  0.3267027302339457  0.8107708649786594  0.1666055445628214   T   T   T
  0.6601034742576214  0.8108175244129923  0.1665980240462498   T   T   T
  0.9934008408147145  0.8108492332607161  0.1665899622731677   T   T   T
  0.1606093475418625  0.6879655112020833  0.1919858509104580   T   T   T
  0.4939911922799089  0.6880434668193603  0.1920276365425346   T   T   T
  0.8272147633481924  0.6879702971251460  0.1919823659004262   T   T   T
  0.1609053134006522  0.9380212587049412  0.1920280213365729   T   T   T
  0.4941244130382683  0.9379220802040845  0.1920593308567408   T   T   T
  0.8274090362745664  0.9379500447917581  0.1919910380396958   T   T   T
  0.1594927326131465  0.6858128422059609  0.0858615989280744   T   T   T
  0.4928050242393701  0.6857398230176220  0.0858862767536183   T   T   T
  0.8260799823495489  0.6858235757913207  0.0858718081373107   T   T   T
  0.1595403833113868  0.9358030846571515  0.0858734109176187   T   T   T
  0.4927751288701336  0.9357255188384435  0.0859017340409409   T   T   T
  0.8259856430341811  0.9358200697509127  0.0858680994984529   T   T   T
  0.3260792514459839  0.5606667412390519  0.1130449412678219   T   T   T
  0.6594593336237375  0.5606452835205519  0.1130426076064198   T   T   T
  0.9927639503364082  0.5606704419728731  0.1130299215199460   T   T   T
  0.3261375097274292  0.8106182773689875  0.1130313831675959   T   T   T
  0.6594508170093806  0.8106359300866018  0.1130256163727296   T   T   T
  0.9927532986856026  0.8107185775633832  0.1130388951803104   T   T   T
  0.0810320793830171  0.1770348649736228  0.0261975067507819   T   T   T
  0.4124808826327080  0.1770501233097178  0.0263940311255763   T   T   T
  0.7461211686026737  0.1769842679687034  0.0262482559030172   T   T   T
  0.0806871684657836  0.4270406789366228  0.0262089025803328   T   T   T
  0.4121957898969522  0.4268429763153044  0.0263402772879353   T   T   T
  0.7449684026176140  0.4268336906377356  0.0262952054544683   T   T   T
  0.3238677837911106  0.0268796304663388  0.0449979168040260   T   T   T
  0.6563493918028861  0.0269585860573363  0.0449640005857950   T   T   T
  0.9902226294942924  0.0269233600959717  0.0449108055078926   T   T   T
  0.3235322287342698  0.2767558313366248  0.0450289162436052   T   T   T
  0.6565930347583691  0.2768393905191691  0.0449758554348359   T   T   T
  0.9901477482927443  0.2769593929207135  0.0448780995666756   T   T   T
  0.8293384327335399  0.4024356663681271  0.2075060813928562   T   T   T
  0.8306797603921290  0.1507016496184350  0.2071207747922164   T   T   T
  0.1618272725853320  0.1512377637242821  0.2074112265014512   T   T   T
  0.4968388550918780  0.1527600994789287  0.2081266549200437   T   T   T
  0.1623261684956583  0.4018673797510639  0.2074858790678822   T   T   T
  0.4941829315748387  0.4016383226521555  0.2075511883937423   T   T   T
  0.0764349449721430  0.0511059523717241  0.2261017176270992   T   T   T
  0.4108722415367874  0.0506169905827149  0.2262351474134598   T   T   T
  0.7441753135030625  0.0509819852018377  0.2261566332902823   T   T   T
  0.0737326730992141  0.3006674977817480  0.2257132264469395   T   T   T
  0.3770513772342617  0.3092500807703820  0.2292949307288112   T   T   T
  0.7795960955947910  0.2949817016749666  0.2235221295523064   T   T   T
  0.5422439186763407  0.3050103391429890  0.2744576594345243   T   T   T
  0.4893229593940750  0.2370143238765932  0.2936684075100006   T   T   T
  0.5702007752700732  0.3196749168898332  0.3033164062955898   T   T   T
  0.3127467761259323  0.1932328121783605  0.3096761555032758   T   T   T
  0.4219384082301790  0.1295702206490580  0.3023754742361387   T   T   T
  0.6518568677147969  0.3664145781873763  0.3333494616711271   T   T   T
  0.4861050339507720  0.3790256022466768  0.3306931006468421   T   T   T
  0.5112051624013477  0.3959346826232149  0.2525589253380443   T   T   T
  0.5825517155622619  0.3251961993450294  0.2394213465432689   T   T   T
  0.0802964040938034  0.6770183441914904  0.0262690404390119   T   T   T
  0.4135544680184763  0.6769814236513335  0.0262901711943350   T   T   T
  0.7466719325141457  0.6769874558794715  0.0262917342660416   T   T   T
  0.0800541929794321  0.9270168443716775  0.0262261960952604   T   T   T
  0.4123210321766124  0.9269096053294209  0.0262848181230500   T   T   T
  0.7457187757214667  0.9269639461665004  0.0262682056301019   T   T   T
  0.3235992729883431  0.5268276247653726  0.0449691900579280   T   T   T
  0.6569601727464878  0.5268423112577342  0.0449688572815378   T   T   T
  0.9901708307329408  0.5268675236542042  0.0449352303784164   T   T   T
  0.3234265655728384  0.7768546007130840  0.0449320826970223   T   T   T
  0.6567251895684980  0.7768617129216382  0.0449211011311305   T   T   T
  0.9901071460376429  0.7768935470378134  0.0449258625538412   T   T   T
  0.8295798967163673  0.9016931126108483  0.2075125242629482   T   T   T
  0.8294742625668293  0.6517699281179495  0.2075144982886375   T   T   T
  0.1626631363003105  0.6517221178087635  0.2075097081323926   T   T   T
  0.4961985559279382  0.6518635963740025  0.2075622420012140   T   T   T
  0.1626858011845198  0.9017179450289303  0.2075400132058034   T   T   T
  0.4962298617733062  0.9016242327128108  0.2075737500499470   T   T   T
  0.0754074474291360  0.5520376782695164  0.2260896279306388   T   T   T
  0.4098622171161577  0.5527233267840568  0.2259170363179402   T   T   T
  0.7430973121535087  0.5520315271690128  0.2259934815577722   T   T   T
  0.0765497895090555  0.8012853155218973  0.2260891575802274   T   T   T
  0.4091097640506865  0.8014735540819731  0.2261596207357115   T   T   T
  0.7445821774725364  0.8010990307502632  0.2260430384202610   T   T   T
  0.1716331517445282  0.1674700469720263  0.0342269116466144   T   T   T
  0.5033360642153851  0.1687474556860577  0.0344796828651596   T   T   T
  0.8370238803290282  0.1677314681708559  0.0342268630014700   T   T   T
  0.1712840773751852  0.4177608416162751  0.0342767647066035   T   T   T
  0.5032766900853380  0.4179204674800838  0.0343090727073866   T   T   T
  0.8360458223578564  0.4182136604504615  0.0342953880970139   T   T   T
  0.3191710700779019  0.0430397456782136  0.2183108738422420   T   T   T
  0.6523952844714447  0.0430662033148264  0.2182823514379649   T   T   T
  0.9849947159244868  0.0432878529878622  0.2181288663119580   T   T   T
  0.3015545425042779  0.2935280427895759  0.2182944181303365   T   T   T
  0.6783704651625915  0.2924893647570899  0.2183508532747158   T   T   T
  0.9817200587236339  0.2918549631356843  0.2179040252108506   T   T   T
  0.5673067613016235  0.2791835419677510  0.2900124423738604   T   T   T
  0.3800381822186451  0.1781640125250880  0.2975685184045838   T   T   T
  0.5764882236720048  0.3775820832615656  0.3221074649145994   T   T   T
  0.5063286166578005  0.3404570345966177  0.2509087027969889   T   T   T
  0.1711335660451169  0.6675336369116186  0.0342449529456551   T   T   T
  0.5044297917337209  0.6675051223845337  0.0342553427954937   T   T   T
  0.8375783026383664  0.6676344220474113  0.0342677791342072   T   T   T
  0.1707865242441712  0.9179156872128851  0.0342735803618414   T   T   T
  0.5032415188808861  0.9182094410287510  0.0343120029742188   T   T   T
  0.8365996287812378  0.9182408088174951  0.0343058366050580   T   T   T
  0.3181688285245401  0.5429358890879424  0.2182222223129774   T   T   T
  0.6514063291098996  0.5429078947075267  0.2182159193949949   T   T   T
  0.9841291322777664  0.5432939570665871  0.2181605779857085   T   T   T
  0.3177326494531462  0.7928012689540881  0.2182554760611878   T   T   T
  0.6525874465810099  0.7930474673091344  0.2182510052953428   T   T   T
  0.9848866615698804  0.7928534840392238  0.2182413244211143   T   T   T
  0.4930583517568399  0.1219767274644653  0.0596765927150133   T   T   T
  0.8264937941517485  0.1217963539962895  0.0595472226632371   T   T   T
  0.1598127898219544  0.3717395910130197  0.0596081822651747   T   T   T
  0.4930032427422832  0.3717851623618442  0.0596109110675728   T   T   T
  0.8263141944886836  0.3718906214630470  0.0595634866931861   T   T   T
  0.1599299638954272  0.1217083853530354  0.0595914832546475   T   T   T
  0.9930404629453489  0.4984405954638815  0.1397033362587885   T   T   T
  0.3263066323980779  0.4984147564883327  0.1397325332228859   T   T   T
  0.6596479720783699  0.4984049320244096  0.1397292252981870   T   T   T
  0.9931107290830614  0.2482992769950601  0.1396098211038010   T   T   T
  0.3262238089506596  0.2484385569661873  0.1398553176051320   T   T   T
  0.6598615647250686  0.2483492881874879  0.1397319514982574   T   T   T
  0.1601458954820459  0.1227746171816065  0.1660620790706359   T   T   T
  0.4934322515167346  0.1238625610084797  0.1665027574371611   T   T   T
  0.8271646562528725  0.1223325728209089  0.1658686641311680   T   T   T
  0.1600627323015200  0.3732159655261372  0.1661678027536231   T   T   T
  0.4932758275462866  0.3729534930699357  0.1661596513431998   T   T   T
  0.8270510524658375  0.3732362812605965  0.1661162315327083   T   T   T
  0.3269096213322619  0.4968971535856802  0.1928581990921257   T   T   T
  0.6605601333618931  0.4968656391545614  0.1928580314462789   T   T   T
  0.9937048194652711  0.4971184317697725  0.1928247261586046   T   T   T
  0.3254664435372935  0.2475479345964028  0.1933397305043149   T   T   T
  0.9940733956633390  0.2458265453484947  0.1924622506011585   T   T   T
  0.6633773640272080  0.2463552755777796  0.1927216725718766   T   T   T
  0.9928510084708734  0.4981016193319031  0.0863213482207672   T   T   T
  0.3262248822453815  0.4981191519476884  0.0863458733006271   T   T   T
  0.6594759850902052  0.4981187091106755  0.0863427476707668   T   T   T
  0.9927731607070549  0.2481716534483599  0.0862541093324372   T   T   T
  0.3261450675009762  0.2481571021792775  0.0863989365333606   T   T   T
  0.6594446423103015  0.2481985737463217  0.0863407356045219   T   T   T
  0.1594887602647630  0.1234178742514138  0.1127225309054171   T   T   T
  0.4928212944720555  0.1234592533484958  0.1128747404484012   T   T   T
  0.8261649933454691  0.1233962320397116  0.1126585618302087   T   T   T
  0.1595196792257255  0.3734184501642172  0.1127572539271201   T   T   T
  0.4927734087572286  0.3733745204868705  0.1127840424232865   T   T   T
  0.8262164818488867  0.3734255481561120  0.1127261491412663   T   T   T
  0.4932726741763238  0.6216867662181838  0.0596096822748553   T   T   T
  0.8266363095910518  0.6217082527423384  0.0596065490008298   T   T   T
  0.1597927706517115  0.8717924285288637  0.0595896240451695   T   T   T
  0.4930171452001619  0.8718686998117904  0.0595765973765647   T   T   T
  0.8263742286094269  0.8719061449510931  0.0595676262614534   T   T   T
  0.1599381988024246  0.6216970167219764  0.0595973786819490   T   T   T
  0.9931229920594027  0.9981545284670079  0.1396435343043606   T   T   T
  0.3266468311581257  0.9985136810797782  0.1397866585881516   T   T   T
  0.6593439323382757  0.9984375898668200  0.1397615745791792   T   T   T
  0.9929608340583804  0.7484541449555878  0.1397219243938358   T   T   T
  0.3263092172938261  0.7484544860980729  0.1397306234035520   T   T   T
  0.6596386498739399  0.7484599962924990  0.1397318151906801   T   T   T
  0.1600231043504559  0.6231683479704859  0.1661324898556596   T   T   T
  0.4933513102010400  0.6232050423508753  0.1661503245105583   T   T   T
  0.8266959607499031  0.6231564215657311  0.1661329015556935   T   T   T
  0.1601571754488116  0.8731122858911192  0.1661605162594018   T   T   T
  0.4934303883315759  0.8731049346661369  0.1661716732080328   T   T   T
  0.8267373872071196  0.8731247638226493  0.1661453555971095   T   T   T
  0.3274727748181962  0.9967364969676206  0.1929811852708734   T   T   T
  0.6607290617771621  0.9967322186352683  0.1929520053841837   T   T   T
  0.9939919404119634  0.9967167193568521  0.1928356796516596   T   T   T
  0.3271083547737593  0.7467443224279710  0.1928936490496267   T   T   T
  0.9937559878850778  0.7467605508767924  0.1928789438512659   T   T   T
  0.6605837321494035  0.7468308992145126  0.1929057548342807   T   T   T
  0.9928150530763972  0.9981494390836823  0.0862837096641446   T   T   T
  0.3263130285291440  0.9981701707341148  0.0863566072769230   T   T   T
  0.6593626091166275  0.9982273920616896  0.0863235536914121   T   T   T
  0.9927890626722261  0.7482286974462450  0.0863005299625792   T   T   T
  0.3262415096691347  0.7481573266149174  0.0863116000712825   T   T   T
  0.6594177934330856  0.7482086684857471  0.0862972394769475   T   T   T
  0.1594465331109375  0.6234813225364961  0.1127389298294634   T   T   T
  0.4928335130908698  0.6234512757444104  0.1127540200507207   T   T   T
  0.8261052697413066  0.6234712698732329  0.1127402139799221   T   T   T
  0.1596232296466263  0.8734508262635454  0.1127419638357632   T   T   T
  0.4928434044364270  0.8734052364445294  0.1127554676264807   T   T   T
  0.8260260651332880  0.8734783738647102  0.1127332055199165   T   T   T
 
  0.00000000E+00  0.00000000E+00  0.00000000E+00
  0.00000000E+00  0.00000000E+00  0.00000000E+00
  0.00000000E+00  0.00000000E+00  0.00000000E+00
  0.00000000E+00  0.00000000E+00  0.00000000E+00
  0.00000000E+00  0.00000000E+00  0.00000000E+00
  0.00000000E+00  0.00000000E+00  0.00000000E+00
  0.00000000E+00  0.00000000E+00  0.00000000E+00
  0.00000000E+00  0.00000000E+00  0.00000000E+00
  0.00000000E+00  0.00000000E+00  0.00000000E+00
  0.00000000E+00  0.00000000E+00  0.00000000E+00
  0.00000000E+00  0.00000000E+00  0.00000000E+00
  0.00000000E+00  0.00000000E+00  0.00000000E+00
  0.00000000E+00  0.00000000E+00  0.00000000E+00
  0.00000000E+00  0.00000000E+00  0.00000000E+00
  0.00000000E+00  0.00000000E+00  0.00000000E+00
  0.00000000E+00  0.00000000E+00  0.00000000E+00
  0.00000000E+00  0.00000000E+00  0.00000000E+00
  0.00000000E+00  0.00000000E+00  0.00000000E+00
  0.00000000E+00  0.00000000E+00  0.00000000E+00
  0.00000000E+00  0.00000000E+00  0.00000000E+00
  0.00000000E+00  0.00000000E+00  0.00000000E+00
  0.00000000E+00  0.00000000E+00  0.00000000E+00
  0.00000000E+00  0.00000000E+00  0.00000000E+00
  0.00000000E+00  0.00000000E+00  0.00000000E+00
  0.00000000E+00  0.00000000E+00  0.00000000E+00
  0.00000000E+00  0.00000000E+00  0.00000000E+00
  0.00000000E+00  0.00000000E+00  0.00000000E+00
  0.00000000E+00  0.00000000E+00  0.00000000E+00
  0.00000000E+00  0.00000000E+00  0.00000000E+00
  0.00000000E+00  0.00000000E+00  0.00000000E+00
  0.00000000E+00  0.00000000E+00  0.00000000E+00
  0.00000000E+00  0.00000000E+00  0.00000000E+00
  0.00000000E+00  0.00000000E+00  0.00000000E+00
  0.00000000E+00  0.00000000E+00  0.00000000E+00
  0.00000000E+00  0.00000000E+00  0.00000000E+00
  0.00000000E+00  0.00000000E+00  0.00000000E+00
  0.00000000E+00  0.00000000E+00  0.00000000E+00
  0.00000000E+00  0.00000000E+00  0.00000000E+00
  0.00000000E+00  0.00000000E+00  0.00000000E+00
  0.00000000E+00  0.00000000E+00  0.00000000E+00
  0.00000000E+00  0.00000000E+00  0.00000000E+00
  0.00000000E+00  0.00000000E+00  0.00000000E+00
  0.00000000E+00  0.00000000E+00  0.00000000E+00
  0.00000000E+00  0.00000000E+00  0.00000000E+00
  0.00000000E+00  0.00000000E+00  0.00000000E+00
  0.00000000E+00  0.00000000E+00  0.00000000E+00
  0.00000000E+00  0.00000000E+00  0.00000000E+00
  0.00000000E+00  0.00000000E+00  0.00000000E+00
  0.00000000E+00  0.00000000E+00  0.00000000E+00
  0.00000000E+00  0.00000000E+00  0.00000000E+00
  0.00000000E+00  0.00000000E+00  0.00000000E+00
  0.00000000E+00  0.00000000E+00  0.00000000E+00
  0.00000000E+00  0.00000000E+00  0.00000000E+00
  0.00000000E+00  0.00000000E+00  0.00000000E+00
  0.00000000E+00  0.00000000E+00  0.00000000E+00
  0.00000000E+00  0.00000000E+00  0.00000000E+00
  0.00000000E+00  0.00000000E+00  0.00000000E+00
  0.00000000E+00  0.00000000E+00  0.00000000E+00
  0.00000000E+00  0.00000000E+00  0.00000000E+00
  0.00000000E+00  0.00000000E+00  0.00000000E+00
  0.00000000E+00  0.00000000E+00  0.00000000E+00
  0.00000000E+00  0.00000000E+00  0.00000000E+00
  0.00000000E+00  0.00000000E+00  0.00000000E+00
  0.00000000E+00  0.00000000E+00  0.00000000E+00
  0.00000000E+00  0.00000000E+00  0.00000000E+00
  0.00000000E+00  0.00000000E+00  0.00000000E+00
  0.00000000E+00  0.00000000E+00  0.00000000E+00
  0.00000000E+00  0.00000000E+00  0.00000000E+00
  0.00000000E+00  0.00000000E+00  0.00000000E+00
  0.00000000E+00  0.00000000E+00  0.00000000E+00
  0.00000000E+00  0.00000000E+00  0.00000000E+00
  0.00000000E+00  0.00000000E+00  0.00000000E+00
  0.00000000E+00  0.00000000E+00  0.00000000E+00
  0.00000000E+00  0.00000000E+00  0.00000000E+00
  0.00000000E+00  0.00000000E+00  0.00000000E+00
  0.00000000E+00  0.00000000E+00  0.00000000E+00
  0.00000000E+00  0.00000000E+00  0.00000000E+00
  0.00000000E+00  0.00000000E+00  0.00000000E+00
  0.00000000E+00  0.00000000E+00  0.00000000E+00
  0.00000000E+00  0.00000000E+00  0.00000000E+00
  0.00000000E+00  0.00000000E+00  0.00000000E+00
  0.00000000E+00  0.00000000E+00  0.00000000E+00
  0.00000000E+00  0.00000000E+00  0.00000000E+00
  0.00000000E+00  0.00000000E+00  0.00000000E+00
  0.00000000E+00  0.00000000E+00  0.00000000E+00
  0.00000000E+00  0.00000000E+00  0.00000000E+00
  0.00000000E+00  0.00000000E+00  0.00000000E+00
  0.00000000E+00  0.00000000E+00  0.00000000E+00
  0.00000000E+00  0.00000000E+00  0.00000000E+00
  0.00000000E+00  0.00000000E+00  0.00000000E+00
  0.00000000E+00  0.00000000E+00  0.00000000E+00
  0.00000000E+00  0.00000000E+00  0.00000000E+00
  0.00000000E+00  0.00000000E+00  0.00000000E+00
  0.00000000E+00  0.00000000E+00  0.00000000E+00
  0.00000000E+00  0.00000000E+00  0.00000000E+00
  0.00000000E+00  0.00000000E+00  0.00000000E+00
  0.00000000E+00  0.00000000E+00  0.00000000E+00
  0.00000000E+00  0.00000000E+00  0.00000000E+00
  0.00000000E+00  0.00000000E+00  0.00000000E+00
  0.00000000E+00  0.00000000E+00  0.00000000E+00
  0.00000000E+00  0.00000000E+00  0.00000000E+00
  0.00000000E+00  0.00000000E+00  0.00000000E+00
  0.00000000E+00  0.00000000E+00  0.00000000E+00
  0.00000000E+00  0.00000000E+00  0.00000000E+00
  0.00000000E+00  0.00000000E+00  0.00000000E+00
  0.00000000E+00  0.00000000E+00  0.00000000E+00
  0.00000000E+00  0.00000000E+00  0.00000000E+00
  0.00000000E+00  0.00000000E+00  0.00000000E+00
  0.00000000E+00  0.00000000E+00  0.00000000E+00
  0.00000000E+00  0.00000000E+00  0.00000000E+00
  0.00000000E+00  0.00000000E+00  0.00000000E+00
  0.00000000E+00  0.00000000E+00  0.00000000E+00
  0.00000000E+00  0.00000000E+00  0.00000000E+00
  0.00000000E+00  0.00000000E+00  0.00000000E+00
  0.00000000E+00  0.00000000E+00  0.00000000E+00
  0.00000000E+00  0.00000000E+00  0.00000000E+00
  0.00000000E+00  0.00000000E+00  0.00000000E+00
  0.00000000E+00  0.00000000E+00  0.00000000E+00
  0.00000000E+00  0.00000000E+00  0.00000000E+00
  0.00000000E+00  0.00000000E+00  0.00000000E+00
  0.00000000E+00  0.00000000E+00  0.00000000E+00
  0.00000000E+00  0.00000000E+00  0.00000000E+00
  0.00000000E+00  0.00000000E+00  0.00000000E+00
  0.00000000E+00  0.00000000E+00  0.00000000E+00
  0.00000000E+00  0.00000000E+00  0.00000000E+00
  0.00000000E+00  0.00000000E+00  0.00000000E+00
  0.00000000E+00  0.00000000E+00  0.00000000E+00
  0.00000000E+00  0.00000000E+00  0.00000000E+00
  0.00000000E+00  0.00000000E+00  0.00000000E+00
  0.00000000E+00  0.00000000E+00  0.00000000E+00
  0.00000000E+00  0.00000000E+00  0.00000000E+00
  0.00000000E+00  0.00000000E+00  0.00000000E+00
  0.00000000E+00  0.00000000E+00  0.00000000E+00
  0.00000000E+00  0.00000000E+00  0.00000000E+00
  0.00000000E+00  0.00000000E+00  0.00000000E+00
  0.00000000E+00  0.00000000E+00  0.00000000E+00
  0.00000000E+00  0.00000000E+00  0.00000000E+00
  0.00000000E+00  0.00000000E+00  0.00000000E+00
  0.00000000E+00  0.00000000E+00  0.00000000E+00
  0.00000000E+00  0.00000000E+00  0.00000000E+00
  0.00000000E+00  0.00000000E+00  0.00000000E+00
  0.00000000E+00  0.00000000E+00  0.00000000E+00
  0.00000000E+00  0.00000000E+00  0.00000000E+00
  0.00000000E+00  0.00000000E+00  0.00000000E+00
  0.00000000E+00  0.00000000E+00  0.00000000E+00
  0.00000000E+00  0.00000000E+00  0.00000000E+00
  0.00000000E+00  0.00000000E+00  0.00000000E+00
  0.00000000E+00  0.00000000E+00  0.00000000E+00
  0.00000000E+00  0.00000000E+00  0.00000000E+00
  0.00000000E+00  0.00000000E+00  0.00000000E+00
  0.00000000E+00  0.00000000E+00  0.00000000E+00
  0.00000000E+00  0.00000000E+00  0.00000000E+00
  0.00000000E+00  0.00000000E+00  0.00000000E+00
  0.00000000E+00  0.00000000E+00  0.00000000E+00
  0.00000000E+00  0.00000000E+00  0.00000000E+00
  0.00000000E+00  0.00000000E+00  0.00000000E+00
  0.00000000E+00  0.00000000E+00  0.00000000E+00
  0.00000000E+00  0.00000000E+00  0.00000000E+00
  0.00000000E+00  0.00000000E+00  0.00000000E+00
  0.00000000E+00  0.00000000E+00  0.00000000E+00
  0.00000000E+00  0.00000000E+00  0.00000000E+00
  0.00000000E+00  0.00000000E+00  0.00000000E+00
  0.00000000E+00  0.00000000E+00  0.00000000E+00
  0.00000000E+00  0.00000000E+00  0.00000000E+00
  0.00000000E+00  0.00000000E+00  0.00000000E+00
  0.00000000E+00  0.00000000E+00  0.00000000E+00
  0.00000000E+00  0.00000000E+00  0.00000000E+00
  0.00000000E+00  0.00000000E+00  0.00000000E+00
  0.00000000E+00  0.00000000E+00  0.00000000E+00
  0.00000000E+00  0.00000000E+00  0.00000000E+00
  0.00000000E+00  0.00000000E+00  0.00000000E+00
  0.00000000E+00  0.00000000E+00  0.00000000E+00
  0.00000000E+00  0.00000000E+00  0.00000000E+00
  0.00000000E+00  0.00000000E+00  0.00000000E+00
  0.00000000E+00  0.00000000E+00  0.00000000E+00
  0.00000000E+00  0.00000000E+00  0.00000000E+00
  0.00000000E+00  0.00000000E+00  0.00000000E+00
  0.00000000E+00  0.00000000E+00  0.00000000E+00
  0.00000000E+00  0.00000000E+00  0.00000000E+00
  0.00000000E+00  0.00000000E+00  0.00000000E+00
  0.00000000E+00  0.00000000E+00  0.00000000E+00
  0.00000000E+00  0.00000000E+00  0.00000000E+00
  0.00000000E+00  0.00000000E+00  0.00000000E+00
  0.00000000E+00  0.00000000E+00  0.00000000E+00
  0.00000000E+00  0.00000000E+00  0.00000000E+00
  0.00000000E+00  0.00000000E+00  0.00000000E+00
  0.00000000E+00  0.00000000E+00  0.00000000E+00
  0.00000000E+00  0.00000000E+00  0.00000000E+00
  0.00000000E+00  0.00000000E+00  0.00000000E+00
  0.00000000E+00  0.00000000E+00  0.00000000E+00
  0.00000000E+00  0.00000000E+00  0.00000000E+00
  0.00000000E+00  0.00000000E+00  0.00000000E+00
  0.00000000E+00  0.00000000E+00  0.00000000E+00
  0.00000000E+00  0.00000000E+00  0.00000000E+00
  0.00000000E+00  0.00000000E+00  0.00000000E+00
  0.00000000E+00  0.00000000E+00  0.00000000E+00
  0.00000000E+00  0.00000000E+00  0.00000000E+00
  0.00000000E+00  0.00000000E+00  0.00000000E+00
  0.00000000E+00  0.00000000E+00  0.00000000E+00
  0.00000000E+00  0.00000000E+00  0.00000000E+00
  0.00000000E+00  0.00000000E+00  0.00000000E+00
  0.00000000E+00  0.00000000E+00  0.00000000E+00
  0.00000000E+00  0.00000000E+00  0.00000000E+00
  0.00000000E+00  0.00000000E+00  0.00000000E+00
  0.00000000E+00  0.00000000E+00  0.00000000E+00
  0.00000000E+00  0.00000000E+00  0.00000000E+00
  0.00000000E+00  0.00000000E+00  0.00000000E+00
  0.00000000E+00  0.00000000E+00  0.00000000E+00
  0.00000000E+00  0.00000000E+00  0.00000000E+00
  0.00000000E+00  0.00000000E+00  0.00000000E+00
  0.00000000E+00  0.00000000E+00  0.00000000E+00
  0.00000000E+00  0.00000000E+00  0.00000000E+00
  0.00000000E+00  0.00000000E+00  0.00000000E+00
  0.00000000E+00  0.00000000E+00  0.00000000E+00
  0.00000000E+00  0.00000000E+00  0.00000000E+00
  0.00000000E+00  0.00000000E+00  0.00000000E+00
  0.00000000E+00  0.00000000E+00  0.00000000E+00
  0.00000000E+00  0.00000000E+00  0.00000000E+00
  0.00000000E+00  0.00000000E+00  0.00000000E+00
  0.00000000E+00  0.00000000E+00  0.00000000E+00
  0.00000000E+00  0.00000000E+00  0.00000000E+00
  0.00000000E+00  0.00000000E+00  0.00000000E+00
  0.00000000E+00  0.00000000E+00  0.00000000E+00
  0.00000000E+00  0.00000000E+00  0.00000000E+00
  0.00000000E+00  0.00000000E+00  0.00000000E+00
  0.00000000E+00  0.00000000E+00  0.00000000E+00
  0.00000000E+00  0.00000000E+00  0.00000000E+00
  0.00000000E+00  0.00000000E+00  0.00000000E+00
  0.00000000E+00  0.00000000E+00  0.00000000E+00
