C H O Si                                
   1.00000000000000     
     9.2874599999999994    0.0000000000000000    0.0000000000000000
     0.0000000000000000   17.5126199999999983    0.0000000000000000
     0.0000000000000000    0.0000000000000000   58.0000000000000000
   C    H    O    Si
    72    57    28    72
Selective dynamics
Direct
  0.9929230241712256  0.0630506167741625  0.0604599674213967   T   T   T
  0.3265424599455152  0.0629998266381764  0.0605299456736395   T   T   T
  0.6593735077900371  0.0631269608420303  0.0604902238903301   T   T   T
  0.9927669753037609  0.3131590197970199  0.0604100739684752   T   T   T
  0.3262780780625413  0.3129984497522479  0.0605439788833806   T   T   T
  0.6594761882648706  0.3130975265518378  0.0604856992457621   T   T   T
  0.1596687046496096  0.1854822017884614  0.1394038329159408   T   T   T
  0.4929295212017092  0.1856720650145748  0.1396379019708016   T   T   T
  0.8262701359954800  0.1854816244097944  0.1393339580532459   T   T   T
  0.1595293063757786  0.4356009161832633  0.1394426974307462   T   T   T
  0.4928415852178953  0.4354865586866636  0.1394797193326072   T   T   T
  0.8261751412841849  0.4355717274704642  0.1394202444975503   T   T   T
  0.3272215308036376  0.0609263679938577  0.1667273065634938   T   T   T
  0.6596240095731829  0.0608466725254036  0.1666905852137199   T   T   T
  0.9935950372987021  0.0602681998923602  0.1664719140029391   T   T   T
  0.3264897641232657  0.3106741320099404  0.1668049617727560   T   T   T
  0.6601725397132769  0.3107406980171826  0.1666691161770291   T   T   T
  0.9934340713193858  0.3106725302707639  0.1664800699685751   T   T   T
  0.1606409362484008  0.1873045636107906  0.1918635179000701   T   T   T
  0.4941647238110288  0.1895026151933892  0.1927075956885729   T   T   T
  0.8282821229516639  0.1867368713188471  0.1915778077955201   T   T   T
  0.1602698782015056  0.4381843111386389  0.1919992955359316   T   T   T
  0.4938033151437368  0.4378600609337540  0.1920238877037458   T   T   T
  0.8274055714290414  0.4382449082472984  0.1919252518187467   T   T   T
  0.1592754922378302  0.1858500059107645  0.0858547619236879   T   T   T
  0.4926701721917494  0.1858637771021700  0.0859962297773304   T   T   T
  0.8258607531449715  0.1858515692390013  0.0858146874766826   T   T   T
  0.1593466310002478  0.4357813951084344  0.0858921581094136   T   T   T
  0.4926355786860079  0.4357672090309532  0.0859038199969051   T   T   T
  0.8259549982218991  0.4357885203773517  0.0858606775006772   T   T   T
  0.3261585556158652  0.0606403916659883  0.1130643466942669   T   T   T
  0.6592977240298747  0.0606170018721540  0.1130462148263193   T   T   T
  0.9927050661188905  0.0606109986776367  0.1129770024769420   T   T   T
  0.3260618966654723  0.3105938518163027  0.1131085324218019   T   T   T
  0.6594106468547996  0.3106481579782233  0.1130536351305477   T   T   T
  0.9927201780840482  0.3106741554904632  0.1129619987244753   T   T   T
  0.9930550629517784  0.5629550282339394  0.0604851300242610   T   T   T
  0.3264288759630389  0.5629468886436469  0.0605143653683861   T   T   T
  0.6597594866367061  0.5629443999692743  0.0605134111492514   T   T   T
  0.9928565322022043  0.8131148936942550  0.0604494300132713   T   T   T
  0.3263119940181173  0.8130382584209463  0.0604651738953464   T   T   T
  0.6595205169778492  0.8131075398338174  0.0604464916141033   T   T   T
  0.1594753812433279  0.6856610143282245  0.1394156407024928   T   T   T
  0.4927993010778308  0.6856361990512713  0.1394469193868943   T   T   T
  0.8260709743814593  0.6856567092347422  0.1394236545868122   T   T   T
  0.1597631874151209  0.9355662867642066  0.1394398753363862   T   T   T
  0.4928753325506117  0.9355311915246599  0.1394666449572116   T   T   T
  0.8259889712908302  0.9356081022583668  0.1394329133475603   T   T   T
  0.3267236521727129  0.5607453292491572  0.1666038676511613   T   T   T
  0.6598550889192574  0.5607139759450577  0.1666017700442308   T   T   T
  0.9932717251199782  0.5608327128428062  0.1665596431565374   T   T   T
  0.3266559981675747  0.8107494951124679  0.1666355084391130   T   T   T
  0.6599300879609334  0.8107301987140476  0.1666314844335082   T   T   T
  0.9933125288901152  0.8107817802342568  0.1666324878746356   T   T   T
  0.1604021139010342  0.6879632422626717  0.1919829570231727   T   T   T
  0.4938846770521007  0.6880566633121591  0.1920298416361788   T   T   T
  0.8271382012551651  0.6879612485730040  0.1919848916522043   T   T   T
  0.1607410374647562  0.9380424363513613  0.1920268534510683   T   T   T
  0.4940573162273588  0.9379600312923683  0.1920688522737086   T   T   T
  0.8272706640158314  0.9379606961596326  0.1920004445551535   T   T   T
  0.1592936595864844  0.6858530941708711  0.0858518036690801   T   T   T
  0.4927028257968105  0.6858140829571275  0.0858754663324522   T   T   T
  0.8259612253724828  0.6858536316609959  0.0858615168259117   T   T   T
  0.1593561040548084  0.9358292166985037  0.0858669657550071   T   T   T
  0.4927010284128524  0.9357707235218191  0.0858814704338557   T   T   T
  0.8258842769736386  0.9358495778927546  0.0858568438402111   T   T   T
  0.3260616995742687  0.5606211564012353  0.1130281739607747   T   T   T
  0.6593347478463697  0.5606048492287335  0.1130275660513914   T   T   T
  0.9926750441331395  0.5606467086354336  0.1129990324792537   T   T   T
  0.3260872479371792  0.8106379793519849  0.1130059731389423   T   T   T
  0.6593345210321691  0.8106408019645278  0.1130133787729161   T   T   T
  0.9926966344354655  0.8107101157885342  0.1130145478383072   T   T   T
  0.0814276438101413  0.1769656126755436  0.0262386247692904   T   T   T
  0.4126761817205809  0.1770376962973184  0.0263888686036753   T   T   T
  0.7462867233743032  0.1769356728811400  0.0262649584152720   T   T   T
  0.0809614058212731  0.4269747083611884  0.0262459135501999   T   T   T
  0.4123655651724243  0.4268220878235017  0.0263446995280443   T   T   T
  0.7449940612834421  0.4268242926929277  0.0262916407165517   T   T   T
  0.3236563483587403  0.0268677646949563  0.0449810723660756   T   T   T
  0.6562430924652328  0.0269380643539981  0.0449545867734434   T   T   T
  0.9900868547216690  0.0269384181031465  0.0449043969358970   T   T   T
  0.3233926640385474  0.2767774639542284  0.0450172268673291   T   T   T
  0.6564679961392965  0.2768208102443581  0.0449709937365386   T   T   T
  0.9900341899697893  0.2769289180027985  0.0448769796485061   T   T   T
  0.8293269930429568  0.4024054852513589  0.2075109463052353   T   T   T
  0.8306933496830080  0.1506278090367820  0.2071306487596275   T   T   T
  0.1619138226838296  0.1512023022873915  0.2074139654258965   T   T   T
  0.4968634896300273  0.1527825687727042  0.2081349671378065   T   T   T
  0.1622625818323088  0.4018096738634995  0.2074890204609311   T   T   T
  0.4941250329280769  0.4016236315885764  0.2075496352414643   T   T   T
  0.0766518206108241  0.0512300605730187  0.2261328164422239   T   T   T
  0.4112407939895421  0.0507741076806124  0.2262909156668050   T   T   T
  0.7445263451814572  0.0511310118513867  0.2262115355428085   T   T   T
  0.0738506392118434  0.3006231321605061  0.2257002554346132   T   T   T
  0.3774377019916100  0.3093212895441302  0.2293477883279925   T   T   T
  0.7795528145391081  0.2950317247459011  0.2235482311620550   T   T   T
  0.5423919055373602  0.3049955442678224  0.2744491139549120   T   T   T
  0.4894608961061877  0.2369495227681737  0.2936415055728704   T   T   T
  0.5704712013621187  0.3196514371977558  0.3032769858547556   T   T   T
  0.3129801587685039  0.1934382601518166  0.3096689770784308   T   T   T
  0.4220267236423836  0.1296241343059525  0.3023524919463695   T   T   T
  0.6516610087536968  0.3663625799310824  0.3333887092356126   T   T   T
  0.4860962763665986  0.3787942434457106  0.3306980768291349   T   T   T
  0.5113798070185178  0.3960591014939828  0.2525659498921669   T   T   T
  0.5825543635113850  0.3249604575463387  0.2394129394068613   T   T   T
  0.0806108503633288  0.6769649587614267  0.0262996435756551   T   T   T
  0.4138778018130131  0.6769346448725151  0.0263137745617818   T   T   T
  0.7469887716712844  0.6769435983214828  0.0263142274211426   T   T   T
  0.0803119883170539  0.9269554463421693  0.0262562916576931   T   T   T
  0.4124111599601787  0.9268901970252597  0.0262855423401812   T   T   T
  0.7457890546121380  0.9269393845695032  0.0262730969250906   T   T   T
  0.3234241955490747  0.5268609889556967  0.0449557112269899   T   T   T
  0.6567836076696928  0.5268625926587819  0.0449555741652315   T   T   T
  0.9900228378639157  0.5268891793008962  0.0449199777069332   T   T   T
  0.3232699570078070  0.7768531097934757  0.0449247439601751   T   T   T
  0.6565749559007017  0.7768569531114119  0.0449212689811835   T   T   T
  0.9899741840062491  0.7768749371223331  0.0449181563451062   T   T   T
  0.8295573967727927  0.9016395577470059  0.2075029594237505   T   T   T
  0.8294606746839870  0.6517707663458607  0.2075138442736469   T   T   T
  0.1626438126949021  0.6517298831988055  0.2075044028323604   T   T   T
  0.4961751561379452  0.6518588127595507  0.2075588976975584   T   T   T
  0.1626079393894152  0.9016682542941201  0.2075247623245015   T   T   T
  0.4961703304882175  0.9015643346124982  0.2075644218943832   T   T   T
  0.0755954032761397  0.5521351476429897  0.2261022145176053   T   T   T
  0.4101031713196319  0.5528611220897007  0.2259624689125040   T   T   T
  0.7432997739287207  0.5521601566673126  0.2260309918158744   T   T   T
  0.0768264717382438  0.8013976005119564  0.2261131450412670   T   T   T
  0.4093411786186043  0.8015842446800544  0.2261757813177757   T   T   T
  0.7449763679328523  0.8012636058301913  0.2261029679904515   T   T   T
  0.1720468853202674  0.1672520638760612  0.0342494907192342   T   T   T
  0.5035801749822710  0.1690885104162951  0.0345013842606903   T   T   T
  0.8373911280642728  0.1677782333409613  0.0342131853398172   T   T   T
  0.1716031423789937  0.4176513775832431  0.0342998045863657   T   T   T
  0.5035795395186003  0.4179891292108087  0.0343003621672340   T   T   T
  0.8363166479227468  0.4184241735333181  0.0342607135669642   T   T   T
  0.3197555075821530  0.0429902822319643  0.2183223695373748   T   T   T
  0.6529601887996503  0.0430568894897571  0.2182949579360644   T   T   T
  0.9855702033825243  0.0432751274026258  0.2180848343358855   T   T   T
  0.3021722432816140  0.2935551540038452  0.2183134844433692   T   T   T
  0.6783057721211709  0.2926003401586379  0.2183758302807004   T   T   T
  0.9819609955793061  0.2921480645822880  0.2178262043775922   T   T   T
  0.5670777041604549  0.2791632321469886  0.2899867228806488   T   T   T
  0.3801130895473384  0.1782370877059534  0.2975522505775562   T   T   T
  0.5766455920058060  0.3780140080467217  0.3221243254451989   T   T   T
  0.5068667058172551  0.3406050494568773  0.2509200037206632   T   T   T
  0.1715324492530184  0.6674105407244698  0.0342512664365714   T   T   T
  0.5047767324583771  0.6673783326193073  0.0342675146099803   T   T   T
  0.8379287742650205  0.6675670768990627  0.0342819780975408   T   T   T
  0.1711420253498483  0.9179158404937429  0.0342854962148429   T   T   T
  0.5035637940081116  0.9184167674287276  0.0342824230216082   T   T   T
  0.8368866437627269  0.9184240544498848  0.0342843198974559   T   T   T
  0.3186962645777647  0.5429434947416819  0.2182040558777454   T   T   T
  0.6518846900976319  0.5429095872255515  0.2181938724200190   T   T   T
  0.9844498596539929  0.5433631074160373  0.2181450302553854   T   T   T
  0.3181099462554579  0.7927236354441116  0.2182566036778836   T   T   T
  0.6532474662074634  0.7930765941338082  0.2182524586480571   T   T   T
  0.9852614016758595  0.7928425261584210  0.2182591626920873   T   T   T
  0.4929874718662001  0.1220310788518795  0.0596772765560293   T   T   T
  0.8262875736477429  0.1217939395305681  0.0595507962383922   T   T   T
  0.1598188243353989  0.3717513750826429  0.0596207780816745   T   T   T
  0.4929066138320266  0.3718104616384081  0.0596184983084922   T   T   T
  0.8261376497659210  0.3719468088267210  0.0595378116354499   T   T   T
  0.1599660443756724  0.1216411610677645  0.0596169939998873   T   T   T
  0.9928177076149706  0.4984569637002239  0.1397085063372438   T   T   T
  0.3262036932765674  0.4984109313832064  0.1397306373585174   T   T   T
  0.6594684677716144  0.4983911182533590  0.1397292162720329   T   T   T
  0.9929691046666043  0.2483010239662352  0.1396042929520100   T   T   T
  0.3261587048575092  0.2484196015811345  0.1398548812720849   T   T   T
  0.6596934631192972  0.2483707148116260  0.1397361949570101   T   T   T
  0.1600704888625437  0.1227550826538292  0.1660556177072394   T   T   T
  0.4934006579422004  0.1237609936136507  0.1664811210570736   T   T   T
  0.8270436871458834  0.1223636866971790  0.1658798389116057   T   T   T
  0.1599552684743439  0.3731967322252620  0.1661574085204650   T   T   T
  0.4930310419933291  0.3729475247907234  0.1661716950874454   T   T   T
  0.8268735695778713  0.3731828937631390  0.1661229062586931   T   T   T
  0.3270140238294560  0.4968330147054432  0.1928719303857171   T   T   T
  0.6606763045173649  0.4967908419592927  0.1928628571218312   T   T   T
  0.9938518174289038  0.4970338820961300  0.1928462526436333   T   T   T
  0.3254331506193412  0.2474873669683328  0.1933630688181286   T   T   T
  0.9941940286184776  0.2457916588449810  0.1924441431265485   T   T   T
  0.6634154130130285  0.2462192735212769  0.1927265876164246   T   T   T
  0.9927269009485848  0.4981180632792778  0.0863131501837335   T   T   T
  0.3260708461361279  0.4981192488074212  0.0863357537709683   T   T   T
  0.6593877577405605  0.4981104924349753  0.0863292865585386   T   T   T
  0.9925874787983527  0.2482237038259956  0.0862548269519123   T   T   T
  0.3260601477526711  0.2481673836025866  0.0863798734666886   T   T   T
  0.6593551879833375  0.2482373470131387  0.0863293355137779   T   T   T
  0.1593925444787957  0.1234095092600746  0.1126902722155194   T   T   T
  0.4927007287409414  0.1234938550523585  0.1128497447954988   T   T   T
  0.8259871843769158  0.1234044952038713  0.1126402146882789   T   T   T
  0.1593704088193910  0.3734364470158655  0.1127378780768437   T   T   T
  0.4926627439266791  0.3734071922278616  0.1127501150694304   T   T   T
  0.8260110051587927  0.3734629398579090  0.1127049008956384   T   T   T
  0.4932645469135875  0.6216571135962858  0.0596292246554549   T   T   T
  0.8265524416671358  0.6217019900520387  0.0596162917286174   T   T   T
  0.1597986839998617  0.8718192476199417  0.0595862439056669   T   T   T
  0.4929875892255433  0.8719241437090945  0.0595614496006447   T   T   T
  0.8262551901462389  0.8719296380557097  0.0595546118372433   T   T   T
  0.1599245483806212  0.6216765782185993  0.0596104320422768   T   T   T
  0.9929784876082516  0.9981869626104098  0.1396470670397016   T   T   T
  0.3265096022918152  0.9984920403719693  0.1397859614581513   T   T   T
  0.6592091570490695  0.9984746921535601  0.1397673258744844   T   T   T
  0.9927792089559004  0.7485101738969288  0.1397353445192674   T   T   T
  0.3261378080079534  0.7484973169975393  0.1397321157830950   T   T   T
  0.6594137855838268  0.7484861928676215  0.1397344845216392   T   T   T
  0.1598809391866566  0.6231606301038756  0.1661114412676199   T   T   T
  0.4932665442791053  0.6231900486532848  0.1661567089540587   T   T   T
  0.8265304036174584  0.6231625662298559  0.1661214836603404   T   T   T
  0.1599890258277869  0.8731575582772970  0.1661674010726768   T   T   T
  0.4932855781132448  0.8731381874281020  0.1661925244111284   T   T   T
  0.8265034771610805  0.8731114590208812  0.1661432769995471   T   T   T
  0.3275123690266783  0.9967690948799188  0.1929889755053630   T   T   T
  0.6607894844241854  0.9967260318087788  0.1929723649861492   T   T   T
  0.9940078372111769  0.9966396880722634  0.1928297970142149   T   T   T
  0.3270805878120972  0.7466958724563605  0.1929020760988459   T   T   T
  0.9937971611047403  0.7467215370029221  0.1929020020798320   T   T   T
  0.6607143337965701  0.7467913584810233  0.1929201401774675   T   T   T
  0.9926895865553560  0.9981404822821937  0.0862829277254690   T   T   T
  0.3261961378948849  0.9981277254522725  0.0863490236508300   T   T   T
  0.6592537657926238  0.9981894837122884  0.0863230759548468   T   T   T
  0.9926857895621538  0.7482258546520284  0.0863031537131587   T   T   T
  0.3261043469922046  0.7481746786029344  0.0863009286127458   T   T   T
  0.6593545152318839  0.7482227286983570  0.0863003599486613   T   T   T
  0.1593295191421892  0.6234848726638568  0.1127110085063080   T   T   T
  0.4926501041410921  0.6234703731705472  0.1127375049077411   T   T   T
  0.8259651551874982  0.6234872510040860  0.1127179785549595   T   T   T
  0.1594573923441300  0.8734591223731498  0.1127193459401430   T   T   T
  0.4926589281751895  0.8734515789159698  0.1127314281336757   T   T   T
  0.8258759681769081  0.8734887849587442  0.1127119892979822   T   T   T
 
  0.00000000E+00  0.00000000E+00  0.00000000E+00
  0.00000000E+00  0.00000000E+00  0.00000000E+00
  0.00000000E+00  0.00000000E+00  0.00000000E+00
  0.00000000E+00  0.00000000E+00  0.00000000E+00
  0.00000000E+00  0.00000000E+00  0.00000000E+00
  0.00000000E+00  0.00000000E+00  0.00000000E+00
  0.00000000E+00  0.00000000E+00  0.00000000E+00
  0.00000000E+00  0.00000000E+00  0.00000000E+00
  0.00000000E+00  0.00000000E+00  0.00000000E+00
  0.00000000E+00  0.00000000E+00  0.00000000E+00
  0.00000000E+00  0.00000000E+00  0.00000000E+00
  0.00000000E+00  0.00000000E+00  0.00000000E+00
  0.00000000E+00  0.00000000E+00  0.00000000E+00
  0.00000000E+00  0.00000000E+00  0.00000000E+00
  0.00000000E+00  0.00000000E+00  0.00000000E+00
  0.00000000E+00  0.00000000E+00  0.00000000E+00
  0.00000000E+00  0.00000000E+00  0.00000000E+00
  0.00000000E+00  0.00000000E+00  0.00000000E+00
  0.00000000E+00  0.00000000E+00  0.00000000E+00
  0.00000000E+00  0.00000000E+00  0.00000000E+00
  0.00000000E+00  0.00000000E+00  0.00000000E+00
  0.00000000E+00  0.00000000E+00  0.00000000E+00
  0.00000000E+00  0.00000000E+00  0.00000000E+00
  0.00000000E+00  0.00000000E+00  0.00000000E+00
  0.00000000E+00  0.00000000E+00  0.00000000E+00
  0.00000000E+00  0.00000000E+00  0.00000000E+00
  0.00000000E+00  0.00000000E+00  0.00000000E+00
  0.00000000E+00  0.00000000E+00  0.00000000E+00
  0.00000000E+00  0.00000000E+00  0.00000000E+00
  0.00000000E+00  0.00000000E+00  0.00000000E+00
  0.00000000E+00  0.00000000E+00  0.00000000E+00
  0.00000000E+00  0.00000000E+00  0.00000000E+00
  0.00000000E+00  0.00000000E+00  0.00000000E+00
  0.00000000E+00  0.00000000E+00  0.00000000E+00
  0.00000000E+00  0.00000000E+00  0.00000000E+00
  0.00000000E+00  0.00000000E+00  0.00000000E+00
  0.00000000E+00  0.00000000E+00  0.00000000E+00
  0.00000000E+00  0.00000000E+00  0.00000000E+00
  0.00000000E+00  0.00000000E+00  0.00000000E+00
  0.00000000E+00  0.00000000E+00  0.00000000E+00
  0.00000000E+00  0.00000000E+00  0.00000000E+00
  0.00000000E+00  0.00000000E+00  0.00000000E+00
  0.00000000E+00  0.00000000E+00  0.00000000E+00
  0.00000000E+00  0.00000000E+00  0.00000000E+00
  0.00000000E+00  0.00000000E+00  0.00000000E+00
  0.00000000E+00  0.00000000E+00  0.00000000E+00
  0.00000000E+00  0.00000000E+00  0.00000000E+00
  0.00000000E+00  0.00000000E+00  0.00000000E+00
  0.00000000E+00  0.00000000E+00  0.00000000E+00
  0.00000000E+00  0.00000000E+00  0.00000000E+00
  0.00000000E+00  0.00000000E+00  0.00000000E+00
  0.00000000E+00  0.00000000E+00  0.00000000E+00
  0.00000000E+00  0.00000000E+00  0.00000000E+00
  0.00000000E+00  0.00000000E+00  0.00000000E+00
  0.00000000E+00  0.00000000E+00  0.00000000E+00
  0.00000000E+00  0.00000000E+00  0.00000000E+00
  0.00000000E+00  0.00000000E+00  0.00000000E+00
  0.00000000E+00  0.00000000E+00  0.00000000E+00
  0.00000000E+00  0.00000000E+00  0.00000000E+00
  0.00000000E+00  0.00000000E+00  0.00000000E+00
  0.00000000E+00  0.00000000E+00  0.00000000E+00
  0.00000000E+00  0.00000000E+00  0.00000000E+00
  0.00000000E+00  0.00000000E+00  0.00000000E+00
  0.00000000E+00  0.00000000E+00  0.00000000E+00
  0.00000000E+00  0.00000000E+00  0.00000000E+00
  0.00000000E+00  0.00000000E+00  0.00000000E+00
  0.00000000E+00  0.00000000E+00  0.00000000E+00
  0.00000000E+00  0.00000000E+00  0.00000000E+00
  0.00000000E+00  0.00000000E+00  0.00000000E+00
  0.00000000E+00  0.00000000E+00  0.00000000E+00
  0.00000000E+00  0.00000000E+00  0.00000000E+00
  0.00000000E+00  0.00000000E+00  0.00000000E+00
  0.00000000E+00  0.00000000E+00  0.00000000E+00
  0.00000000E+00  0.00000000E+00  0.00000000E+00
  0.00000000E+00  0.00000000E+00  0.00000000E+00
  0.00000000E+00  0.00000000E+00  0.00000000E+00
  0.00000000E+00  0.00000000E+00  0.00000000E+00
  0.00000000E+00  0.00000000E+00  0.00000000E+00
  0.00000000E+00  0.00000000E+00  0.00000000E+00
  0.00000000E+00  0.00000000E+00  0.00000000E+00
  0.00000000E+00  0.00000000E+00  0.00000000E+00
  0.00000000E+00  0.00000000E+00  0.00000000E+00
  0.00000000E+00  0.00000000E+00  0.00000000E+00
  0.00000000E+00  0.00000000E+00  0.00000000E+00
  0.00000000E+00  0.00000000E+00  0.00000000E+00
  0.00000000E+00  0.00000000E+00  0.00000000E+00
  0.00000000E+00  0.00000000E+00  0.00000000E+00
  0.00000000E+00  0.00000000E+00  0.00000000E+00
  0.00000000E+00  0.00000000E+00  0.00000000E+00
  0.00000000E+00  0.00000000E+00  0.00000000E+00
  0.00000000E+00  0.00000000E+00  0.00000000E+00
  0.00000000E+00  0.00000000E+00  0.00000000E+00
  0.00000000E+00  0.00000000E+00  0.00000000E+00
  0.00000000E+00  0.00000000E+00  0.00000000E+00
  0.00000000E+00  0.00000000E+00  0.00000000E+00
  0.00000000E+00  0.00000000E+00  0.00000000E+00
  0.00000000E+00  0.00000000E+00  0.00000000E+00
  0.00000000E+00  0.00000000E+00  0.00000000E+00
  0.00000000E+00  0.00000000E+00  0.00000000E+00
  0.00000000E+00  0.00000000E+00  0.00000000E+00
  0.00000000E+00  0.00000000E+00  0.00000000E+00
  0.00000000E+00  0.00000000E+00  0.00000000E+00
  0.00000000E+00  0.00000000E+00  0.00000000E+00
  0.00000000E+00  0.00000000E+00  0.00000000E+00
  0.00000000E+00  0.00000000E+00  0.00000000E+00
  0.00000000E+00  0.00000000E+00  0.00000000E+00
  0.00000000E+00  0.00000000E+00  0.00000000E+00
  0.00000000E+00  0.00000000E+00  0.00000000E+00
  0.00000000E+00  0.00000000E+00  0.00000000E+00
  0.00000000E+00  0.00000000E+00  0.00000000E+00
  0.00000000E+00  0.00000000E+00  0.00000000E+00
  0.00000000E+00  0.00000000E+00  0.00000000E+00
  0.00000000E+00  0.00000000E+00  0.00000000E+00
  0.00000000E+00  0.00000000E+00  0.00000000E+00
  0.00000000E+00  0.00000000E+00  0.00000000E+00
  0.00000000E+00  0.00000000E+00  0.00000000E+00
  0.00000000E+00  0.00000000E+00  0.00000000E+00
  0.00000000E+00  0.00000000E+00  0.00000000E+00
  0.00000000E+00  0.00000000E+00  0.00000000E+00
  0.00000000E+00  0.00000000E+00  0.00000000E+00
  0.00000000E+00  0.00000000E+00  0.00000000E+00
  0.00000000E+00  0.00000000E+00  0.00000000E+00
  0.00000000E+00  0.00000000E+00  0.00000000E+00
  0.00000000E+00  0.00000000E+00  0.00000000E+00
  0.00000000E+00  0.00000000E+00  0.00000000E+00
  0.00000000E+00  0.00000000E+00  0.00000000E+00
  0.00000000E+00  0.00000000E+00  0.00000000E+00
  0.00000000E+00  0.00000000E+00  0.00000000E+00
  0.00000000E+00  0.00000000E+00  0.00000000E+00
  0.00000000E+00  0.00000000E+00  0.00000000E+00
  0.00000000E+00  0.00000000E+00  0.00000000E+00
  0.00000000E+00  0.00000000E+00  0.00000000E+00
  0.00000000E+00  0.00000000E+00  0.00000000E+00
  0.00000000E+00  0.00000000E+00  0.00000000E+00
  0.00000000E+00  0.00000000E+00  0.00000000E+00
  0.00000000E+00  0.00000000E+00  0.00000000E+00
  0.00000000E+00  0.00000000E+00  0.00000000E+00
  0.00000000E+00  0.00000000E+00  0.00000000E+00
  0.00000000E+00  0.00000000E+00  0.00000000E+00
  0.00000000E+00  0.00000000E+00  0.00000000E+00
  0.00000000E+00  0.00000000E+00  0.00000000E+00
  0.00000000E+00  0.00000000E+00  0.00000000E+00
  0.00000000E+00  0.00000000E+00  0.00000000E+00
  0.00000000E+00  0.00000000E+00  0.00000000E+00
  0.00000000E+00  0.00000000E+00  0.00000000E+00
  0.00000000E+00  0.00000000E+00  0.00000000E+00
  0.00000000E+00  0.00000000E+00  0.00000000E+00
  0.00000000E+00  0.00000000E+00  0.00000000E+00
  0.00000000E+00  0.00000000E+00  0.00000000E+00
  0.00000000E+00  0.00000000E+00  0.00000000E+00
  0.00000000E+00  0.00000000E+00  0.00000000E+00
  0.00000000E+00  0.00000000E+00  0.00000000E+00
  0.00000000E+00  0.00000000E+00  0.00000000E+00
  0.00000000E+00  0.00000000E+00  0.00000000E+00
  0.00000000E+00  0.00000000E+00  0.00000000E+00
  0.00000000E+00  0.00000000E+00  0.00000000E+00
  0.00000000E+00  0.00000000E+00  0.00000000E+00
  0.00000000E+00  0.00000000E+00  0.00000000E+00
  0.00000000E+00  0.00000000E+00  0.00000000E+00
  0.00000000E+00  0.00000000E+00  0.00000000E+00
  0.00000000E+00  0.00000000E+00  0.00000000E+00
  0.00000000E+00  0.00000000E+00  0.00000000E+00
  0.00000000E+00  0.00000000E+00  0.00000000E+00
  0.00000000E+00  0.00000000E+00  0.00000000E+00
  0.00000000E+00  0.00000000E+00  0.00000000E+00
  0.00000000E+00  0.00000000E+00  0.00000000E+00
  0.00000000E+00  0.00000000E+00  0.00000000E+00
  0.00000000E+00  0.00000000E+00  0.00000000E+00
  0.00000000E+00  0.00000000E+00  0.00000000E+00
  0.00000000E+00  0.00000000E+00  0.00000000E+00
  0.00000000E+00  0.00000000E+00  0.00000000E+00
  0.00000000E+00  0.00000000E+00  0.00000000E+00
  0.00000000E+00  0.00000000E+00  0.00000000E+00
  0.00000000E+00  0.00000000E+00  0.00000000E+00
  0.00000000E+00  0.00000000E+00  0.00000000E+00
  0.00000000E+00  0.00000000E+00  0.00000000E+00
  0.00000000E+00  0.00000000E+00  0.00000000E+00
  0.00000000E+00  0.00000000E+00  0.00000000E+00
  0.00000000E+00  0.00000000E+00  0.00000000E+00
  0.00000000E+00  0.00000000E+00  0.00000000E+00
  0.00000000E+00  0.00000000E+00  0.00000000E+00
  0.00000000E+00  0.00000000E+00  0.00000000E+00
  0.00000000E+00  0.00000000E+00  0.00000000E+00
  0.00000000E+00  0.00000000E+00  0.00000000E+00
  0.00000000E+00  0.00000000E+00  0.00000000E+00
  0.00000000E+00  0.00000000E+00  0.00000000E+00
  0.00000000E+00  0.00000000E+00  0.00000000E+00
  0.00000000E+00  0.00000000E+00  0.00000000E+00
  0.00000000E+00  0.00000000E+00  0.00000000E+00
  0.00000000E+00  0.00000000E+00  0.00000000E+00
  0.00000000E+00  0.00000000E+00  0.00000000E+00
  0.00000000E+00  0.00000000E+00  0.00000000E+00
  0.00000000E+00  0.00000000E+00  0.00000000E+00
  0.00000000E+00  0.00000000E+00  0.00000000E+00
  0.00000000E+00  0.00000000E+00  0.00000000E+00
  0.00000000E+00  0.00000000E+00  0.00000000E+00
  0.00000000E+00  0.00000000E+00  0.00000000E+00
  0.00000000E+00  0.00000000E+00  0.00000000E+00
  0.00000000E+00  0.00000000E+00  0.00000000E+00
  0.00000000E+00  0.00000000E+00  0.00000000E+00
  0.00000000E+00  0.00000000E+00  0.00000000E+00
  0.00000000E+00  0.00000000E+00  0.00000000E+00
  0.00000000E+00  0.00000000E+00  0.00000000E+00
  0.00000000E+00  0.00000000E+00  0.00000000E+00
  0.00000000E+00  0.00000000E+00  0.00000000E+00
  0.00000000E+00  0.00000000E+00  0.00000000E+00
  0.00000000E+00  0.00000000E+00  0.00000000E+00
  0.00000000E+00  0.00000000E+00  0.00000000E+00
  0.00000000E+00  0.00000000E+00  0.00000000E+00
  0.00000000E+00  0.00000000E+00  0.00000000E+00
  0.00000000E+00  0.00000000E+00  0.00000000E+00
  0.00000000E+00  0.00000000E+00  0.00000000E+00
  0.00000000E+00  0.00000000E+00  0.00000000E+00
  0.00000000E+00  0.00000000E+00  0.00000000E+00
  0.00000000E+00  0.00000000E+00  0.00000000E+00
  0.00000000E+00  0.00000000E+00  0.00000000E+00
  0.00000000E+00  0.00000000E+00  0.00000000E+00
  0.00000000E+00  0.00000000E+00  0.00000000E+00
  0.00000000E+00  0.00000000E+00  0.00000000E+00
  0.00000000E+00  0.00000000E+00  0.00000000E+00
  0.00000000E+00  0.00000000E+00  0.00000000E+00
  0.00000000E+00  0.00000000E+00  0.00000000E+00
  0.00000000E+00  0.00000000E+00  0.00000000E+00
  0.00000000E+00  0.00000000E+00  0.00000000E+00
  0.00000000E+00  0.00000000E+00  0.00000000E+00
  0.00000000E+00  0.00000000E+00  0.00000000E+00
  0.00000000E+00  0.00000000E+00  0.00000000E+00
  0.00000000E+00  0.00000000E+00  0.00000000E+00
  0.00000000E+00  0.00000000E+00  0.00000000E+00
