C H O Si                                
   1.00000000000000     
     9.2874599999999994    0.0000000000000000    0.0000000000000000
     0.0000000000000000   17.5126199999999983    0.0000000000000000
     0.0000000000000000    0.0000000000000000   58.0000000000000000
   C    H    O    Si
    72    57    28    72
Selective dynamics
Direct
  0.9931974084579375  0.0630842925605180  0.0604748852357534   T   T   T
  0.3265385826622771  0.0631140361843644  0.0605572753040124   T   T   T
  0.6598579805100552  0.0630770060478881  0.0605354273346988   T   T   T
  0.9930207516682120  0.3131276365530837  0.0604611171561776   T   T   T
  0.3263501205430787  0.3130800105527007  0.0605643184221651   T   T   T
  0.6597287885398283  0.3131064948411535  0.0605256347951913   T   T   T
  0.1600605816347724  0.1858992593660125  0.1393941394531437   T   T   T
  0.4932998858237562  0.1862218463356925  0.1396284646458749   T   T   T
  0.8266745175881153  0.1858913577010582  0.1393129771267873   T   T   T
  0.1598772839202174  0.4360329149991751  0.1394286353219650   T   T   T
  0.4932508652566462  0.4359542140540494  0.1394712785819055   T   T   T
  0.8266011693906414  0.4360131081402265  0.1394164167664923   T   T   T
  0.3274511552453228  0.0613044046653999  0.1667025058241275   T   T   T
  0.6597647325284786  0.0612233690148183  0.1666577379298632   T   T   T
  0.9938599310478248  0.0605941899455806  0.1664326638333290   T   T   T
  0.3266700806914433  0.3111250471928785  0.1667598997219527   T   T   T
  0.6605832645003269  0.3111985233037211  0.1666294670129622   T   T   T
  0.9936649343449002  0.3110973432477979  0.1664668191628026   T   T   T
  0.1607722859214374  0.1872731269641535  0.1917198551684143   T   T   T
  0.4940667598927362  0.1898221700179414  0.1926964820866667   T   T   T
  0.8280153472835274  0.1867918890890266  0.1914887913128755   T   T   T
  0.1600993374524660  0.4383777872077609  0.1919519324994459   T   T   T
  0.4936153743545051  0.4379956365591667  0.1919938350452573   T   T   T
  0.8271043659265025  0.4384447286830585  0.1918969084392055   T   T   T
  0.1597222356874749  0.1861293682882808  0.0858662709272742   T   T   T
  0.4930093006020240  0.1861430094881558  0.0859807047473034   T   T   T
  0.8262833642382335  0.1861009448690518  0.0858163778427867   T   T   T
  0.1597420932128324  0.4361090252398045  0.0858865706547554   T   T   T
  0.4930251772359064  0.4360955335332948  0.0859157220984394   T   T   T
  0.8263355075292241  0.4360935479596187  0.0858685340416909   T   T   T
  0.3264211578045247  0.0610173114426395  0.1130855191508336   T   T   T
  0.6596514711336849  0.0610026588132669  0.1130680701611017   T   T   T
  0.9930786828500406  0.0609207846378181  0.1129949725027642   T   T   T
  0.3263950961522512  0.3109833303137722  0.1131285377864662   T   T   T
  0.6598550207145331  0.3109852670983669  0.1130771658000310   T   T   T
  0.9930851692777595  0.3109731404235263  0.1129884058519642   T   T   T
  0.9932724121424957  0.5630567558831809  0.0605116698395358   T   T   T
  0.3265430682206621  0.5630771346029031  0.0605255976829298   T   T   T
  0.6599971953750321  0.5630897965799332  0.0605174292551098   T   T   T
  0.9930749259178152  0.8130957115865772  0.0605194471869011   T   T   T
  0.3263900622521318  0.8130717475160293  0.0605139057717290   T   T   T
  0.6597617024381367  0.8130942319207531  0.0605125028604462   T   T   T
  0.1598691872462665  0.6860479508628894  0.1394261097116446   T   T   T
  0.4930958173724773  0.6860359793959820  0.1394332509512534   T   T   T
  0.8264476313427354  0.6860403683600220  0.1394297461375267   T   T   T
  0.1603048142930917  0.9359973086144550  0.1394326028816956   T   T   T
  0.4932384186720472  0.9359477980051057  0.1394425730960597   T   T   T
  0.8264219294876473  0.9360188098276127  0.1394259141274128   T   T   T
  0.3266804888390151  0.5611660882248425  0.1665806601901462   T   T   T
  0.6598966499058537  0.5611650485499194  0.1665755823698421   T   T   T
  0.9933369973730598  0.5613312509243666  0.1665435275984857   T   T   T
  0.3267483576887076  0.8111124039388447  0.1665905436902681   T   T   T
  0.6600889050306797  0.8111466416799034  0.1666082119119908   T   T   T
  0.9934476979749826  0.8111919570082525  0.1665858812703138   T   T   T
  0.1603814299979340  0.6881324268877770  0.1919576193281589   T   T   T
  0.4936500259841101  0.6881404871419159  0.1919807460523764   T   T   T
  0.8268544426900535  0.6881648418986221  0.1919551312498026   T   T   T
  0.1606247862603493  0.9381219262496743  0.1919781738300296   T   T   T
  0.4938102955171608  0.9380507125964763  0.1920052820843347   T   T   T
  0.8270324422063600  0.9380833396750711  0.1919440694519654   T   T   T
  0.1596893700688184  0.6861225791783044  0.0858835223441022   T   T   T
  0.4930358782739357  0.6861028482772017  0.0858873787590365   T   T   T
  0.8263093691839789  0.6861318202297457  0.0858814468555865   T   T   T
  0.1597551637027615  0.9361063432931008  0.0858747960767677   T   T   T
  0.4930021353184560  0.9361018517833515  0.0858927343192465   T   T   T
  0.8262584281802080  0.9361098215913983  0.0858688646154153   T   T   T
  0.3263707986333440  0.5609805703437026  0.1130562859465595   T   T   T
  0.6597039120328553  0.5609824513742064  0.1130511888304962   T   T   T
  0.9930446721944374  0.5609956966303804  0.1130343187531961   T   T   T
  0.3264542569871335  0.8109775037594905  0.1130323810420643   T   T   T
  0.6597130688534255  0.8109885058056002  0.1130413646762449   T   T   T
  0.9930931883649651  0.8110557074701874  0.1130479766169196   T   T   T
  0.0746035922997647  0.1774002495370638  0.0272579470646982   T   T   T
  0.4071725401781144  0.1774394130576049  0.0274203437505254   T   T   T
  0.7401271267679915  0.1773638365116641  0.0272814432970117   T   T   T
  0.0743939029613296  0.4274659551955690  0.0272583594411684   T   T   T
  0.4067939391273683  0.4273384329838935  0.0273426408976663   T   T   T
  0.7397620300979774  0.4273561251191165  0.0273138794910421   T   T   T
  0.3243366341396045  0.0267395294837419  0.0450710575393384   T   T   T
  0.6568870530251741  0.0267189827056404  0.0450444828855891   T   T   T
  0.9908001239199336  0.0267691628781668  0.0449749854375253   T   T   T
  0.3237986180220552  0.2766601942447672  0.0450869756068825   T   T   T
  0.6570522202364747  0.2767341688823194  0.0450351162047924   T   T   T
  0.9904887746354075  0.2768392276287632  0.0449520876497415   T   T   T
  0.8286597391253018  0.4024528785375103  0.2074501472449302   T   T   T
  0.8304336495137600  0.1506725853801105  0.2070283087476560   T   T   T
  0.1619868032422734  0.1511848392717046  0.2072718332120916   T   T   T
  0.4970454059774428  0.1529308966765889  0.2080795080098713   T   T   T
  0.1620075753068728  0.4019361143003913  0.2074240677862565   T   T   T
  0.4941057028258793  0.4017793300298021  0.2075271077883642   T   T   T
  0.0799195316514438  0.0523040340183370  0.2251848095439441   T   T   T
  0.4141995031477916  0.0518443941790116  0.2253254200645463   T   T   T
  0.7474915867850647  0.0520844972842070  0.2252342617974901   T   T   T
  0.0781335153415561  0.3009666341815900  0.2248032148623270   T   T   T
  0.3782146542584949  0.3101879958471452  0.2286467425322214   T   T   T
  0.7821217168067512  0.2950183976197606  0.2230207929106579   T   T   T
  0.5471399567075156  0.3054639722005549  0.2740318626418095   T   T   T
  0.4932125151836760  0.2379325586944835  0.2933672667380177   T   T   T
  0.5722529231371530  0.3200531382005499  0.3030882351964413   T   T   T
  0.3152470617210932  0.1947946563100097  0.3097239707485928   T   T   T
  0.4221767781873050  0.1304220825963661  0.3021997730968581   T   T   T
  0.6503222138029220  0.3660571623171452  0.3335315285931142   T   T   T
  0.4843804028865533  0.3771320808647883  0.3308290503957620   T   T   T
  0.5184480420567567  0.3954414615868805  0.2522067807699769   T   T   T
  0.5855754819315792  0.3234119999821431  0.2388314267485583   T   T   T
  0.0742716898563944  0.6774632711787896  0.0273053992151398   T   T   T
  0.4072587995442928  0.6774010552561143  0.0273345833303575   T   T   T
  0.7405294037388366  0.6773871767995743  0.0273338009865368   T   T   T
  0.0740436608677237  0.9274340756317909  0.0272927148003292   T   T   T
  0.4068934722945981  0.9273501981977169  0.0273314924190685   T   T   T
  0.7402404942118117  0.9274027998257220  0.0273204037143004   T   T   T
  0.3240221526766887  0.5267245017754069  0.0450340544082229   T   T   T
  0.6574199071863637  0.5267317250669196  0.0450294073623270   T   T   T
  0.9906693538103624  0.5267354058390028  0.0450156449318308   T   T   T
  0.3238361954728508  0.7766939701640907  0.0450253251690544   T   T   T
  0.6570775588799308  0.7767129285346109  0.0450262242324364   T   T   T
  0.9904542015425736  0.7767231112673088  0.0450288749424141   T   T   T
  0.8294129429006056  0.9017322232285220  0.2074403782741748   T   T   T
  0.8291727909636609  0.6517953982276271  0.2074491964082801   T   T   T
  0.1624844026984779  0.6517867245551793  0.2074573040201847   T   T   T
  0.4959644193989756  0.6518625203844330  0.2074895634249762   T   T   T
  0.1626142352470958  0.9017389319502774  0.2074699410924039   T   T   T
  0.4961454183171718  0.9016413811018057  0.2074904952126568   T   T   T
  0.0792693329635920  0.5533417742744173  0.2251692841844764   T   T   T
  0.4134077038078703  0.5537889333088269  0.2250076973268807   T   T   T
  0.7466103344415758  0.5531882066987981  0.2251070378256348   T   T   T
  0.0802640443830150  0.8023367502537547  0.2251976179041019   T   T   T
  0.4129028662751558  0.8026300534912767  0.2252635394646386   T   T   T
  0.7479299452559811  0.8021056759136559  0.2251359231536814   T   T   T
  0.1687316230543319  0.1665905904064266  0.0340337417964340   T   T   T
  0.5015717144555777  0.1666337473840169  0.0341083666235237   T   T   T
  0.8345286985870879  0.1664759325282155  0.0339565633905639   T   T   T
  0.1685366986622666  0.4166045217376900  0.0340309741927856   T   T   T
  0.5012235662812710  0.4165075286309449  0.0340212138675323   T   T   T
  0.8341947867932000  0.4165868552496359  0.0339932075192736   T   T   T
  0.3197840192899734  0.0415788238696446  0.2185720456443076   T   T   T
  0.6529968211951191  0.0415824236177495  0.2185337601418986   T   T   T
  0.9857474133940523  0.0416097315832296  0.2184130710515540   T   T   T
  0.3003353070863078  0.2918091792187147  0.2185769307617549   T   T   T
  0.6796224698849008  0.2914121923613172  0.2185430728388710   T   T   T
  0.9831747626531507  0.2897437419447674  0.2182220235134073   T   T   T
  0.5710664305870091  0.2796995382297054  0.2898028989297918   T   T   T
  0.3813368395425492  0.1793422658642755  0.2974932685826348   T   T   T
  0.5750196655355949  0.3773810752508127  0.3222939296471400   T   T   T
  0.5119416581651650  0.3399722339717117  0.2508182109355374   T   T   T
  0.1685196812914445  0.6665189000372924  0.0340270108665443   T   T   T
  0.5016357982801888  0.6664949064162111  0.0340166346665608   T   T   T
  0.8349105764272833  0.6665288532255474  0.0340235964977133   T   T   T
  0.1682917693462755  0.9165454848782509  0.0340210728263051   T   T   T
  0.5013067684623680  0.9165354788997990  0.0340158090611653   T   T   T
  0.8346098940295879  0.9164540110888969  0.0339992441712739   T   T   T
  0.3191904037832032  0.5415914838131415  0.2184890544873296   T   T   T
  0.6523880726924365  0.5416731014605217  0.2184653066166793   T   T   T
  0.9852747523900934  0.5418948256965463  0.2184576829712358   T   T   T
  0.3188404525260781  0.7916081104489060  0.2185029866638052   T   T   T
  0.6531804294531195  0.7915125199429476  0.2185327978992881   T   T   T
  0.9859078172506803  0.7915396489942967  0.2185027314880750   T   T   T
  0.4933575249286415  0.1217287114052670  0.0599504983005869   T   T   T
  0.8266132359471728  0.1216977326040523  0.0598224896470047   T   T   T
  0.1599139591970896  0.3717068751731037  0.0598851320654638   T   T   T
  0.4932122124600800  0.3716966871798180  0.0598912731358240   T   T   T
  0.8264913278584032  0.3717602542784684  0.0598484403129300   T   T   T
  0.1600581435735047  0.1216918513165462  0.0598787641960764   T   T   T
  0.9932228522769085  0.4984858952497657  0.1396437817957987   T   T   T
  0.3265300143322990  0.4984130615886682  0.1396647636621277   T   T   T
  0.6598213154478170  0.4984024556342294  0.1396615140427670   T   T   T
  0.9933460326802220  0.2482834955612240  0.1395377884192298   T   T   T
  0.3265071612551122  0.2484400798521568  0.1397749340925081   T   T   T
  0.6601009058323368  0.2483566795662648  0.1396602386339515   T   T   T
  0.1603085775837929  0.1227664568407495  0.1658463984874829   T   T   T
  0.4935363990926354  0.1239361882515435  0.1663297227590948   T   T   T
  0.8271832758236806  0.1224161211987361  0.1656827743968042   T   T   T
  0.1600776002908254  0.3733171720088577  0.1659817418701550   T   T   T
  0.4933394845871754  0.3730765570573517  0.1660144342021030   T   T   T
  0.8271395397828661  0.3733456621268563  0.1659540766106257   T   T   T
  0.3266153069537392  0.4969313833137283  0.1926020709445568   T   T   T
  0.6602527818712958  0.4969424129596436  0.1925911712729332   T   T   T
  0.9934945354297084  0.4971507554875718  0.1925806806397609   T   T   T
  0.3250608740189563  0.2475610613294875  0.1930331193878551   T   T   T
  0.9940129317531952  0.2456472874098609  0.1921629765583890   T   T   T
  0.6632627555388043  0.2464388620370328  0.1924322280673083   T   T   T
  0.9930446263766355  0.4981656484071036  0.0864830439109628   T   T   T
  0.3264053157493341  0.4981757454600220  0.0865011604592723   T   T   T
  0.6597157720811448  0.4981776800873190  0.0864989033569214   T   T   T
  0.9929809576265756  0.2481753706777992  0.0864280399652911   T   T   T
  0.3263519049224027  0.2481795890080161  0.0865522018100608   T   T   T
  0.6596983874480953  0.2481897100990740  0.0865085314330816   T   T   T
  0.1597995946981001  0.1233510082458696  0.1127792691779998   T   T   T
  0.4930966966265302  0.1234388534984174  0.1129263308635279   T   T   T
  0.8264447570980821  0.1232923472638520  0.1127187145914421   T   T   T
  0.1597944656298657  0.3733915852865844  0.1128201588745929   T   T   T
  0.4931129051812122  0.3733367547538423  0.1128452869045420   T   T   T
  0.8265164170224277  0.3733907192117148  0.1128006082763271   T   T   T
  0.4934098192476756  0.6216711018358896  0.0598814191304421   T   T   T
  0.8267363416456737  0.6216926583195812  0.0598861323133062   T   T   T
  0.1599321763050519  0.8716875806799154  0.0598767655000680   T   T   T
  0.4932440438260842  0.8716899675470340  0.0598758712763143   T   T   T
  0.8265442199293382  0.8716915760016978  0.0598683363028579   T   T   T
  0.1600427250023652  0.6216808968537340  0.0598883426100174   T   T   T
  0.9933813525711787  0.9981437745614097  0.1395731470673562   T   T   T
  0.3269500148937360  0.9985072277355874  0.1397148167309870   T   T   T
  0.6595630338730745  0.9984403225704013  0.1396843896951171   T   T   T
  0.9931893944177383  0.7484357199081257  0.1396568539992555   T   T   T
  0.3265142735781927  0.7484379757769432  0.1396544448107834   T   T   T
  0.6597905818120157  0.7484368134048379  0.1396660257880762   T   T   T
  0.1599772397417518  0.6232762417057356  0.1659617802749399   T   T   T
  0.4933187195544415  0.6232648680094535  0.1659823618230714   T   T   T
  0.8265786314860741  0.6232860005340439  0.1659688501386396   T   T   T
  0.1601543174235656  0.8731956379316668  0.1659859316595898   T   T   T
  0.4934140507577500  0.8731967032454697  0.1660016337139351   T   T   T
  0.8266844761101650  0.8731776891212463  0.1659703981309456   T   T   T
  0.3271183634049562  0.9967679438264172  0.1927029800904939   T   T   T
  0.6603284795163942  0.9967375496423003  0.1926625170152519   T   T   T
  0.9936817670562713  0.9966608678427596  0.1925558574145997   T   T   T
  0.3268329321715330  0.7468163796175691  0.1926236278561907   T   T   T
  0.9934855266987525  0.7468130302513072  0.1926202562161535   T   T   T
  0.6601710121851591  0.7468373897780489  0.1926370293951584   T   T   T
  0.9930485309260192  0.9981349960062175  0.0864388017789565   T   T   T
  0.3264540213175466  0.9981783313801482  0.0865223565259723   T   T   T
  0.6596523879564706  0.9981654187475689  0.0865052736050510   T   T   T
  0.9930369500583378  0.7481948605456387  0.0864940105180684   T   T   T
  0.3263915525257565  0.7481445830762068  0.0864883453674788   T   T   T
  0.6596778847682692  0.7481720444515724  0.0864906546625261   T   T   T
  0.1597531035208045  0.6233958638430119  0.1128172608132580   T   T   T
  0.4930961607375837  0.6233888254899463  0.1128213743735230   T   T   T
  0.8264003611681160  0.6233904404973016  0.1128124723792914   T   T   T
  0.1599442660329291  0.8733880297432094  0.1128092542798867   T   T   T
  0.4931060984089421  0.8733546255693544  0.1128167490155156   T   T   T
  0.8263637142576664  0.8733970649911796  0.1128062715651176   T   T   T
 
  0.00000000E+00  0.00000000E+00  0.00000000E+00
  0.00000000E+00  0.00000000E+00  0.00000000E+00
  0.00000000E+00  0.00000000E+00  0.00000000E+00
  0.00000000E+00  0.00000000E+00  0.00000000E+00
  0.00000000E+00  0.00000000E+00  0.00000000E+00
  0.00000000E+00  0.00000000E+00  0.00000000E+00
  0.00000000E+00  0.00000000E+00  0.00000000E+00
  0.00000000E+00  0.00000000E+00  0.00000000E+00
  0.00000000E+00  0.00000000E+00  0.00000000E+00
  0.00000000E+00  0.00000000E+00  0.00000000E+00
  0.00000000E+00  0.00000000E+00  0.00000000E+00
  0.00000000E+00  0.00000000E+00  0.00000000E+00
  0.00000000E+00  0.00000000E+00  0.00000000E+00
  0.00000000E+00  0.00000000E+00  0.00000000E+00
  0.00000000E+00  0.00000000E+00  0.00000000E+00
  0.00000000E+00  0.00000000E+00  0.00000000E+00
  0.00000000E+00  0.00000000E+00  0.00000000E+00
  0.00000000E+00  0.00000000E+00  0.00000000E+00
  0.00000000E+00  0.00000000E+00  0.00000000E+00
  0.00000000E+00  0.00000000E+00  0.00000000E+00
  0.00000000E+00  0.00000000E+00  0.00000000E+00
  0.00000000E+00  0.00000000E+00  0.00000000E+00
  0.00000000E+00  0.00000000E+00  0.00000000E+00
  0.00000000E+00  0.00000000E+00  0.00000000E+00
  0.00000000E+00  0.00000000E+00  0.00000000E+00
  0.00000000E+00  0.00000000E+00  0.00000000E+00
  0.00000000E+00  0.00000000E+00  0.00000000E+00
  0.00000000E+00  0.00000000E+00  0.00000000E+00
  0.00000000E+00  0.00000000E+00  0.00000000E+00
  0.00000000E+00  0.00000000E+00  0.00000000E+00
  0.00000000E+00  0.00000000E+00  0.00000000E+00
  0.00000000E+00  0.00000000E+00  0.00000000E+00
  0.00000000E+00  0.00000000E+00  0.00000000E+00
  0.00000000E+00  0.00000000E+00  0.00000000E+00
  0.00000000E+00  0.00000000E+00  0.00000000E+00
  0.00000000E+00  0.00000000E+00  0.00000000E+00
  0.00000000E+00  0.00000000E+00  0.00000000E+00
  0.00000000E+00  0.00000000E+00  0.00000000E+00
  0.00000000E+00  0.00000000E+00  0.00000000E+00
  0.00000000E+00  0.00000000E+00  0.00000000E+00
  0.00000000E+00  0.00000000E+00  0.00000000E+00
  0.00000000E+00  0.00000000E+00  0.00000000E+00
  0.00000000E+00  0.00000000E+00  0.00000000E+00
  0.00000000E+00  0.00000000E+00  0.00000000E+00
  0.00000000E+00  0.00000000E+00  0.00000000E+00
  0.00000000E+00  0.00000000E+00  0.00000000E+00
  0.00000000E+00  0.00000000E+00  0.00000000E+00
  0.00000000E+00  0.00000000E+00  0.00000000E+00
  0.00000000E+00  0.00000000E+00  0.00000000E+00
  0.00000000E+00  0.00000000E+00  0.00000000E+00
  0.00000000E+00  0.00000000E+00  0.00000000E+00
  0.00000000E+00  0.00000000E+00  0.00000000E+00
  0.00000000E+00  0.00000000E+00  0.00000000E+00
  0.00000000E+00  0.00000000E+00  0.00000000E+00
  0.00000000E+00  0.00000000E+00  0.00000000E+00
  0.00000000E+00  0.00000000E+00  0.00000000E+00
  0.00000000E+00  0.00000000E+00  0.00000000E+00
  0.00000000E+00  0.00000000E+00  0.00000000E+00
  0.00000000E+00  0.00000000E+00  0.00000000E+00
  0.00000000E+00  0.00000000E+00  0.00000000E+00
  0.00000000E+00  0.00000000E+00  0.00000000E+00
  0.00000000E+00  0.00000000E+00  0.00000000E+00
  0.00000000E+00  0.00000000E+00  0.00000000E+00
  0.00000000E+00  0.00000000E+00  0.00000000E+00
  0.00000000E+00  0.00000000E+00  0.00000000E+00
  0.00000000E+00  0.00000000E+00  0.00000000E+00
  0.00000000E+00  0.00000000E+00  0.00000000E+00
  0.00000000E+00  0.00000000E+00  0.00000000E+00
  0.00000000E+00  0.00000000E+00  0.00000000E+00
  0.00000000E+00  0.00000000E+00  0.00000000E+00
  0.00000000E+00  0.00000000E+00  0.00000000E+00
  0.00000000E+00  0.00000000E+00  0.00000000E+00
  0.00000000E+00  0.00000000E+00  0.00000000E+00
  0.00000000E+00  0.00000000E+00  0.00000000E+00
  0.00000000E+00  0.00000000E+00  0.00000000E+00
  0.00000000E+00  0.00000000E+00  0.00000000E+00
  0.00000000E+00  0.00000000E+00  0.00000000E+00
  0.00000000E+00  0.00000000E+00  0.00000000E+00
  0.00000000E+00  0.00000000E+00  0.00000000E+00
  0.00000000E+00  0.00000000E+00  0.00000000E+00
  0.00000000E+00  0.00000000E+00  0.00000000E+00
  0.00000000E+00  0.00000000E+00  0.00000000E+00
  0.00000000E+00  0.00000000E+00  0.00000000E+00
  0.00000000E+00  0.00000000E+00  0.00000000E+00
  0.00000000E+00  0.00000000E+00  0.00000000E+00
  0.00000000E+00  0.00000000E+00  0.00000000E+00
  0.00000000E+00  0.00000000E+00  0.00000000E+00
  0.00000000E+00  0.00000000E+00  0.00000000E+00
  0.00000000E+00  0.00000000E+00  0.00000000E+00
  0.00000000E+00  0.00000000E+00  0.00000000E+00
  0.00000000E+00  0.00000000E+00  0.00000000E+00
  0.00000000E+00  0.00000000E+00  0.00000000E+00
  0.00000000E+00  0.00000000E+00  0.00000000E+00
  0.00000000E+00  0.00000000E+00  0.00000000E+00
  0.00000000E+00  0.00000000E+00  0.00000000E+00
  0.00000000E+00  0.00000000E+00  0.00000000E+00
  0.00000000E+00  0.00000000E+00  0.00000000E+00
  0.00000000E+00  0.00000000E+00  0.00000000E+00
  0.00000000E+00  0.00000000E+00  0.00000000E+00
  0.00000000E+00  0.00000000E+00  0.00000000E+00
  0.00000000E+00  0.00000000E+00  0.00000000E+00
  0.00000000E+00  0.00000000E+00  0.00000000E+00
  0.00000000E+00  0.00000000E+00  0.00000000E+00
  0.00000000E+00  0.00000000E+00  0.00000000E+00
  0.00000000E+00  0.00000000E+00  0.00000000E+00
  0.00000000E+00  0.00000000E+00  0.00000000E+00
  0.00000000E+00  0.00000000E+00  0.00000000E+00
  0.00000000E+00  0.00000000E+00  0.00000000E+00
  0.00000000E+00  0.00000000E+00  0.00000000E+00
  0.00000000E+00  0.00000000E+00  0.00000000E+00
  0.00000000E+00  0.00000000E+00  0.00000000E+00
  0.00000000E+00  0.00000000E+00  0.00000000E+00
  0.00000000E+00  0.00000000E+00  0.00000000E+00
  0.00000000E+00  0.00000000E+00  0.00000000E+00
  0.00000000E+00  0.00000000E+00  0.00000000E+00
  0.00000000E+00  0.00000000E+00  0.00000000E+00
  0.00000000E+00  0.00000000E+00  0.00000000E+00
  0.00000000E+00  0.00000000E+00  0.00000000E+00
  0.00000000E+00  0.00000000E+00  0.00000000E+00
  0.00000000E+00  0.00000000E+00  0.00000000E+00
  0.00000000E+00  0.00000000E+00  0.00000000E+00
  0.00000000E+00  0.00000000E+00  0.00000000E+00
  0.00000000E+00  0.00000000E+00  0.00000000E+00
  0.00000000E+00  0.00000000E+00  0.00000000E+00
  0.00000000E+00  0.00000000E+00  0.00000000E+00
  0.00000000E+00  0.00000000E+00  0.00000000E+00
  0.00000000E+00  0.00000000E+00  0.00000000E+00
  0.00000000E+00  0.00000000E+00  0.00000000E+00
  0.00000000E+00  0.00000000E+00  0.00000000E+00
  0.00000000E+00  0.00000000E+00  0.00000000E+00
  0.00000000E+00  0.00000000E+00  0.00000000E+00
  0.00000000E+00  0.00000000E+00  0.00000000E+00
  0.00000000E+00  0.00000000E+00  0.00000000E+00
  0.00000000E+00  0.00000000E+00  0.00000000E+00
  0.00000000E+00  0.00000000E+00  0.00000000E+00
  0.00000000E+00  0.00000000E+00  0.00000000E+00
  0.00000000E+00  0.00000000E+00  0.00000000E+00
  0.00000000E+00  0.00000000E+00  0.00000000E+00
  0.00000000E+00  0.00000000E+00  0.00000000E+00
  0.00000000E+00  0.00000000E+00  0.00000000E+00
  0.00000000E+00  0.00000000E+00  0.00000000E+00
  0.00000000E+00  0.00000000E+00  0.00000000E+00
  0.00000000E+00  0.00000000E+00  0.00000000E+00
  0.00000000E+00  0.00000000E+00  0.00000000E+00
  0.00000000E+00  0.00000000E+00  0.00000000E+00
  0.00000000E+00  0.00000000E+00  0.00000000E+00
  0.00000000E+00  0.00000000E+00  0.00000000E+00
  0.00000000E+00  0.00000000E+00  0.00000000E+00
  0.00000000E+00  0.00000000E+00  0.00000000E+00
  0.00000000E+00  0.00000000E+00  0.00000000E+00
  0.00000000E+00  0.00000000E+00  0.00000000E+00
  0.00000000E+00  0.00000000E+00  0.00000000E+00
  0.00000000E+00  0.00000000E+00  0.00000000E+00
  0.00000000E+00  0.00000000E+00  0.00000000E+00
  0.00000000E+00  0.00000000E+00  0.00000000E+00
  0.00000000E+00  0.00000000E+00  0.00000000E+00
  0.00000000E+00  0.00000000E+00  0.00000000E+00
  0.00000000E+00  0.00000000E+00  0.00000000E+00
  0.00000000E+00  0.00000000E+00  0.00000000E+00
  0.00000000E+00  0.00000000E+00  0.00000000E+00
  0.00000000E+00  0.00000000E+00  0.00000000E+00
  0.00000000E+00  0.00000000E+00  0.00000000E+00
  0.00000000E+00  0.00000000E+00  0.00000000E+00
  0.00000000E+00  0.00000000E+00  0.00000000E+00
  0.00000000E+00  0.00000000E+00  0.00000000E+00
  0.00000000E+00  0.00000000E+00  0.00000000E+00
  0.00000000E+00  0.00000000E+00  0.00000000E+00
  0.00000000E+00  0.00000000E+00  0.00000000E+00
  0.00000000E+00  0.00000000E+00  0.00000000E+00
  0.00000000E+00  0.00000000E+00  0.00000000E+00
  0.00000000E+00  0.00000000E+00  0.00000000E+00
  0.00000000E+00  0.00000000E+00  0.00000000E+00
  0.00000000E+00  0.00000000E+00  0.00000000E+00
  0.00000000E+00  0.00000000E+00  0.00000000E+00
  0.00000000E+00  0.00000000E+00  0.00000000E+00
  0.00000000E+00  0.00000000E+00  0.00000000E+00
  0.00000000E+00  0.00000000E+00  0.00000000E+00
  0.00000000E+00  0.00000000E+00  0.00000000E+00
  0.00000000E+00  0.00000000E+00  0.00000000E+00
  0.00000000E+00  0.00000000E+00  0.00000000E+00
  0.00000000E+00  0.00000000E+00  0.00000000E+00
  0.00000000E+00  0.00000000E+00  0.00000000E+00
  0.00000000E+00  0.00000000E+00  0.00000000E+00
  0.00000000E+00  0.00000000E+00  0.00000000E+00
  0.00000000E+00  0.00000000E+00  0.00000000E+00
  0.00000000E+00  0.00000000E+00  0.00000000E+00
  0.00000000E+00  0.00000000E+00  0.00000000E+00
  0.00000000E+00  0.00000000E+00  0.00000000E+00
  0.00000000E+00  0.00000000E+00  0.00000000E+00
  0.00000000E+00  0.00000000E+00  0.00000000E+00
  0.00000000E+00  0.00000000E+00  0.00000000E+00
  0.00000000E+00  0.00000000E+00  0.00000000E+00
  0.00000000E+00  0.00000000E+00  0.00000000E+00
  0.00000000E+00  0.00000000E+00  0.00000000E+00
  0.00000000E+00  0.00000000E+00  0.00000000E+00
  0.00000000E+00  0.00000000E+00  0.00000000E+00
  0.00000000E+00  0.00000000E+00  0.00000000E+00
  0.00000000E+00  0.00000000E+00  0.00000000E+00
  0.00000000E+00  0.00000000E+00  0.00000000E+00
  0.00000000E+00  0.00000000E+00  0.00000000E+00
  0.00000000E+00  0.00000000E+00  0.00000000E+00
  0.00000000E+00  0.00000000E+00  0.00000000E+00
  0.00000000E+00  0.00000000E+00  0.00000000E+00
  0.00000000E+00  0.00000000E+00  0.00000000E+00
  0.00000000E+00  0.00000000E+00  0.00000000E+00
  0.00000000E+00  0.00000000E+00  0.00000000E+00
  0.00000000E+00  0.00000000E+00  0.00000000E+00
  0.00000000E+00  0.00000000E+00  0.00000000E+00
  0.00000000E+00  0.00000000E+00  0.00000000E+00
  0.00000000E+00  0.00000000E+00  0.00000000E+00
  0.00000000E+00  0.00000000E+00  0.00000000E+00
  0.00000000E+00  0.00000000E+00  0.00000000E+00
  0.00000000E+00  0.00000000E+00  0.00000000E+00
  0.00000000E+00  0.00000000E+00  0.00000000E+00
  0.00000000E+00  0.00000000E+00  0.00000000E+00
  0.00000000E+00  0.00000000E+00  0.00000000E+00
  0.00000000E+00  0.00000000E+00  0.00000000E+00
  0.00000000E+00  0.00000000E+00  0.00000000E+00
  0.00000000E+00  0.00000000E+00  0.00000000E+00
  0.00000000E+00  0.00000000E+00  0.00000000E+00
  0.00000000E+00  0.00000000E+00  0.00000000E+00
  0.00000000E+00  0.00000000E+00  0.00000000E+00
  0.00000000E+00  0.00000000E+00  0.00000000E+00
  0.00000000E+00  0.00000000E+00  0.00000000E+00
  0.00000000E+00  0.00000000E+00  0.00000000E+00
  0.00000000E+00  0.00000000E+00  0.00000000E+00
  0.00000000E+00  0.00000000E+00  0.00000000E+00
  0.00000000E+00  0.00000000E+00  0.00000000E+00
  0.00000000E+00  0.00000000E+00  0.00000000E+00
