C H O Si                                
   1.00000000000000     
     9.2874599999999994    0.0000000000000000    0.0000000000000000
     0.0000000000000000   17.5126199999999983    0.0000000000000000
     0.0000000000000000    0.0000000000000000   58.0000000000000000
   C    H    O    Si
    72    57    28    72
Selective dynamics
Direct
  0.9930954894231746  0.0630716930893173  0.0604876609572023   T   T   T
  0.3265602553756423  0.0630657306229907  0.0605725166187154   T   T   T
  0.6597505771903966  0.0630355962686106  0.0605451603468146   T   T   T
  0.9929784412253649  0.3130892310132300  0.0604730969035104   T   T   T
  0.3263407912044264  0.3130645574772049  0.0605752149642940   T   T   T
  0.6596048983343014  0.3130824054346803  0.0605338263396648   T   T   T
  0.1600288063961148  0.1859217194386553  0.1393900675959784   T   T   T
  0.4932452829925195  0.1861293847988912  0.1396171591976884   T   T   T
  0.8267439485069814  0.1858363035706170  0.1393093297309498   T   T   T
  0.1598571260671115  0.4361118509290456  0.1394222430668050   T   T   T
  0.4932268081392997  0.4359352072711713  0.1394753032999979   T   T   T
  0.8265920885061545  0.4361009625819973  0.1394175920661895   T   T   T
  0.3274288856701651  0.0613008923504095  0.1667303956565460   T   T   T
  0.6596526052849632  0.0612643340944855  0.1666784542106342   T   T   T
  0.9936746264302901  0.0606160400919503  0.1664476891263628   T   T   T
  0.3266238105407409  0.3112059393677798  0.1667778512921252   T   T   T
  0.6604079772131844  0.3111686048180307  0.1666698986786242   T   T   T
  0.9934786321466745  0.3110206924493047  0.1664749237578995   T   T   T
  0.1606284758111821  0.1872680772963838  0.1917291125775090   T   T   T
  0.4940952673356617  0.1898335687462508  0.1927021560765659   T   T   T
  0.8278944183780312  0.1868423025547549  0.1914914641600081   T   T   T
  0.1599228093136509  0.4383094216525781  0.1919371617312991   T   T   T
  0.4935259794716357  0.4379761537268277  0.1919963860203398   T   T   T
  0.8270698120709252  0.4383708472175431  0.1918819722708493   T   T   T
  0.1596994417973648  0.1860660575141675  0.0858640303690088   T   T   T
  0.4930226786442801  0.1860830054043549  0.0859795828906667   T   T   T
  0.8263306571885224  0.1860626639337722  0.0858156062142923   T   T   T
  0.1597249131712778  0.4360351265294550  0.0858770271696470   T   T   T
  0.4930090067445193  0.4360364049901266  0.0858952109753481   T   T   T
  0.8264029435207924  0.4360566329436636  0.0858661615515348   T   T   T
  0.3263876625172092  0.0610316658475503  0.1130705086555339   T   T   T
  0.6595946853368150  0.0610111379734041  0.1130584249040652   T   T   T
  0.9930967537560177  0.0609411052954413  0.1129771054916842   T   T   T
  0.3263629371313082  0.3109473195783276  0.1131152868066777   T   T   T
  0.6597983186657824  0.3110090633316914  0.1130656460033834   T   T   T
  0.9931513185265191  0.3109877320299994  0.1129820225027882   T   T   T
  0.9932035452323429  0.5630394688512101  0.0605239192814983   T   T   T
  0.3265424930441381  0.5630432388670019  0.0605374924950124   T   T   T
  0.6598727605246035  0.5630386380202687  0.0605358124672476   T   T   T
  0.9930190178261410  0.8130744624077806  0.0605252588598920   T   T   T
  0.3263453580461808  0.8130215144566082  0.0605279399990544   T   T   T
  0.6596326675559457  0.8130459191378890  0.0605262144606980   T   T   T
  0.1598696157730014  0.6861124523956358  0.1394211640133638   T   T   T
  0.4931310615307012  0.6861094809896422  0.1394293255154953   T   T   T
  0.8264615057870908  0.6861187180224813  0.1394157226978754   T   T   T
  0.1603483162127774  0.9360082541705304  0.1394215184383350   T   T   T
  0.4932022954077939  0.9359991045418202  0.1394302140004101   T   T   T
  0.8263536911292908  0.9360834823522834  0.1394110091176520   T   T   T
  0.3265795834065450  0.5611730267940842  0.1666026437028606   T   T   T
  0.6597060049199767  0.5611769771108287  0.1665851776087585   T   T   T
  0.9931780180589758  0.5613110682251264  0.1665648970687365   T   T   T
  0.3266471782458353  0.8111048952380906  0.1666163773311313   T   T   T
  0.6599185013249826  0.8111230782685098  0.1666075405993420   T   T   T
  0.9933020254370586  0.8111388914502813  0.1666023203354068   T   T   T
  0.1601850177184586  0.6880827245917202  0.1919559653941690   T   T   T
  0.4935311013613357  0.6881057464686544  0.1919796453712185   T   T   T
  0.8268030887214400  0.6881004548677574  0.1919538884145513   T   T   T
  0.1604688485436923  0.9380568521663672  0.1919719763556243   T   T   T
  0.4937188687662422  0.9380253641515703  0.1920021733451139   T   T   T
  0.8269912423076339  0.9380284628171740  0.1919382913150804   T   T   T
  0.1596900277565445  0.6860536490996576  0.0858791587158507   T   T   T
  0.4930309418665841  0.6860312357787622  0.0858799112771224   T   T   T
  0.8263614010329162  0.6860674442786876  0.0858788455122763   T   T   T
  0.1597695373371275  0.9360703751494726  0.0858687953183451   T   T   T
  0.4930247973286157  0.9360478465977302  0.0858828354485990   T   T   T
  0.8263509453645014  0.9360693776505065  0.0858718470835384   T   T   T
  0.3263869969600531  0.5609890138581003  0.1130428053988916   T   T   T
  0.6596679414688282  0.5609888837164851  0.1130460895445871   T   T   T
  0.9930049534024610  0.5610199070633819  0.1130301449661427   T   T   T
  0.3264642148929750  0.8109411126898332  0.1130305490750466   T   T   T
  0.6596900274438112  0.8109748166248253  0.1130420700742841   T   T   T
  0.9930812815217476  0.8110552315941846  0.1130522546784011   T   T   T
  0.0745624768953311  0.1773235625398307  0.0272791778604761   T   T   T
  0.4071032816885561  0.1773675785724947  0.0274447906958827   T   T   T
  0.7400538717817871  0.1773165820671698  0.0272919260627059   T   T   T
  0.0743268631366718  0.4273990514473445  0.0272784578326973   T   T   T
  0.4067086587445832  0.4272801813344427  0.0273610471983113   T   T   T
  0.7396345480439778  0.4273188546465229  0.0273219205329830   T   T   T
  0.3243452698378997  0.0267416753193003  0.0450752318725293   T   T   T
  0.6568750866456514  0.0267254982300568  0.0450490762234836   T   T   T
  0.9908144989266185  0.0267888935492074  0.0449864659960362   T   T   T
  0.3237650867888882  0.2766838807389550  0.0450941507536389   T   T   T
  0.6570265166253771  0.2767608648167140  0.0450412143178313   T   T   T
  0.9904535430012256  0.2768714135498223  0.0449585849211222   T   T   T
  0.8285842089968258  0.4024947728284964  0.2074491000605984   T   T   T
  0.8304465116305706  0.1506838535539708  0.2070158500945288   T   T   T
  0.1619857070692130  0.1511733049648696  0.2072718679072735   T   T   T
  0.4971477204422496  0.1529693655664435  0.2080770905487110   T   T   T
  0.1620146968817984  0.4019768343051290  0.2074276625896802   T   T   T
  0.4940939294345948  0.4018183771291641  0.2075303411064958   T   T   T
  0.0800283592787470  0.0523462756250530  0.2252173946952837   T   T   T
  0.4143748443975359  0.0518836547379462  0.2253609223501534   T   T   T
  0.7476657751065101  0.0521271110560624  0.2252651381220240   T   T   T
  0.0781013447010113  0.3009870597482772  0.2248192780382786   T   T   T
  0.3784212421728854  0.3102797466213705  0.2286844069503021   T   T   T
  0.7820401663654222  0.2950094425485718  0.2229935986955866   T   T   T
  0.5472715985376562  0.3053933797476736  0.2740243748104547   T   T   T
  0.4932704279687020  0.2379778428295246  0.2933673010031771   T   T   T
  0.5722515791215037  0.3199885610399351  0.3031049765371861   T   T   T
  0.3153660645020495  0.1949095530673311  0.3097247907910511   T   T   T
  0.4222261510823447  0.1304551020953064  0.3021901025732641   T   T   T
  0.6503240062856281  0.3659950830031130  0.3335399025859754   T   T   T
  0.4842618109953910  0.3770082314844057  0.3308255362912209   T   T   T
  0.5186525523651628  0.3954031769220877  0.2522043595232025   T   T   T
  0.5858892896419230  0.3233697112880545  0.2388258246309090   T   T   T
  0.0742372645684946  0.6773873281739431  0.0273307358072093   T   T   T
  0.4071860744212556  0.6773354649001310  0.0273574502289745   T   T   T
  0.7404654980911428  0.6773151270140120  0.0273587077744402   T   T   T
  0.0739725788344751  0.9273713563416269  0.0273132845992451   T   T   T
  0.4067957695695110  0.9272860813916329  0.0273546084811194   T   T   T
  0.7401470778671890  0.9273455432367590  0.0273402697603973   T   T   T
  0.3240188019665345  0.5267369019904682  0.0450399773968250   T   T   T
  0.6574064366885786  0.5267466827210970  0.0450347154130785   T   T   T
  0.9906560021982805  0.5267524886492522  0.0450208077270234   T   T   T
  0.3238126966724339  0.7767102484995450  0.0450338676307337   T   T   T
  0.6570424935294744  0.7767254992408201  0.0450325775026717   T   T   T
  0.9904151638238603  0.7767403283062726  0.0450355737227955   T   T   T
  0.8294189829212993  0.9017488970958343  0.2074427330938805   T   T   T
  0.8291379246466595  0.6518007869081824  0.2074518582487305   T   T   T
  0.1624571532007737  0.6518067633997058  0.2074576828017408   T   T   T
  0.4959621630133593  0.6518870400711464  0.2074928880892134   T   T   T
  0.1626179210853068  0.9017613711145609  0.2074725931383321   T   T   T
  0.4961338480529687  0.9016692821614932  0.2074875104307674   T   T   T
  0.0793616476332099  0.5534301520009592  0.2252146472526101   T   T   T
  0.4135410879310616  0.5538697665057076  0.2250427430349476   T   T   T
  0.7467266950446312  0.5532601524644940  0.2251498551365642   T   T   T
  0.0804085648019853  0.8023894564740388  0.2252373690733041   T   T   T
  0.4129650167342750  0.8026965857797803  0.2253077642938329   T   T   T
  0.7481652126716097  0.8021364053126538  0.2251593890761683   T   T   T
  0.1689012428723810  0.1666797333661017  0.0340180591790595   T   T   T
  0.5017640959297460  0.1666868629346983  0.0340735211673073   T   T   T
  0.8346438501129982  0.1665757709464715  0.0339295341629134   T   T   T
  0.1686982069264006  0.4166967295218895  0.0340078055402738   T   T   T
  0.5013434973114622  0.4165687215893710  0.0339889967543084   T   T   T
  0.8343068669591036  0.4166951825742600  0.0339475469544843   T   T   T
  0.3200127891429295  0.0416267799272293  0.2185901391057444   T   T   T
  0.6532348079040280  0.0416099833268763  0.2185504440017279   T   T   T
  0.9860515207041067  0.0415422192680394  0.2184096646247196   T   T   T
  0.3009625313383645  0.2917593823305228  0.2185720473116074   T   T   T
  0.6794639405921163  0.2914752216684889  0.2186073680611370   T   T   T
  0.9834416690891293  0.2896001802505474  0.2181759116505272   T   T   T
  0.5714189957548800  0.2797144004081837  0.2897821306329359   T   T   T
  0.3812573099968857  0.1793435007450495  0.2974855488505984   T   T   T
  0.5750315382081341  0.3776691007951963  0.3223402381208982   T   T   T
  0.5116212233805664  0.3399640788192900  0.2507524536474445   T   T   T
  0.1687205257599957  0.6665988171426496  0.0339988950438982   T   T   T
  0.5017842341195634  0.6665649897152489  0.0339859398790494   T   T   T
  0.8351020746879951  0.6666259577701880  0.0339896999069264   T   T   T
  0.1684708946651648  0.9166365152745359  0.0339900911353905   T   T   T
  0.5014664134331338  0.9166152281951991  0.0339767986539556   T   T   T
  0.8347776387861506  0.9165327775066311  0.0339583309355511   T   T   T
  0.3194629495739833  0.5416080351758160  0.2184904192655220   T   T   T
  0.6526925168167641  0.5416781802696466  0.2184627121461656   T   T   T
  0.9856630065345443  0.5418725222288581  0.2184378125372048   T   T   T
  0.3192237305973930  0.7915728746571512  0.2184715021545358   T   T   T
  0.6533843184732784  0.7915425181884704  0.2185630055249813   T   T   T
  0.9862321414789156  0.7915227335606396  0.2185043274835155   T   T   T
  0.4933611720726033  0.1217594267878068  0.0599378139317352   T   T   T
  0.8265357974978195  0.1217337748712615  0.0598000656279018   T   T   T
  0.1598769459116510  0.3717388341744987  0.0598504336003505   T   T   T
  0.4931186534110916  0.3717451666457923  0.0598652403551882   T   T   T
  0.8264241744193302  0.3717733444398090  0.0598213557828585   T   T   T
  0.1600398286354012  0.1217101545895529  0.0598592641716297   T   T   T
  0.9932254975783389  0.4985503512972352  0.1396567809800736   T   T   T
  0.3265989685766965  0.4984574445594323  0.1396687033870526   T   T   T
  0.6598367556300722  0.4984458521043902  0.1396634068679665   T   T   T
  0.9934245747084319  0.2482846284160405  0.1395425021225273   T   T   T
  0.3264668600407835  0.2484850123870902  0.1397855353784501   T   T   T
  0.6602104830373137  0.2483204107741332  0.1396595544075887   T   T   T
  0.1602024750950672  0.1227350520818392  0.1658476182669417   T   T   T
  0.4935311312950362  0.1239598893822358  0.1663159735868742   T   T   T
  0.8271152951564701  0.1224084737597771  0.1656841148844662   T   T   T
  0.1599566015408621  0.3733471002393325  0.1659631580006124   T   T   T
  0.4932979863626120  0.3730912959819239  0.1660065364017094   T   T   T
  0.8270246080826985  0.3733256250673061  0.1659394735516314   T   T   T
  0.3265956134547476  0.4968558271310557  0.1926019053600558   T   T   T
  0.6602209655263597  0.4968686850096224  0.1925885246815981   T   T   T
  0.9934559862116694  0.4970579169364420  0.1925623932445946   T   T   T
  0.3250728069080369  0.2475595886697388  0.1930235005612093   T   T   T
  0.9940304903037576  0.2455555499413902  0.1921413039792769   T   T   T
  0.6631887837220334  0.2464206280966436  0.1924473914546587   T   T   T
  0.9931492713992111  0.4980876347764001  0.0865067170087376   T   T   T
  0.3264162567237745  0.4980910193664665  0.0865137462213071   T   T   T
  0.6597644589807325  0.4980781754568815  0.0865152365236952   T   T   T
  0.9930779028082642  0.2480869980674143  0.0864508717977206   T   T   T
  0.3263733655614199  0.2481224724952334  0.0865616818710479   T   T   T
  0.6597255573146854  0.2481292179423174  0.0865157043183044   T   T   T
  0.1596600814185649  0.1234090837052051  0.1127711607412696   T   T   T
  0.4929137737025787  0.1234335983778094  0.1129179479516274   T   T   T
  0.8263391009550917  0.1233305079126725  0.1127128545461866   T   T   T
  0.1597430013314206  0.3734283003431654  0.1128084616140468   T   T   T
  0.4929646293646777  0.3733816685388842  0.1128301895437291   T   T   T
  0.8264699420290887  0.3734355097556477  0.1127965082294931   T   T   T
  0.4933942401896610  0.6217175730240353  0.0598566815237728   T   T   T
  0.8267354637065311  0.6217392498242263  0.0598535287817518   T   T   T
  0.1599171008537859  0.8717310665323106  0.0598493031534728   T   T   T
  0.4931482445281402  0.8717405163485107  0.0598496222145477   T   T   T
  0.8264719315041786  0.8717435693412897  0.0598435718348950   T   T   T
  0.1600688612305602  0.6217207542052269  0.0598573840519086   T   T   T
  0.9935019158336988  0.9981507487565591  0.1395563796121718   T   T   T
  0.3270095976097031  0.9985681020744928  0.1397064488416337   T   T   T
  0.6595723050758961  0.9985061707415930  0.1396876226053524   T   T   T
  0.9931996686955766  0.7485011316609215  0.1396664670075512   T   T   T
  0.3265148269923460  0.7485087146039777  0.1396698055015319   T   T   T
  0.6598211795817074  0.7484787170698127  0.1396681989892558   T   T   T
  0.1598365996038637  0.6232878444520396  0.1659526763128620   T   T   T
  0.4931061234182934  0.6232986178976440  0.1659631659902651   T   T   T
  0.8264305168249423  0.6232873354090036  0.1659468608794797   T   T   T
  0.1600533463591371  0.8731841694764317  0.1659655128319957   T   T   T
  0.4932584074831535  0.8731854511800592  0.1659855230990334   T   T   T
  0.8265641758124271  0.8731897580355730  0.1659409767737178   T   T   T
  0.3270548285397535  0.9967364077265116  0.1927093382865986   T   T   T
  0.6603075470633790  0.9967036935613729  0.1926661286895270   T   T   T
  0.9936435816071729  0.9965896637463237  0.1925446258130288   T   T   T
  0.3267832789901385  0.7467151683528223  0.1926144436259885   T   T   T
  0.9934649030924808  0.7467231887748658  0.1926098816188083   T   T   T
  0.6601047706177179  0.7468105078005011  0.1926512490715141   T   T   T
  0.9931081824362944  0.9980782376907478  0.0864677739531962   T   T   T
  0.3264616627391215  0.9981074506672436  0.0865364089182612   T   T   T
  0.6596903854282536  0.9980960242394685  0.0865234522080683   T   T   T
  0.9930497115647972  0.7481340403701060  0.0865181783777550   T   T   T
  0.3264149797322707  0.7480781652826829  0.0865090385189830   T   T   T
  0.6596769098414547  0.7481033060317666  0.0865129196210566   T   T   T
  0.1596317739077525  0.6234364116370424  0.1128099964215245   T   T   T
  0.4929396461552144  0.6234366407691218  0.1128145236924998   T   T   T
  0.8262782758239121  0.6234470240153304  0.1128087953121457   T   T   T
  0.1599045907234155  0.8733965070268243  0.1127930765427083   T   T   T
  0.4930069916696487  0.8733961536018445  0.1128051101434585   T   T   T
  0.8262196928501089  0.8734138438636562  0.1128013886708315   T   T   T
 
  0.00000000E+00  0.00000000E+00  0.00000000E+00
  0.00000000E+00  0.00000000E+00  0.00000000E+00
  0.00000000E+00  0.00000000E+00  0.00000000E+00
  0.00000000E+00  0.00000000E+00  0.00000000E+00
  0.00000000E+00  0.00000000E+00  0.00000000E+00
  0.00000000E+00  0.00000000E+00  0.00000000E+00
  0.00000000E+00  0.00000000E+00  0.00000000E+00
  0.00000000E+00  0.00000000E+00  0.00000000E+00
  0.00000000E+00  0.00000000E+00  0.00000000E+00
  0.00000000E+00  0.00000000E+00  0.00000000E+00
  0.00000000E+00  0.00000000E+00  0.00000000E+00
  0.00000000E+00  0.00000000E+00  0.00000000E+00
  0.00000000E+00  0.00000000E+00  0.00000000E+00
  0.00000000E+00  0.00000000E+00  0.00000000E+00
  0.00000000E+00  0.00000000E+00  0.00000000E+00
  0.00000000E+00  0.00000000E+00  0.00000000E+00
  0.00000000E+00  0.00000000E+00  0.00000000E+00
  0.00000000E+00  0.00000000E+00  0.00000000E+00
  0.00000000E+00  0.00000000E+00  0.00000000E+00
  0.00000000E+00  0.00000000E+00  0.00000000E+00
  0.00000000E+00  0.00000000E+00  0.00000000E+00
  0.00000000E+00  0.00000000E+00  0.00000000E+00
  0.00000000E+00  0.00000000E+00  0.00000000E+00
  0.00000000E+00  0.00000000E+00  0.00000000E+00
  0.00000000E+00  0.00000000E+00  0.00000000E+00
  0.00000000E+00  0.00000000E+00  0.00000000E+00
  0.00000000E+00  0.00000000E+00  0.00000000E+00
  0.00000000E+00  0.00000000E+00  0.00000000E+00
  0.00000000E+00  0.00000000E+00  0.00000000E+00
  0.00000000E+00  0.00000000E+00  0.00000000E+00
  0.00000000E+00  0.00000000E+00  0.00000000E+00
  0.00000000E+00  0.00000000E+00  0.00000000E+00
  0.00000000E+00  0.00000000E+00  0.00000000E+00
  0.00000000E+00  0.00000000E+00  0.00000000E+00
  0.00000000E+00  0.00000000E+00  0.00000000E+00
  0.00000000E+00  0.00000000E+00  0.00000000E+00
  0.00000000E+00  0.00000000E+00  0.00000000E+00
  0.00000000E+00  0.00000000E+00  0.00000000E+00
  0.00000000E+00  0.00000000E+00  0.00000000E+00
  0.00000000E+00  0.00000000E+00  0.00000000E+00
  0.00000000E+00  0.00000000E+00  0.00000000E+00
  0.00000000E+00  0.00000000E+00  0.00000000E+00
  0.00000000E+00  0.00000000E+00  0.00000000E+00
  0.00000000E+00  0.00000000E+00  0.00000000E+00
  0.00000000E+00  0.00000000E+00  0.00000000E+00
  0.00000000E+00  0.00000000E+00  0.00000000E+00
  0.00000000E+00  0.00000000E+00  0.00000000E+00
  0.00000000E+00  0.00000000E+00  0.00000000E+00
  0.00000000E+00  0.00000000E+00  0.00000000E+00
  0.00000000E+00  0.00000000E+00  0.00000000E+00
  0.00000000E+00  0.00000000E+00  0.00000000E+00
  0.00000000E+00  0.00000000E+00  0.00000000E+00
  0.00000000E+00  0.00000000E+00  0.00000000E+00
  0.00000000E+00  0.00000000E+00  0.00000000E+00
  0.00000000E+00  0.00000000E+00  0.00000000E+00
  0.00000000E+00  0.00000000E+00  0.00000000E+00
  0.00000000E+00  0.00000000E+00  0.00000000E+00
  0.00000000E+00  0.00000000E+00  0.00000000E+00
  0.00000000E+00  0.00000000E+00  0.00000000E+00
  0.00000000E+00  0.00000000E+00  0.00000000E+00
  0.00000000E+00  0.00000000E+00  0.00000000E+00
  0.00000000E+00  0.00000000E+00  0.00000000E+00
  0.00000000E+00  0.00000000E+00  0.00000000E+00
  0.00000000E+00  0.00000000E+00  0.00000000E+00
  0.00000000E+00  0.00000000E+00  0.00000000E+00
  0.00000000E+00  0.00000000E+00  0.00000000E+00
  0.00000000E+00  0.00000000E+00  0.00000000E+00
  0.00000000E+00  0.00000000E+00  0.00000000E+00
  0.00000000E+00  0.00000000E+00  0.00000000E+00
  0.00000000E+00  0.00000000E+00  0.00000000E+00
  0.00000000E+00  0.00000000E+00  0.00000000E+00
  0.00000000E+00  0.00000000E+00  0.00000000E+00
  0.00000000E+00  0.00000000E+00  0.00000000E+00
  0.00000000E+00  0.00000000E+00  0.00000000E+00
  0.00000000E+00  0.00000000E+00  0.00000000E+00
  0.00000000E+00  0.00000000E+00  0.00000000E+00
  0.00000000E+00  0.00000000E+00  0.00000000E+00
  0.00000000E+00  0.00000000E+00  0.00000000E+00
  0.00000000E+00  0.00000000E+00  0.00000000E+00
  0.00000000E+00  0.00000000E+00  0.00000000E+00
  0.00000000E+00  0.00000000E+00  0.00000000E+00
  0.00000000E+00  0.00000000E+00  0.00000000E+00
  0.00000000E+00  0.00000000E+00  0.00000000E+00
  0.00000000E+00  0.00000000E+00  0.00000000E+00
  0.00000000E+00  0.00000000E+00  0.00000000E+00
  0.00000000E+00  0.00000000E+00  0.00000000E+00
  0.00000000E+00  0.00000000E+00  0.00000000E+00
  0.00000000E+00  0.00000000E+00  0.00000000E+00
  0.00000000E+00  0.00000000E+00  0.00000000E+00
  0.00000000E+00  0.00000000E+00  0.00000000E+00
  0.00000000E+00  0.00000000E+00  0.00000000E+00
  0.00000000E+00  0.00000000E+00  0.00000000E+00
  0.00000000E+00  0.00000000E+00  0.00000000E+00
  0.00000000E+00  0.00000000E+00  0.00000000E+00
  0.00000000E+00  0.00000000E+00  0.00000000E+00
  0.00000000E+00  0.00000000E+00  0.00000000E+00
  0.00000000E+00  0.00000000E+00  0.00000000E+00
  0.00000000E+00  0.00000000E+00  0.00000000E+00
  0.00000000E+00  0.00000000E+00  0.00000000E+00
  0.00000000E+00  0.00000000E+00  0.00000000E+00
  0.00000000E+00  0.00000000E+00  0.00000000E+00
  0.00000000E+00  0.00000000E+00  0.00000000E+00
  0.00000000E+00  0.00000000E+00  0.00000000E+00
  0.00000000E+00  0.00000000E+00  0.00000000E+00
  0.00000000E+00  0.00000000E+00  0.00000000E+00
  0.00000000E+00  0.00000000E+00  0.00000000E+00
  0.00000000E+00  0.00000000E+00  0.00000000E+00
  0.00000000E+00  0.00000000E+00  0.00000000E+00
  0.00000000E+00  0.00000000E+00  0.00000000E+00
  0.00000000E+00  0.00000000E+00  0.00000000E+00
  0.00000000E+00  0.00000000E+00  0.00000000E+00
  0.00000000E+00  0.00000000E+00  0.00000000E+00
  0.00000000E+00  0.00000000E+00  0.00000000E+00
  0.00000000E+00  0.00000000E+00  0.00000000E+00
  0.00000000E+00  0.00000000E+00  0.00000000E+00
  0.00000000E+00  0.00000000E+00  0.00000000E+00
  0.00000000E+00  0.00000000E+00  0.00000000E+00
  0.00000000E+00  0.00000000E+00  0.00000000E+00
  0.00000000E+00  0.00000000E+00  0.00000000E+00
  0.00000000E+00  0.00000000E+00  0.00000000E+00
  0.00000000E+00  0.00000000E+00  0.00000000E+00
  0.00000000E+00  0.00000000E+00  0.00000000E+00
  0.00000000E+00  0.00000000E+00  0.00000000E+00
  0.00000000E+00  0.00000000E+00  0.00000000E+00
  0.00000000E+00  0.00000000E+00  0.00000000E+00
  0.00000000E+00  0.00000000E+00  0.00000000E+00
  0.00000000E+00  0.00000000E+00  0.00000000E+00
  0.00000000E+00  0.00000000E+00  0.00000000E+00
  0.00000000E+00  0.00000000E+00  0.00000000E+00
  0.00000000E+00  0.00000000E+00  0.00000000E+00
  0.00000000E+00  0.00000000E+00  0.00000000E+00
  0.00000000E+00  0.00000000E+00  0.00000000E+00
  0.00000000E+00  0.00000000E+00  0.00000000E+00
  0.00000000E+00  0.00000000E+00  0.00000000E+00
  0.00000000E+00  0.00000000E+00  0.00000000E+00
  0.00000000E+00  0.00000000E+00  0.00000000E+00
  0.00000000E+00  0.00000000E+00  0.00000000E+00
  0.00000000E+00  0.00000000E+00  0.00000000E+00
  0.00000000E+00  0.00000000E+00  0.00000000E+00
  0.00000000E+00  0.00000000E+00  0.00000000E+00
  0.00000000E+00  0.00000000E+00  0.00000000E+00
  0.00000000E+00  0.00000000E+00  0.00000000E+00
  0.00000000E+00  0.00000000E+00  0.00000000E+00
  0.00000000E+00  0.00000000E+00  0.00000000E+00
  0.00000000E+00  0.00000000E+00  0.00000000E+00
  0.00000000E+00  0.00000000E+00  0.00000000E+00
  0.00000000E+00  0.00000000E+00  0.00000000E+00
  0.00000000E+00  0.00000000E+00  0.00000000E+00
  0.00000000E+00  0.00000000E+00  0.00000000E+00
  0.00000000E+00  0.00000000E+00  0.00000000E+00
  0.00000000E+00  0.00000000E+00  0.00000000E+00
  0.00000000E+00  0.00000000E+00  0.00000000E+00
  0.00000000E+00  0.00000000E+00  0.00000000E+00
  0.00000000E+00  0.00000000E+00  0.00000000E+00
  0.00000000E+00  0.00000000E+00  0.00000000E+00
  0.00000000E+00  0.00000000E+00  0.00000000E+00
  0.00000000E+00  0.00000000E+00  0.00000000E+00
  0.00000000E+00  0.00000000E+00  0.00000000E+00
  0.00000000E+00  0.00000000E+00  0.00000000E+00
  0.00000000E+00  0.00000000E+00  0.00000000E+00
  0.00000000E+00  0.00000000E+00  0.00000000E+00
  0.00000000E+00  0.00000000E+00  0.00000000E+00
  0.00000000E+00  0.00000000E+00  0.00000000E+00
  0.00000000E+00  0.00000000E+00  0.00000000E+00
  0.00000000E+00  0.00000000E+00  0.00000000E+00
  0.00000000E+00  0.00000000E+00  0.00000000E+00
  0.00000000E+00  0.00000000E+00  0.00000000E+00
  0.00000000E+00  0.00000000E+00  0.00000000E+00
  0.00000000E+00  0.00000000E+00  0.00000000E+00
  0.00000000E+00  0.00000000E+00  0.00000000E+00
  0.00000000E+00  0.00000000E+00  0.00000000E+00
  0.00000000E+00  0.00000000E+00  0.00000000E+00
  0.00000000E+00  0.00000000E+00  0.00000000E+00
  0.00000000E+00  0.00000000E+00  0.00000000E+00
  0.00000000E+00  0.00000000E+00  0.00000000E+00
  0.00000000E+00  0.00000000E+00  0.00000000E+00
  0.00000000E+00  0.00000000E+00  0.00000000E+00
  0.00000000E+00  0.00000000E+00  0.00000000E+00
  0.00000000E+00  0.00000000E+00  0.00000000E+00
  0.00000000E+00  0.00000000E+00  0.00000000E+00
  0.00000000E+00  0.00000000E+00  0.00000000E+00
  0.00000000E+00  0.00000000E+00  0.00000000E+00
  0.00000000E+00  0.00000000E+00  0.00000000E+00
  0.00000000E+00  0.00000000E+00  0.00000000E+00
  0.00000000E+00  0.00000000E+00  0.00000000E+00
  0.00000000E+00  0.00000000E+00  0.00000000E+00
  0.00000000E+00  0.00000000E+00  0.00000000E+00
  0.00000000E+00  0.00000000E+00  0.00000000E+00
  0.00000000E+00  0.00000000E+00  0.00000000E+00
  0.00000000E+00  0.00000000E+00  0.00000000E+00
  0.00000000E+00  0.00000000E+00  0.00000000E+00
  0.00000000E+00  0.00000000E+00  0.00000000E+00
  0.00000000E+00  0.00000000E+00  0.00000000E+00
  0.00000000E+00  0.00000000E+00  0.00000000E+00
  0.00000000E+00  0.00000000E+00  0.00000000E+00
  0.00000000E+00  0.00000000E+00  0.00000000E+00
  0.00000000E+00  0.00000000E+00  0.00000000E+00
  0.00000000E+00  0.00000000E+00  0.00000000E+00
  0.00000000E+00  0.00000000E+00  0.00000000E+00
  0.00000000E+00  0.00000000E+00  0.00000000E+00
  0.00000000E+00  0.00000000E+00  0.00000000E+00
  0.00000000E+00  0.00000000E+00  0.00000000E+00
  0.00000000E+00  0.00000000E+00  0.00000000E+00
  0.00000000E+00  0.00000000E+00  0.00000000E+00
  0.00000000E+00  0.00000000E+00  0.00000000E+00
  0.00000000E+00  0.00000000E+00  0.00000000E+00
  0.00000000E+00  0.00000000E+00  0.00000000E+00
  0.00000000E+00  0.00000000E+00  0.00000000E+00
  0.00000000E+00  0.00000000E+00  0.00000000E+00
  0.00000000E+00  0.00000000E+00  0.00000000E+00
  0.00000000E+00  0.00000000E+00  0.00000000E+00
  0.00000000E+00  0.00000000E+00  0.00000000E+00
  0.00000000E+00  0.00000000E+00  0.00000000E+00
  0.00000000E+00  0.00000000E+00  0.00000000E+00
  0.00000000E+00  0.00000000E+00  0.00000000E+00
  0.00000000E+00  0.00000000E+00  0.00000000E+00
  0.00000000E+00  0.00000000E+00  0.00000000E+00
  0.00000000E+00  0.00000000E+00  0.00000000E+00
  0.00000000E+00  0.00000000E+00  0.00000000E+00
  0.00000000E+00  0.00000000E+00  0.00000000E+00
  0.00000000E+00  0.00000000E+00  0.00000000E+00
  0.00000000E+00  0.00000000E+00  0.00000000E+00
  0.00000000E+00  0.00000000E+00  0.00000000E+00
  0.00000000E+00  0.00000000E+00  0.00000000E+00
  0.00000000E+00  0.00000000E+00  0.00000000E+00
  0.00000000E+00  0.00000000E+00  0.00000000E+00
  0.00000000E+00  0.00000000E+00  0.00000000E+00
  0.00000000E+00  0.00000000E+00  0.00000000E+00
  0.00000000E+00  0.00000000E+00  0.00000000E+00
