C H O Si                                
   1.00000000000000     
     9.2874599999999994    0.0000000000000000    0.0000000000000000
     0.0000000000000000    8.7563099999999991    0.0000000000000000
     0.0000000000000000    0.0000000000000000   58.0000000000000000
   C    H    O    Si
    36    31    16    36
Selective dynamics
Direct
  0.9962937999858212  0.1302733095706898  0.0595640885069812   T   T   T
  0.3297558739386943  0.1303128489492735  0.0596258808839849   T   T   T
  0.6629794477871940  0.1302583396590435  0.0596462381925491   T   T   T
  0.9962514789521393  0.6304779648096854  0.0595813786261061   T   T   T
  0.3296729230787534  0.6300632972287019  0.0595932761598306   T   T   T
  0.6630050070682216  0.6300842084497518  0.0596187907733707   T   T   T
  0.1622235913123333  0.3760682973986107  0.1384034592699663   T   T   T
  0.4954569437860030  0.3763327958775591  0.1387210426904133   T   T   T
  0.8288998008439279  0.3762103439381832  0.1384110353789794   T   T   T
  0.1624997399249750  0.8763701326124931  0.1384872594316704   T   T   T
  0.4954986588380592  0.8753580328036961  0.1383246123152873   T   T   T
  0.8286362557604718  0.8763059938060493  0.1385392785465029   T   T   T
  0.3288995840879778  0.1270743971807988  0.1657510804484517   T   T   T
  0.6622910777665396  0.1269683392591148  0.1658316943410938   T   T   T
  0.9955237436172482  0.1257494345714321  0.1655445717003019   T   T   T
  0.3282912687789405  0.6265650564373431  0.1656663569580772   T   T   T
  0.6627508835820066  0.6263107393806990  0.1657308956207970   T   T   T
  0.9955830877791456  0.6264878231118161  0.1655747036328989   T   T   T
  0.1625483540873418  0.3789950328593719  0.1906728018917434   T   T   T
  0.4953224136941401  0.3845372072913307  0.1917259504821160   T   T   T
  0.8296887497394891  0.3791675339039955  0.1907631894692301   T   T   T
  0.1617249770037077  0.8808189617784521  0.1910143013565602   T   T   T
  0.4955079060157459  0.8859251987982404  0.1895798234970201   T   T   T
  0.8296027073615875  0.8806774324907423  0.1911106515530108   T   T   T
  0.1625659710151979  0.3761569199297412  0.0849092888107634   T   T   T
  0.4957775066618950  0.3761928689452390  0.0850486548010423   T   T   T
  0.8292278773419426  0.3761902473763996  0.0849143538841517   T   T   T
  0.1626497596623366  0.8762659340283747  0.0849505798687531   T   T   T
  0.4958239030152711  0.8760805670033207  0.0848624335001134   T   T   T
  0.8291322324877441  0.8762722673203314  0.0849680166616622   T   T   T
  0.3291117775497057  0.1259696791164373  0.1121726282514715   T   T   T
  0.6623349672650320  0.1259264905473572  0.1121927926863151   T   T   T
  0.9955407855723948  0.1259766241021936  0.1120946811578634   T   T   T
  0.3289540698439524  0.6258497067081166  0.1121200912739937   T   T   T
  0.6624772268990142  0.6258235748006200  0.1121433957733302   T   T   T
  0.9955820596031302  0.6262821587236544  0.1120939361469553   T   T   T
  0.0799486375532439  0.3586651984640241  0.0259396966186856   T   T   T
  0.4124431749397885  0.3588074042761136  0.0261476619277730   T   T   T
  0.7450731218353681  0.3581971014119389  0.0260523591057549   T   T   T
  0.0800722876375701  0.8589887847576847  0.0259689683339062   T   T   T
  0.4124958593685903  0.8581922376429532  0.0259308413384218   T   T   T
  0.7446865238619651  0.8582293768376559  0.0261300494539967   T   T   T
  0.3276483578183260  0.0577575444574734  0.0441103392285882   T   T   T
  0.6602422732370883  0.0577355560244754  0.0441286758780635   T   T   T
  0.9938515775578978  0.0575954287144498  0.0440655213728860   T   T   T
  0.3269234016773410  0.5575123025377167  0.0440816767571448   T   T   T
  0.6608938044375066  0.5574849926001377  0.0441070126727894   T   T   T
  0.9937879691505671  0.5579703666711353  0.0440651702272135   T   T   T
  0.8325820842313760  0.8082506943343049  0.2066087534273180   T   T   T
  0.8321612490221000  0.3065033172054328  0.2062590307168222   T   T   T
  0.1652684471068540  0.3072916733482458  0.2062730614055610   T   T   T
  0.4976517768686293  0.3107587961712781  0.2070949717997621   T   T   T
  0.1646158567912721  0.8078951897669384  0.2064555857817183   T   T   T
  0.0823669323100304  0.1087692127907331  0.2243351210951943   T   T   T
  0.4171716313116747  0.1047442111192325  0.2244044887867958   T   T   T
  0.7476789393106102  0.1073926971699422  0.2246955433835680   T   T   T
  0.0868669691377093  0.6081460597090853  0.2230967986239847   T   T   T
  0.3677082230748567  0.5702736631080114  0.2301812765482438   T   T   T
  0.7769526588765814  0.5989811326843508  0.2227578027863117   T   T   T
  0.4947365718047791  0.5427752194301476  0.2659240267532539   T   T   T
  0.4699476858858773  0.4572844955809998  0.3004380957381230   T   T   T
  0.5183650173120071  0.6260536025036245  0.3081947008014296   T   T   T
  0.2900117904667994  0.2729625102790294  0.2958621661499734   T   T   T
  0.4394067124010093  0.2167859005465189  0.2877487049622758   T   T   T
  0.6387407660214990  0.7701026323453917  0.3348789095350426   T   T   T
  0.5030387730073613  0.8625333953778949  0.3279595524749510   T   T   T
  0.5650888143499913  0.5377668300482270  0.2406507314147959   T   T   T
  0.1729169403847806  0.3373083326522419  0.0330931314208271   T   T   T
  0.5058609069259248  0.3379552586141301  0.0332497901195055   T   T   T
  0.8386242182987402  0.3372635298967097  0.0330777311507902   T   T   T
  0.1731023330625518  0.8375096737191683  0.0331287779346212   T   T   T
  0.5057745507274305  0.8369390354805120  0.0330163159873891   T   T   T
  0.8383053835823162  0.8375665868816711  0.0331315088835211   T   T   T
  0.3221290444087117  0.0884213076104317  0.2175857844855997   T   T   T
  0.6537466122137374  0.0882422635821598  0.2176973144535665   T   T   T
  0.9881265395639929  0.0881135807119691  0.2175197789787617   T   T   T
  0.3061403958604032  0.5999345107644345  0.2166286563784041   T   T   T
  0.6762982559934443  0.5889954003297433  0.2177331299864633   T   T   T
  0.9895382204636363  0.5861179092060453  0.2172900770152850   T   T   T
  0.5216529817471312  0.5503739135324750  0.2954655830890331   T   T   T
  0.3901416499620680  0.2645949329355304  0.3007289338662744   T   T   T
  0.5368218759992303  0.7593298582027188  0.3312121744054863   T   T   T
  0.4797860624199330  0.5067887801640438  0.2498404057704988   T   T   T
  0.4965100469407133  0.2477144498320456  0.0589562650541779   T   T   T
  0.8297359345324438  0.2476002296506223  0.0588323671788373   T   T   T
  0.1632170277096350  0.7476478275385645  0.0588656627911632   T   T   T
  0.4964546596396886  0.7474877163812295  0.0587896652097371   T   T   T
  0.8296321453766424  0.7477327760287409  0.0588802112222879   T   T   T
  0.1631574674061085  0.2475472275248478  0.0588342303074398   T   T   T
  0.9955328543375259  0.0008232454062309  0.1387727699955832   T   T   T
  0.3296135749591187  0.0010612825722234  0.1389182541189626   T   T   T
  0.6615002403172383  0.0010680032166235  0.1389597508533882   T   T   T
  0.9955964997590669  0.5011285314870619  0.1387417449160182   T   T   T
  0.3287449104957503  0.5012661330968982  0.1388840410242054   T   T   T
  0.6622156103371069  0.5011788590345603  0.1388811064167399   T   T   T
  0.1621399224991862  0.2499089154972367  0.1650047990494485   T   T   T
  0.4953915471251307  0.2518308215421996  0.1655934328069080   T   T   T
  0.8290529804418156  0.2498884672591899  0.1650150712051399   T   T   T
  0.1622854574620050  0.7510638018943894  0.1651339062665684   T   T   T
  0.4952948928540479  0.7507379977608792  0.1655128194063806   T   T   T
  0.8287899843809114  0.7508707277645499  0.1652018138187188   T   T   T
  0.3298361587290799  0.9955526259721594  0.1920097673142109   T   T   T
  0.6609129455330134  0.9953487354984816  0.1921317918783458   T   T   T
  0.9956099997432020  0.9981313580680364  0.1917450136427590   T   T   T
  0.3265713267288746  0.5013442864884112  0.1920974380911815   T   T   T
  0.9961529484468912  0.4961291581696159  0.1914591281959375   T   T   T
  0.6643164190677879  0.4987857974141434  0.1918700450262349   T   T   T
  0.9958668945061930  0.0004925870185204  0.0855201801829182   T   T   T
  0.3293368398641903  0.0004859329973002  0.0855626939647323   T   T   T
  0.6624428420966311  0.0004996524127634  0.0855821115589350   T   T   T
  0.9958857778106633  0.5005793243226648  0.0855128031510617   T   T   T
  0.3291794512913597  0.5004368093613749  0.0855554354695727   T   T   T
  0.6625942805098717  0.5004391435456625  0.0855620909157579   T   T   T
  0.1623260080110427  0.2509016367781953  0.1118618439216519   T   T   T
  0.4956023316518312  0.2510486455087175  0.1120416619252325   T   T   T
  0.8288335258168260  0.2509325173084846  0.1118654333093190   T   T   T
  0.1624731976202582  0.7510913724336348  0.1119062162078279   T   T   T
  0.4956199758327884  0.7507466559248783  0.1118341638747964   T   T   T
  0.8287444565981943  0.7510968905370348  0.1119337837648544   T   T   T
 
  0.00000000E+00  0.00000000E+00  0.00000000E+00
  0.00000000E+00  0.00000000E+00  0.00000000E+00
  0.00000000E+00  0.00000000E+00  0.00000000E+00
  0.00000000E+00  0.00000000E+00  0.00000000E+00
  0.00000000E+00  0.00000000E+00  0.00000000E+00
  0.00000000E+00  0.00000000E+00  0.00000000E+00
  0.00000000E+00  0.00000000E+00  0.00000000E+00
  0.00000000E+00  0.00000000E+00  0.00000000E+00
  0.00000000E+00  0.00000000E+00  0.00000000E+00
  0.00000000E+00  0.00000000E+00  0.00000000E+00
  0.00000000E+00  0.00000000E+00  0.00000000E+00
  0.00000000E+00  0.00000000E+00  0.00000000E+00
  0.00000000E+00  0.00000000E+00  0.00000000E+00
  0.00000000E+00  0.00000000E+00  0.00000000E+00
  0.00000000E+00  0.00000000E+00  0.00000000E+00
  0.00000000E+00  0.00000000E+00  0.00000000E+00
  0.00000000E+00  0.00000000E+00  0.00000000E+00
  0.00000000E+00  0.00000000E+00  0.00000000E+00
  0.00000000E+00  0.00000000E+00  0.00000000E+00
  0.00000000E+00  0.00000000E+00  0.00000000E+00
  0.00000000E+00  0.00000000E+00  0.00000000E+00
  0.00000000E+00  0.00000000E+00  0.00000000E+00
  0.00000000E+00  0.00000000E+00  0.00000000E+00
  0.00000000E+00  0.00000000E+00  0.00000000E+00
  0.00000000E+00  0.00000000E+00  0.00000000E+00
  0.00000000E+00  0.00000000E+00  0.00000000E+00
  0.00000000E+00  0.00000000E+00  0.00000000E+00
  0.00000000E+00  0.00000000E+00  0.00000000E+00
  0.00000000E+00  0.00000000E+00  0.00000000E+00
  0.00000000E+00  0.00000000E+00  0.00000000E+00
  0.00000000E+00  0.00000000E+00  0.00000000E+00
  0.00000000E+00  0.00000000E+00  0.00000000E+00
  0.00000000E+00  0.00000000E+00  0.00000000E+00
  0.00000000E+00  0.00000000E+00  0.00000000E+00
  0.00000000E+00  0.00000000E+00  0.00000000E+00
  0.00000000E+00  0.00000000E+00  0.00000000E+00
  0.00000000E+00  0.00000000E+00  0.00000000E+00
  0.00000000E+00  0.00000000E+00  0.00000000E+00
  0.00000000E+00  0.00000000E+00  0.00000000E+00
  0.00000000E+00  0.00000000E+00  0.00000000E+00
  0.00000000E+00  0.00000000E+00  0.00000000E+00
  0.00000000E+00  0.00000000E+00  0.00000000E+00
  0.00000000E+00  0.00000000E+00  0.00000000E+00
  0.00000000E+00  0.00000000E+00  0.00000000E+00
  0.00000000E+00  0.00000000E+00  0.00000000E+00
  0.00000000E+00  0.00000000E+00  0.00000000E+00
  0.00000000E+00  0.00000000E+00  0.00000000E+00
  0.00000000E+00  0.00000000E+00  0.00000000E+00
  0.00000000E+00  0.00000000E+00  0.00000000E+00
  0.00000000E+00  0.00000000E+00  0.00000000E+00
  0.00000000E+00  0.00000000E+00  0.00000000E+00
  0.00000000E+00  0.00000000E+00  0.00000000E+00
  0.00000000E+00  0.00000000E+00  0.00000000E+00
  0.00000000E+00  0.00000000E+00  0.00000000E+00
  0.00000000E+00  0.00000000E+00  0.00000000E+00
  0.00000000E+00  0.00000000E+00  0.00000000E+00
  0.00000000E+00  0.00000000E+00  0.00000000E+00
  0.00000000E+00  0.00000000E+00  0.00000000E+00
  0.00000000E+00  0.00000000E+00  0.00000000E+00
  0.00000000E+00  0.00000000E+00  0.00000000E+00
  0.00000000E+00  0.00000000E+00  0.00000000E+00
  0.00000000E+00  0.00000000E+00  0.00000000E+00
  0.00000000E+00  0.00000000E+00  0.00000000E+00
  0.00000000E+00  0.00000000E+00  0.00000000E+00
  0.00000000E+00  0.00000000E+00  0.00000000E+00
  0.00000000E+00  0.00000000E+00  0.00000000E+00
  0.00000000E+00  0.00000000E+00  0.00000000E+00
  0.00000000E+00  0.00000000E+00  0.00000000E+00
  0.00000000E+00  0.00000000E+00  0.00000000E+00
  0.00000000E+00  0.00000000E+00  0.00000000E+00
  0.00000000E+00  0.00000000E+00  0.00000000E+00
  0.00000000E+00  0.00000000E+00  0.00000000E+00
  0.00000000E+00  0.00000000E+00  0.00000000E+00
  0.00000000E+00  0.00000000E+00  0.00000000E+00
  0.00000000E+00  0.00000000E+00  0.00000000E+00
  0.00000000E+00  0.00000000E+00  0.00000000E+00
  0.00000000E+00  0.00000000E+00  0.00000000E+00
  0.00000000E+00  0.00000000E+00  0.00000000E+00
  0.00000000E+00  0.00000000E+00  0.00000000E+00
  0.00000000E+00  0.00000000E+00  0.00000000E+00
  0.00000000E+00  0.00000000E+00  0.00000000E+00
  0.00000000E+00  0.00000000E+00  0.00000000E+00
  0.00000000E+00  0.00000000E+00  0.00000000E+00
  0.00000000E+00  0.00000000E+00  0.00000000E+00
  0.00000000E+00  0.00000000E+00  0.00000000E+00
  0.00000000E+00  0.00000000E+00  0.00000000E+00
  0.00000000E+00  0.00000000E+00  0.00000000E+00
  0.00000000E+00  0.00000000E+00  0.00000000E+00
  0.00000000E+00  0.00000000E+00  0.00000000E+00
  0.00000000E+00  0.00000000E+00  0.00000000E+00
  0.00000000E+00  0.00000000E+00  0.00000000E+00
  0.00000000E+00  0.00000000E+00  0.00000000E+00
  0.00000000E+00  0.00000000E+00  0.00000000E+00
  0.00000000E+00  0.00000000E+00  0.00000000E+00
  0.00000000E+00  0.00000000E+00  0.00000000E+00
  0.00000000E+00  0.00000000E+00  0.00000000E+00
  0.00000000E+00  0.00000000E+00  0.00000000E+00
  0.00000000E+00  0.00000000E+00  0.00000000E+00
  0.00000000E+00  0.00000000E+00  0.00000000E+00
  0.00000000E+00  0.00000000E+00  0.00000000E+00
  0.00000000E+00  0.00000000E+00  0.00000000E+00
  0.00000000E+00  0.00000000E+00  0.00000000E+00
  0.00000000E+00  0.00000000E+00  0.00000000E+00
  0.00000000E+00  0.00000000E+00  0.00000000E+00
  0.00000000E+00  0.00000000E+00  0.00000000E+00
  0.00000000E+00  0.00000000E+00  0.00000000E+00
  0.00000000E+00  0.00000000E+00  0.00000000E+00
  0.00000000E+00  0.00000000E+00  0.00000000E+00
  0.00000000E+00  0.00000000E+00  0.00000000E+00
  0.00000000E+00  0.00000000E+00  0.00000000E+00
  0.00000000E+00  0.00000000E+00  0.00000000E+00
  0.00000000E+00  0.00000000E+00  0.00000000E+00
  0.00000000E+00  0.00000000E+00  0.00000000E+00
  0.00000000E+00  0.00000000E+00  0.00000000E+00
  0.00000000E+00  0.00000000E+00  0.00000000E+00
  0.00000000E+00  0.00000000E+00  0.00000000E+00
  0.00000000E+00  0.00000000E+00  0.00000000E+00
  0.00000000E+00  0.00000000E+00  0.00000000E+00
  0.00000000E+00  0.00000000E+00  0.00000000E+00
