C H O Si                                
   1.00000000000000     
     9.2874599999999994    0.0000000000000000    0.0000000000000000
     0.0000000000000000    8.7563099999999991    0.0000000000000000
     0.0000000000000000    0.0000000000000000   58.0000000000000000
   C    H    O    Si
    36    31    16    36
Selective dynamics
Direct
  0.9962937999858198  0.1302733095706886  0.0595640885069844   T   T   T
  0.3297558739386910  0.1303128489492705  0.0596258808839878   T   T   T
  0.6629794477871953  0.1302583396590438  0.0596462381925457   T   T   T
  0.9962514789521373  0.6304779648096839  0.0595813786261049   T   T   T
  0.3296729230787556  0.6300632972286984  0.0595932761598341   T   T   T
  0.6630050070682190  0.6300842084497500  0.0596187907733677   T   T   T
  0.1622235913123324  0.3760682973986126  0.1384034592699643   T   T   T
  0.4954569437860030  0.3763327958775610  0.1387210426904159   T   T   T
  0.8288998008439311  0.3762103439381806  0.1384110353789826   T   T   T
  0.1624997399249780  0.8763701326124910  0.1384872594316683   T   T   T
  0.4954986588380559  0.8753580328036984  0.1383246123152897   T   T   T
  0.8286362557604732  0.8763059938060475  0.1385392785465014   T   T   T
  0.3288995840879760  0.1270743971808004  0.1657510804484488   T   T   T
  0.6622910777665370  0.1269683392591163  0.1658316943410933   T   T   T
  0.9955237436172486  0.1257494345714345  0.1655445717003045   T   T   T
  0.3282912687789388  0.6265650564373428  0.1656663569580779   T   T   T
  0.6627508835820091  0.6263107393806985  0.1657308956207982   T   T   T
  0.9955830877791461  0.6264878231118191  0.1655747036329009   T   T   T
  0.1625483540873386  0.3789950328593688  0.1906728018917424   T   T   T
  0.4953224136941429  0.3845372072913282  0.1917259504821175   T   T   T
  0.8296887497394860  0.3791675339039963  0.1907631894692320   T   T   T
  0.1617249770037062  0.8808189617784541  0.1910143013565634   T   T   T
  0.4955079060157476  0.8859251987982385  0.1895798234970171   T   T   T
  0.8296027073615864  0.8806774324907453  0.1911106515530073   T   T   T
  0.1625659710151945  0.3761569199297377  0.0849092888107607   T   T   T
  0.4957775066618961  0.3761928689452397  0.0850486548010400   T   T   T
  0.8292278773419437  0.3761902473764016  0.0849143538841506   T   T   T
  0.1626497596623368  0.8762659340283715  0.0849505798687533   T   T   T
  0.4958239030152720  0.8760805670033235  0.0848624335001108   T   T   T
  0.8291322324877435  0.8762722673203299  0.0849680166616595   T   T   T
  0.3291117775497056  0.1259696791164385  0.1121726282514703   T   T   T
  0.6623349672650304  0.1259264905473588  0.1121927926863182   T   T   T
  0.9955407855723917  0.1259766241021911  0.1120946811578651   T   T   T
  0.3289540698439525  0.6258497067081199  0.1121200912739931   T   T   T
  0.6624772268990129  0.6258235748006188  0.1121433957733321   T   T   T
  0.9955820596031336  0.6262821587236534  0.1120939361469534   T   T   T
  0.0799486375532469  0.3586651984640210  0.0259396966186891   T   T   T
  0.4124431749397852  0.3588074042761111  0.0261476619277727   T   T   T
  0.7450731218353660  0.3581971014119380  0.0260523591057582   T   T   T
  0.0800722876375707  0.8589887847576873  0.0259689683339083   T   T   T
  0.4124958593685904  0.8581922376429523  0.0259308413384211   T   T   T
  0.7446865238619648  0.8582293768376538  0.0261300494539967   T   T   T
  0.3276483578183257  0.0577575444574733  0.0441103392285898   T   T   T
  0.6602422732370916  0.0577355560244775  0.0441286758780654   T   T   T
  0.9938515775579007  0.0575954287144510  0.0440655213728839   T   T   T
  0.3269234016773410  0.5575123025377136  0.0440816767571453   T   T   T
  0.6608938044375049  0.5574849926001352  0.0441070126727894   T   T   T
  0.9937879691505694  0.5579703666711352  0.0440651702272116   T   T   T
  0.8325820842313780  0.8082506943343076  0.2066087534273212   T   T   T
  0.8321612490221014  0.3065033172054354  0.2062590307168230   T   T   T
  0.1652684471068518  0.3072916733482431  0.2062730614055645   T   T   T
  0.4976517768686325  0.3107587961712771  0.2070949717997604   T   T   T
  0.1646158567912688  0.8078951897669410  0.2064555857817154   T   T   T
  0.0823669323100320  0.1087692127907311  0.2243351210951909   T   T   T
  0.4171716313116748  0.1047442111192353  0.2244044887867961   T   T   T
  0.7476789393106079  0.1073926971699404  0.2246955433835645   T   T   T
  0.0868669691377076  0.6081460597090818  0.2230967986239843   T   T   T
  0.3677082230748578  0.5702736631080100  0.2301812765482417   T   T   T
  0.7769526588765788  0.5989811326843490  0.2227578027863147   T   T   T
  0.4947365718047790  0.5427752194301455  0.2659240267532532   T   T   T
  0.4699476858858798  0.4572844955810005  0.3004380957381239   T   T   T
  0.5183650173120082  0.6260536025036231  0.3081947008014276   T   T   T
  0.2900117904667988  0.2729625102790260  0.2958621661499743   T   T   T
  0.4394067124010084  0.2167859005465191  0.2877487049622782   T   T   T
  0.6387407660215020  0.7701026323453916  0.3348789095350441   T   T   T
  0.5030387730073614  0.8625333953778928  0.3279595524749527   T   T   T
  0.5650888143499926  0.5377668300482271  0.2406507314147987   T   T   T
  0.1729169403847816  0.3373083326522441  0.0330931314208237   T   T   T
  0.5058609069259267  0.3379552586141291  0.0332497901195088   T   T   T
  0.8386242182987432  0.3372635298967064  0.0330777311507934   T   T   T
  0.1731023330625537  0.8375096737191717  0.0331287779346211   T   T   T
  0.5057745507274336  0.8369390354805142  0.0330163159873900   T   T   T
  0.8383053835823131  0.8375665868816734  0.0331315088835216   T   T   T
  0.3221290444087113  0.0884213076104291  0.2175857844855979   T   T   T
  0.6537466122137398  0.0882422635821580  0.2176973144535661   T   T   T
  0.9881265395639928  0.0881135807119714  0.2175197789787617   T   T   T
  0.3061403958604021  0.5999345107644316  0.2166286563784015   T   T   T
  0.6762982559934424  0.5889954003297447  0.2177331299864613   T   T   T
  0.9895382204636376  0.5861179092060466  0.2172900770152846   T   T   T
  0.5216529817471320  0.5503739135324741  0.2954655830890319   T   T   T
  0.3901416499620660  0.2645949329355339  0.3007289338662757   T   T   T
  0.5368218759992310  0.7593298582027199  0.3312121744054886   T   T   T
  0.4797860624199329  0.5067887801640428  0.2498404057704994   T   T   T
  0.4965100469407105  0.2477144498320434  0.0589562650541765   T   T   T
  0.8297359345324472  0.2476002296506203  0.0588323671788352   T   T   T
  0.1632170277096367  0.7476478275385626  0.0588656627911631   T   T   T
  0.4964546596396897  0.7474877163812276  0.0587896652097345   T   T   T
  0.8296321453766393  0.7477327760287403  0.0588802112222870   T   T   T
  0.1631574674061050  0.2475472275248457  0.0588342303074410   T   T   T
  0.9955328543375237  0.0008232454062289  0.1387727699955842   T   T   T
  0.3296135749591214  0.0010612825722229  0.1389182541189606   T   T   T
  0.6615002403172414  0.0010680032166252  0.1389597508533884   T   T   T
  0.9955964997590667  0.5011285314870653  0.1387417449160172   T   T   T
  0.3287449104957514  0.5012661330969016  0.1388840410242025   T   T   T
  0.6622156103371042  0.5011788590345606  0.1388811064167389   T   T   T
  0.1621399224991877  0.2499089154972371  0.1650047990494490   T   T   T
  0.4953915471251341  0.2518308215422008  0.1655934328069104   T   T   T
  0.8290529804418134  0.2498884672591917  0.1650150712051373   T   T   T
  0.1622854574620079  0.7510638018943925  0.1651339062665660   T   T   T
  0.4952948928540470  0.7507379977608811  0.1655128194063787   T   T   T
  0.8287899843809089  0.7508707277645534  0.1652018138187180   T   T   T
  0.3298361587290782  0.9955526259721611  0.1920097673142124   T   T   T
  0.6609129455330124  0.9953487354984838  0.1921317918783426   T   T   T
  0.9956099997432019  0.9981313580680344  0.1917450136427573   T   T   T
  0.3265713267288752  0.5013442864884086  0.1920974380911789   T   T   T
  0.9961529484468929  0.4961291581696173  0.1914591281959375   T   T   T
  0.6643164190677883  0.4987857974141428  0.1918700450262336   T   T   T
  0.9958668945061917  0.0004925870185179  0.0855201801829167   T   T   T
  0.3293368398641919  0.0004859329973005  0.0855626939647341   T   T   T
  0.6624428420966288  0.0004996524127606  0.0855821115589317   T   T   T
  0.9958857778106622  0.5005793243226677  0.0855128031510587   T   T   T
  0.3291794512913628  0.5004368093613731  0.0855554354695755   T   T   T
  0.6625942805098705  0.5004391435456623  0.0855620909157606   T   T   T
  0.1623260080110428  0.2509016367781925  0.1118618439216538   T   T   T
  0.4956023316518299  0.2510486455087140  0.1120416619252305   T   T   T
  0.8288335258168253  0.2509325173084870  0.1118654333093211   T   T   T
  0.1624731976202603  0.7510913724336352  0.1119062162078306   T   T   T
  0.4956199758327877  0.7507466559248792  0.1118341638747975   T   T   T
  0.8287444565981977  0.7510968905370368  0.1119337837648527   T   T   T
 
  0.00000000E+00  0.00000000E+00  0.00000000E+00
  0.00000000E+00  0.00000000E+00  0.00000000E+00
  0.00000000E+00  0.00000000E+00  0.00000000E+00
  0.00000000E+00  0.00000000E+00  0.00000000E+00
  0.00000000E+00  0.00000000E+00  0.00000000E+00
  0.00000000E+00  0.00000000E+00  0.00000000E+00
  0.00000000E+00  0.00000000E+00  0.00000000E+00
  0.00000000E+00  0.00000000E+00  0.00000000E+00
  0.00000000E+00  0.00000000E+00  0.00000000E+00
  0.00000000E+00  0.00000000E+00  0.00000000E+00
  0.00000000E+00  0.00000000E+00  0.00000000E+00
  0.00000000E+00  0.00000000E+00  0.00000000E+00
  0.00000000E+00  0.00000000E+00  0.00000000E+00
  0.00000000E+00  0.00000000E+00  0.00000000E+00
  0.00000000E+00  0.00000000E+00  0.00000000E+00
  0.00000000E+00  0.00000000E+00  0.00000000E+00
  0.00000000E+00  0.00000000E+00  0.00000000E+00
  0.00000000E+00  0.00000000E+00  0.00000000E+00
  0.00000000E+00  0.00000000E+00  0.00000000E+00
  0.00000000E+00  0.00000000E+00  0.00000000E+00
  0.00000000E+00  0.00000000E+00  0.00000000E+00
  0.00000000E+00  0.00000000E+00  0.00000000E+00
  0.00000000E+00  0.00000000E+00  0.00000000E+00
  0.00000000E+00  0.00000000E+00  0.00000000E+00
  0.00000000E+00  0.00000000E+00  0.00000000E+00
  0.00000000E+00  0.00000000E+00  0.00000000E+00
  0.00000000E+00  0.00000000E+00  0.00000000E+00
  0.00000000E+00  0.00000000E+00  0.00000000E+00
  0.00000000E+00  0.00000000E+00  0.00000000E+00
  0.00000000E+00  0.00000000E+00  0.00000000E+00
  0.00000000E+00  0.00000000E+00  0.00000000E+00
  0.00000000E+00  0.00000000E+00  0.00000000E+00
  0.00000000E+00  0.00000000E+00  0.00000000E+00
  0.00000000E+00  0.00000000E+00  0.00000000E+00
  0.00000000E+00  0.00000000E+00  0.00000000E+00
  0.00000000E+00  0.00000000E+00  0.00000000E+00
  0.00000000E+00  0.00000000E+00  0.00000000E+00
  0.00000000E+00  0.00000000E+00  0.00000000E+00
  0.00000000E+00  0.00000000E+00  0.00000000E+00
  0.00000000E+00  0.00000000E+00  0.00000000E+00
  0.00000000E+00  0.00000000E+00  0.00000000E+00
  0.00000000E+00  0.00000000E+00  0.00000000E+00
  0.00000000E+00  0.00000000E+00  0.00000000E+00
  0.00000000E+00  0.00000000E+00  0.00000000E+00
  0.00000000E+00  0.00000000E+00  0.00000000E+00
  0.00000000E+00  0.00000000E+00  0.00000000E+00
  0.00000000E+00  0.00000000E+00  0.00000000E+00
  0.00000000E+00  0.00000000E+00  0.00000000E+00
  0.00000000E+00  0.00000000E+00  0.00000000E+00
  0.00000000E+00  0.00000000E+00  0.00000000E+00
  0.00000000E+00  0.00000000E+00  0.00000000E+00
  0.00000000E+00  0.00000000E+00  0.00000000E+00
  0.00000000E+00  0.00000000E+00  0.00000000E+00
  0.00000000E+00  0.00000000E+00  0.00000000E+00
  0.00000000E+00  0.00000000E+00  0.00000000E+00
  0.00000000E+00  0.00000000E+00  0.00000000E+00
  0.00000000E+00  0.00000000E+00  0.00000000E+00
  0.00000000E+00  0.00000000E+00  0.00000000E+00
  0.00000000E+00  0.00000000E+00  0.00000000E+00
  0.00000000E+00  0.00000000E+00  0.00000000E+00
  0.00000000E+00  0.00000000E+00  0.00000000E+00
  0.00000000E+00  0.00000000E+00  0.00000000E+00
  0.00000000E+00  0.00000000E+00  0.00000000E+00
  0.00000000E+00  0.00000000E+00  0.00000000E+00
  0.00000000E+00  0.00000000E+00  0.00000000E+00
  0.00000000E+00  0.00000000E+00  0.00000000E+00
  0.00000000E+00  0.00000000E+00  0.00000000E+00
  0.00000000E+00  0.00000000E+00  0.00000000E+00
  0.00000000E+00  0.00000000E+00  0.00000000E+00
  0.00000000E+00  0.00000000E+00  0.00000000E+00
  0.00000000E+00  0.00000000E+00  0.00000000E+00
  0.00000000E+00  0.00000000E+00  0.00000000E+00
  0.00000000E+00  0.00000000E+00  0.00000000E+00
  0.00000000E+00  0.00000000E+00  0.00000000E+00
  0.00000000E+00  0.00000000E+00  0.00000000E+00
  0.00000000E+00  0.00000000E+00  0.00000000E+00
  0.00000000E+00  0.00000000E+00  0.00000000E+00
  0.00000000E+00  0.00000000E+00  0.00000000E+00
  0.00000000E+00  0.00000000E+00  0.00000000E+00
  0.00000000E+00  0.00000000E+00  0.00000000E+00
  0.00000000E+00  0.00000000E+00  0.00000000E+00
  0.00000000E+00  0.00000000E+00  0.00000000E+00
  0.00000000E+00  0.00000000E+00  0.00000000E+00
  0.00000000E+00  0.00000000E+00  0.00000000E+00
  0.00000000E+00  0.00000000E+00  0.00000000E+00
  0.00000000E+00  0.00000000E+00  0.00000000E+00
  0.00000000E+00  0.00000000E+00  0.00000000E+00
  0.00000000E+00  0.00000000E+00  0.00000000E+00
  0.00000000E+00  0.00000000E+00  0.00000000E+00
  0.00000000E+00  0.00000000E+00  0.00000000E+00
  0.00000000E+00  0.00000000E+00  0.00000000E+00
  0.00000000E+00  0.00000000E+00  0.00000000E+00
  0.00000000E+00  0.00000000E+00  0.00000000E+00
  0.00000000E+00  0.00000000E+00  0.00000000E+00
  0.00000000E+00  0.00000000E+00  0.00000000E+00
  0.00000000E+00  0.00000000E+00  0.00000000E+00
  0.00000000E+00  0.00000000E+00  0.00000000E+00
  0.00000000E+00  0.00000000E+00  0.00000000E+00
  0.00000000E+00  0.00000000E+00  0.00000000E+00
  0.00000000E+00  0.00000000E+00  0.00000000E+00
  0.00000000E+00  0.00000000E+00  0.00000000E+00
  0.00000000E+00  0.00000000E+00  0.00000000E+00
  0.00000000E+00  0.00000000E+00  0.00000000E+00
  0.00000000E+00  0.00000000E+00  0.00000000E+00
  0.00000000E+00  0.00000000E+00  0.00000000E+00
  0.00000000E+00  0.00000000E+00  0.00000000E+00
  0.00000000E+00  0.00000000E+00  0.00000000E+00
  0.00000000E+00  0.00000000E+00  0.00000000E+00
  0.00000000E+00  0.00000000E+00  0.00000000E+00
  0.00000000E+00  0.00000000E+00  0.00000000E+00
  0.00000000E+00  0.00000000E+00  0.00000000E+00
  0.00000000E+00  0.00000000E+00  0.00000000E+00
  0.00000000E+00  0.00000000E+00  0.00000000E+00
  0.00000000E+00  0.00000000E+00  0.00000000E+00
  0.00000000E+00  0.00000000E+00  0.00000000E+00
  0.00000000E+00  0.00000000E+00  0.00000000E+00
  0.00000000E+00  0.00000000E+00  0.00000000E+00
  0.00000000E+00  0.00000000E+00  0.00000000E+00
  0.00000000E+00  0.00000000E+00  0.00000000E+00
  0.00000000E+00  0.00000000E+00  0.00000000E+00
  0.00000000E+00  0.00000000E+00  0.00000000E+00
