C H O Si                                
   1.00000000000000     
    18.5749199999999988    0.0000000000000000    0.0000000000000000
     0.0000000000000000   17.5126199999999983    0.0000000000000000
     0.0000000000000000    0.0000000000000000   58.0000000000000000
   C    H    O    Si
   144   105    52   144
Selective dynamics
Direct
  0.4994288128678900  0.0652343374224796  0.0601087709986960   T   T   T
  0.1660876021307769  0.0652788927568780  0.0601133547577393   T   T   T
  0.3326900779633619  0.0653036590551693  0.0601258537002642   T   T   T
  0.4994271936775920  0.3152947796903318  0.0601036730101770   T   T   T
  0.1661011302644113  0.3153349411220836  0.0601154299876573   T   T   T
  0.3326913394212530  0.3153414594132824  0.0601352630293597   T   T   T
  0.0828545625321603  0.1880248001908790  0.1390044745932061   T   T   T
  0.2494859181288707  0.1880546551070992  0.1390100105786893   T   T   T
  0.4161565784245633  0.1880371012893886  0.1390046934274749   T   T   T
  0.0828739881468885  0.4380491151021118  0.1390173013863760   T   T   T
  0.2494630542733648  0.4380789311614279  0.1390067058873801   T   T   T
  0.4161091062314213  0.4381066066252561  0.1390082091092849   T   T   T
  0.1664218138782180  0.0630841348413671  0.1661585139386536   T   T   T
  0.3329587834360335  0.0631488680072135  0.1661633750558459   T   T   T
  0.4995758955572401  0.0629960534696030  0.1661080263401385   T   T   T
  0.1663995039041956  0.3131194232298004  0.1661505008883511   T   T   T
  0.3329691643759460  0.3131415189071424  0.1661521844903550   T   T   T
  0.4995846515079159  0.3131725254424711  0.1661051368512998   T   T   T
  0.0832081205904003  0.1900389338719665  0.1915111983721862   T   T   T
  0.2496720911821078  0.1902701883858577  0.1915578562663542   T   T   T
  0.4162934129077262  0.1902773960726915  0.1915469323444141   T   T   T
  0.0831148183816724  0.4401887337245853  0.1915595892312424   T   T   T
  0.2496612528182887  0.4402191539474532  0.1915565361661630   T   T   T
  0.4162019253801775  0.4402574988193267  0.1915279175010373   T   T   T
  0.0827596100324323  0.1881528558293034  0.0854777772085408   T   T   T
  0.2493665018530142  0.1882199340582215  0.0854820973623928   T   T   T
  0.4160717785094383  0.1881795163332293  0.0854955460132086   T   T   T
  0.0827394987744570  0.4381850780364386  0.0854877143444184   T   T   T
  0.2493627067518951  0.4382753261767428  0.0854876288428710   T   T   T
  0.4160603732445399  0.4382247628056083  0.0854971625253324   T   T   T
  0.1662196527735528  0.0630159496662612  0.1126023974976609   T   T   T
  0.3328368394113276  0.0630413683591336  0.1126087291893748   T   T   T
  0.4995366412169570  0.0630131078775544  0.1126141759313141   T   T   T
  0.1662154825460108  0.3130654926446993  0.1125927169975436   T   T   T
  0.3328229076771931  0.3130607794503328  0.1126058108513752   T   T   T
  0.4995327340818163  0.3130733956077961  0.1125908083183117   T   T   T
  0.4994288413673735  0.5653211473156068  0.0601165729122272   T   T   T
  0.1660866969212086  0.5653536698038056  0.0601233510254173   T   T   T
  0.3326961953049857  0.5653546897218116  0.0601310905662948   T   T   T
  0.4994528285360182  0.8153209584491024  0.0601355066827901   T   T   T
  0.1660897629154314  0.8153022235654328  0.0601244010632551   T   T   T
  0.3326893823412479  0.8153211006379147  0.0601365506070036   T   T   T
  0.0828529274410180  0.6880637750796786  0.1390376544987594   T   T   T
  0.2494508955369166  0.6881136477701991  0.1390271608277590   T   T   T
  0.4161033475957839  0.6881315045739500  0.1390107506207875   T   T   T
  0.0828802436031967  0.9379756447346115  0.1390193604587987   T   T   T
  0.2495045228442820  0.9380490908808171  0.1390182213503003   T   T   T
  0.4161442776500205  0.9380164126276742  0.1390155163206352   T   T   T
  0.1663994779203790  0.5631589461942864  0.1661916305819392   T   T   T
  0.3329134833939522  0.5631790499806609  0.1661761375984915   T   T   T
  0.4994508764424470  0.5633133752403917  0.1661351420727437   T   T   T
  0.1663667987768866  0.8131375149302303  0.1661937137843494   T   T   T
  0.3329709176156853  0.8131925649385220  0.1661828406139283   T   T   T
  0.4996451763121761  0.8132440714779076  0.1661888264357967   T   T   T
  0.0829980146143156  0.6902658252967696  0.1915840827660139   T   T   T
  0.2496434694469475  0.6903223260546042  0.1915942917184780   T   T   T
  0.4162734187206917  0.6902672226686104  0.1915365295883119   T   T   T
  0.0829778435041155  0.9402745389733049  0.1915765430609234   T   T   T
  0.2496572989951900  0.9402626279862626  0.1915694848437081   T   T   T
  0.4163104411806307  0.9403190834595635  0.1915718373527829   T   T   T
  0.0827296458686591  0.6881972717625857  0.0855088270759072   T   T   T
  0.2493638713968875  0.6882657960649784  0.0854948497726674   T   T   T
  0.4160731928807502  0.6882324639151363  0.0854994572034648   T   T   T
  0.0827415103516349  0.9381338865176447  0.0854907229978391   T   T   T
  0.2493482420404022  0.9382161428745845  0.0854885170382524   T   T   T
  0.4160708933991797  0.9381953031345054  0.0855023137538939   T   T   T
  0.1662154268108890  0.5630962160683184  0.1126128889130590   T   T   T
  0.3328192209089627  0.5631105078524390  0.1126086351670940   T   T   T
  0.4995036695199577  0.5631342006300857  0.1126112387059421   T   T   T
  0.1662271936756621  0.8130542710729278  0.1126144050494255   T   T   T
  0.3328187514647962  0.8130732561922279  0.1126083982108328   T   T   T
  0.4995452255696806  0.8131399122562890  0.1126373748869141   T   T   T
  0.9994390756981908  0.0652300158962170  0.0601054637472577   T   T   T
  0.6661156296617791  0.0652971153246414  0.0601684832834919   T   T   T
  0.8326752890416278  0.0653377533844223  0.0601738751523909   T   T   T
  0.9994258891357325  0.3153073638278473  0.0601093126636187   T   T   T
  0.6660771533712575  0.3152365366484048  0.0600990407957759   T   T   T
  0.8326947696201831  0.3152865655656583  0.0601435810415832   T   T   T
  0.5827827277895253  0.1879647886979559  0.1389636058645433   T   T   T
  0.7493969312430050  0.1883204513317299  0.1391992934361218   T   T   T
  0.9161769130946062  0.1880670432348061  0.1389689067131893   T   T   T
  0.5827376485767923  0.4382047639181820  0.1389913940802481   T   T   T
  0.7494619802205779  0.4381027731618354  0.1387411912541877   T   T   T
  0.9162017518695993  0.4381002710468572  0.1390443877820898   T   T   T
  0.6665904769197860  0.0633708318468271  0.1662726657470001   T   T   T
  0.8326608595203682  0.0635164473204780  0.1662820084092520   T   T   T
  0.9997456410702974  0.0630019224164691  0.1660943754152100   T   T   T
  0.6659060317245891  0.3134147620897199  0.1660990402134193   T   T   T
  0.8331312180947761  0.3132306953937878  0.1662119318926075   T   T   T
  0.9997049951600721  0.3131867604668400  0.1661115820987241   T   T   T
  0.5830416846434699  0.1897701149149997  0.1912863985524982   T   T   T
  0.7493886198554612  0.1922676739992511  0.1921611924777491   T   T   T
  0.9165960151458046  0.1896378839977223  0.1913000240737208   T   T   T
  0.5823336635410327  0.4404082503178206  0.1915485949048721   T   T   T
  0.7495765802605336  0.4450723042756701  0.1892159218048232   T   T   T
  0.9168114128255730  0.4402471932970263  0.1916291810223802   T   T   T
  0.5827254293866820  0.1881086630415851  0.0854666476594857   T   T   T
  0.7493604873282016  0.1882616049850799  0.0855836026272932   T   T   T
  0.9160942551430560  0.1881701695583970  0.0854841302236317   T   T   T
  0.5827419700492193  0.4381891980350749  0.0854808651336590   T   T   T
  0.7493165723306144  0.4382408990182786  0.0854078961325782   T   T   T
  0.9160615571115889  0.4382086148980723  0.0855153647774532   T   T   T
  0.6662525751303420  0.0631134084040511  0.1126708676139305   T   T   T
  0.8327714931667370  0.0631861445461635  0.1126754555908572   T   T   T
  0.9995528255727943  0.0630126185925111  0.1126117063477357   T   T   T
  0.6661292221880852  0.3130211484231780  0.1125866263173710   T   T   T
  0.8328418293164032  0.3130253736281872  0.1126162981997878   T   T   T
  0.9995358757509526  0.3130779172206962  0.1125968798355452   T   T   T
  0.9994184864456190  0.5652912245056811  0.0601293064712052   T   T   T
  0.6660934259727874  0.5653821370035961  0.0601259690659810   T   T   T
  0.8326761949045675  0.5653562207914644  0.0601489809859559   T   T   T
  0.9994069325125349  0.8153047248298666  0.0601360647969136   T   T   T
  0.6661141450218323  0.8153400826036478  0.0601656564149292   T   T   T
  0.8326833900285768  0.8153305543093832  0.0601757054591452   T   T   T
  0.5827773200049750  0.6881169682811501  0.1390325258108169   T   T   T
  0.7494895091579382  0.6879809859019365  0.1390841137590337   T   T   T
  0.9161630787833618  0.6880609557918158  0.1390322211044951   T   T   T
  0.5829425152337765  0.9381315849965446  0.1390795652571779   T   T   T
  0.7494953017061464  0.9380491325590452  0.1390690454128724   T   T   T
  0.9160739589775598  0.9381769372466499  0.1390736195060699   T   T   T
  0.6660513070175702  0.5633937076113783  0.1661518289786555   T   T   T
  0.8331395785398493  0.5632410361388301  0.1661886925833050   T   T   T
  0.9997919659886099  0.5632417845348657  0.1661648759574557   T   T   T
  0.6663693232758472  0.8130950267749437  0.1662298762674711   T   T   T
  0.8329667333446181  0.8131213414408248  0.1662331065227828   T   T   T
  0.9996149413212471  0.8132374132420142  0.1661922238997745   T   T   T
  0.5828772831346206  0.6902621797379194  0.1916108693108935   T   T   T
  0.7496557856456088  0.6902227178561284  0.1916569236963417   T   T   T
  0.9164016252152434  0.6901848653423458  0.1915774263270419   T   T   T
  0.5829700388082688  0.9402970229117086  0.1916088769761112   T   T   T
  0.7496489762380970  0.9403152313441887  0.1916137345625337   T   T   T
  0.9162723403186006  0.9404216806825514  0.1915871221271643   T   T   T
  0.5827494772576913  0.6882024135211623  0.0855145575515075   T   T   T
  0.7493798418578590  0.6882460130768884  0.0855396829756509   T   T   T
  0.9160733265054036  0.6882349851051215  0.0855215377013718   T   T   T
  0.5827781802525986  0.9381813513140591  0.0855313338703776   T   T   T
  0.7493812459580254  0.9382528023525498  0.0855392723720632   T   T   T
  0.9160524316379998  0.9382316391588494  0.0855436590317912   T   T   T
  0.6662058948741101  0.5631134230788173  0.1126128176442292   T   T   T
  0.8328418701404929  0.5630577301800597  0.1126274277997258   T   T   T
  0.9995319545014409  0.5630661500852835  0.1126347896641556   T   T   T
  0.6662325026767925  0.8130658683885807  0.1126654753189066   T   T   T
  0.8328298383302468  0.8130742493204720  0.1126671912067000   T   T   T
  0.9994994115161286  0.8131211377901288  0.1126421003246876   T   T   T
  0.0409372471148246  0.1784046212964219  0.0262403455104977   T   T   T
  0.2074009059237744  0.1784563227795208  0.0262899488869319   T   T   T
  0.3740152645219343  0.1783592464133933  0.0262971819094880   T   T   T
  0.0409778256470245  0.4284132579838836  0.0262432623793935   T   T   T
  0.2074808154821168  0.4283403802317606  0.0262538483628417   T   T   T
  0.3739527594313920  0.4283001238023850  0.0262962203357662   T   T   T
  0.1649743611593759  0.0290792922249990  0.0445808326342963   T   T   T
  0.3315202358907046  0.0290943017017039  0.0445939335736267   T   T   T
  0.4982028412241081  0.0290102830257881  0.0445826500933763   T   T   T
  0.1649566149310312  0.2791151325267170  0.0445871421770019   T   T   T
  0.3315264264613189  0.2791151853450093  0.0446077285616660   T   T   T
  0.4982325274285227  0.2790717929459643  0.0445740589283245   T   T   T
  0.4175171997586527  0.4040725139783505  0.2070654252425140   T   T   T
  0.4174721365586947  0.1540141880351219  0.2070646106854842   T   T   T
  0.0841766028192649  0.1539415439312646  0.2070582997022794   T   T   T
  0.2508428190485860  0.1540573788164120  0.2070841692127583   T   T   T
  0.0842743043832311  0.4039644105706765  0.2070842650372397   T   T   T
  0.2508695196353516  0.4039572093936251  0.2070716175489830   T   T   T
  0.0417071579572305  0.0536227186045230  0.2253332925018874   T   T   T
  0.2081281982722650  0.0538820534389183  0.2253344722845685   T   T   T
  0.3746490043929134  0.0537730499859941  0.2253871883505953   T   T   T
  0.0400384808839373  0.3032584260588435  0.2256135288556957   T   T   T
  0.2076930049255584  0.3038953552658452  0.2254120124519659   T   T   T
  0.3747413934427919  0.3038593440200038  0.2254189186191342   T   T   T
  0.0409017688069752  0.6784987160909778  0.0262790771427422   T   T   T
  0.2074246822013937  0.6784912726735806  0.0262903124069514   T   T   T
  0.3740299266116250  0.6784281493180169  0.0263008203191218   T   T   T
  0.0409507623921535  0.9283762616317820  0.0262576851164895   T   T   T
  0.2074328265900214  0.9283724627440203  0.0262661077903420   T   T   T
  0.3740314063109977  0.9283186739220695  0.0262929721545716   T   T   T
  0.1649377927162873  0.5291366848088155  0.0445974960296763   T   T   T
  0.3315581264298182  0.5291447999327595  0.0445995455802475   T   T   T
  0.4982692139241174  0.5291305623098466  0.0445814832510917   T   T   T
  0.1649408698896070  0.7790511985369986  0.0446044387765732   T   T   T
  0.3315391442642787  0.7790901542362682  0.0446108352025077   T   T   T
  0.4983022593316345  0.7790677475395296  0.0446149048669373   T   T   T
  0.4174112631145358  0.9040876771857574  0.2070947400444980   T   T   T
  0.4173915871070519  0.6540141855799831  0.2070541086864701   T   T   T
  0.0841115232076193  0.6540247837459425  0.2071042648358076   T   T   T
  0.2507432491068325  0.6540291519984303  0.2071092905827562   T   T   T
  0.0841025568943611  0.9040413927917439  0.2070985336658843   T   T   T
  0.2508074054557081  0.9040139528229976  0.2070930750537891   T   T   T
  0.0420268634225349  0.5532765181761069  0.2254228959167247   T   T   T
  0.2082759158827002  0.5527553819084464  0.2254813560475445   T   T   T
  0.3748806835771251  0.5530504724765214  0.2254285135578550   T   T   T
  0.0415400323731421  0.8033705198703868  0.2254313716189531   T   T   T
  0.2077278742408717  0.8035912626662491  0.2255198396513069   T   T   T
  0.3754638975836466  0.8030179108328875  0.2253584468506870   T   T   T
  0.5409821999820017  0.1783585673547194  0.0262492101551025   T   T   T
  0.7074152994500558  0.1784601538345337  0.0263586451752251   T   T   T
  0.8739729916490041  0.1783298724509207  0.0262891730407829   T   T   T
  0.5409834559545720  0.4284012845839736  0.0262462278656707   T   T   T
  0.7074982909322445  0.4282917493421677  0.0261972425666373   T   T   T
  0.8739381169571040  0.4282796359005734  0.0263041110054456   T   T   T
  0.6650768779340985  0.0290384826477906  0.0446465718352645   T   T   T
  0.8313957724254477  0.0290504153395864  0.0446557408651993   T   T   T
  0.9982567607414419  0.0290087015481593  0.0445752368522681   T   T   T
  0.6648523909552364  0.2789970398374132  0.0445754477572579   T   T   T
  0.8316252933700198  0.2790237390807909  0.0446281438609177   T   T   T
  0.9982396530151235  0.2791014140678714  0.0445765361522337   T   T   T
  0.9180653513625129  0.4042363589164796  0.2071683615467845   T   T   T
  0.9177917082142026  0.1536165778475226  0.2068737794761690   T   T   T
  0.5841204320503537  0.1540040492592278  0.2069126159269176   T   T   T
  0.7503819343889386  0.1556825945629999  0.2076114392918534   T   T   T
  0.5836031628144590  0.4041219823270446  0.2070249813568698   T   T   T
  0.7706804940721353  0.4631663873073562  0.2611564139234403   T   T   T
  0.5416250212907316  0.0541792799416971  0.2252327314570564   T   T   T
  0.7082331034705169  0.0544682668447334  0.2252848721905119   T   T   T
  0.8744665318956419  0.0541265477797056  0.2254626027005353   T   T   T
  0.5460730470139876  0.3042878063226522  0.2236722577884439   T   T   T
  0.6848286313008917  0.2854107603720434  0.2306648705108139   T   T   T
  0.8885633509288027  0.2998283565193868  0.2235439620611629   T   T   T
  0.7460428955758096  0.2701494417200761  0.2663334404993039   T   T   T
  0.7344147140773115  0.2281081998556352  0.3005696870083447   T   T   T
  0.7584161116645348  0.3129476030289092  0.3081907510553783   T   T   T
  0.6445266073725303  0.1357075838235731  0.2956321113252973   T   T   T
  0.7188959220544949  0.1092889982678251  0.2866784034599884   T   T   T
  0.8189592049289779  0.3858253677536502  0.3348507404470416   T   T   T
  0.7521155667187425  0.4329532573764389  0.3274706847608765   T   T   T
  0.7513386668387809  0.4363792597912534  0.2691550344588314   T   T   T
  0.7824538420979543  0.2679483552940015  0.2413140198851338   T   T   T
  0.5409152907265543  0.6784943487925571  0.0262774867409350   T   T   T
  0.7074592371157259  0.6785321931291725  0.0263074901191237   T   T   T
  0.8740515897776530  0.6784509821987081  0.0263114279770912   T   T   T
  0.5410244853862604  0.9283671985578130  0.0262881336125135   T   T   T
  0.7074571321002409  0.9283583818620630  0.0263032844582259   T   T   T
  0.8739657448125125  0.9283304508822241  0.0263209385438342   T   T   T
  0.6649854976765217  0.5291841639474874  0.0445917230269281   T   T   T
  0.8315160257838662  0.5291820013370788  0.0446086429445844   T   T   T
  0.9982336970536135  0.5290948280990645  0.0445955316564319   T   T   T
  0.6649757611531210  0.7790943359804211  0.0446431275413542   T   T   T
  0.8314929480269393  0.7790987361263112  0.0446472872184181   T   T   T
  0.9981500225788806  0.7790541404967314  0.0446172165115101   T   T   T
  0.9174003931659094  0.9042510568561041  0.2071244414530696   T   T   T
  0.9175347032065020  0.6539043451300020  0.2070950655149022   T   T   T
  0.5838794642563336  0.6539802605371834  0.2071232443143637   T   T   T
  0.7506868338201939  0.6539960922974519  0.2071859655088584   T   T   T
  0.5840689779715306  0.9040840181013116  0.2071392175942452   T   T   T
  0.7508428472466211  0.9040942497051543  0.2071385836401489   T   T   T
  0.5410094429347820  0.5529636501093309  0.2255333504739230   T   T   T
  0.7088661412691607  0.5516237238396485  0.2255056826035262   T   T   T
  0.8743935913698998  0.5520074389059858  0.2259185368156286   T   T   T
  0.5414192860683247  0.8033135119098198  0.2254308803507881   T   T   T
  0.7077326137938372  0.8035622849796321  0.2255329554813791   T   T   T
  0.8755618276601163  0.8030615687295530  0.2253761805223618   T   T   T
  0.0872324412420196  0.1696705094906023  0.0337833488967310   T   T   T
  0.2537627239970475  0.1697061146707809  0.0337916933161253   T   T   T
  0.4203643253167231  0.1696815557906338  0.0338118794178233   T   T   T
  0.0872623180873730  0.4197139974357277  0.0337906996543855   T   T   T
  0.2538268859833189  0.4197129101529274  0.0337803406447743   T   T   T
  0.4203322749530948  0.4197037222724596  0.0338045348610473   T   T   T
  0.1617586987808941  0.0446527583011280  0.2178868805886401   T   T   T
  0.3283519191085003  0.0446092162797570  0.2178979843957528   T   T   T
  0.4951676945945427  0.0446274568754890  0.2178808802259088   T   T   T
  0.1615149372689430  0.2944986214153819  0.2178755334988393   T   T   T
  0.3285451255807918  0.2946330604485907  0.2178840973924011   T   T   T
  0.4973060321603406  0.2940702389051064  0.2178495895278467   T   T   T
  0.0872027113161433  0.6697383690190631  0.0338150738472682   T   T   T
  0.2537890493250933  0.6697348273020888  0.0337950760699787   T   T   T
  0.4203729362807824  0.6697543578211491  0.0338174777816325   T   T   T
  0.0872695073094991  0.9196446724499835  0.0337848080295151   T   T   T
  0.2537909562144863  0.9196633637625247  0.0337804572653648   T   T   T
  0.4203794123327858  0.9196500100005628  0.0338135130924871   T   T   T
  0.1619279262654184  0.5444553750361182  0.2179223100280063   T   T   T
  0.3285187331631276  0.5444803927286581  0.2179083723918964   T   T   T
  0.4948330131287096  0.5448901147011723  0.2178569554547855   T   T   T
  0.1615790857477763  0.7945878993076775  0.2179270455221378   T   T   T
  0.3289297144845370  0.7945331395215572  0.2179286090899856   T   T   T
  0.4950749350063402  0.7945650884224464  0.2179181892698923   T   T   T
  0.5872914691306075  0.1695902044300144  0.0337786968679419   T   T   T
  0.7537629081239270  0.1697701730266050  0.0338750934793213   T   T   T
  0.9203335179565576  0.1695799310323624  0.0337918707423098   T   T   T
  0.5872807772912193  0.4196721764107560  0.0337849046321740   T   T   T
  0.7538315624440642  0.4194904017059470  0.0337120333757112   T   T   T
  0.9203025650110387  0.4197238928908389  0.0338286481413768   T   T   T
  0.6617760372385388  0.0444860932128838  0.2179864807722615   T   T   T
  0.8282349809103436  0.0446113915657342  0.2179714799544341   T   T   T
  0.9953304482981620  0.0448200188118808  0.2178442470151231   T   T   T
  0.6566366892664530  0.3024048947166462  0.2166904500238552   T   T   T
  0.8386175683364104  0.2955891527765069  0.2180362035900324   T   T   T
  0.9944311325302614  0.2937678319467674  0.2177355081784912   T   T   T
  0.7604597195637134  0.2746273499989873  0.2956212203800929   T   T   T
  0.6952207590294696  0.1326184274269639  0.2999389500308564   T   T   T
  0.7681341838334906  0.3811357450462882  0.3308673318254742   T   T   T
  0.7394003237244573  0.2521531277780711  0.2501855073156111   T   T   T
  0.5872212311192162  0.6698100596986170  0.0338186457102574   T   T   T
  0.7538042160507643  0.6697959165261204  0.0338270107861874   T   T   T
  0.9203753397773519  0.6697536366573631  0.0338391136461312   T   T   T
  0.5873403233636133  0.9197130593646188  0.0338268702473039   T   T   T
  0.7537992478494757  0.9197147462838905  0.0338311429807354   T   T   T
  0.9203137956991154  0.9196939150657699  0.0338470450376379   T   T   T
  0.6621813797971324  0.5437925257278423  0.2181097826270335   T   T   T
  0.8284159568661564  0.5441990021155046  0.2180884193172310   T   T   T
  0.9956714130069022  0.5447223948234886  0.2178962021040646   T   T   T
  0.6615638423475545  0.7945092475358996  0.2179555222878510   T   T   T
  0.8290156118791018  0.7944300774031936  0.2179698076577714   T   T   T
  0.9951937211634220  0.7945720605853182  0.2179221298409822   T   T   T
  0.2494352333903294  0.1240165786733569  0.0593232955434627   T   T   T
  0.4161097278507888  0.1239652888807219  0.0593325974718003   T   T   T
  0.0827998827822636  0.3740316305379319  0.0593149365177699   T   T   T
  0.2494558957444188  0.3740699857698506  0.0593210433038554   T   T   T
  0.4161073110621988  0.3739987915247397  0.0593320009544884   T   T   T
  0.0827909323356892  0.1239682036668495  0.0593137520370088   T   T   T
  0.4994834696090942  0.0005040766728417  0.1392750541143250   T   T   T
  0.1661954625945161  0.0005708337300418  0.1392740984533674   T   T   T
  0.3328140791589307  0.0006001125701215  0.1392789887597814   T   T   T
  0.4995163302239876  0.2505685338492240  0.1392520907245798   T   T   T
  0.1661799027927822  0.2506030911626074  0.1392563114961183   T   T   T
  0.3328122658496850  0.2505913519685022  0.1392691712032336   T   T   T
  0.0830702793269699  0.1251634044720157  0.1656131928438908   T   T   T
  0.2496591324354709  0.1253408201120814  0.1656537834941564   T   T   T
  0.4163175523063581  0.1253165248519526  0.1656535417247024   T   T   T
  0.0830824912147426  0.3753341299693040  0.1656582481009913   T   T   T
  0.2496797681035992  0.3753417737403059  0.1656527359192653   T   T   T
  0.4162790968421501  0.3753108465731427  0.1656447477896180   T   T   T
  0.1663526975701506  0.4989184946912094  0.1923660138383395   T   T   T
  0.3328519228307195  0.4989585410646151  0.1923532607346809   T   T   T
  0.4992355055586816  0.4991818827297134  0.1923291451731636   T   T   T
  0.1663068732807303  0.2489444628025792  0.1923430329477327   T   T   T
  0.4997927923428072  0.2486175141426074  0.1922574640566635   T   T   T
  0.3329570566817606  0.2489827321038374  0.1923466074192980   T   T   T
  0.4994442974047923  0.0003191361047311  0.0860061641524065   T   T   T
  0.1660540335358806  0.0003352302057691  0.0859895403049039   T   T   T
  0.3327090784656884  0.0003419028878012  0.0859979614923171   T   T   T
  0.4994321642962597  0.2503118002143037  0.0859845002660911   T   T   T
  0.1660877395249724  0.2503621005795824  0.0859812802639457   T   T   T
  0.3327297694246821  0.2503364789070009  0.0859947779076405   T   T   T
  0.0829005423152356  0.1255535046253569  0.1123481907399242   T   T   T
  0.2495174634233403  0.1255673002864423  0.1123534524626327   T   T   T
  0.4161879500169701  0.1255529350966801  0.1123579520686654   T   T   T
  0.0828916456742225  0.3755828375441075  0.1123528003916541   T   T   T
  0.2495247675680248  0.3755933734873877  0.1123491562014593   T   T   T
  0.4161696570918783  0.3755601360813147  0.1123576828857729   T   T   T
  0.2494480962450103  0.6240565706439348  0.0593322302435014   T   T   T
  0.4161074422303979  0.6240353404958757  0.0593343091908974   T   T   T
  0.0827878657048254  0.8739935681764224  0.0593211518491945   T   T   T
  0.2494396137068625  0.8740221581318834  0.0593249467733769   T   T   T
  0.4161019293665715  0.8739801282371155  0.0593435773695395   T   T   T
  0.0827765101829853  0.6240302566041163  0.0593379049875255   T   T   T
  0.4993944829246083  0.5006763122868492  0.1392637274904624   T   T   T
  0.1661768619386172  0.5006514023768429  0.1392805768530791   T   T   T
  0.3327491181208985  0.5006466739297405  0.1392755351970993   T   T   T
  0.4994171614824170  0.7506811272065649  0.1392973926651324   T   T   T
  0.1661605615219617  0.7506555059852719  0.1392919487145932   T   T   T
  0.3327549264080242  0.7506731125831334  0.1392830734619426   T   T   T
  0.0830815757136962  0.6253836467502368  0.1656869173536706   T   T   T
  0.2496349186703193  0.6254022242382485  0.1656829580196895   T   T   T
  0.4161684085586945  0.6254141198527001  0.1656455101122923   T   T   T
  0.0830086402599338  0.8753468311702041  0.1656852845666756   T   T   T
  0.2496394090859225  0.8753542102213429  0.1656738842690451   T   T   T
  0.4162733897294598  0.8753942040106338  0.1656784944850529   T   T   T
  0.1662519241270247  0.9989400074950098  0.1923559402570623   T   T   T
  0.3328988998807476  0.9989873676065879  0.1923594957208206   T   T   T
  0.4995787265498396  0.9989868203442387  0.1923366796875476   T   T   T
  0.1662430469260652  0.7489733945327987  0.1923906895180092   T   T   T
  0.4995091573854731  0.7489903785455344  0.1923688956698120   T   T   T
  0.3329246318980746  0.7489843796729668  0.1923703776662452   T   T   T
  0.4994114677555381  0.5003498237886088  0.0859954297588609   T   T   T
  0.1660665998683386  0.5003939632731634  0.0859954266374333   T   T   T
  0.3327322824994025  0.5003761434233981  0.0859983961611410   T   T   T
  0.4994489964890502  0.7503726678889269  0.0860177208718992   T   T   T
  0.1660767875776988  0.7503704585776515  0.0860010451329729   T   T   T
  0.3327207271578212  0.7503506584117418  0.0860038018984713   T   T   T
  0.0828900340491429  0.6255987418580989  0.1123743500011836   T   T   T
  0.2495130072903094  0.6256361367047617  0.1123632081687000   T   T   T
  0.4161544740521956  0.6256172830436934  0.1123576485826473   T   T   T
  0.0829166947728316  0.8755651883949118  0.1123669677426646   T   T   T
  0.2495187591120619  0.8755913865048778  0.1123572091739488   T   T   T
  0.4161473435039728  0.8755866552512896  0.1123698199282131   T   T   T
  0.7494294753292751  0.1240638710981507  0.0593948759393532   T   T   T
  0.9161032312608073  0.1239306215612601  0.0593262193776605   T   T   T
  0.5828000165957540  0.3739929859229604  0.0593103865162573   T   T   T
  0.7494110970899612  0.3739674498345962  0.0592626784585992   T   T   T
  0.9160805714078035  0.3739827819939797  0.0593501832198446   T   T   T
  0.5827951311511351  0.1239433264591645  0.0593170786439090   T   T   T
  0.9995535805859455  0.0004779559100430  0.1392692788893746   T   T   T
  0.6663306578181761  0.0007496034217195  0.1393593234402061   T   T   T
  0.8326107367894063  0.0007898777397494  0.1393530585296547   T   T   T
  0.9995171810233167  0.2505741130718030  0.1392329365466167   T   T   T
  0.6659409713738719  0.2507009201724725  0.1393017294798019   T   T   T
  0.8328246192485167  0.2505966276554613  0.1393026253292478   T   T   T
  0.5829885968297015  0.1251437507029237  0.1656103126500731   T   T   T
  0.7494795825824181  0.1263412312984219  0.1660576494666712   T   T   T
  0.9163411687033044  0.1250335120081481  0.1655463458523873   T   T   T
  0.5827038497127399  0.3756357729298145  0.1656227888818155   T   T   T
  0.7494674186979065  0.3746925164405774  0.1655108567495633   T   T   T
  0.9163965004922546  0.3754956754821293  0.1656830169949529   T   T   T
  0.6654088497050863  0.4987259566007342  0.1925422920481340   T   T   T
  0.8336466558515078  0.4986952279589004  0.1926189182461353   T   T   T
  0.9999395987306146  0.4991137681982776  0.1923642478600443   T   T   T
  0.6651274304066050  0.2509188737927125  0.1925975106978699   T   T   T
  0.9998116163549561  0.2483782090199194  0.1921264593207775   T   T   T
  0.8338668973522680  0.2493835571646097  0.1924177509703463   T   T   T
  0.9994327854122150  0.0003090187941913  0.0860001767315648   T   T   T
  0.6661110171386755  0.0003833397607190  0.0860540523332754   T   T   T
  0.8326927649672550  0.0003995998638140  0.0860581008286833   T   T   T
  0.9994553929202921  0.2503189400987456  0.0859835984950970   T   T   T
  0.6660105588465690  0.2503237705264238  0.0859903038948114   T   T   T
  0.8327500616476129  0.2503030736269146  0.0860134396195707   T   T   T
  0.5828751720656395  0.1255430824200860  0.1123451505792116   T   T   T
  0.7494734932333064  0.1257194467605970  0.1124951630498820   T   T   T
  0.9162041180682691  0.1255664940372251  0.1123447072760641   T   T   T