C H O Si                                
   1.00000000000000     
    18.5749199999999988    0.0000000000000000    0.0000000000000000
     0.0000000000000000   17.5126199999999983    0.0000000000000000
     0.0000000000000000    0.0000000000000000   58.0000000000000000
   C    H    O    Si
   144   105    52   144
Selective dynamics
Direct
  0.4993655487291115  0.0653947645853857  0.0601475896394971   T   T   T
  0.1660535589809017  0.0653943650446052  0.0601525444079605   T   T   T
  0.3326979031818252  0.0654038964514849  0.0601606686962853   T   T   T
  0.4993837306447179  0.3153926634970881  0.0601430363048971   T   T   T
  0.1660525717643505  0.3153783770914750  0.0601587855506070   T   T   T
  0.3327191027534596  0.3153631358284450  0.0601685871831348   T   T   T
  0.0829557014835509  0.1881089867593679  0.1389995009383592   T   T   T
  0.2495970758196569  0.1881136522531096  0.1390340112809355   T   T   T
  0.4162354885675835  0.1881030291467198  0.1390239641726233   T   T   T
  0.0829645227790454  0.4381552079040545  0.1390239056561465   T   T   T
  0.2495901393507319  0.4381262451636231  0.1390360277594793   T   T   T
  0.4162255700221640  0.4381690835565175  0.1390276212580799   T   T   T
  0.1662897149493654  0.0631212494974903  0.1661470295850582   T   T   T
  0.3328721805219689  0.0631570763957893  0.1661623986974907   T   T   T
  0.4994909222934499  0.0630210064797476  0.1661160854559476   T   T   T
  0.1662591165983389  0.3131281921551277  0.1661413461739359   T   T   T
  0.3328627239645197  0.3131337973943222  0.1661546202349116   T   T   T
  0.4994190273606616  0.3131647912139904  0.1661139315047568   T   T   T
  0.0831808786556607  0.1901711361956376  0.1914626835912392   T   T   T
  0.2497016031498191  0.1902726147039738  0.1915188891312615   T   T   T
  0.4162637515236164  0.1902093243013518  0.1915280311197500   T   T   T
  0.0831265879658180  0.4402332501002300  0.1915132586006602   T   T   T
  0.2496674142111083  0.4402054380402280  0.1915265346572783   T   T   T
  0.4161927371043731  0.4402774875423000  0.1915212094741039   T   T   T
  0.0827644202127164  0.1882897971497479  0.0855251879534999   T   T   T
  0.2494369289198580  0.1882904566267962  0.0855419710621397   T   T   T
  0.4160921815942255  0.1882758975305016  0.0855360160886307   T   T   T
  0.0827835178940353  0.4383103199756275  0.0855238904317816   T   T   T
  0.2494552666097278  0.4383002067667104  0.0855309601328176   T   T   T
  0.4161097765156767  0.4383025079200897  0.0855258674998295   T   T   T
  0.1660592001659721  0.0630947257835791  0.1126225002287985   T   T   T
  0.3327317580272826  0.0631019166129990  0.1126337309025408   T   T   T
  0.4993767249365144  0.0630805975109511  0.1126259318849930   T   T   T
  0.1660792797415039  0.3131423665082044  0.1126247102404619   T   T   T
  0.3327352246932652  0.3131452683945668  0.1126361707334354   T   T   T
  0.4993694970051251  0.3131417886925829  0.1126101473088401   T   T   T
  0.4993965687063804  0.5654821751978122  0.0601455858668828   T   T   T
  0.1660523232863131  0.5654498255866250  0.0601654023424424   T   T   T
  0.3327290245463306  0.5654529821042329  0.0601673252828825   T   T   T
  0.4994000048203327  0.8154083550253787  0.0601673094616624   T   T   T
  0.1660525821362013  0.8153409964070082  0.0601687311097000   T   T   T
  0.3327243937875009  0.8153517278289473  0.0601657294312037   T   T   T
  0.0829401288322207  0.6881922595556480  0.1390409439444331   T   T   T
  0.2495948981119746  0.6881570724145055  0.1390509786436259   T   T   T
  0.4162203456820250  0.6882155415095320  0.1390294038001856   T   T   T
  0.0829143731783609  0.9380757963621315  0.1390205188917618   T   T   T
  0.2495677647848092  0.9380944476853919  0.1390372660013972   T   T   T
  0.4162152212681195  0.9380682468895019  0.1390339561225249   T   T   T
  0.1662513917036665  0.5631930484465093  0.1661860703229141   T   T   T
  0.3328033760687574  0.5632082687832096  0.1661843074658997   T   T   T
  0.4992959766968319  0.5633340570285562  0.1661359796208051   T   T   T
  0.1662007702505490  0.8131752307172980  0.1661923231481064   T   T   T
  0.3328569758401017  0.8131710233059666  0.1661927001944094   T   T   T
  0.4995423147277402  0.8132019328282136  0.1661942602180788   T   T   T
  0.0829989417700231  0.6902705037254646  0.1915357662984132   T   T   T
  0.2496337652107086  0.6903136497664398  0.1915659626100544   T   T   T
  0.4162916963770192  0.6902858555607192  0.1915264996178021   T   T   T
  0.0829918324073770  0.9403000966227072  0.1915322042004659   T   T   T
  0.2496527418067301  0.9402696073768125  0.1915388203108397   T   T   T
  0.4163081965517757  0.9403156085882474  0.1915461005557989   T   T   T
  0.0827755762189903  0.6883122996905863  0.0855484667220269   T   T   T
  0.2494549152551562  0.6882896573707571  0.0855549685651455   T   T   T
  0.4161245028525482  0.6883426746723925  0.0855393862129235   T   T   T
  0.0827644124629461  0.9382453969538534  0.0855282005467842   T   T   T
  0.2494366035603179  0.9382462554819859  0.0855336282308631   T   T   T
  0.4161041911609094  0.9382527062152913  0.0855314111037007   T   T   T
  0.1660560684102750  0.5631580649733731  0.1126457437726064   T   T   T
  0.3327216120562240  0.5631639001872519  0.1126442497284070   T   T   T
  0.4993546502984018  0.5631910385519613  0.1126222501412997   T   T   T
  0.1660680602388642  0.8131250696498655  0.1126434601345286   T   T   T
  0.3327191592874768  0.8131356334121712  0.1126425888031322   T   T   T
  0.4994482518287990  0.8132126418631376  0.1126544085180809   T   T   T
  0.9993956563760533  0.0654030907995144  0.0601409539949631   T   T   T
  0.6660636446082960  0.0653822794248277  0.0602010204531991   T   T   T
  0.8326775138696590  0.0653762757219071  0.0602011667215983   T   T   T
  0.9994048726735046  0.3154034119171412  0.0601361871194465   T   T   T
  0.6660374465129482  0.3153193215339842  0.0601624372183415   T   T   T
  0.8327333006042945  0.3153096814775038  0.0601766102565566   T   T   T
  0.5828398961262068  0.1880554226043214  0.1389905705807868   T   T   T
  0.7495407849300593  0.1882804681444928  0.1392026396287421   T   T   T
  0.9163172607569137  0.1881368641911358  0.1389776718044339   T   T   T
  0.5828266414840243  0.4382295659363876  0.1389994008918496   T   T   T
  0.7495491478643089  0.4380717848147061  0.1388199625986458   T   T   T
  0.9162776449660780  0.4381429410978514  0.1390512229282218   T   T   T
  0.6664668942429069  0.0634541202632012  0.1662947394961098   T   T   T
  0.8326399006402746  0.0636383865238657  0.1663044642457713   T   T   T
  0.9996999304907302  0.0629920098272108  0.1661045475586059   T   T   T
  0.6657487761522229  0.3133320036672419  0.1660931931247002   T   T   T
  0.8330905470145684  0.3131714265830480  0.1662364782001871   T   T   T
  0.9996377302839976  0.3131731273485781  0.1661159930636163   T   T   T
  0.5829337709086637  0.1898845657901020  0.1912584357928574   T   T   T
  0.7491995377999013  0.1923015222314581  0.1921691329788172   T   T   T
  0.9166545170521930  0.1898497347323909  0.1912774561415692   T   T   T
  0.5823704611214163  0.4404690994266290  0.1914921133312331   T   T   T
  0.7496227502238356  0.4450552587124165  0.1893029372425490   T   T   T
  0.9168467547626312  0.4402147679894530  0.1915974072153150   T   T   T
  0.5827354431123333  0.1882542023318090  0.0855244183847667   T   T   T
  0.7494587040080442  0.1882645852006489  0.0856343273246678   T   T   T
  0.9161074912300763  0.1882710674926462  0.0855212936663294   T   T   T
  0.5827643228359618  0.4383070891307581  0.0855147865765449   T   T   T
  0.7494500030649142  0.4382474728850253  0.0854588929915697   T   T   T
  0.9161139721245871  0.4382909307069973  0.0855396042902031   T   T   T
  0.6660833479915370  0.0631991819724299  0.1127025679133997   T   T   T
  0.8326969776833328  0.0632161252374899  0.1127086539828016   T   T   T
  0.9993882150784632  0.0631018724844054  0.1126166333554217   T   T   T
  0.6659892782076793  0.3130692748750509  0.1126158357222667   T   T   T
  0.8327643000106573  0.3130725245614557  0.1126467263585676   T   T   T
  0.9994315479316263  0.3131562564732387  0.1126081664199925   T   T   T
  0.9993740155062720  0.5654592318254781  0.0601599834424600   T   T   T
  0.6660663056524270  0.5654595947046166  0.0601629765779337   T   T   T
  0.8327074946419843  0.5654408616569196  0.0601696333652148   T   T   T
  0.9993345918488730  0.8153829630299270  0.0601733030829026   T   T   T
  0.6660645425319889  0.8153673986785925  0.0601961202515052   T   T   T
  0.8326788009832400  0.8153597327969208  0.0601964042061854   T   T   T
  0.5828884733178182  0.6882102447120964  0.1390327113552004   T   T   T
  0.7495753241136062  0.6880819429392956  0.1390977693024038   T   T   T
  0.9162791505279418  0.6881521885079542  0.1390446218890079   T   T   T
  0.5830394308414146  0.9382480862241308  0.1390802832311928   T   T   T
  0.7496058771771281  0.9381347568534397  0.1390851417616313   T   T   T
  0.9161707537359278  0.9382144507279204  0.1390843752502320   T   T   T
  0.6659279456000406  0.5633842110252463  0.1661552320599396   T   T   T
  0.8331268872726817  0.5632822463623370  0.1661866378176874   T   T   T
  0.9997022580546571  0.5632317986426267  0.1661719078978626   T   T   T
  0.6662330317859481  0.8131504688950174  0.1662240108128523   T   T   T
  0.8328797348390229  0.8131506163577445  0.1662288239327389   T   T   T
  0.9994976942679588  0.8132013870839359  0.1662015196730024   T   T   T
  0.5829027884256105  0.6902347109197632  0.1915531343827903   T   T   T
  0.7496352218836093  0.6901532698391200  0.1916282644713500   T   T   T
  0.9163646496806368  0.6902121222185317  0.1915598199794605   T   T   T
  0.5829939972403411  0.9403061759459705  0.1915558168039923   T   T   T
  0.7496823125829538  0.9403171399237857  0.1915780868783651   T   T   T
  0.9162963273359189  0.9404245419832246  0.1915576139639173   T   T   T
  0.5827947284541094  0.6883245684363000  0.0855541142171277   T   T   T
  0.7494797979420871  0.6882674796342572  0.0855913129863199   T   T   T
  0.9161145737522998  0.6882960445534535  0.0855596458989526   T   T   T
  0.5828210327957755  0.9382950629696508  0.0855562280687799   T   T   T
  0.7494456889925036  0.9382730091519813  0.0855766414547765   T   T   T
  0.9160833904241936  0.9382720210999675  0.0855587639901190   T   T   T
  0.6660542468717455  0.5631261972150268  0.1126404028580274   T   T   T
  0.8327227556752231  0.5631145785106150  0.1126569838561287   T   T   T
  0.9994044378749970  0.5631456122996092  0.1126441701983665   T   T   T
  0.6660806108459246  0.8131374325500650  0.1126843647742103   T   T   T
  0.8327137304566136  0.8131273798937347  0.1126847029202054   T   T   T
  0.9993393557458953  0.8131990990605112  0.1126590176451093   T   T   T
  0.0407171921587776  0.1780544757706714  0.0262937680360556   T   T   T
  0.2071866555395042  0.1781193038387440  0.0263640759428151   T   T   T
  0.3737749513831549  0.1780281276961299  0.0263507104091435   T   T   T
  0.0407530514557606  0.4280864273757948  0.0262737600400257   T   T   T
  0.2073393921995907  0.4279416643867163  0.0263062121902272   T   T   T
  0.3737495262904321  0.4279553312494973  0.0263395387196412   T   T   T
  0.1650754480269059  0.0292147613122145  0.0446091754657101   T   T   T
  0.3316487155294091  0.0292145719298767  0.0446182649558753   T   T   T
  0.4983036724527227  0.0292031146851550  0.0446062485339645   T   T   T
  0.1650254615261826  0.2791913270126344  0.0446184385656551   T   T   T
  0.3316678580176157  0.2791558773607793  0.0446296849171305   T   T   T
  0.4983164991619587  0.2792010669801029  0.0446041928500962   T   T   T
  0.4174906195948510  0.4041432013421124  0.2070689747589075   T   T   T
  0.4173504543418395  0.1539535825616874  0.2070499468607250   T   T   T
  0.0841849961799131  0.1539244719844808  0.2069868978471468   T   T   T
  0.2507779979523959  0.1541143618303563  0.2070607248427733   T   T   T
  0.0841544974985286  0.4040961953800924  0.2070637139571348   T   T   T
  0.2507599643225989  0.4040593511150763  0.2070706500028222   T   T   T
  0.0419312261406832  0.0534286088283407  0.2252711948716419   T   T   T
  0.2083791445430769  0.0537881279838750  0.2252637900749882   T   T   T
  0.3748900489889781  0.0535801174217620  0.2253386765647257   T   T   T
  0.0409201597607590  0.3029835392219933  0.2254220104722490   T   T   T
  0.2078593019399712  0.3037062375896277  0.2253224800354822   T   T   T
  0.3751026992203548  0.3036274726512773  0.2252880638123834   T   T   T
  0.0406683460530246  0.6781456690799044  0.0263356060153068   T   T   T
  0.2072341867647286  0.6781439760381508  0.0263631334774922   T   T   T
  0.3737961014068283  0.6781062196453970  0.0263545916080810   T   T   T
  0.0407482487920735  0.9280740473429285  0.0262785715401101   T   T   T
  0.2072934970159694  0.9280010810097459  0.0263300749282783   T   T   T
  0.3738203085508074  0.9279736299020235  0.0263445482237882   T   T   T
  0.1650265467518553  0.5292586221305824  0.0446252068790340   T   T   T
  0.3317068069913716  0.5292583192668993  0.0446247008646254   T   T   T
  0.4983670542000937  0.5292982029446667  0.0446023254076553   T   T   T
  0.1650152356247963  0.7791147337365517  0.0446373612821009   T   T   T
  0.3316708685328216  0.7791220231006041  0.0446354472326872   T   T   T
  0.4984158938040484  0.7791913774852964  0.0446325008264932   T   T   T
  0.4173323526091446  0.9041568125363866  0.2070915133163768   T   T   T
  0.4173359704914498  0.6539767989268701  0.2070379683484649   T   T   T
  0.0840348367191931  0.6540435903180161  0.2070647193396809   T   T   T
  0.2506382953078068  0.6540653746396979  0.2070928034962583   T   T   T
  0.0840495554947719  0.9041493090426015  0.2070770373239919   T   T   T
  0.2507373606602546  0.9041414519295463  0.2070916969078930   T   T   T
  0.0421673982398662  0.5530655710201462  0.2253780624385636   T   T   T
  0.2085121076076821  0.5522610419006100  0.2254726955535951   T   T   T
  0.3751169457800050  0.5527053739397736  0.2254018739598610   T   T   T
  0.0417485603390616  0.8030307474127726  0.2253662050064026   T   T   T
  0.2078856183770926  0.8033132761417078  0.2254618100246526   T   T   T
  0.3758129488385830  0.8026030839973735  0.2252788617247753   T   T   T
  0.5407437631658417  0.1780250239338720  0.0262975919772188   T   T   T
  0.7072569589476124  0.1780940669422230  0.0264272765932123   T   T   T
  0.8737768072330615  0.1779991467034883  0.0263440404496783   T   T   T
  0.5407616455659899  0.4280808298133125  0.0262764457031619   T   T   T
  0.7073875531381109  0.4278972656830727  0.0262618255937488   T   T   T
  0.8737388722945022  0.4279449171633601  0.0263377328482798   T   T   T
  0.6651475201943599  0.0291503975866675  0.0446665311492730   T   T   T
  0.8315357732454211  0.0291444095868891  0.0446679257668703   T   T   T
  0.9983604605092417  0.0292166551565627  0.0446025409236912   T   T   T
  0.6649150656196395  0.2791129958736083  0.0446318184679537   T   T   T
  0.8317624362449582  0.2790598336456950  0.0446492390350123   T   T   T
  0.9983457479554843  0.2792301513840714  0.0445946366889908   T   T   T
  0.9180286149182421  0.4042696240230164  0.2071577316807388   T   T   T
  0.9178627342058135  0.1536973428253510  0.2068241346321497   T   T   T
  0.5840030760797993  0.1540422477255054  0.2068721369231315   T   T   T
  0.7503906936236051  0.1557505728425334  0.2076300731642670   T   T   T
  0.5835502994613808  0.4042255008128105  0.2069908051160105   T   T   T
  0.7706181703357290  0.4631363786770626  0.2610331148939816   T   T   T
  0.5419741655041626  0.0539927617915755  0.2251697810833570   T   T   T
  0.7084752928123081  0.0546217594953913  0.2251669103485491   T   T   T
  0.8747356358321761  0.0538706110534802  0.2253827308795874   T   T   T
  0.5458894008104375  0.3041612219163013  0.2235969210445685   T   T   T
  0.6846440581823133  0.2852748962692191  0.2306358351075391   T   T   T
  0.8888195824326539  0.2996688576909948  0.2234716626864589   T   T   T
  0.7457684786370405  0.2698817039543852  0.2662037926854186   T   T   T
  0.7343610164830363  0.2282052924041958  0.3006278691747446   T   T   T
  0.7582119211033963  0.3131585325061650  0.3081490026526528   T   T   T
  0.6445924329735018  0.1356836432577793  0.2953960223526131   T   T   T
  0.7191521211055024  0.1100196958177722  0.2863495984825104   T   T   T
  0.8192710401399523  0.3860042904238954  0.3348463336252527   T   T   T
  0.7525569698616085  0.4334445327727678  0.3276573681273185   T   T   T
  0.7512156786642230  0.4361748445365083  0.2689740206300607   T   T   T
  0.7822356787107430  0.2676128538676158  0.2412398933152499   T   T   T
  0.5406639854097142  0.6781520459581954  0.0263311775870122   T   T   T
  0.7072946355890238  0.6781553502668489  0.0263802625247552   T   T   T
  0.8738199024351221  0.6781158788683068  0.0263587415882119   T   T   T
  0.5407799969524471  0.9280775368433641  0.0262957829463578   T   T   T
  0.7072993490846990  0.9280056265575661  0.0263501568142282   T   T   T
  0.8737640786009093  0.9279975654452105  0.0263557842018077   T   T   T
  0.6650617091963424  0.5292907487391990  0.0446166040014816   T   T   T
  0.8316735479994225  0.5292658623246739  0.0446256270470403   T   T   T
  0.9983418748083901  0.5292833761727279  0.0446156035473155   T   T   T
  0.6650440497574264  0.7791686434221712  0.0446572804786470   T   T   T
  0.8316172370236031  0.7791624699765616  0.0446608406541589   T   T   T
  0.9982456793895854  0.7791738287367452  0.0446381127898795   T   T   T
  0.9173366159352853  0.9043091962627299  0.2071098302844873   T   T   T
  0.9174405680324916  0.6538909352691156  0.2070709763623413   T   T   T
  0.5838542856528337  0.6539844621252612  0.2070800439826379   T   T   T
  0.7505565049205724  0.6539489294423341  0.2071661272128854   T   T   T
  0.5839996449153688  0.9041625462945404  0.2071030131907972   T   T   T
  0.7507885365873437  0.9041627010889776  0.2071214475242361   T   T   T
  0.5414098258148412  0.5526886462792137  0.2254606887258779   T   T   T
  0.7089013193466742  0.5509813995226819  0.2255372627738506   T   T   T
  0.8749372960518851  0.5519117109535251  0.2258077281826673   T   T   T
  0.5416568171103840  0.8029687827881618  0.2253642079000746   T   T   T
  0.7078920535692966  0.8032725355322420  0.2254569732275351   T   T   T
  0.8758718019516514  0.8026263796054917  0.2252712520049691   T   T   T
  0.0871623979136779  0.1694749293689033  0.0337537840574267   T   T   T
  0.2537329314823205  0.1695827537024383  0.0337753233808079   T   T   T
  0.4203243289816541  0.1695304160190081  0.0337623306274029   T   T   T
  0.0871800115475184  0.4194777627651424  0.0337495552987900   T   T   T
  0.2538060242293880  0.4194907720937740  0.0337675958214912   T   T   T
  0.4202885510601703  0.4195072875771165  0.0337587400745616   T   T   T
  0.1619620239487299  0.0445507456143317  0.2178599777597766   T   T   T
  0.3285154467474691  0.0445992934858105  0.2178702827414373   T   T   T
  0.4954257731602973  0.0445716732353850  0.2178624995972248   T   T   T
  0.1615678488414114  0.2945544438511852  0.2178275505619163   T   T   T
  0.3287148929863782  0.2945457389111226  0.2178537611705585   T   T   T
  0.4970933441356395  0.2939337439530220  0.2178106057816906   T   T   T
  0.0871300088009970  0.6696319418984374  0.0337898581071921   T   T   T
  0.2537412576730453  0.6696289080125474  0.0337878045242348   T   T   T
  0.4203274176404266  0.6696048386096807  0.0337778236666928   T   T   T
  0.0871473625029258  0.9194370470540152  0.0337620663266408   T   T   T
  0.2537830847674143  0.9195089527850334  0.0337687790044036   T   T   T
  0.4203575885546727  0.9195643617117550  0.0337650496756415   T   T   T
  0.1621784344480194  0.5444706654271324  0.2178692149402317   T   T   T
  0.3287100280788268  0.5445587589613792  0.2178663360006909   T   T   T
  0.4951084140761004  0.5448850060636113  0.2178407978180909   T   T   T
  0.1616409556114129  0.7945155642728232  0.2178986394527347   T   T   T
  0.3291324712573986  0.7946067691032634  0.2178999774474468   T   T   T
  0.4952199672685642  0.7945072460759947  0.2178821843520708   T   T   T
  0.5871815862811607  0.1694232320157339  0.0337646937476957   T   T   T
  0.7537548418880909  0.1697586084494816  0.0338840480209588   T   T   T
  0.9203152510988442  0.1694957233038225  0.0337530501836534   T   T   T
  0.5871914185404071  0.4194662708205524  0.0337485308185784   T   T   T
  0.7538494972827602  0.4193459585992919  0.0337162684036279   T   T   T
  0.9202630956962097  0.4195799533619886  0.0337719859747269   T   T   T
  0.6619286454430758  0.0446167835926834  0.2179325915115275   T   T   T
  0.8283869083291600  0.0446498064024685  0.2179330587674089   T   T   T
  0.9954547303185683  0.0446800379887182  0.2178510864043570   T   T   T
  0.6562926821486623  0.3024083124405283  0.2166859518128280   T   T   T
  0.8388083270662989  0.2953779211576414  0.2180366825104128   T   T   T
  0.9948257160969510  0.2941291149881682  0.2177775655957273   T   T   T
  0.7602257696844276  0.2747377762947648  0.2955879373249598   T   T   T
  0.6952174626580913  0.1321340607731569  0.2997473379575885   T   T   T
  0.7684292808917098  0.3814701899090814  0.3308844411613931   T   T   T
  0.7388477997664522  0.2522220798325755  0.2500285929419494   T   T   T
  0.5871267490044700  0.6696930322902860  0.0337942248354276   T   T   T
  0.7537770074914559  0.6697777187238129  0.0338329823154953   T   T   T
  0.9203553465988503  0.6696460429009746  0.0337847847166085   T   T   T
  0.5871601028664042  0.9194338788370348  0.0337855934974019   T   T   T
  0.7537888370092467  0.9194719172592346  0.0337924993430449   T   T   T
  0.9202992484238846  0.9195371130586636  0.0337747650960947   T   T   T
  0.6621971788347051  0.5440145894644506  0.2180917729477327   T   T   T
  0.8288176543268010  0.5444212635782500  0.2180426283269022   T   T   T
  0.9957299770319025  0.5445261474840377  0.2179053941456287   T   T   T
  0.6616459191430475  0.7946012898563322  0.2178857764760545   T   T   T
  0.8291705927869438  0.7946190275042104  0.2179032612533960   T   T   T
  0.9953197475666611  0.7945184808705438  0.2178832529973617   T   T   T
  0.2494214629943813  0.1240814538804364  0.0593458063871671   T   T   T
  0.4160693981484272  0.1240638213063932  0.0593385960029811   T   T   T
  0.0827769214793508  0.3740465105009212  0.0593281467666960   T   T   T
  0.2494342606783485  0.3740266250699893  0.0593421934930491   T   T   T
  0.4160751240009485  0.3740437605350855  0.0593308809721483   T   T   T
  0.0827701804406801  0.1240452391715660  0.0593264701582588   T   T   T
  0.4995504628111437  0.0005798819383337  0.1392744378787609   T   T   T
  0.1662445095117687  0.0005964073567739  0.1392683548561909   T   T   T
  0.3329007038397729  0.0006245238807749  0.1392822865218366   T   T   T
  0.4995688678524476  0.2506323294557811  0.1392577002814731   T   T   T
  0.1662881208813338  0.2506239453312466  0.1392599519844857   T   T   T
  0.3329329039110758  0.2506302849200568  0.1392738822506993   T   T   T
  0.0829638982852702  0.1252115101374957  0.1655940057787385   T   T   T
  0.2495753275811351  0.1253005205638631  0.1656472567475242   T   T   T
  0.4162223074461754  0.1252826914415870  0.1656494626583918   T   T   T
  0.0829703945312850  0.3753328928571117  0.1656377411795463   T   T   T
  0.2495677602897096  0.3752926796706980  0.1656524300323764   T   T   T
  0.4161501516309560  0.3753228044671987  0.1656488726709376   T   T   T
  0.1663909562736645  0.4989003265719129  0.1923292632188626   T   T   T
  0.3328873177981135  0.4989341693757626  0.1923320258046555   T   T   T
  0.4992793835454864  0.4992031700085974  0.1923041351981305   T   T   T
  0.1663824876335615  0.2489363095320088  0.1922951577545307   T   T   T
  0.4996961999879298  0.2485875894097377  0.1922297664028522   T   T   T
  0.3330038274576701  0.2489235113424993  0.1923167771261502   T   T   T
  0.4994712849295951  0.0004168822591689  0.0860221493308788   T   T   T
  0.1661521197659896  0.0003870331991963  0.0860108351037321   T   T   T
  0.3328112108210478  0.0003984640010981  0.0860209137458220   T   T   T
  0.4994556437048490  0.2504289087396477  0.0860160533667150   T   T   T
  0.1661442757759454  0.2504231552749207  0.0860255059307433   T   T   T
  0.3328115676457982  0.2504244380350627  0.0860365056135034   T   T   T
  0.0827397561848510  0.1256187896130001  0.1123540582825289   T   T   T
  0.2494060972254449  0.1256315261305885  0.1123868584968648   T   T   T
  0.4160685647568259  0.1256202050804069  0.1123833501755265   T   T   T
  0.0827753853531773  0.3756881662999171  0.1123665043955940   T   T   T
  0.2494257547239440  0.3756778661314375  0.1123791823685833   T   T   T
  0.4160779633538431  0.3756814639737964  0.1123746280998493   T   T   T
  0.2494359742007303  0.6241020977018479  0.0593516694493644   T   T   T
  0.4160863504055791  0.6241281841923770  0.0593477145010488   T   T   T
  0.0827435156635699  0.8739860812991447  0.0593367360439376   T   T   T
  0.2494307855437639  0.8740009570733357  0.0593358642349136   T   T   T
  0.4160879653442330  0.8740287225026938  0.0593298816882261   T   T   T
  0.0827588789213955  0.6241126162581716  0.0593521210513220   T   T   T
  0.4995089933151156  0.5007272149999549  0.1392610358150057   T   T   T
  0.1662804732125359  0.5006803921473216  0.1392884604168071   T   T   T
  0.3328982784115968  0.5006766623125498  0.1392880228304110   T   T   T
  0.4995437006878158  0.7507357666010752  0.1392965600162988   T   T   T
  0.1662799534232703  0.7506931734707967  0.1392958946885193   T   T   T
  0.3329083931177007  0.7507053218697278  0.1392938147987704   T   T   T
  0.0829591870737853  0.6254044519691969  0.1656646763657286   T   T   T
  0.2495111032471233  0.6253967598627655  0.1656846730552428   T   T   T
  0.4160331701016705  0.6254652483409011  0.1656478457473282   T   T   T
  0.0828499489268591  0.8753474881345391  0.1656697696501704   T   T   T
  0.2495253570548377  0.8753324673790175  0.1656768835697673   T   T   T
  0.4161660546019058  0.8753666012548119  0.1656797713511464   T   T   T
  0.1663033089204516  0.9989512153158854  0.1923247520333660   T   T   T
  0.3329433793669370  0.9989695131798930  0.1923327366044378   T   T   T
  0.4996223092937281  0.9989892574194623  0.1923143779614871   T   T   T
  0.1662692530514142  0.7489580358020467  0.1923564082347780   T   T   T
  0.4995583993019135  0.7489384891010479  0.1923399773698576   T   T   T
  0.3329642428001708  0.7489573522365481  0.1923590906252835   T   T   T
  0.4994703958129310  0.5004685425669965  0.0860098421681679   T   T   T
  0.1661580454403706  0.5004579764569727  0.0860274622456930   T   T   T
  0.3328171170938127  0.5004577855082878  0.0860295640446134   T   T   T
  0.4994948487255814  0.7504825846269236  0.0860446225986225   T   T   T
  0.1661631338010880  0.7504142685410652  0.0860440730690972   T   T   T
  0.3328051402418300  0.7504338892769135  0.0860414311106369   T   T   T
  0.0827423175328454  0.6256992511925906  0.1123915922205125   T   T   T
  0.2494024853331774  0.6256706809721296  0.1124044184898727   T   T   T
  0.4160441933077657  0.6257143567725358  0.1123797986992960   T   T   T
  0.0827451521450175  0.8756309843537787  0.1123789213017617   T   T   T
  0.2494052347501487  0.8756411977135077  0.1123822547117765   T   T   T
  0.4160593440372529  0.8756456550214233  0.1123827459287505   T   T   T
  0.7494121769276307  0.1240656596702407  0.0594345323963184   T   T   T
  0.9160596456218252  0.1240210832796140  0.0593276570362959   T   T   T
  0.5827607310474870  0.3740218944265953  0.0593278735269286   T   T   T
  0.7494278376842014  0.3739195559623991  0.0592918147830625   T   T   T
  0.9160770003489639  0.3740415370887508  0.0593315843831734   T   T   T
  0.5827480760625935  0.1240083457694427  0.0593409608362129   T   T   T
  0.9996128494627309  0.0005431934915986  0.1392519772267811   T   T   T
  0.6664155142327267  0.0008507242790049  0.1393723988841890   T   T   T
  0.8327654358166550  0.0008499530491558  0.1393776268878059   T   T   T
  0.9996309368284563  0.2506210116515816  0.1392227716615721   T   T   T
  0.6660654678657854  0.2506482267186547  0.1392950094863364   T   T   T
  0.8329593896482473  0.2506107842793761  0.1393036070604740   T   T   T
  0.5828703731961713  0.1251746604823289  0.1656128539687217   T   T   T
  0.7493987352577248  0.1264138514378682  0.1660779010488250   T   T   T
  0.9163602069152215  0.1251068363305886  0.1655409497209295   T   T   T
  0.5825901577430994  0.3755830523245522  0.1656067514559934   T   T   T
  0.7493694076425941  0.3745934577541161  0.1655831520324845   T   T   T
  0.9163182297857467  0.3754668732821972  0.1656725268023793   T   T   T
  0.6654537103656698  0.4987429889707140  0.1925399879776392   T   T   T
  0.8337096078438193  0.4987484047572486  0.1926048277312713   T   T   T
  0.9999536725607404  0.4990930148903023  0.1923410305845113   T   T   T
  0.6649778369779147  0.2509963664624958  0.1926008106708111   T   T   T
  0.9998245380871775  0.2485468900397201  0.1921395568117452   T   T   T
  0.8337865654302956  0.2493426518231014  0.1924195560039768   T   T   T
  0.9994823918307342  0.0004075051490726  0.0860109095512982   T   T   T
  0.6661742490142568  0.0004652864837399  0.0860781277179559   T   T   T
  0.8327885976747424  0.0004542146133716  0.0860799156910662   T   T   T
  0.9994790180366817  0.2504212258532725  0.0860015693298565   T   T   T
  0.6661074208650740  0.2503578687205187  0.0860352230312090   T   T   T
  0.8328266431886463  0.2503646869879457  0.0860459656973432   T   T   T
  0.5826969284696073  0.1256333698980664  0.1123767076240758   T   T   T
  0.7493876955344121  0.1257004000244429  0.1125231991659041   T   T   T
  0.9160777749313423  0.1256541021931772  0.1123539478483188   T   T   T