C H O Si                                
   1.00000000000000     
     9.2874599999999994    0.0000000000000000    0.0000000000000000
     0.0000000000000000    8.7562999999999995    0.0000000000000000
     0.0000000000000000    0.0000000000000000   90.0000000000000000
   C    H    O    Si
    36    33    16    36
Selective dynamics
Direct
  0.0020598697717756  0.1354400842458566  0.4232078809332905   T   T   T
  0.0020618647763121  0.6356204347079880  0.4232257735718413   T   T   T
  0.3353362200475031  0.1355600691846092  0.4232575863081222   T   T   T
  0.3353372304446063  0.6354623257458566  0.4232607090202993   T   T   T
  0.6685078470257105  0.1354483039485490  0.4232596982179589   T   T   T
  0.6685765081175741  0.6354216469266615  0.4232515194761147   T   T   T
  0.1687516193839688  0.3813633379905449  0.4395718542943010   T   T   T
  0.1688691025214270  0.8813737901756734  0.4395905167750182   T   T   T
  0.5020406642090350  0.3813222976430393  0.4396531276638370   T   T   T
  0.5020731957343527  0.8813044220172391  0.4396100099830683   T   T   T
  0.8354173221839638  0.3813482494518643  0.4395398061564840   T   T   T
  0.8354585920120818  0.8813704411821337  0.4395676604530365   T   T   T
  0.0021254909996899  0.1309603211395582  0.4570453590462343   T   T   T
  0.0021217296566583  0.6311985751979048  0.4570671461400188   T   T   T
  0.3355582573367200  0.1310562898087134  0.4571030747649224   T   T   T
  0.3354919333299679  0.6309378488117716  0.4571149150174288   T   T   T
  0.6686697378605080  0.1310926624999793  0.4571030596501961   T   T   T
  0.6687823968448227  0.6311260192596329  0.4570979074696730   T   T   T
  0.1688687623447143  0.3809681507284017  0.4740376314541801   T   T   T
  0.1691286839515715  0.8811258137793156  0.4740776439196054   T   T   T
  0.5021236089437938  0.3814537928218358  0.4741956204722050   T   T   T
  0.5021362917188557  0.8808004092442702  0.4741097654339678   T   T   T
  0.8354353398521122  0.3809006940677572  0.4740083127485318   T   T   T
  0.8352700104717846  0.8811571270343614  0.4740823439030466   T   T   T
  0.0024174697092217  0.1307111727897033  0.4914574012854917   T   T   T
  0.0022894191388299  0.6312906161437414  0.4915315046876727   T   T   T
  0.3361544273344513  0.1319169657858477  0.4916224607016505   T   T   T
  0.3353617017190787  0.6313173717433920  0.4916611532088678   T   T   T
  0.6681814322756324  0.1317587854430784  0.4916204414631639   T   T   T
  0.6690971801314429  0.6315503379758344  0.4916170001564348   T   T   T
  0.1686232336688845  0.3837606273598404  0.5077623697506837   T   T   T
  0.1685272008317097  0.8859562582332454  0.5079145502898399   T   T   T
  0.5022469884315279  0.3892772070246329  0.5084154685288704   T   T   T
  0.5019832489671072  0.8852351896404602  0.5079674190004950   T   T   T
  0.8361764048257981  0.3831096977142845  0.5076563570366867   T   T   T
  0.8355897884657660  0.8861154357491413  0.5078799858151798   T   T   T
  0.0044896219615897  0.0630315719095995  0.4132018357010077   T   T   T
  0.0044507163767463  0.5631617984864228  0.4132242346554573   T   T   T
  0.3378173553314452  0.0631407053491069  0.4132545383331105   T   T   T
  0.3377151362515616  0.5629522641511137  0.4132654724504830   T   T   T
  0.6705549633729643  0.0629939449391821  0.4132578466276954   T   T   T
  0.6707975324369428  0.5629445898007450  0.4132540313505698   T   T   T
  0.1703592631204857  0.3116974455086995  0.5177874371086731   T   T   T
  0.1706881850495653  0.8133405729657508  0.5179025187265699   T   T   T
  0.5052020070645157  0.3156059973986874  0.5183346290453945   T   T   T
  0.5027168388462064  0.8127433794042977  0.5179676399780739   T   T   T
  0.8386982302655482  0.3110095966777932  0.5176785015796344   T   T   T
  0.8376919236843016  0.8144439104036132  0.5179189359496458   T   T   T
  0.0854178102341752  0.1145713523736533  0.5295727284992862   T   T   T
  0.0849548951567973  0.6115688532790908  0.5292674651018404   T   T   T
  0.4188254062596067  0.1157812036839515  0.5295736367880577   T   T   T
  0.3817405581971536  0.6302804826130050  0.5317578893056940   T   T   T
  0.7529954502699790  0.1143424703093731  0.5295858464528680   T   T   T
  0.7882738887735198  0.6001089661202493  0.5281704733188252   T   T   T
  0.2532693287617533  0.3638555615713146  0.4015895372545416   T   T   T
  0.2533971607450774  0.8637965857886133  0.4016055276411010   T   T   T
  0.5858492136166420  0.3640346282862507  0.4016206326606558   T   T   T
  0.5857004357310562  0.8640124297084619  0.4015799086188951   T   T   T
  0.9182605836358415  0.3641801681337525  0.4014889610100914   T   T   T
  0.9182035346974701  0.8642851061808701  0.4015171458962716   T   T   T
  0.5393049678439519  0.6127029673289566  0.5604579798714685   T   T   T
  0.4841526402965031  0.4745697287698472  0.5726472921426708   T   T   T
  0.5644789261440276  0.6398516308684562  0.5791171179621512   T   T   T
  0.3031891714875063  0.3786132606954429  0.5820559906435221   T   T   T
  0.4215313558952872  0.2570363802593087  0.5784115715016921   T   T   T
  0.6486886566404986  0.7349298579391689  0.5982289033621494   T   T   T
  0.4849011952559812  0.7716330467862881  0.5962509767716938   T   T   T
  0.5146907202440535  0.7996365360324044  0.5468501168572328   T   T   T
  0.5880187118675371  0.6593135082204412  0.5381555049747949   T   T   T
  0.1599769372333905  0.3434570228503813  0.4061956545836760   T   T   T
  0.1600949195535840  0.8434536142487582  0.4062133280251820   T   T   T
  0.4927745497019078  0.3438237297328064  0.4062810099902457   T   T   T
  0.4926588832928892  0.8434700871167016  0.4062330464495911   T   T   T
  0.8255002090695494  0.3431263774061599  0.4061757118774995   T   T   T
  0.8254550921589293  0.8432386758066633  0.4062044988881384   T   T   T
  0.9925834943686819  0.0942263327929089  0.5248690224509230   T   T   T
  0.9907466377549197  0.5900596183601861  0.5248131732918678   T   T   T
  0.3259756125764512  0.0934754004324616  0.5249640811142890   T   T   T
  0.3059262462175820  0.5942139984295235  0.5249207482939956   T   T   T
  0.6598590891370564  0.0935825392934625  0.5249583916844025   T   T   T
  0.6865191515160967  0.5942574087238910  0.5250064026160794   T   T   T
  0.5613536276718692  0.5592142799212596  0.5705001331296851   T   T   T
  0.3771612927958390  0.3511547000166577  0.5748299088402187   T   T   T
  0.5750447666954251  0.7583223419644809  0.5908306148230763   T   T   T
  0.5107557039749312  0.6889409601214551  0.5455500182170846   T   T   T
  0.1685960423504164  0.2529285283569289  0.4227320839102795   T   T   T
  0.1686360571208632  0.7529242367509005  0.4227489416055565   T   T   T
  0.5018166351513558  0.2529112371573797  0.4227953504702801   T   T   T
  0.5018299849323258  0.7528524910579399  0.4227635886977374   T   T   T
  0.8351264346779887  0.2526803880045391  0.4227145288103404   T   T   T
  0.8351108922618832  0.7527259427299416  0.4227368774713142   T   T   T
  0.0020941324019895  0.0055209765322489  0.4399109782496426   T   T   T
  0.0020619725522682  0.5056237211114069  0.4399198188967372   T   T   T
  0.3354485864347643  0.0055692404229789  0.4399560811715497   T   T   T
  0.3353826990597341  0.5055257888910388  0.4399649302812400   T   T   T
  0.6686767038844337  0.0055087260524433  0.4399569906141251   T   T   T
  0.6686604475237574  0.5054737153869893  0.4399527105057349   T   T   T
  0.1688171152866754  0.2559376663123582  0.4568806990236974   T   T   T
  0.1689538953344383  0.7559948947192748  0.4569104110376124   T   T   T
  0.5020931256806470  0.2560421387838943  0.4569853167915506   T   T   T
  0.5020567583050227  0.7559130288716863  0.4569246258073991   T   T   T
  0.8354296847395356  0.2559268221364985  0.4568543617992705   T   T   T
  0.8353826860126203  0.7560927079247940  0.4569018685391937   T   T   T
  0.0022471315922407  0.0056169424155994  0.4741885174825621   T   T   T
  0.0021909595142755  0.5058743247394102  0.4741913167767481   T   T   T
  0.3358772087628262  0.0061955103227867  0.4742649924569066   T   T   T
  0.3353029638693173  0.5060839173684510  0.4742992420252716   T   T   T
  0.6684084865683868  0.0061326085751317  0.4742662022581492   T   T   T
  0.6689394067140991  0.5060332369171807  0.4742481498085077   T   T   T
  0.1688549838031876  0.2549327945427100  0.4911137985635955   T   T   T
  0.1688468619397021  0.7558307952762350  0.4912194247509983   T   T   T
  0.5021379630315531  0.2574326025489799  0.4914365588912757   T   T   T
  0.5019485083855056  0.7553480742860631  0.4912421699731545   T   T   T
  0.8357702276662906  0.2542758414946823  0.4910415041586272   T   T   T
  0.8357677043026379  0.7558914732355633  0.4912118097194560   T   T   T
  0.0019954261834533  0.0033832401867528  0.5083484467300387   T   T   T
  0.0022109920210096  0.5007849937917331  0.5081630545422987   T   T   T
  0.3350659695942516  0.0031201469037190  0.5084220525573467   T   T   T
  0.3328980997598673  0.5045057223414738  0.5086666108199360   T   T   T
  0.6687368155597601  0.0030542712235225  0.5084249591133804   T   T   T
  0.6715639080785842  0.5025586738453903  0.5083221084392168   T   T   T
 
  0.00000000E+00  0.00000000E+00  0.00000000E+00
  0.00000000E+00  0.00000000E+00  0.00000000E+00
  0.00000000E+00  0.00000000E+00  0.00000000E+00
  0.00000000E+00  0.00000000E+00  0.00000000E+00
  0.00000000E+00  0.00000000E+00  0.00000000E+00
  0.00000000E+00  0.00000000E+00  0.00000000E+00
  0.00000000E+00  0.00000000E+00  0.00000000E+00
  0.00000000E+00  0.00000000E+00  0.00000000E+00
  0.00000000E+00  0.00000000E+00  0.00000000E+00
  0.00000000E+00  0.00000000E+00  0.00000000E+00
  0.00000000E+00  0.00000000E+00  0.00000000E+00
  0.00000000E+00  0.00000000E+00  0.00000000E+00
  0.00000000E+00  0.00000000E+00  0.00000000E+00
  0.00000000E+00  0.00000000E+00  0.00000000E+00
  0.00000000E+00  0.00000000E+00  0.00000000E+00
  0.00000000E+00  0.00000000E+00  0.00000000E+00
  0.00000000E+00  0.00000000E+00  0.00000000E+00
  0.00000000E+00  0.00000000E+00  0.00000000E+00
  0.00000000E+00  0.00000000E+00  0.00000000E+00
  0.00000000E+00  0.00000000E+00  0.00000000E+00
  0.00000000E+00  0.00000000E+00  0.00000000E+00
  0.00000000E+00  0.00000000E+00  0.00000000E+00
  0.00000000E+00  0.00000000E+00  0.00000000E+00
  0.00000000E+00  0.00000000E+00  0.00000000E+00
  0.00000000E+00  0.00000000E+00  0.00000000E+00
  0.00000000E+00  0.00000000E+00  0.00000000E+00
  0.00000000E+00  0.00000000E+00  0.00000000E+00
  0.00000000E+00  0.00000000E+00  0.00000000E+00
  0.00000000E+00  0.00000000E+00  0.00000000E+00
  0.00000000E+00  0.00000000E+00  0.00000000E+00
  0.00000000E+00  0.00000000E+00  0.00000000E+00
  0.00000000E+00  0.00000000E+00  0.00000000E+00
  0.00000000E+00  0.00000000E+00  0.00000000E+00
  0.00000000E+00  0.00000000E+00  0.00000000E+00
  0.00000000E+00  0.00000000E+00  0.00000000E+00
  0.00000000E+00  0.00000000E+00  0.00000000E+00
  0.00000000E+00  0.00000000E+00  0.00000000E+00
  0.00000000E+00  0.00000000E+00  0.00000000E+00
  0.00000000E+00  0.00000000E+00  0.00000000E+00
  0.00000000E+00  0.00000000E+00  0.00000000E+00
  0.00000000E+00  0.00000000E+00  0.00000000E+00
  0.00000000E+00  0.00000000E+00  0.00000000E+00
  0.00000000E+00  0.00000000E+00  0.00000000E+00
  0.00000000E+00  0.00000000E+00  0.00000000E+00
  0.00000000E+00  0.00000000E+00  0.00000000E+00
  0.00000000E+00  0.00000000E+00  0.00000000E+00
  0.00000000E+00  0.00000000E+00  0.00000000E+00
  0.00000000E+00  0.00000000E+00  0.00000000E+00
  0.00000000E+00  0.00000000E+00  0.00000000E+00
  0.00000000E+00  0.00000000E+00  0.00000000E+00
  0.00000000E+00  0.00000000E+00  0.00000000E+00
  0.00000000E+00  0.00000000E+00  0.00000000E+00
  0.00000000E+00  0.00000000E+00  0.00000000E+00
  0.00000000E+00  0.00000000E+00  0.00000000E+00
  0.00000000E+00  0.00000000E+00  0.00000000E+00
  0.00000000E+00  0.00000000E+00  0.00000000E+00
  0.00000000E+00  0.00000000E+00  0.00000000E+00
  0.00000000E+00  0.00000000E+00  0.00000000E+00
  0.00000000E+00  0.00000000E+00  0.00000000E+00
  0.00000000E+00  0.00000000E+00  0.00000000E+00
  0.00000000E+00  0.00000000E+00  0.00000000E+00
  0.00000000E+00  0.00000000E+00  0.00000000E+00
  0.00000000E+00  0.00000000E+00  0.00000000E+00
  0.00000000E+00  0.00000000E+00  0.00000000E+00
  0.00000000E+00  0.00000000E+00  0.00000000E+00
  0.00000000E+00  0.00000000E+00  0.00000000E+00
  0.00000000E+00  0.00000000E+00  0.00000000E+00
  0.00000000E+00  0.00000000E+00  0.00000000E+00
  0.00000000E+00  0.00000000E+00  0.00000000E+00
  0.00000000E+00  0.00000000E+00  0.00000000E+00
  0.00000000E+00  0.00000000E+00  0.00000000E+00
  0.00000000E+00  0.00000000E+00  0.00000000E+00
  0.00000000E+00  0.00000000E+00  0.00000000E+00
  0.00000000E+00  0.00000000E+00  0.00000000E+00
  0.00000000E+00  0.00000000E+00  0.00000000E+00
  0.00000000E+00  0.00000000E+00  0.00000000E+00
  0.00000000E+00  0.00000000E+00  0.00000000E+00
  0.00000000E+00  0.00000000E+00  0.00000000E+00
  0.00000000E+00  0.00000000E+00  0.00000000E+00
  0.00000000E+00  0.00000000E+00  0.00000000E+00
  0.00000000E+00  0.00000000E+00  0.00000000E+00
  0.00000000E+00  0.00000000E+00  0.00000000E+00
  0.00000000E+00  0.00000000E+00  0.00000000E+00
  0.00000000E+00  0.00000000E+00  0.00000000E+00
  0.00000000E+00  0.00000000E+00  0.00000000E+00
  0.00000000E+00  0.00000000E+00  0.00000000E+00
  0.00000000E+00  0.00000000E+00  0.00000000E+00
  0.00000000E+00  0.00000000E+00  0.00000000E+00
  0.00000000E+00  0.00000000E+00  0.00000000E+00
  0.00000000E+00  0.00000000E+00  0.00000000E+00
  0.00000000E+00  0.00000000E+00  0.00000000E+00
  0.00000000E+00  0.00000000E+00  0.00000000E+00
  0.00000000E+00  0.00000000E+00  0.00000000E+00
  0.00000000E+00  0.00000000E+00  0.00000000E+00
  0.00000000E+00  0.00000000E+00  0.00000000E+00
  0.00000000E+00  0.00000000E+00  0.00000000E+00
  0.00000000E+00  0.00000000E+00  0.00000000E+00
  0.00000000E+00  0.00000000E+00  0.00000000E+00
  0.00000000E+00  0.00000000E+00  0.00000000E+00
  0.00000000E+00  0.00000000E+00  0.00000000E+00
  0.00000000E+00  0.00000000E+00  0.00000000E+00
  0.00000000E+00  0.00000000E+00  0.00000000E+00
  0.00000000E+00  0.00000000E+00  0.00000000E+00
  0.00000000E+00  0.00000000E+00  0.00000000E+00
  0.00000000E+00  0.00000000E+00  0.00000000E+00
  0.00000000E+00  0.00000000E+00  0.00000000E+00
  0.00000000E+00  0.00000000E+00  0.00000000E+00
  0.00000000E+00  0.00000000E+00  0.00000000E+00
  0.00000000E+00  0.00000000E+00  0.00000000E+00
  0.00000000E+00  0.00000000E+00  0.00000000E+00
  0.00000000E+00  0.00000000E+00  0.00000000E+00
  0.00000000E+00  0.00000000E+00  0.00000000E+00
  0.00000000E+00  0.00000000E+00  0.00000000E+00
  0.00000000E+00  0.00000000E+00  0.00000000E+00
  0.00000000E+00  0.00000000E+00  0.00000000E+00
  0.00000000E+00  0.00000000E+00  0.00000000E+00
  0.00000000E+00  0.00000000E+00  0.00000000E+00
  0.00000000E+00  0.00000000E+00  0.00000000E+00
  0.00000000E+00  0.00000000E+00  0.00000000E+00
  0.00000000E+00  0.00000000E+00  0.00000000E+00
  0.00000000E+00  0.00000000E+00  0.00000000E+00
