C H O Si                                
   1.00000000000000     
     9.2874599999999994    0.0000000000000000    0.0000000000000000
     0.0000000000000000    8.7563099999999991    0.0000000000000000
     0.0000000000000000    0.0000000000000000   58.0000000000000000
   C    H    O    Si
    36    31    16    36
Selective dynamics
Direct
  0.9955174832128428  0.1306519284075894  0.0594179018672436   T   T   T
  0.3289919957897542  0.1309453104191710  0.0594704485519742   T   T   T
  0.6621490390992111  0.1309152000027365  0.0595448820262209   T   T   T
  0.9954936230516727  0.6309436295566078  0.0594305742202589   T   T   T
  0.3289103803657909  0.6307566329107076  0.0594795924808799   T   T   T
  0.6622478919438292  0.6306349050962536  0.0595298209257403   T   T   T
  0.1614050076081192  0.3764661276920327  0.1381587155899214   T   T   T
  0.4948532233726012  0.3767035401852115  0.1386459924429013   T   T   T
  0.8282547835943871  0.3764978150261611  0.1382323805594206   T   T   T
  0.1619237164510344  0.8762884362964667  0.1383157366999615   T   T   T
  0.4948411228144151  0.8744143207773175  0.1383423862182728   T   T   T
  0.8277142049491814  0.8763604524560332  0.1383832599281049   T   T   T
  0.3281600765136820  0.1267399692883153  0.1656483974295248   T   T   T
  0.6617505974614168  0.1270023435500884  0.1657688968623804   T   T   T
  0.9949017702077920  0.1255457182284757  0.1652667224912278   T   T   T
  0.3279760994419747  0.6265810215489137  0.1657204896565446   T   T   T
  0.6620240494260363  0.6266205240006678  0.1656760984415162   T   T   T
  0.9949339013781395  0.6263818213342683  0.1653207400414632   T   T   T
  0.1614013381517055  0.3779709873587807  0.1902039348290623   T   T   T
  0.4947415266544411  0.3847638378503715  0.1917782307386413   T   T   T
  0.8291786769913471  0.3788493584028541  0.1904440049992154   T   T   T
  0.1614224193093152  0.8803750115747737  0.1907306856345135   T   T   T
  0.4947151921806802  0.8776034360062674  0.1913340050645666   T   T   T
  0.8285148081702801  0.8807485234991411  0.1909446893245955   T   T   T
  0.1617237682788373  0.3765862394078199  0.0847451095481948   T   T   T
  0.4950699258540474  0.3767289718868819  0.0849524425734912   T   T   T
  0.8284870186765161  0.3765726457677401  0.0847922495495377   T   T   T
  0.1619156748791036  0.8766767824243524  0.0847960708480014   T   T   T
  0.4950500590128893  0.8764584254894503  0.0847542701421645   T   T   T
  0.8282616271816405  0.8767040324619808  0.0848392774392090   T   T   T
  0.3284550378081147  0.1262437570316110  0.1120407593663294   T   T   T
  0.6615332971695863  0.1262084429874761  0.1121095330213110   T   T   T
  0.9950088871012136  0.1261405278561522  0.1119424043908575   T   T   T
  0.3283870589435085  0.6261020758923908  0.1120308575536525   T   T   T
  0.6616013600656864  0.6261253750863625  0.1120341247370525   T   T   T
  0.9949252919318898  0.6266964297949104  0.1119102637216344   T   T   T
  0.0767450088350143  0.3633309834799539  0.0265505164401430   T   T   T
  0.4106134396767050  0.3637127760683043  0.0266648312293076   T   T   T
  0.7430426500437438  0.3633194147452032  0.0266058172444204   T   T   T
  0.0768737083673500  0.8633255204930971  0.0265815604781165   T   T   T
  0.4107530937034843  0.8633212551704523  0.0265094693260602   T   T   T
  0.7428574177921997  0.8632331758637566  0.0266279344002996   T   T   T
  0.3267788594248856  0.0581900118503679  0.0439985610111127   T   T   T
  0.6589813362670854  0.0580971198135320  0.0440777313957766   T   T   T
  0.9926666684203742  0.0581600381876028  0.0439122453615342   T   T   T
  0.3260978857313341  0.5578297575565432  0.0440294038426604   T   T   T
  0.6595873169072817  0.5578151742885198  0.0440634135315180   T   T   T
  0.9927037214992629  0.5585467023416579  0.0439213708353750   T   T   T
  0.8310121773322104  0.8066205538401647  0.2062614861921958   T   T   T
  0.8323986467682898  0.3062673111480786  0.2059393915353221   T   T   T
  0.1628764381310679  0.3056147353703728  0.2057166344241969   T   T   T
  0.4972346656028110  0.3098194537546740  0.2070158239384170   T   T   T
  0.1629432376178742  0.8062445994496089  0.2060556846166146   T   T   T
  0.0896962244970283  0.1104865687655083  0.2226053640370103   T   T   T
  0.4148553773367756  0.1035407930777765  0.2239920121546956   T   T   T
  0.7547557689041752  0.1172553832093610  0.2221774142757277   T   T   T
  0.0943524127246698  0.5977598629381721  0.2222209484564174   T   T   T
  0.3675877635800572  0.5661408522074185  0.2303091443498514   T   T   T
  0.7836072293637043  0.5898617601469729  0.2224766195772336   T   T   T
  0.5066933487704885  0.5436024647650999  0.2664039306664894   T   T   T
  0.4752029897253829  0.4555234028007912  0.3007878354615023   T   T   T
  0.5241420131186917  0.6227926841994263  0.3090270014502110   T   T   T
  0.2897940934663482  0.2752748065481816  0.2969422616141984   T   T   T
  0.4388814055744502  0.2149845927184621  0.2892855666233340   T   T   T
  0.6382980032455875  0.7743207631218394  0.3351232283506086   T   T   T
  0.5021016805672303  0.8621480207183720  0.3271922290201495   T   T   T
  0.5713749973234551  0.5380403757192430  0.2405472484578434   T   T   T
  0.1711096408504102  0.3369694134412008  0.0328384587679774   T   T   T
  0.5048516198541790  0.3378051622188989  0.0330341693314693   T   T   T
  0.8374687128701211  0.3370513340093932  0.0328755271579058   T   T   T
  0.1712457923552280  0.8370948629920012  0.0328811794107998   T   T   T
  0.5049497053611598  0.8365812982679761  0.0328313530030001   T   T   T
  0.8373165919734649  0.8372315926031033  0.0329190037453153   T   T   T
  0.3194022068323650  0.0889539315900559  0.2172500722661127   T   T   T
  0.6573983924496759  0.0882486765180279  0.2175520225835343   T   T   T
  0.9917687133597366  0.0883255921444300  0.2172850627886368   T   T   T
  0.2976555773931963  0.5877424416149213  0.2176511999674786   T   T   T
  0.6813600605276577  0.5833595186007010  0.2181852508797345   T   T   T
  0.9935338452674342  0.5827630069786345  0.2171677034779075   T   T   T
  0.5328003051129941  0.5464155885930007  0.2964771706690779   T   T   T
  0.3901596452304089  0.2689518782977017  0.3017599656123947   T   T   T
  0.5364977984638526  0.7610201939141911  0.3315405762443907   T   T   T
  0.4877573854116340  0.5091531645022244  0.2504063997332130   T   T   T
  0.4957963583292552  0.2482703701407240  0.0589859201492254   T   T   T
  0.8289968912116644  0.2480280250729660  0.0588610566040329   T   T   T
  0.1624839787181613  0.7480676288454249  0.0588580927002563   T   T   T
  0.4958249403925462  0.7480100510507525  0.0588656311582988   T   T   T
  0.8288652721760859  0.7481137662497275  0.0588942353488579   T   T   T
  0.1623900043206060  0.2480013063269102  0.0588215784905820   T   T   T
  0.9948579600719619  0.0002417977815983  0.1386349607257329   T   T   T
  0.3297668496654280  0.0008614294503592  0.1389166640138944   T   T   T
  0.6598977752566302  0.0009279238841136  0.1389928785789624   T   T   T
  0.9948696192086975  0.5009795855823395  0.1385649437243453   T   T   T
  0.3283368427618070  0.5017833591195331  0.1389375557078948   T   T   T
  0.6614011767206015  0.5017473312433119  0.1388925048505345   T   T   T
  0.1622810945605260  0.2487055855790493  0.1646408348120438   T   T   T
  0.4947864667731865  0.2511722678666392  0.1655200026838172   T   T   T
  0.8279072738102335  0.2489004823296864  0.1647494166656205   T   T   T
  0.1621540041732371  0.7506194275496511  0.1649855621542905   T   T   T
  0.4948471797638148  0.7541163839564198  0.1663847495830804   T   T   T
  0.8280367082780908  0.7508557427210558  0.1650903801480192   T   T   T
  0.3336096948196686  0.9911498054777019  0.1916663282742283   T   T   T
  0.6554165509847732  0.9913281609650828  0.1918635693602955   T   T   T
  0.9951329902824885  0.9970326282618932  0.1913324357475514   T   T   T
  0.3251765384964346  0.5002434700860698  0.1920364560735271   T   T   T
  0.9956399688142735  0.4951568091804321  0.1909704056560610   T   T   T
  0.6639842459049662  0.4989534352198062  0.1917245672670346   T   T   T
  0.9951516524667657  0.0007983695388011  0.0854771777292056   T   T   T
  0.3287857208880142  0.0009736059699094  0.0855395341281969   T   T   T
  0.6615598074072969  0.0009579494491600  0.0855985729623985   T   T   T
  0.9951568041360740  0.5009527255764890  0.0854604945217221   T   T   T
  0.3285243930001385  0.5009866548599479  0.0855626037446273   T   T   T
  0.6618855064459237  0.5008917214927874  0.0855824044796116   T   T   T
  0.1618707494742782  0.2510723665036584  0.1117764101706554   T   T   T
  0.4949885034028356  0.2513565972518221  0.1120684304112815   T   T   T
  0.8281953458975421  0.2509936727568611  0.1118275677238866   T   T   T
  0.1620499232283956  0.7512408485086844  0.1118450555639266   T   T   T
  0.4949844292181101  0.7513881885448699  0.1119585535907295   T   T   T
  0.8279178080020225  0.7513310754091408  0.1118926726564334   T   T   T
 
  0.00000000E+00  0.00000000E+00  0.00000000E+00
  0.00000000E+00  0.00000000E+00  0.00000000E+00
  0.00000000E+00  0.00000000E+00  0.00000000E+00
  0.00000000E+00  0.00000000E+00  0.00000000E+00
  0.00000000E+00  0.00000000E+00  0.00000000E+00
  0.00000000E+00  0.00000000E+00  0.00000000E+00
  0.00000000E+00  0.00000000E+00  0.00000000E+00
  0.00000000E+00  0.00000000E+00  0.00000000E+00
  0.00000000E+00  0.00000000E+00  0.00000000E+00
  0.00000000E+00  0.00000000E+00  0.00000000E+00
  0.00000000E+00  0.00000000E+00  0.00000000E+00
  0.00000000E+00  0.00000000E+00  0.00000000E+00
  0.00000000E+00  0.00000000E+00  0.00000000E+00
  0.00000000E+00  0.00000000E+00  0.00000000E+00
  0.00000000E+00  0.00000000E+00  0.00000000E+00
  0.00000000E+00  0.00000000E+00  0.00000000E+00
  0.00000000E+00  0.00000000E+00  0.00000000E+00
  0.00000000E+00  0.00000000E+00  0.00000000E+00
  0.00000000E+00  0.00000000E+00  0.00000000E+00
  0.00000000E+00  0.00000000E+00  0.00000000E+00
  0.00000000E+00  0.00000000E+00  0.00000000E+00
  0.00000000E+00  0.00000000E+00  0.00000000E+00
  0.00000000E+00  0.00000000E+00  0.00000000E+00
  0.00000000E+00  0.00000000E+00  0.00000000E+00
  0.00000000E+00  0.00000000E+00  0.00000000E+00
  0.00000000E+00  0.00000000E+00  0.00000000E+00
  0.00000000E+00  0.00000000E+00  0.00000000E+00
  0.00000000E+00  0.00000000E+00  0.00000000E+00
  0.00000000E+00  0.00000000E+00  0.00000000E+00
  0.00000000E+00  0.00000000E+00  0.00000000E+00
  0.00000000E+00  0.00000000E+00  0.00000000E+00
  0.00000000E+00  0.00000000E+00  0.00000000E+00
  0.00000000E+00  0.00000000E+00  0.00000000E+00
  0.00000000E+00  0.00000000E+00  0.00000000E+00
  0.00000000E+00  0.00000000E+00  0.00000000E+00
  0.00000000E+00  0.00000000E+00  0.00000000E+00
  0.00000000E+00  0.00000000E+00  0.00000000E+00
  0.00000000E+00  0.00000000E+00  0.00000000E+00
  0.00000000E+00  0.00000000E+00  0.00000000E+00
  0.00000000E+00  0.00000000E+00  0.00000000E+00
  0.00000000E+00  0.00000000E+00  0.00000000E+00
  0.00000000E+00  0.00000000E+00  0.00000000E+00
  0.00000000E+00  0.00000000E+00  0.00000000E+00
  0.00000000E+00  0.00000000E+00  0.00000000E+00
  0.00000000E+00  0.00000000E+00  0.00000000E+00
  0.00000000E+00  0.00000000E+00  0.00000000E+00
  0.00000000E+00  0.00000000E+00  0.00000000E+00
  0.00000000E+00  0.00000000E+00  0.00000000E+00
  0.00000000E+00  0.00000000E+00  0.00000000E+00
  0.00000000E+00  0.00000000E+00  0.00000000E+00
  0.00000000E+00  0.00000000E+00  0.00000000E+00
  0.00000000E+00  0.00000000E+00  0.00000000E+00
  0.00000000E+00  0.00000000E+00  0.00000000E+00
  0.00000000E+00  0.00000000E+00  0.00000000E+00
  0.00000000E+00  0.00000000E+00  0.00000000E+00
  0.00000000E+00  0.00000000E+00  0.00000000E+00
  0.00000000E+00  0.00000000E+00  0.00000000E+00
  0.00000000E+00  0.00000000E+00  0.00000000E+00
  0.00000000E+00  0.00000000E+00  0.00000000E+00
  0.00000000E+00  0.00000000E+00  0.00000000E+00
  0.00000000E+00  0.00000000E+00  0.00000000E+00
  0.00000000E+00  0.00000000E+00  0.00000000E+00
  0.00000000E+00  0.00000000E+00  0.00000000E+00
  0.00000000E+00  0.00000000E+00  0.00000000E+00
  0.00000000E+00  0.00000000E+00  0.00000000E+00
  0.00000000E+00  0.00000000E+00  0.00000000E+00
  0.00000000E+00  0.00000000E+00  0.00000000E+00
  0.00000000E+00  0.00000000E+00  0.00000000E+00
  0.00000000E+00  0.00000000E+00  0.00000000E+00
  0.00000000E+00  0.00000000E+00  0.00000000E+00
  0.00000000E+00  0.00000000E+00  0.00000000E+00
  0.00000000E+00  0.00000000E+00  0.00000000E+00
  0.00000000E+00  0.00000000E+00  0.00000000E+00
  0.00000000E+00  0.00000000E+00  0.00000000E+00
  0.00000000E+00  0.00000000E+00  0.00000000E+00
  0.00000000E+00  0.00000000E+00  0.00000000E+00
  0.00000000E+00  0.00000000E+00  0.00000000E+00
  0.00000000E+00  0.00000000E+00  0.00000000E+00
  0.00000000E+00  0.00000000E+00  0.00000000E+00
  0.00000000E+00  0.00000000E+00  0.00000000E+00
  0.00000000E+00  0.00000000E+00  0.00000000E+00
  0.00000000E+00  0.00000000E+00  0.00000000E+00
  0.00000000E+00  0.00000000E+00  0.00000000E+00
  0.00000000E+00  0.00000000E+00  0.00000000E+00
  0.00000000E+00  0.00000000E+00  0.00000000E+00
  0.00000000E+00  0.00000000E+00  0.00000000E+00
  0.00000000E+00  0.00000000E+00  0.00000000E+00
  0.00000000E+00  0.00000000E+00  0.00000000E+00
  0.00000000E+00  0.00000000E+00  0.00000000E+00
  0.00000000E+00  0.00000000E+00  0.00000000E+00
  0.00000000E+00  0.00000000E+00  0.00000000E+00
  0.00000000E+00  0.00000000E+00  0.00000000E+00
  0.00000000E+00  0.00000000E+00  0.00000000E+00
  0.00000000E+00  0.00000000E+00  0.00000000E+00
  0.00000000E+00  0.00000000E+00  0.00000000E+00
  0.00000000E+00  0.00000000E+00  0.00000000E+00
  0.00000000E+00  0.00000000E+00  0.00000000E+00
  0.00000000E+00  0.00000000E+00  0.00000000E+00
  0.00000000E+00  0.00000000E+00  0.00000000E+00
  0.00000000E+00  0.00000000E+00  0.00000000E+00
  0.00000000E+00  0.00000000E+00  0.00000000E+00
  0.00000000E+00  0.00000000E+00  0.00000000E+00
  0.00000000E+00  0.00000000E+00  0.00000000E+00
  0.00000000E+00  0.00000000E+00  0.00000000E+00
  0.00000000E+00  0.00000000E+00  0.00000000E+00
  0.00000000E+00  0.00000000E+00  0.00000000E+00
  0.00000000E+00  0.00000000E+00  0.00000000E+00
  0.00000000E+00  0.00000000E+00  0.00000000E+00
  0.00000000E+00  0.00000000E+00  0.00000000E+00
  0.00000000E+00  0.00000000E+00  0.00000000E+00
  0.00000000E+00  0.00000000E+00  0.00000000E+00
  0.00000000E+00  0.00000000E+00  0.00000000E+00
  0.00000000E+00  0.00000000E+00  0.00000000E+00
  0.00000000E+00  0.00000000E+00  0.00000000E+00
  0.00000000E+00  0.00000000E+00  0.00000000E+00
  0.00000000E+00  0.00000000E+00  0.00000000E+00
  0.00000000E+00  0.00000000E+00  0.00000000E+00
  0.00000000E+00  0.00000000E+00  0.00000000E+00
  0.00000000E+00  0.00000000E+00  0.00000000E+00
