C H O Si                                
   1.00000000000000     
     9.2874599999999994    0.0000000000000000    0.0000000000000000
     0.0000000000000000    8.7563099999999991    0.0000000000000000
     0.0000000000000000    0.0000000000000000   58.0000000000000000
   C    H    O    Si
    36    31    16    36
Selective dynamics
Direct
  0.9954963345008693  0.1308520025402674  0.0594303045855675   T   T   T
  0.3290047000173225  0.1310777316084786  0.0594993840118501   T   T   T
  0.6621230141873461  0.1308385287096098  0.0595601290948057   T   T   T
  0.9954843789928521  0.6309886634313792  0.0594412581758406   T   T   T
  0.3289347928154744  0.6307905283929064  0.0595041097214213   T   T   T
  0.6621888261601103  0.6306888513641814  0.0595375772777583   T   T   T
  0.1614724067834399  0.3764299763574677  0.1381699417119988   T   T   T
  0.4947546335062821  0.3766809139364814  0.1386694739589705   T   T   T
  0.8281510382815649  0.3764405123610126  0.1382465055863250   T   T   T
  0.1619090658058568  0.8763333691893692  0.1383058718555057   T   T   T
  0.4947596682070839  0.8743077570616073  0.1383729441960672   T   T   T
  0.8276646318094349  0.8764400335695191  0.1383589373047845   T   T   T
  0.3281098857286106  0.1267181748491239  0.1656852454173717   T   T   T
  0.6616557636945679  0.1269026380391760  0.1658129608948965   T   T   T
  0.9947047340108978  0.1255910353839105  0.1652511056322805   T   T   T
  0.3277753262313486  0.6264418170084730  0.1657416707573419   T   T   T
  0.6619958802089420  0.6266833258182626  0.1656906764115220   T   T   T
  0.9947448160403795  0.6264867187922931  0.1652820346814657   T   T   T
  0.1611805665317226  0.3778286026571616  0.1902097480202083   T   T   T
  0.4945928310893840  0.3845977484712070  0.1917760511155225   T   T   T
  0.8290828879643247  0.3789575836531460  0.1904370966655917   T   T   T
  0.1616848097332712  0.8802778569466346  0.1906984449385372   T   T   T
  0.4949568671386421  0.8772485175874248  0.1913541665943511   T   T   T
  0.8286295631731320  0.8809296780226178  0.1908961327950701   T   T   T
  0.1617079802371107  0.3767395879775509  0.0847589443267081   T   T   T
  0.4948920780236385  0.3767898026704197  0.0849799625068640   T   T   T
  0.8282623194062531  0.3767653118231832  0.0848026545082190   T   T   T
  0.1618482725537650  0.8768870558465233  0.0847982624074334   T   T   T
  0.4948915812095777  0.8765290998505586  0.0847820164169348   T   T   T
  0.8281501716547991  0.8769452211708469  0.0848322921072871   T   T   T
  0.3283173875270783  0.1262266745752161  0.1120570652967165   T   T   T
  0.6612463726226219  0.1261852658325648  0.1121025179291809   T   T   T
  0.9946529862536870  0.1262294705384611  0.1119218497526635   T   T   T
  0.3281283780013569  0.6261707553384406  0.1120545928864937   T   T   T
  0.6615550403889349  0.6261765313257089  0.1120485967932420   T   T   T
  0.9946938258870275  0.6267652560451746  0.1118966677639741   T   T   T
  0.0770326592234274  0.3633909473872245  0.0265565127322566   T   T   T
  0.4110406375277736  0.3636298153158731  0.0266872965857317   T   T   T
  0.7434570651520390  0.3633334879124639  0.0266189736033593   T   T   T
  0.0772169728463361  0.8633208945097481  0.0266075523237596   T   T   T
  0.4112103409467869  0.8633190933881335  0.0265218793009786   T   T   T
  0.7432893071799581  0.8632117124016102  0.0266486941590734   T   T   T
  0.3269555270910843  0.0584630999131979  0.0440092550299100   T   T   T
  0.6590759854979120  0.0582915928131847  0.0440581035127041   T   T   T
  0.9928054412860471  0.0584037627779229  0.0439225877970740   T   T   T
  0.3263032811870686  0.5580367335905194  0.0440270162224855   T   T   T
  0.6597564648348158  0.5579361416834182  0.0440545125502967   T   T   T
  0.9927690956034586  0.5589115308754079  0.0438951264072172   T   T   T
  0.8312831021554126  0.8071473708663979  0.2062367171883214   T   T   T
  0.8325925544330609  0.3063371867294454  0.2059324236325575   T   T   T
  0.1622431693423951  0.3053150332597611  0.2057112971685113   T   T   T
  0.4970699903218594  0.3098537029048188  0.2070337666782221   T   T   T
  0.1631787913350928  0.8065378083142296  0.2060626839156895   T   T   T
  0.0899982170847553  0.1108060237331604  0.2225497050389496   T   T   T
  0.4156052096996856  0.1024576262797637  0.2239544828248604   T   T   T
  0.7551929318181032  0.1172722702877821  0.2221131039909418   T   T   T
  0.0945885246846184  0.5973212379271960  0.2221953751326611   T   T   T
  0.3679081637521153  0.5665617966188027  0.2303222152533996   T   T   T
  0.7833881970049994  0.5893672677521927  0.2224587511387742   T   T   T
  0.5067647458950237  0.5444584568035723  0.2663615991304003   T   T   T
  0.4750009293622713  0.4549670255039812  0.3007519644122318   T   T   T
  0.5239996752362907  0.6224329978203215  0.3089985802834952   T   T   T
  0.2897172681038616  0.2747231506717894  0.2968552671677637   T   T   T
  0.4392189799379037  0.2158961230308116  0.2891872516284925   T   T   T
  0.6385230503611452  0.7740020785388987  0.3350766821165078   T   T   T
  0.5023830578644716  0.8624220091277981  0.3272680141540646   T   T   T
  0.5706177094489621  0.5390389537032022  0.2405207888524788   T   T   T
  0.1714256805791199  0.3370812870342511  0.0328420000852720   T   T   T
  0.5053033454207412  0.3374498949404606  0.0330334988721546   T   T   T
  0.8379531886309252  0.3369692316949209  0.0328747470835446   T   T   T
  0.1716060841575041  0.8369290281348003  0.0328794487372469   T   T   T
  0.5053631376802141  0.8365223180629170  0.0328363287596566   T   T   T
  0.8378497642360240  0.8370233057690997  0.0328932875127300   T   T   T
  0.3198281776690186  0.0883379836684823  0.2173078561867401   T   T   T
  0.6576121387027885  0.0885392417032112  0.2175539708688447   T   T   T
  0.9920981672013196  0.0878155076535913  0.2172944167530838   T   T   T
  0.2976813288266612  0.5868429195542292  0.2176690585258663   T   T   T
  0.6811439150269136  0.5830873596915996  0.2181733168317035   T   T   T
  0.9936771091288288  0.5831996615550012  0.2171370471499378   T   T   T
  0.5318970158606733  0.5463305837253458  0.2964051991449807   T   T   T
  0.3901712314413679  0.2692503373278093  0.3016731138709844   T   T   T
  0.5367559290640527  0.7610012263846451  0.3314783029627925   T   T   T
  0.4883148919528293  0.5076011882303193  0.2504787044668632   T   T   T
  0.4958520780893284  0.2484228102663093  0.0590118674325249   T   T   T
  0.8289735240073753  0.2481239526732809  0.0588769935768118   T   T   T
  0.1625291354102772  0.7481959855100080  0.0588850554973403   T   T   T
  0.4958228229098330  0.7482032760202556  0.0588933535543460   T   T   T
  0.8289264188670645  0.7482302843426363  0.0589099974548344   T   T   T
  0.1624110106759006  0.2481880783720477  0.0588344059002319   T   T   T
  0.9946756322959770  0.0004730154893963  0.1386127848444745   T   T   T
  0.3297199801833799  0.0006983267491196  0.1389420535215408   T   T   T
  0.6597932888381534  0.0008841062323389  0.1390203021748338   T   T   T
  0.9947144745811987  0.5010148872092646  0.1385453388818368   T   T   T
  0.3281464990002181  0.5017793714646667  0.1389596448242017   T   T   T
  0.6613312587892989  0.5017508621808483  0.1389165782336621   T   T   T
  0.1621058391914153  0.2486075888325422  0.1646488026092899   T   T   T
  0.4946339544165557  0.2510300984744814  0.1655345249454242   T   T   T
  0.8276038750032798  0.2488566557940763  0.1647629540647307   T   T   T
  0.1620367473421364  0.7505191452020051  0.1649742645166280   T   T   T
  0.4946585271680876  0.7538523089564313  0.1664161380637123   T   T   T
  0.8278069469647771  0.7509743337575220  0.1650658147710930   T   T   T
  0.3339016662459807  0.9908387213280472  0.1916911325507837   T   T   T
  0.6554945607480456  0.9912096579483950  0.1919151518228133   T   T   T
  0.9953677058535956  0.9970000369071524  0.1912904156373193   T   T   T
  0.3250923942828449  0.4998293199458586  0.1920281334178522   T   T   T
  0.9954983847031448  0.4954069509557371  0.1909467102061207   T   T   T
  0.6636562390437096  0.4989355414646641  0.1917276727179412   T   T   T
  0.9949127735486044  0.0009890967166222  0.0854612696122177   T   T   T
  0.3286059558899078  0.0010940127651783  0.0855605962812314   T   T   T
  0.6612144240535041  0.0010338427157795  0.0856034971290618   T   T   T
  0.9948828302343595  0.5009867001205682  0.0854563124744259   T   T   T
  0.3283158896351961  0.5010358901868749  0.0855878694501460   T   T   T
  0.6615366909939248  0.5010686606475980  0.0855981213323591   T   T   T
  0.1616544769647360  0.2510835147608993  0.1117887857966226   T   T   T
  0.4946993521156184  0.2514020969368084  0.1120887444824644   T   T   T
  0.8277127216934582  0.2510479569424902  0.1118318885427211   T   T   T
  0.1617824036503190  0.7513696264117830  0.1118504459972384   T   T   T
  0.4947311471264864  0.7514674073073363  0.1119849005730042   T   T   T
  0.8276849390436621  0.7513689500959674  0.1118757592755497   T   T   T
 
  0.00000000E+00  0.00000000E+00  0.00000000E+00
  0.00000000E+00  0.00000000E+00  0.00000000E+00
  0.00000000E+00  0.00000000E+00  0.00000000E+00
  0.00000000E+00  0.00000000E+00  0.00000000E+00
  0.00000000E+00  0.00000000E+00  0.00000000E+00
  0.00000000E+00  0.00000000E+00  0.00000000E+00
  0.00000000E+00  0.00000000E+00  0.00000000E+00
  0.00000000E+00  0.00000000E+00  0.00000000E+00
  0.00000000E+00  0.00000000E+00  0.00000000E+00
  0.00000000E+00  0.00000000E+00  0.00000000E+00
  0.00000000E+00  0.00000000E+00  0.00000000E+00
  0.00000000E+00  0.00000000E+00  0.00000000E+00
  0.00000000E+00  0.00000000E+00  0.00000000E+00
  0.00000000E+00  0.00000000E+00  0.00000000E+00
  0.00000000E+00  0.00000000E+00  0.00000000E+00
  0.00000000E+00  0.00000000E+00  0.00000000E+00
  0.00000000E+00  0.00000000E+00  0.00000000E+00
  0.00000000E+00  0.00000000E+00  0.00000000E+00
  0.00000000E+00  0.00000000E+00  0.00000000E+00
  0.00000000E+00  0.00000000E+00  0.00000000E+00
  0.00000000E+00  0.00000000E+00  0.00000000E+00
  0.00000000E+00  0.00000000E+00  0.00000000E+00
  0.00000000E+00  0.00000000E+00  0.00000000E+00
  0.00000000E+00  0.00000000E+00  0.00000000E+00
  0.00000000E+00  0.00000000E+00  0.00000000E+00
  0.00000000E+00  0.00000000E+00  0.00000000E+00
  0.00000000E+00  0.00000000E+00  0.00000000E+00
  0.00000000E+00  0.00000000E+00  0.00000000E+00
  0.00000000E+00  0.00000000E+00  0.00000000E+00
  0.00000000E+00  0.00000000E+00  0.00000000E+00
  0.00000000E+00  0.00000000E+00  0.00000000E+00
  0.00000000E+00  0.00000000E+00  0.00000000E+00
  0.00000000E+00  0.00000000E+00  0.00000000E+00
  0.00000000E+00  0.00000000E+00  0.00000000E+00
  0.00000000E+00  0.00000000E+00  0.00000000E+00
  0.00000000E+00  0.00000000E+00  0.00000000E+00
  0.00000000E+00  0.00000000E+00  0.00000000E+00
  0.00000000E+00  0.00000000E+00  0.00000000E+00
  0.00000000E+00  0.00000000E+00  0.00000000E+00
  0.00000000E+00  0.00000000E+00  0.00000000E+00
  0.00000000E+00  0.00000000E+00  0.00000000E+00
  0.00000000E+00  0.00000000E+00  0.00000000E+00
  0.00000000E+00  0.00000000E+00  0.00000000E+00
  0.00000000E+00  0.00000000E+00  0.00000000E+00
  0.00000000E+00  0.00000000E+00  0.00000000E+00
  0.00000000E+00  0.00000000E+00  0.00000000E+00
  0.00000000E+00  0.00000000E+00  0.00000000E+00
  0.00000000E+00  0.00000000E+00  0.00000000E+00
  0.00000000E+00  0.00000000E+00  0.00000000E+00
  0.00000000E+00  0.00000000E+00  0.00000000E+00
  0.00000000E+00  0.00000000E+00  0.00000000E+00
  0.00000000E+00  0.00000000E+00  0.00000000E+00
  0.00000000E+00  0.00000000E+00  0.00000000E+00
  0.00000000E+00  0.00000000E+00  0.00000000E+00
  0.00000000E+00  0.00000000E+00  0.00000000E+00
  0.00000000E+00  0.00000000E+00  0.00000000E+00
  0.00000000E+00  0.00000000E+00  0.00000000E+00
  0.00000000E+00  0.00000000E+00  0.00000000E+00
  0.00000000E+00  0.00000000E+00  0.00000000E+00
  0.00000000E+00  0.00000000E+00  0.00000000E+00
  0.00000000E+00  0.00000000E+00  0.00000000E+00
  0.00000000E+00  0.00000000E+00  0.00000000E+00
  0.00000000E+00  0.00000000E+00  0.00000000E+00
  0.00000000E+00  0.00000000E+00  0.00000000E+00
  0.00000000E+00  0.00000000E+00  0.00000000E+00
  0.00000000E+00  0.00000000E+00  0.00000000E+00
  0.00000000E+00  0.00000000E+00  0.00000000E+00
  0.00000000E+00  0.00000000E+00  0.00000000E+00
  0.00000000E+00  0.00000000E+00  0.00000000E+00
  0.00000000E+00  0.00000000E+00  0.00000000E+00
  0.00000000E+00  0.00000000E+00  0.00000000E+00
  0.00000000E+00  0.00000000E+00  0.00000000E+00
  0.00000000E+00  0.00000000E+00  0.00000000E+00
  0.00000000E+00  0.00000000E+00  0.00000000E+00
  0.00000000E+00  0.00000000E+00  0.00000000E+00
  0.00000000E+00  0.00000000E+00  0.00000000E+00
  0.00000000E+00  0.00000000E+00  0.00000000E+00
  0.00000000E+00  0.00000000E+00  0.00000000E+00
  0.00000000E+00  0.00000000E+00  0.00000000E+00
  0.00000000E+00  0.00000000E+00  0.00000000E+00
  0.00000000E+00  0.00000000E+00  0.00000000E+00
  0.00000000E+00  0.00000000E+00  0.00000000E+00
  0.00000000E+00  0.00000000E+00  0.00000000E+00
  0.00000000E+00  0.00000000E+00  0.00000000E+00
  0.00000000E+00  0.00000000E+00  0.00000000E+00
  0.00000000E+00  0.00000000E+00  0.00000000E+00
  0.00000000E+00  0.00000000E+00  0.00000000E+00
  0.00000000E+00  0.00000000E+00  0.00000000E+00
  0.00000000E+00  0.00000000E+00  0.00000000E+00
  0.00000000E+00  0.00000000E+00  0.00000000E+00
  0.00000000E+00  0.00000000E+00  0.00000000E+00
  0.00000000E+00  0.00000000E+00  0.00000000E+00
  0.00000000E+00  0.00000000E+00  0.00000000E+00
  0.00000000E+00  0.00000000E+00  0.00000000E+00
  0.00000000E+00  0.00000000E+00  0.00000000E+00
  0.00000000E+00  0.00000000E+00  0.00000000E+00
  0.00000000E+00  0.00000000E+00  0.00000000E+00
  0.00000000E+00  0.00000000E+00  0.00000000E+00
  0.00000000E+00  0.00000000E+00  0.00000000E+00
  0.00000000E+00  0.00000000E+00  0.00000000E+00
  0.00000000E+00  0.00000000E+00  0.00000000E+00
  0.00000000E+00  0.00000000E+00  0.00000000E+00
  0.00000000E+00  0.00000000E+00  0.00000000E+00
  0.00000000E+00  0.00000000E+00  0.00000000E+00
  0.00000000E+00  0.00000000E+00  0.00000000E+00
  0.00000000E+00  0.00000000E+00  0.00000000E+00
  0.00000000E+00  0.00000000E+00  0.00000000E+00
  0.00000000E+00  0.00000000E+00  0.00000000E+00
  0.00000000E+00  0.00000000E+00  0.00000000E+00
  0.00000000E+00  0.00000000E+00  0.00000000E+00
  0.00000000E+00  0.00000000E+00  0.00000000E+00
  0.00000000E+00  0.00000000E+00  0.00000000E+00
  0.00000000E+00  0.00000000E+00  0.00000000E+00
  0.00000000E+00  0.00000000E+00  0.00000000E+00
  0.00000000E+00  0.00000000E+00  0.00000000E+00
  0.00000000E+00  0.00000000E+00  0.00000000E+00
  0.00000000E+00  0.00000000E+00  0.00000000E+00
  0.00000000E+00  0.00000000E+00  0.00000000E+00
  0.00000000E+00  0.00000000E+00  0.00000000E+00
  0.00000000E+00  0.00000000E+00  0.00000000E+00
  0.00000000E+00  0.00000000E+00  0.00000000E+00
