C H O Si                                
   1.00000000000000     
     9.2874599999999994    0.0000000000000000    0.0000000000000000
     0.0000000000000000    8.7563099999999991    0.0000000000000000
     0.0000000000000000    0.0000000000000000   58.0000000000000000
   C    H    O    Si
    36    33    16    36
Selective dynamics
Direct
  0.9955097727451784  0.1310112580447409  0.0594277751669181   T   T   T
  0.3289593428054708  0.1312078111991415  0.0595018373313195   T   T   T
  0.6620877551645680  0.1310026414282794  0.0595426981979678   T   T   T
  0.9954770609020286  0.6311299181281932  0.0594471201344973   T   T   T
  0.3289036283307804  0.6308647598151850  0.0595126041405622   T   T   T
  0.6621901745188498  0.6308489349010722  0.0595255096690559   T   T   T
  0.1613603668680878  0.3763565184945230  0.1381803612941151   T   T   T
  0.4947740525016446  0.3767352743042736  0.1386852144001113   T   T   T
  0.8281366609254184  0.3763512935612206  0.1382493749275955   T   T   T
  0.1618075762199861  0.8764882865406664  0.1383193317171210   T   T   T
  0.4948198518753195  0.8742534505603115  0.1384129398776033   T   T   T
  0.8276923202590569  0.8765368795520173  0.1383451520171212   T   T   T
  0.3280432767092409  0.1265342158802363  0.1656813429406075   T   T   T
  0.6613641640286279  0.1268218620851803  0.1658176426825000   T   T   T
  0.9946945624644494  0.1256097543839166  0.1652533660585803   T   T   T
  0.3277175264762143  0.6264153789413370  0.1657459887320104   T   T   T
  0.6617084288915115  0.6266054224828215  0.1656986130551889   T   T   T
  0.9946484687206073  0.6265126884081268  0.1652771627885578   T   T   T
  0.1610004683298815  0.3777627024348109  0.1902115083085794   T   T   T
  0.4946548976206945  0.3845078199254541  0.1917546942573990   T   T   T
  0.8289568640734574  0.3790710814075523  0.1904545370801386   T   T   T
  0.1618238774662448  0.8803625673399091  0.1906923879042924   T   T   T
  0.4949598004691004  0.8773065247758591  0.1913754161282345   T   T   T
  0.8287206935944950  0.8811484219221509  0.1908726826041364   T   T   T
  0.1614695133967506  0.3766843164790885  0.0847646081674027   T   T   T
  0.4948681966194282  0.3768805332200414  0.0849858118763994   T   T   T
  0.8280478636606718  0.3767330985438341  0.0847891337294816   T   T   T
  0.1616579443791932  0.8769406487965526  0.0847933882972751   T   T   T
  0.4948047077148415  0.8765095940435780  0.0847824211392911   T   T   T
  0.8280256750644821  0.8768981857616833  0.0848120160314279   T   T   T
  0.3281548821543468  0.1261921355102435  0.1120843419587043   T   T   T
  0.6610123965116614  0.1261738710987798  0.1121268098188048   T   T   T
  0.9945970879496424  0.1264296049212598  0.1119057683760431   T   T   T
  0.3280405552239294  0.6261933331679914  0.1120590512637196   T   T   T
  0.6612787229792083  0.6262144302315061  0.1120552582649630   T   T   T
  0.9946566193363978  0.6268124144249007  0.1118722598017418   T   T   T
  0.0771057450688547  0.3633958774702498  0.0265553981865749   T   T   T
  0.4111417541588790  0.3635873686410496  0.0266941503516007   T   T   T
  0.7435878095904632  0.3633131384018342  0.0266243901175463   T   T   T
  0.0773167393484779  0.8633024491075608  0.0266141967046737   T   T   T
  0.4113440346342641  0.8632835045268723  0.0265290013500626   T   T   T
  0.7434446590618143  0.8631713059779633  0.0266593087854736   T   T   T
  0.3270205727654013  0.0585122744693440  0.0440070494679535   T   T   T
  0.6591272414691089  0.0583366189600041  0.0440535382628812   T   T   T
  0.9928519430606854  0.0584564262572358  0.0439301045327252   T   T   T
  0.3263907487849725  0.5581504996382661  0.0440323155786453   T   T   T
  0.6598182395517708  0.5580172579726487  0.0440623162339307   T   T   T
  0.9927905370875911  0.5590458872898511  0.0438972235039770   T   T   T
  0.8313411681848175  0.8072929563269260  0.2062396511665744   T   T   T
  0.8326660927882379  0.3064026853181503  0.2059124262267514   T   T   T
  0.1620971709302128  0.3052311857131073  0.2057120272733836   T   T   T
  0.4970161183085042  0.3098801834332059  0.2070446270040397   T   T   T
  0.1632251621403060  0.8066655583725501  0.2060642857958227   T   T   T
  0.5377305873671347  0.9305167258878069  0.2617306176791206   T   T   T
  0.0900278837691861  0.1109175212457423  0.2225431790529335   T   T   T
  0.4157320550432946  0.1023765805600280  0.2239515459787098   T   T   T
  0.7552854062511973  0.1172915248163862  0.2220979290513467   T   T   T
  0.0946876718160327  0.5971975958942589  0.2221971811132080   T   T   T
  0.3679216423645500  0.5666396168902212  0.2303473388783225   T   T   T
  0.7833865901173328  0.5892056725828947  0.2224523046559783   T   T   T
  0.5068329443710056  0.5446240035066591  0.2663759518491780   T   T   T
  0.4750114505042010  0.4547745472776347  0.3007317452340484   T   T   T
  0.5240488004837432  0.6223675739103716  0.3089837196050220   T   T   T
  0.2896715381886965  0.2746077485872183  0.2968410124314401   T   T   T
  0.4393492211931648  0.2159722343907390  0.2891662974174124   T   T   T
  0.6385975475233323  0.7739188599892913  0.3350674255636878   T   T   T
  0.5024380132554028  0.8624900730810875  0.3272797871570768   T   T   T
  0.5090561798810863  0.8838586361016356  0.2715737907125662   T   T   T
  0.5705719743495073  0.5392289085640686  0.2405058748685096   T   T   T
  0.1715272186402864  0.3371069808609381  0.0328422705051876   T   T   T
  0.5054935810318453  0.3373848372421344  0.0330254812498425   T   T   T
  0.8380933009142426  0.3369131653141822  0.0328869383459985   T   T   T
  0.1717097843276081  0.8368960004898063  0.0328839295283857   T   T   T
  0.5055255637548746  0.8365666625191928  0.0328346791987293   T   T   T
  0.8379761037504042  0.8369282653683673  0.0329058380076397   T   T   T
  0.3200181593746018  0.0879051440138728  0.2173142515007190   T   T   T
  0.6576593111697738  0.0884720851056140  0.2175664546659248   T   T   T
  0.9922184154769708  0.0876036668349799  0.2172815447585329   T   T   T
  0.2978010058064865  0.5866550654985568  0.2176469990444509   T   T   T
  0.6810111672334603  0.5831194898434610  0.2181815630860011   T   T   T
  0.9936114707193341  0.5833766647547278  0.2171324555312133   T   T   T
  0.5315406536689562  0.5463423515728122  0.2963949107922994   T   T   T
  0.3901881659196449  0.2693999416297911  0.3016377743499251   T   T   T
  0.5367943874345736  0.7609868904456871  0.3314621544388121   T   T   T
  0.4883653706181217  0.5074197936369927  0.2504995808479452   T   T   T
  0.4958038793551163  0.2483595175314086  0.0590303342051279   T   T   T
  0.8288898959930709  0.2481255400823583  0.0588855132879773   T   T   T
  0.1625050386299509  0.7481314038220196  0.0588905027780702   T   T   T
  0.4957707598630136  0.7480902818534167  0.0588904087652571   T   T   T
  0.8288657585555794  0.7481737904764362  0.0589006892112518   T   T   T
  0.1624334679778832  0.2482638157880240  0.0588460313048388   T   T   T
  0.9947862665457375  0.0005267225246501  0.1385981881945870   T   T   T
  0.3298442489888506  0.0007381905108662  0.1389542529765084   T   T   T
  0.6597979167142771  0.0008933634114664  0.1390281449708907   T   T   T
  0.9948316966698060  0.5009253396663458  0.1385289689360296   T   T   T
  0.3282721285986112  0.5017752568705749  0.1389571476656151   T   T   T
  0.6613587228381385  0.5017195389591682  0.1389188300326695   T   T   T
  0.1620336087517277  0.2485391258922858  0.1646516138737662   T   T   T
  0.4945798495684227  0.2509619117857825  0.1655434778331165   T   T   T
  0.8275614353189020  0.2488751736432248  0.1647896744034749   T   T   T
  0.1619673914208811  0.7505434614934551  0.1649654763864395   T   T   T
  0.4946751636362724  0.7538569424306401  0.1664376481147970   T   T   T
  0.8277624993861966  0.7509691754501630  0.1650571805241001   T   T   T
  0.3340412438966275  0.9907907874641942  0.1916899183154103   T   T   T
  0.6554687605975595  0.9911631976514743  0.1919346885883784   T   T   T
  0.9955396979977443  0.9969094370644433  0.1912825429690191   T   T   T
  0.3250845904841976  0.4996610083614035  0.1920262550178257   T   T   T
  0.9954813884457050  0.4954339185341127  0.1909405624699210   T   T   T
  0.6637540337551360  0.4989526886569320  0.1917366932641559   T   T   T
  0.9949464386785186  0.0009827506890539  0.0854570721570133   T   T   T
  0.3286344102262255  0.0010630712584845  0.0855617830973702   T   T   T
  0.6612793357838758  0.0009577403944933  0.0855998266859467   T   T   T
  0.9948986368685687  0.5009508323706479  0.0854446423960204   T   T   T
  0.3283206996564436  0.5010437460225436  0.0855934644999015   T   T   T
  0.6615939140987263  0.5011406734444662  0.0855890373803693   T   T   T
  0.1615992021003930  0.2510820825258237  0.1117922546262306   T   T   T
  0.4946252547716483  0.2514324360292993  0.1121117652675577   T   T   T
  0.8276523549094300  0.2510855872308355  0.1118292135513367   T   T   T
  0.1617683767295535  0.7514229296114154  0.1118394938239765   T   T   T
  0.4947015323914515  0.7513722942379257  0.1120087056036741   T   T   T
  0.8276703423538299  0.7514691664537463  0.1118630073600437   T   T   T
 
  0.00000000E+00  0.00000000E+00  0.00000000E+00
  0.00000000E+00  0.00000000E+00  0.00000000E+00
  0.00000000E+00  0.00000000E+00  0.00000000E+00
  0.00000000E+00  0.00000000E+00  0.00000000E+00
  0.00000000E+00  0.00000000E+00  0.00000000E+00
  0.00000000E+00  0.00000000E+00  0.00000000E+00
  0.00000000E+00  0.00000000E+00  0.00000000E+00
  0.00000000E+00  0.00000000E+00  0.00000000E+00
  0.00000000E+00  0.00000000E+00  0.00000000E+00
  0.00000000E+00  0.00000000E+00  0.00000000E+00
  0.00000000E+00  0.00000000E+00  0.00000000E+00
  0.00000000E+00  0.00000000E+00  0.00000000E+00
  0.00000000E+00  0.00000000E+00  0.00000000E+00
  0.00000000E+00  0.00000000E+00  0.00000000E+00
  0.00000000E+00  0.00000000E+00  0.00000000E+00
  0.00000000E+00  0.00000000E+00  0.00000000E+00
  0.00000000E+00  0.00000000E+00  0.00000000E+00
  0.00000000E+00  0.00000000E+00  0.00000000E+00
  0.00000000E+00  0.00000000E+00  0.00000000E+00
  0.00000000E+00  0.00000000E+00  0.00000000E+00
  0.00000000E+00  0.00000000E+00  0.00000000E+00
  0.00000000E+00  0.00000000E+00  0.00000000E+00
  0.00000000E+00  0.00000000E+00  0.00000000E+00
  0.00000000E+00  0.00000000E+00  0.00000000E+00
  0.00000000E+00  0.00000000E+00  0.00000000E+00
  0.00000000E+00  0.00000000E+00  0.00000000E+00
  0.00000000E+00  0.00000000E+00  0.00000000E+00
  0.00000000E+00  0.00000000E+00  0.00000000E+00
  0.00000000E+00  0.00000000E+00  0.00000000E+00
  0.00000000E+00  0.00000000E+00  0.00000000E+00
  0.00000000E+00  0.00000000E+00  0.00000000E+00
  0.00000000E+00  0.00000000E+00  0.00000000E+00
  0.00000000E+00  0.00000000E+00  0.00000000E+00
  0.00000000E+00  0.00000000E+00  0.00000000E+00
  0.00000000E+00  0.00000000E+00  0.00000000E+00
  0.00000000E+00  0.00000000E+00  0.00000000E+00
  0.00000000E+00  0.00000000E+00  0.00000000E+00
  0.00000000E+00  0.00000000E+00  0.00000000E+00
  0.00000000E+00  0.00000000E+00  0.00000000E+00
  0.00000000E+00  0.00000000E+00  0.00000000E+00
  0.00000000E+00  0.00000000E+00  0.00000000E+00
  0.00000000E+00  0.00000000E+00  0.00000000E+00
  0.00000000E+00  0.00000000E+00  0.00000000E+00
  0.00000000E+00  0.00000000E+00  0.00000000E+00
  0.00000000E+00  0.00000000E+00  0.00000000E+00
  0.00000000E+00  0.00000000E+00  0.00000000E+00
  0.00000000E+00  0.00000000E+00  0.00000000E+00
  0.00000000E+00  0.00000000E+00  0.00000000E+00
  0.00000000E+00  0.00000000E+00  0.00000000E+00
  0.00000000E+00  0.00000000E+00  0.00000000E+00
  0.00000000E+00  0.00000000E+00  0.00000000E+00
  0.00000000E+00  0.00000000E+00  0.00000000E+00
  0.00000000E+00  0.00000000E+00  0.00000000E+00
  0.00000000E+00  0.00000000E+00  0.00000000E+00
  0.00000000E+00  0.00000000E+00  0.00000000E+00
  0.00000000E+00  0.00000000E+00  0.00000000E+00
  0.00000000E+00  0.00000000E+00  0.00000000E+00
  0.00000000E+00  0.00000000E+00  0.00000000E+00
  0.00000000E+00  0.00000000E+00  0.00000000E+00
  0.00000000E+00  0.00000000E+00  0.00000000E+00
  0.00000000E+00  0.00000000E+00  0.00000000E+00
  0.00000000E+00  0.00000000E+00  0.00000000E+00
  0.00000000E+00  0.00000000E+00  0.00000000E+00
  0.00000000E+00  0.00000000E+00  0.00000000E+00
  0.00000000E+00  0.00000000E+00  0.00000000E+00
  0.00000000E+00  0.00000000E+00  0.00000000E+00
  0.00000000E+00  0.00000000E+00  0.00000000E+00
  0.00000000E+00  0.00000000E+00  0.00000000E+00
  0.00000000E+00  0.00000000E+00  0.00000000E+00
  0.00000000E+00  0.00000000E+00  0.00000000E+00
  0.00000000E+00  0.00000000E+00  0.00000000E+00
  0.00000000E+00  0.00000000E+00  0.00000000E+00
  0.00000000E+00  0.00000000E+00  0.00000000E+00
  0.00000000E+00  0.00000000E+00  0.00000000E+00
  0.00000000E+00  0.00000000E+00  0.00000000E+00
  0.00000000E+00  0.00000000E+00  0.00000000E+00
  0.00000000E+00  0.00000000E+00  0.00000000E+00
  0.00000000E+00  0.00000000E+00  0.00000000E+00
  0.00000000E+00  0.00000000E+00  0.00000000E+00
  0.00000000E+00  0.00000000E+00  0.00000000E+00
  0.00000000E+00  0.00000000E+00  0.00000000E+00
  0.00000000E+00  0.00000000E+00  0.00000000E+00
  0.00000000E+00  0.00000000E+00  0.00000000E+00
  0.00000000E+00  0.00000000E+00  0.00000000E+00
  0.00000000E+00  0.00000000E+00  0.00000000E+00
  0.00000000E+00  0.00000000E+00  0.00000000E+00
  0.00000000E+00  0.00000000E+00  0.00000000E+00
  0.00000000E+00  0.00000000E+00  0.00000000E+00
  0.00000000E+00  0.00000000E+00  0.00000000E+00
  0.00000000E+00  0.00000000E+00  0.00000000E+00
  0.00000000E+00  0.00000000E+00  0.00000000E+00
  0.00000000E+00  0.00000000E+00  0.00000000E+00
  0.00000000E+00  0.00000000E+00  0.00000000E+00
  0.00000000E+00  0.00000000E+00  0.00000000E+00
  0.00000000E+00  0.00000000E+00  0.00000000E+00
  0.00000000E+00  0.00000000E+00  0.00000000E+00
  0.00000000E+00  0.00000000E+00  0.00000000E+00
  0.00000000E+00  0.00000000E+00  0.00000000E+00
  0.00000000E+00  0.00000000E+00  0.00000000E+00
  0.00000000E+00  0.00000000E+00  0.00000000E+00
  0.00000000E+00  0.00000000E+00  0.00000000E+00
  0.00000000E+00  0.00000000E+00  0.00000000E+00
  0.00000000E+00  0.00000000E+00  0.00000000E+00
  0.00000000E+00  0.00000000E+00  0.00000000E+00
  0.00000000E+00  0.00000000E+00  0.00000000E+00
  0.00000000E+00  0.00000000E+00  0.00000000E+00
  0.00000000E+00  0.00000000E+00  0.00000000E+00
  0.00000000E+00  0.00000000E+00  0.00000000E+00
  0.00000000E+00  0.00000000E+00  0.00000000E+00
  0.00000000E+00  0.00000000E+00  0.00000000E+00
  0.00000000E+00  0.00000000E+00  0.00000000E+00
  0.00000000E+00  0.00000000E+00  0.00000000E+00
  0.00000000E+00  0.00000000E+00  0.00000000E+00
  0.00000000E+00  0.00000000E+00  0.00000000E+00
  0.00000000E+00  0.00000000E+00  0.00000000E+00
  0.00000000E+00  0.00000000E+00  0.00000000E+00
  0.00000000E+00  0.00000000E+00  0.00000000E+00
  0.00000000E+00  0.00000000E+00  0.00000000E+00
  0.00000000E+00  0.00000000E+00  0.00000000E+00
  0.00000000E+00  0.00000000E+00  0.00000000E+00
  0.00000000E+00  0.00000000E+00  0.00000000E+00
