C H O Si                                
   1.00000000000000     
     9.2874599999999994    0.0000000000000000    0.0000000000000000
     0.0000000000000000    8.7563099999999991    0.0000000000000000
     0.0000000000000000    0.0000000000000000   58.0000000000000000
   C    H    O    Si
    36    33    16    36
Selective dynamics
Direct
  0.9926054855815266  0.1261558811102758  0.0604375082140323   T   T   T
  0.3259383947648022  0.1262121564517151  0.0605464604975314   T   T   T
  0.6590857740373532  0.1262121023506872  0.0605267246318136   T   T   T
  0.9925054546930103  0.6263511684175331  0.0604360506553451   T   T   T
  0.3258549374769465  0.6260104247404361  0.0605778851292432   T   T   T
  0.6591653179150324  0.6261961568074246  0.0605238560471254   T   T   T
  0.1599693187943046  0.3711859219549272  0.1394128569004177   T   T   T
  0.4931484111491841  0.3716628893887035  0.1396461997994824   T   T   T
  0.8264840084845725  0.3710736548764664  0.1393162824473375   T   T   T
  0.1602236470164392  0.8712332686900979  0.1394564760222999   T   T   T
  0.4931488793955670  0.8710173536404638  0.1394891359478459   T   T   T
  0.8263613030242229  0.8713505552739778  0.1394261070661403   T   T   T
  0.3275643121433727  0.1218577866716949  0.1666799584101069   T   T   T
  0.6597510963499696  0.1217498765376604  0.1666159626582930   T   T   T
  0.9940120057533915  0.1208496735155356  0.1663505922880512   T   T   T
  0.3268419290165811  0.6214591338765493  0.1667799212296518   T   T   T
  0.6605786966242903  0.6215644092443700  0.1666065738814203   T   T   T
  0.9938070283093379  0.6213672977341715  0.1664462299754476   T   T   T
  0.1611468410867316  0.3745322118791106  0.1918054380711568   T   T   T
  0.4944441027833254  0.3791995640341168  0.1926991632856346   T   T   T
  0.8284585317472727  0.3732419726515421  0.1914699291258717   T   T   T
  0.1605651420846440  0.8765115414962658  0.1919899934047065   T   T   T
  0.4941094623133289  0.8755249510554612  0.1920332592709706   T   T   T
  0.8275566695284542  0.8763778717892223  0.1918664038647606   T   T   T
  0.1592959165701956  0.3716774243379832  0.0858900720200533   T   T   T
  0.4926664071644520  0.3716611161444624  0.0860364129217377   T   T   T
  0.8258982055170415  0.3716971248012866  0.0858387324547536   T   T   T
  0.1594446402186293  0.8716703570803209  0.0859168729358246   T   T   T
  0.4926100287249041  0.8715560392713720  0.0859705016388684   T   T   T
  0.8258438571066850  0.8717106523996524  0.0859032787945442   T   T   T
  0.3262614639382580  0.1213725945439244  0.1130790657390568   T   T   T
  0.6595356605618129  0.1213500693334997  0.1130519694207773   T   T   T
  0.9929112638488132  0.1211960260511174  0.1129589141640010   T   T   T
  0.3261896823370107  0.6212452164762440  0.1131092350440635   T   T   T
  0.6596251967582382  0.6213173643603519  0.1130483575492593   T   T   T
  0.9929120226858559  0.6213746831344129  0.1129710232067862   T   T   T
  0.0789727258468250  0.3540521999209995  0.0262991240028662   T   T   T
  0.4106865148660773  0.3540295709397502  0.0265226952102726   T   T   T
  0.7434332150043730  0.3537567469741140  0.0263929536951189   T   T   T
  0.0794020426344936  0.8542279761577629  0.0263043381057020   T   T   T
  0.4102283877901753  0.8535831783355875  0.0264958142957953   T   T   T
  0.7431651410148117  0.8537609280140639  0.0264408954628444   T   T   T
  0.3236536748709435  0.0538219585424529  0.0450119363734836   T   T   T
  0.6562016625029248  0.0538804256843313  0.0449895676569517   T   T   T
  0.9900229165896077  0.0539359133914674  0.0448827097302911   T   T   T
  0.3234333441322579  0.5536151015264169  0.0450482927090427   T   T   T
  0.6564546137752824  0.5538259971056654  0.0449906456499818   T   T   T
  0.9899838750161356  0.5540677432695245  0.0448857821335189   T   T   T
  0.8295358931927270  0.8050058388978849  0.2074855984534640   T   T   T
  0.8308000798743290  0.3014851332470967  0.2070675188920925   T   T   T
  0.1620599681699749  0.3025374289688093  0.2073809660258666   T   T   T
  0.4974417931114318  0.3060067152838663  0.2081431858070394   T   T   T
  0.1623469737353569  0.8039306603079879  0.2075027400932350   T   T   T
  0.4945121407721939  0.8032280280656702  0.2075750517151108   T   T   T
  0.0739922601850878  0.1051288270434211  0.2260151315308898   T   T   T
  0.4102101583216851  0.1055112563687838  0.2259589737641395   T   T   T
  0.7435122243272355  0.1043836518004192  0.2259482673763017   T   T   T
  0.0739821512651786  0.6011215823707083  0.2256489572699606   T   T   T
  0.3774022899012838  0.6179985926734405  0.2293377697510803   T   T   T
  0.7807069140398614  0.5895323590594024  0.2233679310917336   T   T   T
  0.5464380141013007  0.6102150238451862  0.2747920468128195   T   T   T
  0.4929678169168895  0.4748183973937720  0.2938135354789382   T   T   T
  0.5725943661691985  0.6395057686139746  0.3037630587920104   T   T   T
  0.3134269533520607  0.3875801644099594  0.3093438378216182   T   T   T
  0.4219169783462148  0.2595029994310538  0.3020978715083539   T   T   T
  0.6510375527389981  0.7321081912062070  0.3341453011838317   T   T   T
  0.4854589243382038  0.7572805930382061  0.3311056014253297   T   T   T
  0.5146579920403781  0.7905038806112191  0.2524789918041506   T   T   T
  0.5838268695588114  0.6479828455969485  0.2393860043918692   T   T   T
  0.1697860397320374  0.3363833125134804  0.0343511440971819   T   T   T
  0.5019230720856689  0.3378397544164631  0.0345289216871708   T   T   T
  0.8349145433146201  0.3363268618987177  0.0342675252142059   T   T   T
  0.1700932869991695  0.8365265013892953  0.0343867510027591   T   T   T
  0.5017294805316307  0.8370720053055989  0.0344227613730420   T   T   T
  0.8345760957850579  0.8374206316699651  0.0343864287106068   T   T   T
  0.3186461453802563  0.0860986808967626  0.2182335988075097   T   T   T
  0.6518306909759934  0.0861765595935270  0.2181720346130165   T   T   T
  0.9832484949105664  0.0875789360902903  0.2179311565501984   T   T   T
  0.3019396925606671  0.5871195680957664  0.2182958553487202   T   T   T
  0.6792893486596435  0.5852342298716219  0.2182158176672659   T   T   T
  0.9818573901915019  0.5830438471718197  0.2178912978729896   T   T   T
  0.5709217219901331  0.5589779001992236  0.2903477992630014   T   T   T
  0.3815580718019807  0.3575278153619951  0.2973485807490012   T   T   T
  0.5765026059949697  0.7531585894691248  0.3227090353995434   T   T   T
  0.5085870198657505  0.6795364086664365  0.2509713423984825   T   T   T
  0.4925489238339432  0.2440514289996021  0.0597114161704364   T   T   T
  0.8258283142616523  0.2437864432301984  0.0595557907254781   T   T   T
  0.1594437085494245  0.7438064726651803  0.0596319118375673   T   T   T
  0.4924816777414330  0.7438385842769055  0.0596665125627976   T   T   T
  0.8257480955347446  0.7440392609791043  0.0596079542944981   T   T   T
  0.1594063255235880  0.2438389891874990  0.0596115482549315   T   T   T
  0.9933396591646592  0.9963488164020944  0.1395937850610321   T   T   T
  0.3268553687280148  0.9969299327299214  0.1397617437170237   T   T   T
  0.6595128453033464  0.9967751407996267  0.1397290715948839   T   T   T
  0.9932174959143909  0.4965635396861814  0.1395788990813837   T   T   T
  0.3263939373362725  0.4968791528820403  0.1398428441660669   T   T   T
  0.6599435629363513  0.4966903560099427  0.1396961507910772   T   T   T
  0.1604196883050169  0.2456589034026436  0.1660087593014068   T   T   T
  0.4936195822582503  0.2477519755589786  0.1664671743058628   T   T   T
  0.8272913362955984  0.2447016914782146  0.1657997130902407   T   T   T
  0.1603318509888459  0.7463862115462535  0.1661569420612343   T   T   T
  0.4933975148612934  0.7459306140767153  0.1661676103567296   T   T   T
  0.8271693186034318  0.7463521034295393  0.1660777976010468   T   T   T
  0.3272572883314120  0.9937166213861717  0.1929124587408060   T   T   T
  0.6607718922641825  0.9936573891201774  0.1928593180133651   T   T   T
  0.9938179415734147  0.9940950560393617  0.1927131764614942   T   T   T
  0.3256423869298859  0.4951533085585572  0.1933407091769913   T   T   T
  0.9943320244687028  0.4914412976342453  0.1924022214763493   T   T   T
  0.6636640744661869  0.4926734759591936  0.1926424956438774   T   T   T
  0.9926928702360647  0.9964870635170692  0.0862783124195010   T   T   T
  0.3261133676209633  0.9964921123098596  0.0863745058954410   T   T   T
  0.6591962254436049  0.9964960693129751  0.0863557018166981   T   T   T
  0.9926440272332907  0.4965638913929939  0.0862691433176368   T   T   T
  0.3260395306246909  0.4964056508650921  0.0864116498418229   T   T   T
  0.6592875638652517  0.4965147290794747  0.0863495352186460   T   T   T
  0.1595497133113321  0.2468136594293755  0.1127104641352259   T   T   T
  0.4928808010168099  0.2468797544504654  0.1128784590543372   T   T   T
  0.8262471435335413  0.2467532025158900  0.1126494870122770   T   T   T
  0.1597153074368584  0.7468389288621283  0.1127472352399649   T   T   T
  0.4928235098613888  0.7466568413829761  0.1127913026328839   T   T   T
  0.8261742563727303  0.7468839435140597  0.1127235594030627   T   T   T
 
  0.00000000E+00  0.00000000E+00  0.00000000E+00
  0.00000000E+00  0.00000000E+00  0.00000000E+00
  0.00000000E+00  0.00000000E+00  0.00000000E+00
  0.00000000E+00  0.00000000E+00  0.00000000E+00
  0.00000000E+00  0.00000000E+00  0.00000000E+00
  0.00000000E+00  0.00000000E+00  0.00000000E+00
  0.00000000E+00  0.00000000E+00  0.00000000E+00
  0.00000000E+00  0.00000000E+00  0.00000000E+00
  0.00000000E+00  0.00000000E+00  0.00000000E+00
  0.00000000E+00  0.00000000E+00  0.00000000E+00
  0.00000000E+00  0.00000000E+00  0.00000000E+00
  0.00000000E+00  0.00000000E+00  0.00000000E+00
  0.00000000E+00  0.00000000E+00  0.00000000E+00
  0.00000000E+00  0.00000000E+00  0.00000000E+00
  0.00000000E+00  0.00000000E+00  0.00000000E+00
  0.00000000E+00  0.00000000E+00  0.00000000E+00
  0.00000000E+00  0.00000000E+00  0.00000000E+00
  0.00000000E+00  0.00000000E+00  0.00000000E+00
  0.00000000E+00  0.00000000E+00  0.00000000E+00
  0.00000000E+00  0.00000000E+00  0.00000000E+00
  0.00000000E+00  0.00000000E+00  0.00000000E+00
  0.00000000E+00  0.00000000E+00  0.00000000E+00
  0.00000000E+00  0.00000000E+00  0.00000000E+00
  0.00000000E+00  0.00000000E+00  0.00000000E+00
  0.00000000E+00  0.00000000E+00  0.00000000E+00
  0.00000000E+00  0.00000000E+00  0.00000000E+00
  0.00000000E+00  0.00000000E+00  0.00000000E+00
  0.00000000E+00  0.00000000E+00  0.00000000E+00
  0.00000000E+00  0.00000000E+00  0.00000000E+00
  0.00000000E+00  0.00000000E+00  0.00000000E+00
  0.00000000E+00  0.00000000E+00  0.00000000E+00
  0.00000000E+00  0.00000000E+00  0.00000000E+00
  0.00000000E+00  0.00000000E+00  0.00000000E+00
  0.00000000E+00  0.00000000E+00  0.00000000E+00
  0.00000000E+00  0.00000000E+00  0.00000000E+00
  0.00000000E+00  0.00000000E+00  0.00000000E+00
  0.00000000E+00  0.00000000E+00  0.00000000E+00
  0.00000000E+00  0.00000000E+00  0.00000000E+00
  0.00000000E+00  0.00000000E+00  0.00000000E+00
  0.00000000E+00  0.00000000E+00  0.00000000E+00
  0.00000000E+00  0.00000000E+00  0.00000000E+00
  0.00000000E+00  0.00000000E+00  0.00000000E+00
  0.00000000E+00  0.00000000E+00  0.00000000E+00
  0.00000000E+00  0.00000000E+00  0.00000000E+00
  0.00000000E+00  0.00000000E+00  0.00000000E+00
  0.00000000E+00  0.00000000E+00  0.00000000E+00
  0.00000000E+00  0.00000000E+00  0.00000000E+00
  0.00000000E+00  0.00000000E+00  0.00000000E+00
  0.00000000E+00  0.00000000E+00  0.00000000E+00
  0.00000000E+00  0.00000000E+00  0.00000000E+00
  0.00000000E+00  0.00000000E+00  0.00000000E+00
  0.00000000E+00  0.00000000E+00  0.00000000E+00
  0.00000000E+00  0.00000000E+00  0.00000000E+00
  0.00000000E+00  0.00000000E+00  0.00000000E+00
  0.00000000E+00  0.00000000E+00  0.00000000E+00
  0.00000000E+00  0.00000000E+00  0.00000000E+00
  0.00000000E+00  0.00000000E+00  0.00000000E+00
  0.00000000E+00  0.00000000E+00  0.00000000E+00
  0.00000000E+00  0.00000000E+00  0.00000000E+00
  0.00000000E+00  0.00000000E+00  0.00000000E+00
  0.00000000E+00  0.00000000E+00  0.00000000E+00
  0.00000000E+00  0.00000000E+00  0.00000000E+00
  0.00000000E+00  0.00000000E+00  0.00000000E+00
  0.00000000E+00  0.00000000E+00  0.00000000E+00
  0.00000000E+00  0.00000000E+00  0.00000000E+00
  0.00000000E+00  0.00000000E+00  0.00000000E+00
  0.00000000E+00  0.00000000E+00  0.00000000E+00
  0.00000000E+00  0.00000000E+00  0.00000000E+00
  0.00000000E+00  0.00000000E+00  0.00000000E+00
  0.00000000E+00  0.00000000E+00  0.00000000E+00
  0.00000000E+00  0.00000000E+00  0.00000000E+00
  0.00000000E+00  0.00000000E+00  0.00000000E+00
  0.00000000E+00  0.00000000E+00  0.00000000E+00
  0.00000000E+00  0.00000000E+00  0.00000000E+00
  0.00000000E+00  0.00000000E+00  0.00000000E+00
  0.00000000E+00  0.00000000E+00  0.00000000E+00
  0.00000000E+00  0.00000000E+00  0.00000000E+00
  0.00000000E+00  0.00000000E+00  0.00000000E+00
  0.00000000E+00  0.00000000E+00  0.00000000E+00
  0.00000000E+00  0.00000000E+00  0.00000000E+00
  0.00000000E+00  0.00000000E+00  0.00000000E+00
  0.00000000E+00  0.00000000E+00  0.00000000E+00
  0.00000000E+00  0.00000000E+00  0.00000000E+00
  0.00000000E+00  0.00000000E+00  0.00000000E+00
  0.00000000E+00  0.00000000E+00  0.00000000E+00
  0.00000000E+00  0.00000000E+00  0.00000000E+00
  0.00000000E+00  0.00000000E+00  0.00000000E+00
  0.00000000E+00  0.00000000E+00  0.00000000E+00
  0.00000000E+00  0.00000000E+00  0.00000000E+00
  0.00000000E+00  0.00000000E+00  0.00000000E+00
  0.00000000E+00  0.00000000E+00  0.00000000E+00
  0.00000000E+00  0.00000000E+00  0.00000000E+00
  0.00000000E+00  0.00000000E+00  0.00000000E+00
  0.00000000E+00  0.00000000E+00  0.00000000E+00
  0.00000000E+00  0.00000000E+00  0.00000000E+00
  0.00000000E+00  0.00000000E+00  0.00000000E+00
  0.00000000E+00  0.00000000E+00  0.00000000E+00
  0.00000000E+00  0.00000000E+00  0.00000000E+00
  0.00000000E+00  0.00000000E+00  0.00000000E+00
  0.00000000E+00  0.00000000E+00  0.00000000E+00
  0.00000000E+00  0.00000000E+00  0.00000000E+00
  0.00000000E+00  0.00000000E+00  0.00000000E+00
  0.00000000E+00  0.00000000E+00  0.00000000E+00
  0.00000000E+00  0.00000000E+00  0.00000000E+00
  0.00000000E+00  0.00000000E+00  0.00000000E+00
  0.00000000E+00  0.00000000E+00  0.00000000E+00
  0.00000000E+00  0.00000000E+00  0.00000000E+00
  0.00000000E+00  0.00000000E+00  0.00000000E+00
  0.00000000E+00  0.00000000E+00  0.00000000E+00
  0.00000000E+00  0.00000000E+00  0.00000000E+00
  0.00000000E+00  0.00000000E+00  0.00000000E+00
  0.00000000E+00  0.00000000E+00  0.00000000E+00
  0.00000000E+00  0.00000000E+00  0.00000000E+00
  0.00000000E+00  0.00000000E+00  0.00000000E+00
  0.00000000E+00  0.00000000E+00  0.00000000E+00
  0.00000000E+00  0.00000000E+00  0.00000000E+00
  0.00000000E+00  0.00000000E+00  0.00000000E+00
  0.00000000E+00  0.00000000E+00  0.00000000E+00
  0.00000000E+00  0.00000000E+00  0.00000000E+00
  0.00000000E+00  0.00000000E+00  0.00000000E+00
  0.00000000E+00  0.00000000E+00  0.00000000E+00
