C H O Si                                
   1.00000000000000     
     9.2874599999999994    0.0000000000000000    0.0000000000000000
     0.0000000000000000    8.7563099999999991    0.0000000000000000
     0.0000000000000000    0.0000000000000000   58.0000000000000000
   C    H    O    Si
    36    33    16    36
Selective dynamics
Direct
  0.9924073268222486  0.1263130026495436  0.0604235701165987   T   T   T
  0.3259039849624917  0.1262217933960042  0.0605370052024334   T   T   T
  0.6589204965635646  0.1262908812764365  0.0605127670788845   T   T   T
  0.9924161803399616  0.6264150139711807  0.0604198202093268   T   T   T
  0.3258634307806022  0.6260777957032236  0.0605654379809841   T   T   T
  0.6589878100697080  0.6262474538097661  0.0605112655951991   T   T   T
  0.1599358524116283  0.3711258233570522  0.1394004475273876   T   T   T
  0.4931511588319080  0.3715100063955055  0.1396284722701073   T   T   T
  0.8264908838133772  0.3711494039290786  0.1393076187710695   T   T   T
  0.1600564945372799  0.8712629807652562  0.1394312756494460   T   T   T
  0.4931101754019825  0.8710020554308183  0.1394896008920559   T   T   T
  0.8263651901279632  0.8713655965926117  0.1394231434729096   T   T   T
  0.3275623477987715  0.1217918500807635  0.1666773679495437   T   T   T
  0.6595787007157239  0.1215735557275220  0.1666149011577756   T   T   T
  0.9938843435694904  0.1208029402961289  0.1663559254105335   T   T   T
  0.3266198764229886  0.6212859885515943  0.1667767906096843   T   T   T
  0.6602674236884232  0.6214115943674152  0.1666168874601848   T   T   T
  0.9934851518730339  0.6212879168986765  0.1664310129173112   T   T   T
  0.1609826612004607  0.3743765996308963  0.1918153017340296   T   T   T
  0.4943900629211370  0.3790789866787174  0.1926965426240489   T   T   T
  0.8282148374286672  0.3733002759961598  0.1914985148380600   T   T   T
  0.1604503381425857  0.8762827019611185  0.1919880735160035   T   T   T
  0.4940172202843420  0.8755009966053622  0.1920424914103961   T   T   T
  0.8274910027506511  0.8761865046823278  0.1918685168443384   T   T   T
  0.1592588624863757  0.3716338118223589  0.0858820450934893   T   T   T
  0.4926221064858420  0.3715872800097833  0.0860189333275760   T   T   T
  0.8259348960155990  0.3716318059070300  0.0858300485445790   T   T   T
  0.1593237833388182  0.8716649200291433  0.0858986486287135   T   T   T
  0.4926597619447786  0.8715216752184731  0.0859527357405010   T   T   T
  0.8259973396648485  0.8716460635682720  0.0859013525464266   T   T   T
  0.3262198436480058  0.1213466045557529  0.1130954044461868   T   T   T
  0.6593647431685472  0.1213411981730720  0.1130780967552880   T   T   T
  0.9928462616270448  0.1213651035621147  0.1129790229009616   T   T   T
  0.3261405769576505  0.6212132861140269  0.1131272899446239   T   T   T
  0.6594425256572745  0.6213628304378155  0.1130776502112646   T   T   T
  0.9928094818772972  0.6215112969359636  0.1129951953200605   T   T   T
  0.0789535085323396  0.3539890973110977  0.0263624387545563   T   T   T
  0.4105939617764878  0.3540466799131796  0.0265524075724454   T   T   T
  0.7433041479789974  0.3538302551681309  0.0264095738914018   T   T   T
  0.0794103958650918  0.8541483259298396  0.0263718141463862   T   T   T
  0.4101831052714448  0.8536379784996415  0.0265149605186887   T   T   T
  0.7430336639610519  0.8538620042197760  0.0264485516139993   T   T   T
  0.3235943240096960  0.0537625877678821  0.0450154374080148   T   T   T
  0.6561720141182116  0.0538028846233848  0.0449942903603285   T   T   T
  0.9899961383212206  0.0539190773361786  0.0448979036851046   T   T   T
  0.3233898977903614  0.5535615269303962  0.0450483103215540   T   T   T
  0.6564157606159645  0.5537470124925412  0.0449919895676274   T   T   T
  0.9899418917849997  0.5539724151989655  0.0448939955683060   T   T   T
  0.8294268405680599  0.8050015655277418  0.2075050433347251   T   T   T
  0.8308030917659893  0.3014153674419246  0.2070785998875004   T   T   T
  0.1620506978042876  0.3024819192246991  0.2073989798114518   T   T   T
  0.4974490133344221  0.3061162609063956  0.2081652004355382   T   T   T
  0.1623068509948555  0.8039135676317745  0.2075189474956902   T   T   T
  0.4944469589371097  0.8032163951886477  0.2075947894290260   T   T   T
  0.0739484329470088  0.1053395608252195  0.2259918029262073   T   T   T
  0.4104327637229570  0.1059101381084732  0.2259992313845516   T   T   T
  0.7436625720478631  0.1047233727794007  0.2259898194412241   T   T   T
  0.0740629863739473  0.6011408690427078  0.2256318792779826   T   T   T
  0.3776148349824942  0.6181841670959823  0.2294044392129325   T   T   T
  0.7805829404910908  0.5894430870507438  0.2233446122715471   T   T   T
  0.5467348539960565  0.6101349101166084  0.2747657972627846   T   T   T
  0.4932506762038233  0.4747999993119852  0.2938185666184811   T   T   T
  0.5728595321121652  0.6398253483511435  0.3037613708589174   T   T   T
  0.3136255807120292  0.3878274358721591  0.3093500790922090   T   T   T
  0.4218995618238027  0.2596762389190009  0.3020831521382857   T   T   T
  0.6510422624149398  0.7322479435504923  0.3341841612494290   T   T   T
  0.4852876269801655  0.7571943083798438  0.3311126144227096   T   T   T
  0.5152508352031074  0.7906183395736428  0.2524419328311358   T   T   T
  0.5840273665683625  0.6478168634989891  0.2393589136766994   T   T   T
  0.1701028454424912  0.3366745111434814  0.0343444057118194   T   T   T
  0.5019784569914515  0.3385168290068852  0.0345486956984166   T   T   T
  0.8348621950860855  0.3364723161281674  0.0342649914912997   T   T   T
  0.1703925750407852  0.8368531522956069  0.0343968631442448   T   T   T
  0.5016391335562800  0.8375179161365952  0.0344652207806022   T   T   T
  0.8344304881478034  0.8378490800808349  0.0344089823631607   T   T   T
  0.3192013349992216  0.0860733847495597  0.2182086309392563   T   T   T
  0.6523943605865895  0.0861200284394588  0.2181261196961697   T   T   T
  0.9836036113365053  0.0876452701680357  0.2178203538839893   T   T   T
  0.3025451723980745  0.5870212431752626  0.2183065531652001   T   T   T
  0.6791276217181245  0.5854919746027046  0.2182197410442925   T   T   T
  0.9824359615404835  0.5830117908543173  0.2177576506944626   T   T   T
  0.5711527912924518  0.5589729703169747  0.2903448237223555   T   T   T
  0.3813989992054051  0.3575589474964019  0.2973102738364717   T   T   T
  0.5764924792686007  0.7531709585105693  0.3227448129731365   T   T   T
  0.5087623930424078  0.6796873097739100  0.2509300444280012   T   T   T
  0.4924985024911537  0.2440446182531042  0.0596894258757391   T   T   T
  0.8257193161195575  0.2437692380321589  0.0595431103012944   T   T   T
  0.1594275467648469  0.7437120955990386  0.0596342968319128   T   T   T
  0.4924720388372429  0.7438200255629964  0.0596512966036175   T   T   T
  0.8256785173595657  0.7439561054254218  0.0595832993253783   T   T   T
  0.1593344464990687  0.2436783951286360  0.0596001256827072   T   T   T
  0.9934009765158464  0.9963381418883783  0.1395989790543885   T   T   T
  0.3268016864574006  0.9968068237633938  0.1397706756570347   T   T   T
  0.6594265237565766  0.9966948535409867  0.1397341354145440   T   T   T
  0.9933045114424901  0.4964745465174981  0.1395940045361690   T   T   T
  0.3263958057657050  0.4967795081516468  0.1398372163377507   T   T   T
  0.6599110101548390  0.4965972153091134  0.1397139367050052   T   T   T
  0.1604680057429297  0.2454994795260271  0.1660117447916523   T   T   T
  0.4935573407655641  0.2477281759316777  0.1664650225284396   T   T   T
  0.8271847041595575  0.2446960267024352  0.1658157801102813   T   T   T
  0.1600974096007566  0.7463736343249612  0.1661356654593120   T   T   T
  0.4932004345464888  0.7458517565010011  0.1661627438961665   T   T   T
  0.8269481000954643  0.7462803162652167  0.1660829703416306   T   T   T
  0.3273036484718119  0.9936586205416592  0.1929180965678572   T   T   T
  0.6610148727995606  0.9934667638585990  0.1928493567730234   T   T   T
  0.9940111159652355  0.9938085530987167  0.1926792172278858   T   T   T
  0.3256718618462630  0.4950845494515096  0.1933503780779572   T   T   T
  0.9944154425994502  0.4911861855866834  0.1923640819601350   T   T   T
  0.6636394360611986  0.4925904550041099  0.1926471330924524   T   T   T
  0.9926865015740266  0.9964109290884329  0.0862790146837012   T   T   T
  0.3261232438631391  0.9963839374284074  0.0863707631361304   T   T   T
  0.6593134675055786  0.9964026318244946  0.0863512011021540   T   T   T
  0.9926119393534419  0.4964640433869981  0.0862741625631171   T   T   T
  0.3260040520726935  0.4963075620776741  0.0864017031911114   T   T   T
  0.6593062884761004  0.4963686349439168  0.0863583597382090   T   T   T
  0.1595402760112912  0.2467340673008505  0.1127259641361649   T   T   T
  0.4927735145600775  0.2468444312128153  0.1128749335708651   T   T   T
  0.8260968056380404  0.2467131391924881  0.1126540122033378   T   T   T
  0.1595937927114475  0.7468013014285388  0.1127513888779128   T   T   T
  0.4927506795547407  0.7467029299713318  0.1127835481881470   T   T   T
  0.8260578953847281  0.7468639119247342  0.1127452226773816   T   T   T
 
  0.00000000E+00  0.00000000E+00  0.00000000E+00
  0.00000000E+00  0.00000000E+00  0.00000000E+00
  0.00000000E+00  0.00000000E+00  0.00000000E+00
  0.00000000E+00  0.00000000E+00  0.00000000E+00
  0.00000000E+00  0.00000000E+00  0.00000000E+00
  0.00000000E+00  0.00000000E+00  0.00000000E+00
  0.00000000E+00  0.00000000E+00  0.00000000E+00
  0.00000000E+00  0.00000000E+00  0.00000000E+00
  0.00000000E+00  0.00000000E+00  0.00000000E+00
  0.00000000E+00  0.00000000E+00  0.00000000E+00
  0.00000000E+00  0.00000000E+00  0.00000000E+00
  0.00000000E+00  0.00000000E+00  0.00000000E+00
  0.00000000E+00  0.00000000E+00  0.00000000E+00
  0.00000000E+00  0.00000000E+00  0.00000000E+00
  0.00000000E+00  0.00000000E+00  0.00000000E+00
  0.00000000E+00  0.00000000E+00  0.00000000E+00
  0.00000000E+00  0.00000000E+00  0.00000000E+00
  0.00000000E+00  0.00000000E+00  0.00000000E+00
  0.00000000E+00  0.00000000E+00  0.00000000E+00
  0.00000000E+00  0.00000000E+00  0.00000000E+00
  0.00000000E+00  0.00000000E+00  0.00000000E+00
  0.00000000E+00  0.00000000E+00  0.00000000E+00
  0.00000000E+00  0.00000000E+00  0.00000000E+00
  0.00000000E+00  0.00000000E+00  0.00000000E+00
  0.00000000E+00  0.00000000E+00  0.00000000E+00
  0.00000000E+00  0.00000000E+00  0.00000000E+00
  0.00000000E+00  0.00000000E+00  0.00000000E+00
  0.00000000E+00  0.00000000E+00  0.00000000E+00
  0.00000000E+00  0.00000000E+00  0.00000000E+00
  0.00000000E+00  0.00000000E+00  0.00000000E+00
  0.00000000E+00  0.00000000E+00  0.00000000E+00
  0.00000000E+00  0.00000000E+00  0.00000000E+00
  0.00000000E+00  0.00000000E+00  0.00000000E+00
  0.00000000E+00  0.00000000E+00  0.00000000E+00
  0.00000000E+00  0.00000000E+00  0.00000000E+00
  0.00000000E+00  0.00000000E+00  0.00000000E+00
  0.00000000E+00  0.00000000E+00  0.00000000E+00
  0.00000000E+00  0.00000000E+00  0.00000000E+00
  0.00000000E+00  0.00000000E+00  0.00000000E+00
  0.00000000E+00  0.00000000E+00  0.00000000E+00
  0.00000000E+00  0.00000000E+00  0.00000000E+00
  0.00000000E+00  0.00000000E+00  0.00000000E+00
  0.00000000E+00  0.00000000E+00  0.00000000E+00
  0.00000000E+00  0.00000000E+00  0.00000000E+00
  0.00000000E+00  0.00000000E+00  0.00000000E+00
  0.00000000E+00  0.00000000E+00  0.00000000E+00
  0.00000000E+00  0.00000000E+00  0.00000000E+00
  0.00000000E+00  0.00000000E+00  0.00000000E+00
  0.00000000E+00  0.00000000E+00  0.00000000E+00
  0.00000000E+00  0.00000000E+00  0.00000000E+00
  0.00000000E+00  0.00000000E+00  0.00000000E+00
  0.00000000E+00  0.00000000E+00  0.00000000E+00
  0.00000000E+00  0.00000000E+00  0.00000000E+00
  0.00000000E+00  0.00000000E+00  0.00000000E+00
  0.00000000E+00  0.00000000E+00  0.00000000E+00
  0.00000000E+00  0.00000000E+00  0.00000000E+00
  0.00000000E+00  0.00000000E+00  0.00000000E+00
  0.00000000E+00  0.00000000E+00  0.00000000E+00
  0.00000000E+00  0.00000000E+00  0.00000000E+00
  0.00000000E+00  0.00000000E+00  0.00000000E+00
  0.00000000E+00  0.00000000E+00  0.00000000E+00
  0.00000000E+00  0.00000000E+00  0.00000000E+00
  0.00000000E+00  0.00000000E+00  0.00000000E+00
  0.00000000E+00  0.00000000E+00  0.00000000E+00
  0.00000000E+00  0.00000000E+00  0.00000000E+00
  0.00000000E+00  0.00000000E+00  0.00000000E+00
  0.00000000E+00  0.00000000E+00  0.00000000E+00
  0.00000000E+00  0.00000000E+00  0.00000000E+00
  0.00000000E+00  0.00000000E+00  0.00000000E+00
  0.00000000E+00  0.00000000E+00  0.00000000E+00
  0.00000000E+00  0.00000000E+00  0.00000000E+00
  0.00000000E+00  0.00000000E+00  0.00000000E+00
  0.00000000E+00  0.00000000E+00  0.00000000E+00
  0.00000000E+00  0.00000000E+00  0.00000000E+00
  0.00000000E+00  0.00000000E+00  0.00000000E+00
  0.00000000E+00  0.00000000E+00  0.00000000E+00
  0.00000000E+00  0.00000000E+00  0.00000000E+00
  0.00000000E+00  0.00000000E+00  0.00000000E+00
  0.00000000E+00  0.00000000E+00  0.00000000E+00
  0.00000000E+00  0.00000000E+00  0.00000000E+00
  0.00000000E+00  0.00000000E+00  0.00000000E+00
  0.00000000E+00  0.00000000E+00  0.00000000E+00
  0.00000000E+00  0.00000000E+00  0.00000000E+00
  0.00000000E+00  0.00000000E+00  0.00000000E+00
  0.00000000E+00  0.00000000E+00  0.00000000E+00
  0.00000000E+00  0.00000000E+00  0.00000000E+00
  0.00000000E+00  0.00000000E+00  0.00000000E+00
  0.00000000E+00  0.00000000E+00  0.00000000E+00
  0.00000000E+00  0.00000000E+00  0.00000000E+00
  0.00000000E+00  0.00000000E+00  0.00000000E+00
  0.00000000E+00  0.00000000E+00  0.00000000E+00
  0.00000000E+00  0.00000000E+00  0.00000000E+00
  0.00000000E+00  0.00000000E+00  0.00000000E+00
  0.00000000E+00  0.00000000E+00  0.00000000E+00
  0.00000000E+00  0.00000000E+00  0.00000000E+00
  0.00000000E+00  0.00000000E+00  0.00000000E+00
  0.00000000E+00  0.00000000E+00  0.00000000E+00
  0.00000000E+00  0.00000000E+00  0.00000000E+00
  0.00000000E+00  0.00000000E+00  0.00000000E+00
  0.00000000E+00  0.00000000E+00  0.00000000E+00
  0.00000000E+00  0.00000000E+00  0.00000000E+00
  0.00000000E+00  0.00000000E+00  0.00000000E+00
  0.00000000E+00  0.00000000E+00  0.00000000E+00
  0.00000000E+00  0.00000000E+00  0.00000000E+00
  0.00000000E+00  0.00000000E+00  0.00000000E+00
  0.00000000E+00  0.00000000E+00  0.00000000E+00
  0.00000000E+00  0.00000000E+00  0.00000000E+00
  0.00000000E+00  0.00000000E+00  0.00000000E+00
  0.00000000E+00  0.00000000E+00  0.00000000E+00
  0.00000000E+00  0.00000000E+00  0.00000000E+00
  0.00000000E+00  0.00000000E+00  0.00000000E+00
  0.00000000E+00  0.00000000E+00  0.00000000E+00
  0.00000000E+00  0.00000000E+00  0.00000000E+00
  0.00000000E+00  0.00000000E+00  0.00000000E+00
  0.00000000E+00  0.00000000E+00  0.00000000E+00
  0.00000000E+00  0.00000000E+00  0.00000000E+00
  0.00000000E+00  0.00000000E+00  0.00000000E+00
  0.00000000E+00  0.00000000E+00  0.00000000E+00
  0.00000000E+00  0.00000000E+00  0.00000000E+00
  0.00000000E+00  0.00000000E+00  0.00000000E+00
  0.00000000E+00  0.00000000E+00  0.00000000E+00
