C H O Si                                
   1.00000000000000     
     9.2874599999999994    0.0000000000000000    0.0000000000000000
     0.0000000000000000   17.5126199999999983    0.0000000000000000
     0.0000000000000000    0.0000000000000000   58.0000000000000000
   C    H    O    Si
    72    57    28    72
Selective dynamics
Direct
  0.9960212997610305  0.0647727566760343  0.0595632580400710   T   T   T
  0.3293806893053937  0.0648430375993609  0.0596300446368527   T   T   T
  0.6627292885020950  0.0648490863708724  0.0596314346804678   T   T   T
  0.9959668546372792  0.3150201555271666  0.0595303526883888   T   T   T
  0.3292635496253959  0.3148821744724637  0.0594804296938818   T   T   T
  0.6627010355326444  0.3148919000668388  0.0595435332932407   T   T   T
  0.1631030223655598  0.1875976475470624  0.1385268979277044   T   T   T
  0.4964195119799788  0.1877802307883358  0.1386524104832986   T   T   T
  0.8300414751917049  0.1876121830124597  0.1384782625494679   T   T   T
  0.1629635056355320  0.4377815179419016  0.1384656638978336   T   T   T
  0.4964624383032924  0.4381027501705744  0.1380221684939838   T   T   T
  0.8299110229958678  0.4376490161998560  0.1385291078490722   T   T   T
  0.3309091818552481  0.0630443014096345  0.1658215601968820   T   T   T
  0.6633866458545808  0.0630815230234546  0.1657734233575953   T   T   T
  0.9973013643469586  0.0626071241057142  0.1656529241497859   T   T   T
  0.3293515996974969  0.3130882065733588  0.1654359239484584   T   T   T
  0.6640767964445209  0.3128229883815741  0.1656114360277832   T   T   T
  0.9968556821387764  0.3128400675617118  0.1656551212432729   T   T   T
  0.1650481840560036  0.1901239814002144  0.1910363203938740   T   T   T
  0.4972541460028808  0.1917834536274765  0.1915372404015839   T   T   T
  0.8312761435897043  0.1894923544185699  0.1908072839880081   T   T   T
  0.1621006537558193  0.4399497785537412  0.1911244147115114   T   T   T
  0.4966465434264552  0.4471072522151234  0.1875495899628213   T   T   T
  0.8311301340060516  0.4399029761488418  0.1911660217594384   T   T   T
  0.1627325580580142  0.1876040786631649  0.0849390959734767   T   T   T
  0.4961130570110207  0.1876397694659862  0.0850224138306647   T   T   T
  0.8295814589399443  0.1876573456934889  0.0849246367327717   T   T   T
  0.1628612721124035  0.4377422158440442  0.0849088739309901   T   T   T
  0.4961727212521790  0.4377246288863904  0.0848121826425245   T   T   T
  0.8295362294474129  0.4377772711053415  0.0849497530205365   T   T   T
  0.3297092183841721  0.0625903433655080  0.1122093418262050   T   T   T
  0.6630703139299322  0.0625900260028184  0.1121947615220973   T   T   T
  0.9962956861066531  0.0625218689472831  0.1121463029486715   T   T   T
  0.3294740412921395  0.3125265762769356  0.1120084732377046   T   T   T
  0.6631768812944274  0.3124939311515824  0.1120761210385152   T   T   T
  0.9962794761733071  0.3126238698194337  0.1120887814485609   T   T   T
  0.9959492565094851  0.5651645865740089  0.0595718822318367   T   T   T
  0.3293277454720582  0.5651145110293465  0.0595613381134982   T   T   T
  0.6626950805023795  0.5651489211122303  0.0595862638797919   T   T   T
  0.9960168342847464  0.8150257255582756  0.0596444272923055   T   T   T
  0.3294140679084936  0.8149237846034902  0.0596648665034632   T   T   T
  0.6626743198465643  0.8149503696158227  0.0596754121458742   T   T   T
  0.1632271801372995  0.6874659898991370  0.1385831868771615   T   T   T
  0.4964071229419486  0.6875291380347934  0.1386141300923514   T   T   T
  0.8294924208292711  0.6874497315419106  0.1385826493420479   T   T   T
  0.1634442282261213  0.9376174496805930  0.1386323862320593   T   T   T
  0.4965044140809101  0.9375854975251471  0.1386268654120133   T   T   T
  0.8298123026099948  0.9376827790659034  0.1386255373009246   T   T   T
  0.3302424801403219  0.5628223446179568  0.1655459501275592   T   T   T
  0.6632011776175554  0.5627083183162257  0.1655827492857842   T   T   T
  0.9965922659072569  0.5627470850427730  0.1656919171435182   T   T   T
  0.3301329641799578  0.8126870733930113  0.1657949502536962   T   T   T
  0.6636341122945655  0.8127026791379156  0.1657608157707706   T   T   T
  0.9967373094578748  0.8126836275297827  0.1657759818872505   T   T   T
  0.1634250973609926  0.6898284347135067  0.1912100853265845   T   T   T
  0.4968421967450727  0.6898788500807904  0.1912029529976793   T   T   T
  0.8301736708016118  0.6898691667169279  0.1911806110181102   T   T   T
  0.1636763947357247  0.9400317252366185  0.1911898828480829   T   T   T
  0.4971094699379454  0.9400103135954015  0.1911676485138259   T   T   T
  0.8303613234130356  0.9402032169237110  0.1911710147184896   T   T   T
  0.1627599881498726  0.6877759049727379  0.0850163045062781   T   T   T
  0.4960627730721506  0.6877487295898452  0.0850507924260362   T   T   T
  0.8294390913777393  0.6878216639370616  0.0850150793860029   T   T   T
  0.1628431855320061  0.9376205215575812  0.0850522006431339   T   T   T
  0.4960799351332527  0.9376668721186165  0.0850570653619705   T   T   T
  0.8294746817876600  0.9376732974302900  0.0850408617957448   T   T   T
  0.3295896571303334  0.5626553835619760  0.1120699197279930   T   T   T
  0.6630738685635016  0.5626783763526010  0.1121016333473545   T   T   T
  0.9961926406862872  0.5626352435742287  0.1121220024345484   T   T   T
  0.3297020703038973  0.8125288008296673  0.1122230480284883   T   T   T
  0.6630462893082772  0.8125642463323230  0.1122219486322632   T   T   T
  0.9961807207602131  0.8125035611578795  0.1122305001199720   T   T   T
  0.0831264779902456  0.1774513415111741  0.0250077007952114   T   T   T
  0.4158915430259219  0.1774999241804897  0.0251340699627983   T   T   T
  0.7489399391016105  0.1773811177495419  0.0250610122823870   T   T   T
  0.0831960029177383  0.4277030855360517  0.0249642527031470   T   T   T
  0.4161665478565740  0.4276287218642543  0.0249270268896227   T   T   T
  0.7489493643597280  0.4275349205693876  0.0250359015953315   T   T   T
  0.3271380463075086  0.0285745601087918  0.0441079400428290   T   T   T
  0.6601758939564862  0.0285869358566991  0.0441102269408250   T   T   T
  0.9935910311624698  0.0285245940949274  0.0440391862989208   T   T   T
  0.3265347837292372  0.2787126057175048  0.0439398322059115   T   T   T
  0.6607189694115020  0.2786926582379203  0.0440054780032203   T   T   T
  0.9934990217127933  0.2787991142013648  0.0439974868347985   T   T   T
  0.8339932430287051  0.4043277243610718  0.2067994560179001   T   T   T
  0.8332323562966104  0.1535494711020990  0.2064056819015828   T   T   T
  0.1674977217596995  0.1542599179339904  0.2066516966178744   T   T   T
  0.4988101913372749  0.1553487792149256  0.2070308149148338   T   T   T
  0.1654097161226558  0.4038058869722262  0.2066492669509699   T   T   T
  0.5423769866237315  0.4635021760380356  0.2613507344381898   T   T   T
  0.0777598931398375  0.0529984175658655  0.2255126018500884   T   T   T
  0.4113552222187547  0.0524372671653029  0.2256005488207234   T   T   T
  0.7431654318667508  0.0530534214338454  0.2256522555774194   T   T   T
  0.0756980676581582  0.3047968361998413  0.2251232306898138   T   T   T
  0.3712407081254145  0.2884671357346310  0.2299736980644396   T   T   T
  0.7731626105401141  0.3009042039745522  0.2230863338264820   T   T   T
  0.4881245983674091  0.2714440841366632  0.2661462156387063   T   T   T
  0.4705864427362664  0.2272810868066704  0.3000434779255557   T   T   T
  0.5182993900375992  0.3122530584294833  0.3074953952297829   T   T   T
  0.2886653182311205  0.1365915842336168  0.2964186898252876   T   T   T
  0.4363405659621086  0.1062146690502538  0.2881359789548053   T   T   T
  0.6353472860257904  0.3848986578412077  0.3346811287773099   T   T   T
  0.5015124909045012  0.4310116232653233  0.3268196992616505   T   T   T
  0.5030324225706226  0.4375952642906065  0.2695322800748725   T   T   T
  0.5631197285675504  0.2697714517179038  0.2413511293481785   T   T   T
  0.0829315838177200  0.6777649373113560  0.0250497373111135   T   T   T
  0.4159599992891531  0.6777556029378018  0.0251110610330249   T   T   T
  0.7490992780502074  0.6777320431852722  0.0250855658710512   T   T   T
  0.0833484850174269  0.9275482633101931  0.0250599871822138   T   T   T
  0.4159840073098808  0.9275184066011662  0.0251380374616652   T   T   T
  0.7489301124175149  0.9275256622033273  0.0251382470765981   T   T   T
  0.3269596581596450  0.5290282079752792  0.0439984208025332   T   T   T
  0.6604056542301280  0.5290674610367347  0.0440243760695319   T   T   T
  0.9935710480923785  0.5290062725329788  0.0440258885574474   T   T   T
  0.3270361394306665  0.7787590934452344  0.0441244226755700   T   T   T
  0.6603160884104209  0.7787790768536182  0.0441351323285113   T   T   T
  0.9936188458100084  0.7787939441878123  0.0441155619944009   T   T   T
  0.8327216717338851  0.9041116766285812  0.2067366121663827   T   T   T
  0.8327039735463637  0.6537521286144076  0.2067423504590010   T   T   T
  0.1652379143609684  0.6538012996057371  0.2067881659897902   T   T   T
  0.4993433256345557  0.6540577365958317  0.2068145735727580   T   T   T
  0.1660020070053565  0.9039538516542868  0.2067565999460165   T   T   T
  0.4995301121281641  0.9039299936519978  0.2067331856814477   T   T   T
  0.0739539968654138  0.5518814190087616  0.2261779010662779   T   T   T
  0.4137592717941617  0.5527811214114646  0.2253835097795473   T   T   T
  0.7358140844114769  0.5504730409670319  0.2268874846103571   T   T   T
  0.0767368011071231  0.8027091081233115  0.2257083306623011   T   T   T
  0.4096422513912841  0.8027088507718538  0.2257437743370336   T   T   T
  0.7443063630600546  0.8024478364843817  0.2256112216332791   T   T   T
  0.1730067603310728  0.1702890507576174  0.0334629051608132   T   T   T
  0.5059928573316804  0.1704670526782177  0.0335432902508943   T   T   T
  0.8391197798917708  0.1703060535455240  0.0334451431584648   T   T   T
  0.1730093278676822  0.4206309078126393  0.0334434061601970   T   T   T
  0.5061452146827643  0.4203750455251526  0.0333534302518399   T   T   T
  0.8389610183791445  0.4207054437529001  0.0334825147720243   T   T   T
  0.3208766330119460  0.0454947597560728  0.2172843668742795   T   T   T
  0.6531540153177813  0.0457067429714828  0.2172475588992645   T   T   T
  0.9874267930297344  0.0459411527192947  0.2171702919837322   T   T   T
  0.3190080614851507  0.3057053433382100  0.2154984058916601   T   T   T
  0.6742502750806419  0.2972615406164550  0.2170943926223095   T   T   T
  0.9850645576047891  0.2944889891309870  0.2171318180850662   T   T   T
  0.5223425956706997  0.2738244317553726  0.2949330091632541   T   T   T
  0.3898825531867831  0.1335115785400117  0.3007659580737118   T   T   T
  0.5344669461694453  0.3794715935262300  0.3303331266085592   T   T   T
  0.4744886962145097  0.2556627613214244  0.2497240492523232   T   T   T
  0.1728191958400971  0.6707751211104411  0.0335178267876381   T   T   T
  0.5059765812196292  0.6708476391727237  0.0335524615919235   T   T   T
  0.8391372579782325  0.6708191080107117  0.0335197391501010   T   T   T
  0.1731475583977211  0.9204020494642912  0.0335391948283636   T   T   T
  0.5060597777662948  0.9204703947057925  0.0335529491879014   T   T   T
  0.8390527626852065  0.9204595720885609  0.0335384113726588   T   T   T
  0.3221164439340999  0.5437746933696600  0.2175685711078047   T   T   T
  0.6497572531838796  0.5446762953586674  0.2173822480087703   T   T   T
  0.9861521909653408  0.5465243177372131  0.2170896972178639   T   T   T
  0.3198112052346468  0.7953158737829313  0.2172915414853744   T   T   T
  0.6539077983734097  0.7952591043934020  0.2172866323936559   T   T   T
  0.9866822160485271  0.7953474758002868  0.2173080518297864   T   T   T
  0.4960772158724914  0.1236647225957558  0.0586737258584848   T   T   T
  0.8294241506552162  0.1236349859374071  0.0585956334487634   T   T   T
  0.1627093110497044  0.3737999403758949  0.0585502753684634   T   T   T
  0.4960012603858946  0.3735971602063689  0.0584647622243749   T   T   T
  0.8293329675778047  0.3738169847795943  0.0585845722136016   T   T   T
  0.1626983806088876  0.1236147157674522  0.0586029145006249   T   T   T
  0.9966945507120051  0.0003759032768978  0.1388714811116386   T   T   T
  0.3301585055149941  0.0006078977576594  0.1389599381221460   T   T   T
  0.6629949806191200  0.0005965761841074  0.1389456244080869   T   T   T
  0.9965719185533142  0.2503922369090505  0.1387622614149061   T   T   T
  0.3294819460337071  0.2502712714268441  0.1386882026287466   T   T   T
  0.6633502385687186  0.2501427338870546  0.1387226182208017   T   T   T
  0.1640425930681919  0.1251371141846586  0.1653107694732987   T   T   T
  0.4970252839847302  0.1259421904717439  0.1655829442582664   T   T   T
  0.8306942215963584  0.1248091530921641  0.1651561799659520   T   T   T
  0.1630233213840131  0.3754364292756626  0.1651377988351721   T   T   T
  0.4966106833561545  0.3735438812927285  0.1646497570975665   T   T   T
  0.8303975276500150  0.3752297379179509  0.1652106384316047   T   T   T
  0.3267436949205371  0.4989609063877916  0.1923190649814334   T   T   T
  0.6664396342825688  0.4990200647103654  0.1923793336688506   T   T   T
  0.9966869854463437  0.4994686776566349  0.1921024609761054   T   T   T
  0.3299391950763759  0.2511831632895329  0.1921737597109341   T   T   T
  0.9977225378146622  0.2481723862955703  0.1918669046811685   T   T   T
  0.6657632881717535  0.2491269492045050  0.1919934639242522   T   T   T
  0.9961927352274695  0.0001421830668000  0.0854193277187799   T   T   T
  0.3295267037916664  0.0001681933771176  0.0854715343971961   T   T   T
  0.6628208843195396  0.0001723550458910  0.0854627849633321   T   T   T
  0.9961973273876676  0.2501447543172092  0.0853327943553432   T   T   T
  0.3293693238712652  0.2500028020572858  0.0852866866908955   T   T   T
  0.6629664851849715  0.2499900419753510  0.0853304280371680   T   T   T
  0.1629838871291508  0.1253848126307201  0.1118167640056220   T   T   T
  0.4963859696127365  0.1254157783320442  0.1119128558737338   T   T   T
  0.8297987829590608  0.1253986517320013  0.1117799056892083   T   T   T
  0.1629116039959368  0.3754396656853943  0.1117176340435122   T   T   T
  0.4963443987046638  0.3748273233299940  0.1114617335204161   T   T   T
  0.8297662112719607  0.3754239071474387  0.1117552485057670   T   T   T
  0.4960507993303934  0.6239683956198799  0.0586550369524956   T   T   T
  0.8293374881997794  0.6240017279796640  0.0586355643459275   T   T   T
  0.1628211070994401  0.8737788223557610  0.0586915700673949   T   T   T
  0.4960480211182264  0.8738017740337648  0.0587030069169676   T   T   T
  0.8293250619102586  0.8737957518290699  0.0586884813855962   T   T   T
  0.1626903767330236  0.6239600953706848  0.0586277724641229   T   T   T
  0.9963802858438354  0.5005247302621206  0.1387787327525017   T   T   T
  0.3292728710071334  0.5003490145301336  0.1386917417875899   T   T   T
  0.6636295676926171  0.5003423097548314  0.1387140550933527   T   T   T
  0.9963520909798533  0.7505320332276763  0.1389576510503461   T   T   T
  0.3297402521046425  0.7505186315119877  0.1389461333696014   T   T   T
  0.6631183986121609  0.7505294438486018  0.1389303372484375   T   T   T
  0.1622103032955027  0.6254240821956755  0.1653748332284756   T   T   T
  0.4966979955176303  0.6253281906897901  0.1653936717154711   T   T   T
  0.8311542617463635  0.6254655314982192  0.1653753376849870   T   T   T
  0.1635069355660295  0.8752282374146511  0.1653842507743689   T   T   T
  0.4968807087516463  0.8751800722379562  0.1653757025573679   T   T   T
  0.8300984418155199  0.8752980114915706  0.1653777425084848   T   T   T
  0.3303673622913441  0.9988488278449745  0.1921196496953498   T   T   T
  0.6635415749530085  0.9990227227243870  0.1921042807285348   T   T   T
  0.9970502854978618  0.9989717360181265  0.1920641676879881   T   T   T
  0.3300150825266925  0.7488250801109819  0.1921350351154540   T   T   T
  0.9967116044521094  0.7489005375467684  0.1921429723459097   T   T   T
  0.6634702003229858  0.7488641178939425  0.1921091870831999   T   T   T
  0.9962451325921148  0.5002486119566655  0.0853449924640094   T   T   T
  0.3294774884422910  0.5001422277486772  0.0853010011268479   T   T   T
  0.6629551770241711  0.5001813138181814  0.0853239962957489   T   T   T
  0.9961240195754334  0.7502731100269018  0.0854531909750833   T   T   T
  0.3294532087486562  0.7501999441746031  0.0854803218358383   T   T   T
  0.6628408627104188  0.7502468650014521  0.0854859990034981   T   T   T
  0.1627833219476239  0.6254670452512361  0.1118151451907021   T   T   T
  0.4963091045221032  0.6254535987779705  0.1118730917572632   T   T   T
  0.8298179359601956  0.6255075378280870  0.1118117523065420   T   T   T
  0.1631613193107248  0.8755108962212222  0.1119315552906650   T   T   T
  0.4963636203333320  0.8755172521759005  0.1119199571109508   T   T   T
  0.8295724022988219  0.8755826635568076  0.1119238068663211   T   T   T
 
  0.00000000E+00  0.00000000E+00  0.00000000E+00
  0.00000000E+00  0.00000000E+00  0.00000000E+00
  0.00000000E+00  0.00000000E+00  0.00000000E+00
  0.00000000E+00  0.00000000E+00  0.00000000E+00
  0.00000000E+00  0.00000000E+00  0.00000000E+00
  0.00000000E+00  0.00000000E+00  0.00000000E+00
  0.00000000E+00  0.00000000E+00  0.00000000E+00
  0.00000000E+00  0.00000000E+00  0.00000000E+00
  0.00000000E+00  0.00000000E+00  0.00000000E+00
  0.00000000E+00  0.00000000E+00  0.00000000E+00
  0.00000000E+00  0.00000000E+00  0.00000000E+00
  0.00000000E+00  0.00000000E+00  0.00000000E+00
  0.00000000E+00  0.00000000E+00  0.00000000E+00
  0.00000000E+00  0.00000000E+00  0.00000000E+00
  0.00000000E+00  0.00000000E+00  0.00000000E+00
  0.00000000E+00  0.00000000E+00  0.00000000E+00
  0.00000000E+00  0.00000000E+00  0.00000000E+00
  0.00000000E+00  0.00000000E+00  0.00000000E+00
  0.00000000E+00  0.00000000E+00  0.00000000E+00
  0.00000000E+00  0.00000000E+00  0.00000000E+00
  0.00000000E+00  0.00000000E+00  0.00000000E+00
  0.00000000E+00  0.00000000E+00  0.00000000E+00
  0.00000000E+00  0.00000000E+00  0.00000000E+00
  0.00000000E+00  0.00000000E+00  0.00000000E+00
  0.00000000E+00  0.00000000E+00  0.00000000E+00
  0.00000000E+00  0.00000000E+00  0.00000000E+00
  0.00000000E+00  0.00000000E+00  0.00000000E+00
  0.00000000E+00  0.00000000E+00  0.00000000E+00
  0.00000000E+00  0.00000000E+00  0.00000000E+00
  0.00000000E+00  0.00000000E+00  0.00000000E+00
  0.00000000E+00  0.00000000E+00  0.00000000E+00
  0.00000000E+00  0.00000000E+00  0.00000000E+00
  0.00000000E+00  0.00000000E+00  0.00000000E+00
  0.00000000E+00  0.00000000E+00  0.00000000E+00
  0.00000000E+00  0.00000000E+00  0.00000000E+00
  0.00000000E+00  0.00000000E+00  0.00000000E+00
  0.00000000E+00  0.00000000E+00  0.00000000E+00
  0.00000000E+00  0.00000000E+00  0.00000000E+00
  0.00000000E+00  0.00000000E+00  0.00000000E+00
  0.00000000E+00  0.00000000E+00  0.00000000E+00
  0.00000000E+00  0.00000000E+00  0.00000000E+00
  0.00000000E+00  0.00000000E+00  0.00000000E+00
  0.00000000E+00  0.00000000E+00  0.00000000E+00
  0.00000000E+00  0.00000000E+00  0.00000000E+00
  0.00000000E+00  0.00000000E+00  0.00000000E+00
  0.00000000E+00  0.00000000E+00  0.00000000E+00
  0.00000000E+00  0.00000000E+00  0.00000000E+00
  0.00000000E+00  0.00000000E+00  0.00000000E+00
  0.00000000E+00  0.00000000E+00  0.00000000E+00
  0.00000000E+00  0.00000000E+00  0.00000000E+00
  0.00000000E+00  0.00000000E+00  0.00000000E+00
  0.00000000E+00  0.00000000E+00  0.00000000E+00
  0.00000000E+00  0.00000000E+00  0.00000000E+00
  0.00000000E+00  0.00000000E+00  0.00000000E+00
  0.00000000E+00  0.00000000E+00  0.00000000E+00
  0.00000000E+00  0.00000000E+00  0.00000000E+00
  0.00000000E+00  0.00000000E+00  0.00000000E+00
  0.00000000E+00  0.00000000E+00  0.00000000E+00
  0.00000000E+00  0.00000000E+00  0.00000000E+00
  0.00000000E+00  0.00000000E+00  0.00000000E+00
  0.00000000E+00  0.00000000E+00  0.00000000E+00
  0.00000000E+00  0.00000000E+00  0.00000000E+00
  0.00000000E+00  0.00000000E+00  0.00000000E+00
  0.00000000E+00  0.00000000E+00  0.00000000E+00
  0.00000000E+00  0.00000000E+00  0.00000000E+00
  0.00000000E+00  0.00000000E+00  0.00000000E+00
  0.00000000E+00  0.00000000E+00  0.00000000E+00
  0.00000000E+00  0.00000000E+00  0.00000000E+00
  0.00000000E+00  0.00000000E+00  0.00000000E+00
  0.00000000E+00  0.00000000E+00  0.00000000E+00
  0.00000000E+00  0.00000000E+00  0.00000000E+00
  0.00000000E+00  0.00000000E+00  0.00000000E+00
  0.00000000E+00  0.00000000E+00  0.00000000E+00
  0.00000000E+00  0.00000000E+00  0.00000000E+00
  0.00000000E+00  0.00000000E+00  0.00000000E+00
  0.00000000E+00  0.00000000E+00  0.00000000E+00
  0.00000000E+00  0.00000000E+00  0.00000000E+00
  0.00000000E+00  0.00000000E+00  0.00000000E+00
  0.00000000E+00  0.00000000E+00  0.00000000E+00
  0.00000000E+00  0.00000000E+00  0.00000000E+00
  0.00000000E+00  0.00000000E+00  0.00000000E+00
  0.00000000E+00  0.00000000E+00  0.00000000E+00
  0.00000000E+00  0.00000000E+00  0.00000000E+00
  0.00000000E+00  0.00000000E+00  0.00000000E+00
  0.00000000E+00  0.00000000E+00  0.00000000E+00
  0.00000000E+00  0.00000000E+00  0.00000000E+00
  0.00000000E+00  0.00000000E+00  0.00000000E+00
  0.00000000E+00  0.00000000E+00  0.00000000E+00
  0.00000000E+00  0.00000000E+00  0.00000000E+00
  0.00000000E+00  0.00000000E+00  0.00000000E+00
  0.00000000E+00  0.00000000E+00  0.00000000E+00
  0.00000000E+00  0.00000000E+00  0.00000000E+00
  0.00000000E+00  0.00000000E+00  0.00000000E+00
  0.00000000E+00  0.00000000E+00  0.00000000E+00
  0.00000000E+00  0.00000000E+00  0.00000000E+00
  0.00000000E+00  0.00000000E+00  0.00000000E+00
  0.00000000E+00  0.00000000E+00  0.00000000E+00
  0.00000000E+00  0.00000000E+00  0.00000000E+00
  0.00000000E+00  0.00000000E+00  0.00000000E+00
  0.00000000E+00  0.00000000E+00  0.00000000E+00
  0.00000000E+00  0.00000000E+00  0.00000000E+00
  0.00000000E+00  0.00000000E+00  0.00000000E+00
  0.00000000E+00  0.00000000E+00  0.00000000E+00
  0.00000000E+00  0.00000000E+00  0.00000000E+00
  0.00000000E+00  0.00000000E+00  0.00000000E+00
  0.00000000E+00  0.00000000E+00  0.00000000E+00
  0.00000000E+00  0.00000000E+00  0.00000000E+00
  0.00000000E+00  0.00000000E+00  0.00000000E+00
  0.00000000E+00  0.00000000E+00  0.00000000E+00
  0.00000000E+00  0.00000000E+00  0.00000000E+00
  0.00000000E+00  0.00000000E+00  0.00000000E+00
  0.00000000E+00  0.00000000E+00  0.00000000E+00
  0.00000000E+00  0.00000000E+00  0.00000000E+00
  0.00000000E+00  0.00000000E+00  0.00000000E+00
  0.00000000E+00  0.00000000E+00  0.00000000E+00
  0.00000000E+00  0.00000000E+00  0.00000000E+00
  0.00000000E+00  0.00000000E+00  0.00000000E+00
  0.00000000E+00  0.00000000E+00  0.00000000E+00
  0.00000000E+00  0.00000000E+00  0.00000000E+00
  0.00000000E+00  0.00000000E+00  0.00000000E+00
  0.00000000E+00  0.00000000E+00  0.00000000E+00
  0.00000000E+00  0.00000000E+00  0.00000000E+00
  0.00000000E+00  0.00000000E+00  0.00000000E+00
  0.00000000E+00  0.00000000E+00  0.00000000E+00
  0.00000000E+00  0.00000000E+00  0.00000000E+00
  0.00000000E+00  0.00000000E+00  0.00000000E+00
  0.00000000E+00  0.00000000E+00  0.00000000E+00
  0.00000000E+00  0.00000000E+00  0.00000000E+00
  0.00000000E+00  0.00000000E+00  0.00000000E+00
  0.00000000E+00  0.00000000E+00  0.00000000E+00
  0.00000000E+00  0.00000000E+00  0.00000000E+00
  0.00000000E+00  0.00000000E+00  0.00000000E+00
  0.00000000E+00  0.00000000E+00  0.00000000E+00
  0.00000000E+00  0.00000000E+00  0.00000000E+00
  0.00000000E+00  0.00000000E+00  0.00000000E+00
  0.00000000E+00  0.00000000E+00  0.00000000E+00
  0.00000000E+00  0.00000000E+00  0.00000000E+00
  0.00000000E+00  0.00000000E+00  0.00000000E+00
  0.00000000E+00  0.00000000E+00  0.00000000E+00
  0.00000000E+00  0.00000000E+00  0.00000000E+00
  0.00000000E+00  0.00000000E+00  0.00000000E+00
  0.00000000E+00  0.00000000E+00  0.00000000E+00
  0.00000000E+00  0.00000000E+00  0.00000000E+00
  0.00000000E+00  0.00000000E+00  0.00000000E+00
  0.00000000E+00  0.00000000E+00  0.00000000E+00
  0.00000000E+00  0.00000000E+00  0.00000000E+00
  0.00000000E+00  0.00000000E+00  0.00000000E+00
  0.00000000E+00  0.00000000E+00  0.00000000E+00
  0.00000000E+00  0.00000000E+00  0.00000000E+00
  0.00000000E+00  0.00000000E+00  0.00000000E+00
  0.00000000E+00  0.00000000E+00  0.00000000E+00
  0.00000000E+00  0.00000000E+00  0.00000000E+00
  0.00000000E+00  0.00000000E+00  0.00000000E+00
  0.00000000E+00  0.00000000E+00  0.00000000E+00
  0.00000000E+00  0.00000000E+00  0.00000000E+00
  0.00000000E+00  0.00000000E+00  0.00000000E+00
  0.00000000E+00  0.00000000E+00  0.00000000E+00
  0.00000000E+00  0.00000000E+00  0.00000000E+00
  0.00000000E+00  0.00000000E+00  0.00000000E+00
  0.00000000E+00  0.00000000E+00  0.00000000E+00
  0.00000000E+00  0.00000000E+00  0.00000000E+00
  0.00000000E+00  0.00000000E+00  0.00000000E+00
  0.00000000E+00  0.00000000E+00  0.00000000E+00
  0.00000000E+00  0.00000000E+00  0.00000000E+00
  0.00000000E+00  0.00000000E+00  0.00000000E+00
  0.00000000E+00  0.00000000E+00  0.00000000E+00
  0.00000000E+00  0.00000000E+00  0.00000000E+00
  0.00000000E+00  0.00000000E+00  0.00000000E+00
  0.00000000E+00  0.00000000E+00  0.00000000E+00
  0.00000000E+00  0.00000000E+00  0.00000000E+00
  0.00000000E+00  0.00000000E+00  0.00000000E+00
  0.00000000E+00  0.00000000E+00  0.00000000E+00
  0.00000000E+00  0.00000000E+00  0.00000000E+00
  0.00000000E+00  0.00000000E+00  0.00000000E+00
  0.00000000E+00  0.00000000E+00  0.00000000E+00
  0.00000000E+00  0.00000000E+00  0.00000000E+00
  0.00000000E+00  0.00000000E+00  0.00000000E+00
  0.00000000E+00  0.00000000E+00  0.00000000E+00
  0.00000000E+00  0.00000000E+00  0.00000000E+00
  0.00000000E+00  0.00000000E+00  0.00000000E+00
  0.00000000E+00  0.00000000E+00  0.00000000E+00
  0.00000000E+00  0.00000000E+00  0.00000000E+00
  0.00000000E+00  0.00000000E+00  0.00000000E+00
  0.00000000E+00  0.00000000E+00  0.00000000E+00
  0.00000000E+00  0.00000000E+00  0.00000000E+00
  0.00000000E+00  0.00000000E+00  0.00000000E+00
  0.00000000E+00  0.00000000E+00  0.00000000E+00
  0.00000000E+00  0.00000000E+00  0.00000000E+00
  0.00000000E+00  0.00000000E+00  0.00000000E+00
  0.00000000E+00  0.00000000E+00  0.00000000E+00
  0.00000000E+00  0.00000000E+00  0.00000000E+00
  0.00000000E+00  0.00000000E+00  0.00000000E+00
  0.00000000E+00  0.00000000E+00  0.00000000E+00
  0.00000000E+00  0.00000000E+00  0.00000000E+00
  0.00000000E+00  0.00000000E+00  0.00000000E+00
  0.00000000E+00  0.00000000E+00  0.00000000E+00
  0.00000000E+00  0.00000000E+00  0.00000000E+00
  0.00000000E+00  0.00000000E+00  0.00000000E+00
  0.00000000E+00  0.00000000E+00  0.00000000E+00
  0.00000000E+00  0.00000000E+00  0.00000000E+00
  0.00000000E+00  0.00000000E+00  0.00000000E+00
  0.00000000E+00  0.00000000E+00  0.00000000E+00
  0.00000000E+00  0.00000000E+00  0.00000000E+00
  0.00000000E+00  0.00000000E+00  0.00000000E+00
  0.00000000E+00  0.00000000E+00  0.00000000E+00
  0.00000000E+00  0.00000000E+00  0.00000000E+00
  0.00000000E+00  0.00000000E+00  0.00000000E+00
  0.00000000E+00  0.00000000E+00  0.00000000E+00
  0.00000000E+00  0.00000000E+00  0.00000000E+00
  0.00000000E+00  0.00000000E+00  0.00000000E+00
  0.00000000E+00  0.00000000E+00  0.00000000E+00
  0.00000000E+00  0.00000000E+00  0.00000000E+00
  0.00000000E+00  0.00000000E+00  0.00000000E+00
  0.00000000E+00  0.00000000E+00  0.00000000E+00
  0.00000000E+00  0.00000000E+00  0.00000000E+00
  0.00000000E+00  0.00000000E+00  0.00000000E+00
  0.00000000E+00  0.00000000E+00  0.00000000E+00
  0.00000000E+00  0.00000000E+00  0.00000000E+00
  0.00000000E+00  0.00000000E+00  0.00000000E+00
  0.00000000E+00  0.00000000E+00  0.00000000E+00
  0.00000000E+00  0.00000000E+00  0.00000000E+00
  0.00000000E+00  0.00000000E+00  0.00000000E+00
  0.00000000E+00  0.00000000E+00  0.00000000E+00
  0.00000000E+00  0.00000000E+00  0.00000000E+00
  0.00000000E+00  0.00000000E+00  0.00000000E+00
  0.00000000E+00  0.00000000E+00  0.00000000E+00
  0.00000000E+00  0.00000000E+00  0.00000000E+00
  0.00000000E+00  0.00000000E+00  0.00000000E+00
  0.00000000E+00  0.00000000E+00  0.00000000E+00
