C H O Si                                
   1.00000000000000     
     9.2874599999999994    0.0000000000000000    0.0000000000000000
     0.0000000000000000   17.5126199999999983    0.0000000000000000
     0.0000000000000000    0.0000000000000000   58.0000000000000000
   C    H    O    Si
    72    57    28    72
Selective dynamics
Direct
  0.9959588242271609  0.0647979964856032  0.0595589970482169   T   T   T
  0.3292880711235215  0.0648306637585055  0.0596240391270602   T   T   T
  0.6626062337883094  0.0648115276904974  0.0596153607927891   T   T   T
  0.9959515356589543  0.3149266354027350  0.0595342161204021   T   T   T
  0.3292233500930510  0.3148408871368444  0.0594936003281053   T   T   T
  0.6626610428922022  0.3148540809655632  0.0595198570897245   T   T   T
  0.1631671478362865  0.1875601972644720  0.1385399257269886   T   T   T
  0.4964967845590463  0.1877649942947052  0.1386489992952708   T   T   T
  0.8300357246889394  0.1875996772292604  0.1385031156246024   T   T   T
  0.1630838532969052  0.4377807383026554  0.1384824428982583   T   T   T
  0.4963142892320090  0.4380914050854117  0.1380439487618842   T   T   T
  0.8299271399710134  0.4376803203078462  0.1385320863199077   T   T   T
  0.3304216918833351  0.0630487689187316  0.1657959599821163   T   T   T
  0.6628537385764823  0.0630075858818770  0.1657490422012234   T   T   T
  0.9968634531525449  0.0626602846944099  0.1656319146693677   T   T   T
  0.3290639473748197  0.3129775442523880  0.1654439356823261   T   T   T
  0.6637129029425657  0.3129208226182223  0.1656121460917499   T   T   T
  0.9966511240671627  0.3129514255084898  0.1656248095237795   T   T   T
  0.1650746702858119  0.1902856604291757  0.1909777371416467   T   T   T
  0.4974280073097418  0.1916939852609716  0.1914859518863532   T   T   T
  0.8312915060898525  0.1895716945849985  0.1907738887450943   T   T   T
  0.1624496925161586  0.4399931971260798  0.1910987741043060   T   T   T
  0.4964705687469267  0.4472999027004150  0.1875016588969770   T   T   T
  0.8313236958577869  0.4400079227406724  0.1911411530684665   T   T   T
  0.1625387844317862  0.1876046394758310  0.0849662812575451   T   T   T
  0.4959830868184406  0.1876242349825173  0.0850400226336170   T   T   T
  0.8292870689952050  0.1876165277228262  0.0849631542027572   T   T   T
  0.1624853062859316  0.4377256139217915  0.0849390391633339   T   T   T
  0.4957462729570022  0.4377703456683327  0.0848016175166754   T   T   T
  0.8291919758199631  0.4377001408587144  0.0849636531613534   T   T   T
  0.3292272186548360  0.0626470460913104  0.1121992177099066   T   T   T
  0.6625094694331667  0.0626206903349143  0.1121961743719472   T   T   T
  0.9958901894607630  0.0625177681293865  0.1121535511442937   T   T   T
  0.3291912781093327  0.3125342373388169  0.1120102863749120   T   T   T
  0.6626807984832972  0.3125409951487553  0.1120562311330185   T   T   T
  0.9959406023127274  0.3125806438189584  0.1120815001063005   T   T   T
  0.9959321787501924  0.5651253487960907  0.0595841160740452   T   T   T
  0.3292594428769987  0.5651198432566716  0.0595691678207370   T   T   T
  0.6626262163575988  0.5651154168325123  0.0595712000043184   T   T   T
  0.9959293579083351  0.8149884193711475  0.0596275080626449   T   T   T
  0.3292703415151180  0.8148972194379303  0.0596440118670488   T   T   T
  0.6625323749004282  0.8149097788155167  0.0596457712627219   T   T   T
  0.1632885462817174  0.6875498201133980  0.1386098839693815   T   T   T
  0.4964307221690339  0.6875376432521487  0.1386272199019144   T   T   T
  0.8295063997799798  0.6875595245212724  0.1386175230118290   T   T   T
  0.1633298023345391  0.9376528948144351  0.1386296478326051   T   T   T
  0.4964695424971351  0.9375819721797047  0.1386305669765248   T   T   T
  0.8297357318559767  0.9376548209263083  0.1386393746321172   T   T   T
  0.3297603680670886  0.5629502253819789  0.1655689895528099   T   T   T
  0.6626808128071493  0.5627607750137286  0.1655731468262755   T   T   T
  0.9963075796952644  0.5628664280993573  0.1656530749719757   T   T   T
  0.3295851820212239  0.8127478147676773  0.1657701874768109   T   T   T
  0.6629931087180200  0.8127647186862388  0.1657753480016895   T   T   T
  0.9962868513852948  0.8128036791111076  0.1657782299355550   T   T   T
  0.1637745714513023  0.6899039196273674  0.1911907637554573   T   T   T
  0.4971243169483072  0.6899062274881406  0.1912024833685342   T   T   T
  0.8304372689849018  0.6898407907539702  0.1911836627606633   T   T   T
  0.1638967334767270  0.9401542156339063  0.1911515464351553   T   T   T
  0.4971970674398464  0.9401006254636595  0.1911657174549991   T   T   T
  0.8305516390032975  0.9402239041467236  0.1911569461682244   T   T   T
  0.1626845911137262  0.6877967879259752  0.0850484855834052   T   T   T
  0.4960734519782027  0.6877856433539936  0.0850684533276001   T   T   T
  0.8294336639138050  0.6878017295148163  0.0850515375257598   T   T   T
  0.1626603576394908  0.9376568091008316  0.0850677677669606   T   T   T
  0.4959603230534787  0.9376828989434087  0.0850739710026634   T   T   T
  0.8293203506702503  0.9376579045581390  0.0850704509789068   T   T   T
  0.3292256667186235  0.5626611999026421  0.1120897980376683   T   T   T
  0.6626000975991906  0.5626647759953917  0.1120900454882213   T   T   T
  0.9958588729322010  0.5626917212332020  0.1121259719825435   T   T   T
  0.3292144452035913  0.8125580068435473  0.1122079680927409   T   T   T
  0.6625109597007597  0.8125759503081108  0.1122119119938570   T   T   T
  0.9958202944988476  0.8125064303743683  0.1122406765597049   T   T   T
  0.0833811502227740  0.1773483356787921  0.0250197681433381   T   T   T
  0.4161497382968478  0.1774120151612490  0.0251552938394319   T   T   T
  0.7492399086645659  0.1772885895725064  0.0250847483125606   T   T   T
  0.0834933751558963  0.4275934883588953  0.0249494368550806   T   T   T
  0.4163921792617080  0.4275373517365093  0.0249175709435683   T   T   T
  0.7491838079073693  0.4274435141703464  0.0250262615384368   T   T   T
  0.3271483241407482  0.0286257601119494  0.0440812324508264   T   T   T
  0.6600902044856150  0.0286155328091611  0.0440708149591774   T   T   T
  0.9936050253478993  0.0286029632562212  0.0440132899609477   T   T   T
  0.3265294206862723  0.2787378301588329  0.0439254982206453   T   T   T
  0.6606705514698163  0.2786729056490690  0.0439652189604861   T   T   T
  0.9936106116741908  0.2788127854111145  0.0439671285377880   T   T   T
  0.8343994528466963  0.4044785286598788  0.2067964941535092   T   T   T
  0.8335614367249317  0.1536442287384601  0.2063799823227420   T   T   T
  0.1676014931838580  0.1543915410246813  0.2065868564036325   T   T   T
  0.4991654630450682  0.1552797122866097  0.2069888717817059   T   T   T
  0.1659699362050497  0.4039096478471180  0.2066511458148400   T   T   T
  0.5420760398334502  0.4634620526854886  0.2612476796838332   T   T   T
  0.0776851738462818  0.0530458599050137  0.2255417668992803   T   T   T
  0.4113385846887672  0.0524730148734808  0.2256283413276735   T   T   T
  0.7433565594355496  0.0530920498288705  0.2256994620486651   T   T   T
  0.0768424412648372  0.3046354035998330  0.2250549046312114   T   T   T
  0.3712071840509177  0.2882378292849397  0.2299736760864366   T   T   T
  0.7733798551358415  0.3009088816330817  0.2231706531137587   T   T   T
  0.4878918565906764  0.2713669441606805  0.2661386693647825   T   T   T
  0.4700826972636910  0.2276181858843200  0.3000278415379586   T   T   T
  0.5182533518915220  0.3124566761703297  0.3074033950950890   T   T   T
  0.2888560956820400  0.1365222639882881  0.2962098423826557   T   T   T
  0.4365767157383615  0.1066954181463106  0.2878592737702713   T   T   T
  0.6360377995979778  0.3850596957919613  0.3346842170625793   T   T   T
  0.5021875469694695  0.4312065043486932  0.3269216684852020   T   T   T
  0.5028709192734329  0.4375065343300145  0.2694398235105447   T   T   T
  0.5630051700522388  0.2695308802681042  0.2413588497276090   T   T   T
  0.0831299804544315  0.6776322129001064  0.0250532321852587   T   T   T
  0.4161831977309983  0.6776522170221772  0.0251066183465974   T   T   T
  0.7493597128901301  0.6776112611904528  0.0250884553102004   T   T   T
  0.0836327449999055  0.9273977172400550  0.0250775389548054   T   T   T
  0.4162703630019836  0.9274031502447737  0.0251388604931224   T   T   T
  0.7492803298280600  0.9273803504107883  0.0251622521397238   T   T   T
  0.3269954732403816  0.5291005674675006  0.0439821863709848   T   T   T
  0.6603372772837824  0.5291149222988125  0.0439799900602639   T   T   T
  0.9936266344423867  0.5290458010473708  0.0440202055077316   T   T   T
  0.3270405722161476  0.7787051933010644  0.0440970290691009   T   T   T
  0.6602653815121849  0.7787018635146571  0.0441016731274879   T   T   T
  0.9936671034814224  0.7787334771222175  0.0440901798529818   T   T   T
  0.8329000822239011  0.9041558710509592  0.2067361444868775   T   T   T
  0.8331492953270850  0.6538048310614832  0.2067706051598229   T   T   T
  0.1656371770952078  0.6539419821494731  0.2067900769106372   T   T   T
  0.4996570124047991  0.6541056370392532  0.2068264104886577   T   T   T
  0.1662602832672665  0.9040703447976925  0.2067266047616101   T   T   T
  0.4997173905265644  0.9039892700030735  0.2067344700587844   T   T   T
  0.0740045436012047  0.5520545927560279  0.2262003911190356   T   T   T
  0.4134162000174642  0.5529123359088416  0.2255002846942381   T   T   T
  0.7367864915954068  0.5506073435573123  0.2268781001213529   T   T   T
  0.0767887265667103  0.8027220098496566  0.2257148732069336   T   T   T
  0.4096124886298512  0.8027707268490077  0.2257848003001979   T   T   T
  0.7447344644976805  0.8024478147239789  0.2256503870987283   T   T   T
  0.1730061996350173  0.1705172730047495  0.0335600580952026   T   T   T
  0.5060840104437884  0.1706682658176275  0.0336281486897278   T   T   T
  0.8392154726425073  0.1704573863889614  0.0335312316330047   T   T   T
  0.1729368687764687  0.4206733757830549  0.0335357975508330   T   T   T
  0.5061684892036974  0.4203295899244532  0.0334038018423958   T   T   T
  0.8390479446969166  0.4208532996429153  0.0335361658546114   T   T   T
  0.3209489984304236  0.0452975854859306  0.2173174259436923   T   T   T
  0.6535523944292650  0.0451900992984044  0.2172773675779025   T   T   T
  0.9877269303755787  0.0456983202831336  0.2171359577057183   T   T   T
  0.3194568641793611  0.3056934020369172  0.2154790765212263   T   T   T
  0.6748218302724820  0.2973045184780777  0.2170755051778815   T   T   T
  0.9860402378309314  0.2940257785452615  0.2171665500615932   T   T   T
  0.5225505590090268  0.2738501875458454  0.2948782845076459   T   T   T
  0.3898885706518423  0.1331182365663690  0.3006448495970117   T   T   T
  0.5348566196160222  0.3796376192303430  0.3304917478222020   T   T   T
  0.4743455123508589  0.2553450405627227  0.2497266463914944   T   T   T
  0.1727979986517865  0.6708773797290373  0.0335973815840142   T   T   T
  0.5059178329596576  0.6709467777165360  0.0336275237444410   T   T   T
  0.8391381709184387  0.6709271591286309  0.0336047548599945   T   T   T
  0.1733074118165195  0.9205684314861819  0.0336046487586305   T   T   T
  0.5062309593421379  0.9205553367594872  0.0335986339218671   T   T   T
  0.8393423123706458  0.9205726226980701  0.0335930412098159   T   T   T
  0.3220714698235364  0.5439067363776464  0.2176209124933523   T   T   T
  0.6505555911414490  0.5444890386620589  0.2174375370607901   T   T   T
  0.9867014908825832  0.5462653277141181  0.2170199581528726   T   T   T
  0.3200787832422134  0.7949495129323937  0.2173009239287320   T   T   T
  0.6544541770088894  0.7948976398372296  0.2173376600278237   T   T   T
  0.9868927117454441  0.7949458856449744  0.2173112096589435   T   T   T
  0.4960595290338624  0.1236118803419587  0.0586964366019820   T   T   T
  0.8293771374336013  0.1235980984265029  0.0586315013553825   T   T   T
  0.1626642949923262  0.3736996575146675  0.0585923925024361   T   T   T
  0.4959840033350129  0.3735220703984096  0.0584805729915818   T   T   T
  0.8293660729341141  0.3737240481479177  0.0585912216034479   T   T   T
  0.1626845606482342  0.1235924272223725  0.0586433657132382   T   T   T
  0.9967240443097696  0.0003783623611727  0.1388619367667530   T   T   T
  0.3301795687269613  0.0006447017101001  0.1389336171040014   T   T   T
  0.6630195969232860  0.0005684936132964  0.1389221858754629   T   T   T
  0.9967061552452170  0.2503572132934639  0.1387499331125488   T   T   T
  0.3296299984440302  0.2502487986056555  0.1386824616528921   T   T   T
  0.6634639360294151  0.2501793215312690  0.1387150155409442   T   T   T
  0.1637363784139211  0.1251299263140072  0.1652822734207110   T   T   T
  0.4966789005922281  0.1258432700191549  0.1655459051561987   T   T   T
  0.8303223661526894  0.1247704339288897  0.1651371334432336   T   T   T
  0.1631026024660151  0.3754375933096102  0.1651279456287363   T   T   T
  0.4963899847517622  0.3734804989970984  0.1646374514160442   T   T   T
  0.8302472439339484  0.3752976363536881  0.1651835762651595   T   T   T
  0.3268288614666053  0.4992026229258920  0.1923428002153527   T   T   T
  0.6665329135016774  0.4990546832151193  0.1923878402298138   T   T   T
  0.9970533842307666  0.4994153598237872  0.1920319667446162   T   T   T
  0.3301651676402240  0.2511061061553387  0.1921628093296285   T   T   T
  0.9978519380945473  0.2482244968740546  0.1918204987274485   T   T   T
  0.6659596368976621  0.2491058880576972  0.1919800672687235   T   T   T
  0.9960641115451412  0.0001517553543330  0.0854220678948193   T   T   T
  0.3294283196246969  0.0001762460198614  0.0854702763349745   T   T   T
  0.6626974279372092  0.0001642029094424  0.0854666953933948   T   T   T
  0.9960107215169819  0.2500617040960447  0.0853326332520183   T   T   T
  0.3292763123525297  0.2499929444642006  0.0852995118876206   T   T   T
  0.6627448095679723  0.2499856313357874  0.0853259994299683   T   T   T
  0.1626531601528840  0.1253984252480089  0.1118233700991984   T   T   T
  0.4960970417474698  0.1254689101439147  0.1119069126559946   T   T   T
  0.8294601640896810  0.1253935195695861  0.1117934954866164   T   T   T
  0.1626969352542158  0.3754076029494137  0.1117220936904583   T   T   T
  0.4960306523720711  0.3749131687545312  0.1114448851359461   T   T   T
  0.8294918079039697  0.3753831670729515  0.1117498130701947   T   T   T
  0.4960119911564199  0.6238950227412512  0.0586848971192149   T   T   T
  0.8293531326176246  0.6239219155911028  0.0586681226535531   T   T   T
  0.1627557369198132  0.8737479031583519  0.0587026952437224   T   T   T
  0.4959841264173834  0.8737488313600067  0.0587148455668548   T   T   T
  0.8292733103665929  0.8737520869538959  0.0587035126556055   T   T   T
  0.1626377202946603  0.6239229101434783  0.0586671019289970   T   T   T
  0.9965439455381648  0.5005413658712869  0.1387643416587448   T   T   T
  0.3293493273787655  0.5003903206922247  0.1387190028280439   T   T   T
  0.6635891218758457  0.5003261076915192  0.1387108567517807   T   T   T
  0.9965436551830358  0.7506157689983927  0.1389739580074339   T   T   T
  0.3299118870282984  0.7505893292745547  0.1389283444425914   T   T   T
  0.6631437873270514  0.7506128508462810  0.1389332508087310   T   T   T
  0.1620084050940583  0.6255091248338006  0.1653692867047566   T   T   T
  0.4964083556314166  0.6253420626318001  0.1653957535437308   T   T   T
  0.8309211721798511  0.6255105898272425  0.1653650699169533   T   T   T
  0.1631906043253361  0.8752937043271997  0.1653658336610564   T   T   T
  0.4964295773180210  0.8752368544383204  0.1653762233121568   T   T   T
  0.8297070035845199  0.8753159703559750  0.1653775596955026   T   T   T
  0.3305876393866754  0.9989020036807256  0.1921174581353101   T   T   T
  0.6638345819152630  0.9989205890344631  0.1920762243217166   T   T   T
  0.9972884258704837  0.9989303944323480  0.1920159070479422   T   T   T
  0.3304261149418461  0.7488044321125056  0.1921095805038248   T   T   T
  0.9970725727412868  0.7488456536888656  0.1921154000724066   T   T   T
  0.6638447044638305  0.7488031000731659  0.1921168711765400   T   T   T
  0.9959370792170865  0.5001923347638247  0.0853594368853015   T   T   T
  0.3291256830487634  0.5001523820650259  0.0853100658280011   T   T   T
  0.6626755231184529  0.5001361140044960  0.0853116272640451   T   T   T
  0.9961421387049891  0.7502805789600214  0.0854581396215262   T   T   T
  0.3294347569973460  0.7502120074617148  0.0854674309683892   T   T   T
  0.6628754210051365  0.7502237496005839  0.0854712278754364   T   T   T
  0.1625880814399870  0.6255267601922981  0.1118380911350309   T   T   T
  0.4961032431055235  0.6254938656380067  0.1118689579679193   T   T   T
  0.8295961658942560  0.6255600517913803  0.1118413206759671   T   T   T
  0.1628854974507947  0.8755587385998987  0.1119284219161868   T   T   T
  0.4960738987022459  0.8755445534808524  0.1119160860771835   T   T   T
  0.8293285929599818  0.8755891016480964  0.1119336706007341   T   T   T
 
  0.00000000E+00  0.00000000E+00  0.00000000E+00
  0.00000000E+00  0.00000000E+00  0.00000000E+00
  0.00000000E+00  0.00000000E+00  0.00000000E+00
  0.00000000E+00  0.00000000E+00  0.00000000E+00
  0.00000000E+00  0.00000000E+00  0.00000000E+00
  0.00000000E+00  0.00000000E+00  0.00000000E+00
  0.00000000E+00  0.00000000E+00  0.00000000E+00
  0.00000000E+00  0.00000000E+00  0.00000000E+00
  0.00000000E+00  0.00000000E+00  0.00000000E+00
  0.00000000E+00  0.00000000E+00  0.00000000E+00
  0.00000000E+00  0.00000000E+00  0.00000000E+00
  0.00000000E+00  0.00000000E+00  0.00000000E+00
  0.00000000E+00  0.00000000E+00  0.00000000E+00
  0.00000000E+00  0.00000000E+00  0.00000000E+00
  0.00000000E+00  0.00000000E+00  0.00000000E+00
  0.00000000E+00  0.00000000E+00  0.00000000E+00
  0.00000000E+00  0.00000000E+00  0.00000000E+00
  0.00000000E+00  0.00000000E+00  0.00000000E+00
  0.00000000E+00  0.00000000E+00  0.00000000E+00
  0.00000000E+00  0.00000000E+00  0.00000000E+00
  0.00000000E+00  0.00000000E+00  0.00000000E+00
  0.00000000E+00  0.00000000E+00  0.00000000E+00
  0.00000000E+00  0.00000000E+00  0.00000000E+00
  0.00000000E+00  0.00000000E+00  0.00000000E+00
  0.00000000E+00  0.00000000E+00  0.00000000E+00
  0.00000000E+00  0.00000000E+00  0.00000000E+00
  0.00000000E+00  0.00000000E+00  0.00000000E+00
  0.00000000E+00  0.00000000E+00  0.00000000E+00
  0.00000000E+00  0.00000000E+00  0.00000000E+00
  0.00000000E+00  0.00000000E+00  0.00000000E+00
  0.00000000E+00  0.00000000E+00  0.00000000E+00
  0.00000000E+00  0.00000000E+00  0.00000000E+00
  0.00000000E+00  0.00000000E+00  0.00000000E+00
  0.00000000E+00  0.00000000E+00  0.00000000E+00
  0.00000000E+00  0.00000000E+00  0.00000000E+00
  0.00000000E+00  0.00000000E+00  0.00000000E+00
  0.00000000E+00  0.00000000E+00  0.00000000E+00
  0.00000000E+00  0.00000000E+00  0.00000000E+00
  0.00000000E+00  0.00000000E+00  0.00000000E+00
  0.00000000E+00  0.00000000E+00  0.00000000E+00
  0.00000000E+00  0.00000000E+00  0.00000000E+00
  0.00000000E+00  0.00000000E+00  0.00000000E+00
  0.00000000E+00  0.00000000E+00  0.00000000E+00
  0.00000000E+00  0.00000000E+00  0.00000000E+00
  0.00000000E+00  0.00000000E+00  0.00000000E+00
  0.00000000E+00  0.00000000E+00  0.00000000E+00
  0.00000000E+00  0.00000000E+00  0.00000000E+00
  0.00000000E+00  0.00000000E+00  0.00000000E+00
  0.00000000E+00  0.00000000E+00  0.00000000E+00
  0.00000000E+00  0.00000000E+00  0.00000000E+00
  0.00000000E+00  0.00000000E+00  0.00000000E+00
  0.00000000E+00  0.00000000E+00  0.00000000E+00
  0.00000000E+00  0.00000000E+00  0.00000000E+00
  0.00000000E+00  0.00000000E+00  0.00000000E+00
  0.00000000E+00  0.00000000E+00  0.00000000E+00
  0.00000000E+00  0.00000000E+00  0.00000000E+00
  0.00000000E+00  0.00000000E+00  0.00000000E+00
  0.00000000E+00  0.00000000E+00  0.00000000E+00
  0.00000000E+00  0.00000000E+00  0.00000000E+00
  0.00000000E+00  0.00000000E+00  0.00000000E+00
  0.00000000E+00  0.00000000E+00  0.00000000E+00
  0.00000000E+00  0.00000000E+00  0.00000000E+00
  0.00000000E+00  0.00000000E+00  0.00000000E+00
  0.00000000E+00  0.00000000E+00  0.00000000E+00
  0.00000000E+00  0.00000000E+00  0.00000000E+00
  0.00000000E+00  0.00000000E+00  0.00000000E+00
  0.00000000E+00  0.00000000E+00  0.00000000E+00
  0.00000000E+00  0.00000000E+00  0.00000000E+00
  0.00000000E+00  0.00000000E+00  0.00000000E+00
  0.00000000E+00  0.00000000E+00  0.00000000E+00
  0.00000000E+00  0.00000000E+00  0.00000000E+00
  0.00000000E+00  0.00000000E+00  0.00000000E+00
  0.00000000E+00  0.00000000E+00  0.00000000E+00
  0.00000000E+00  0.00000000E+00  0.00000000E+00
  0.00000000E+00  0.00000000E+00  0.00000000E+00
  0.00000000E+00  0.00000000E+00  0.00000000E+00
  0.00000000E+00  0.00000000E+00  0.00000000E+00
  0.00000000E+00  0.00000000E+00  0.00000000E+00
  0.00000000E+00  0.00000000E+00  0.00000000E+00
  0.00000000E+00  0.00000000E+00  0.00000000E+00
  0.00000000E+00  0.00000000E+00  0.00000000E+00
  0.00000000E+00  0.00000000E+00  0.00000000E+00
  0.00000000E+00  0.00000000E+00  0.00000000E+00
  0.00000000E+00  0.00000000E+00  0.00000000E+00
  0.00000000E+00  0.00000000E+00  0.00000000E+00
  0.00000000E+00  0.00000000E+00  0.00000000E+00
  0.00000000E+00  0.00000000E+00  0.00000000E+00
  0.00000000E+00  0.00000000E+00  0.00000000E+00
  0.00000000E+00  0.00000000E+00  0.00000000E+00
  0.00000000E+00  0.00000000E+00  0.00000000E+00
  0.00000000E+00  0.00000000E+00  0.00000000E+00
  0.00000000E+00  0.00000000E+00  0.00000000E+00
  0.00000000E+00  0.00000000E+00  0.00000000E+00
  0.00000000E+00  0.00000000E+00  0.00000000E+00
  0.00000000E+00  0.00000000E+00  0.00000000E+00
  0.00000000E+00  0.00000000E+00  0.00000000E+00
  0.00000000E+00  0.00000000E+00  0.00000000E+00
  0.00000000E+00  0.00000000E+00  0.00000000E+00
  0.00000000E+00  0.00000000E+00  0.00000000E+00
  0.00000000E+00  0.00000000E+00  0.00000000E+00
  0.00000000E+00  0.00000000E+00  0.00000000E+00
  0.00000000E+00  0.00000000E+00  0.00000000E+00
  0.00000000E+00  0.00000000E+00  0.00000000E+00
  0.00000000E+00  0.00000000E+00  0.00000000E+00
  0.00000000E+00  0.00000000E+00  0.00000000E+00
  0.00000000E+00  0.00000000E+00  0.00000000E+00
  0.00000000E+00  0.00000000E+00  0.00000000E+00
  0.00000000E+00  0.00000000E+00  0.00000000E+00
  0.00000000E+00  0.00000000E+00  0.00000000E+00
  0.00000000E+00  0.00000000E+00  0.00000000E+00
  0.00000000E+00  0.00000000E+00  0.00000000E+00
  0.00000000E+00  0.00000000E+00  0.00000000E+00
  0.00000000E+00  0.00000000E+00  0.00000000E+00
  0.00000000E+00  0.00000000E+00  0.00000000E+00
  0.00000000E+00  0.00000000E+00  0.00000000E+00
  0.00000000E+00  0.00000000E+00  0.00000000E+00
  0.00000000E+00  0.00000000E+00  0.00000000E+00
  0.00000000E+00  0.00000000E+00  0.00000000E+00
  0.00000000E+00  0.00000000E+00  0.00000000E+00
  0.00000000E+00  0.00000000E+00  0.00000000E+00
  0.00000000E+00  0.00000000E+00  0.00000000E+00
  0.00000000E+00  0.00000000E+00  0.00000000E+00
  0.00000000E+00  0.00000000E+00  0.00000000E+00
  0.00000000E+00  0.00000000E+00  0.00000000E+00
  0.00000000E+00  0.00000000E+00  0.00000000E+00
  0.00000000E+00  0.00000000E+00  0.00000000E+00
  0.00000000E+00  0.00000000E+00  0.00000000E+00
  0.00000000E+00  0.00000000E+00  0.00000000E+00
  0.00000000E+00  0.00000000E+00  0.00000000E+00
  0.00000000E+00  0.00000000E+00  0.00000000E+00
  0.00000000E+00  0.00000000E+00  0.00000000E+00
  0.00000000E+00  0.00000000E+00  0.00000000E+00
  0.00000000E+00  0.00000000E+00  0.00000000E+00
  0.00000000E+00  0.00000000E+00  0.00000000E+00
  0.00000000E+00  0.00000000E+00  0.00000000E+00
  0.00000000E+00  0.00000000E+00  0.00000000E+00
  0.00000000E+00  0.00000000E+00  0.00000000E+00
  0.00000000E+00  0.00000000E+00  0.00000000E+00
  0.00000000E+00  0.00000000E+00  0.00000000E+00
  0.00000000E+00  0.00000000E+00  0.00000000E+00
  0.00000000E+00  0.00000000E+00  0.00000000E+00
  0.00000000E+00  0.00000000E+00  0.00000000E+00
  0.00000000E+00  0.00000000E+00  0.00000000E+00
  0.00000000E+00  0.00000000E+00  0.00000000E+00
  0.00000000E+00  0.00000000E+00  0.00000000E+00
  0.00000000E+00  0.00000000E+00  0.00000000E+00
  0.00000000E+00  0.00000000E+00  0.00000000E+00
  0.00000000E+00  0.00000000E+00  0.00000000E+00
  0.00000000E+00  0.00000000E+00  0.00000000E+00
  0.00000000E+00  0.00000000E+00  0.00000000E+00
  0.00000000E+00  0.00000000E+00  0.00000000E+00
  0.00000000E+00  0.00000000E+00  0.00000000E+00
  0.00000000E+00  0.00000000E+00  0.00000000E+00
  0.00000000E+00  0.00000000E+00  0.00000000E+00
  0.00000000E+00  0.00000000E+00  0.00000000E+00
  0.00000000E+00  0.00000000E+00  0.00000000E+00
  0.00000000E+00  0.00000000E+00  0.00000000E+00
  0.00000000E+00  0.00000000E+00  0.00000000E+00
  0.00000000E+00  0.00000000E+00  0.00000000E+00
  0.00000000E+00  0.00000000E+00  0.00000000E+00
  0.00000000E+00  0.00000000E+00  0.00000000E+00
  0.00000000E+00  0.00000000E+00  0.00000000E+00
  0.00000000E+00  0.00000000E+00  0.00000000E+00
  0.00000000E+00  0.00000000E+00  0.00000000E+00
  0.00000000E+00  0.00000000E+00  0.00000000E+00
  0.00000000E+00  0.00000000E+00  0.00000000E+00
  0.00000000E+00  0.00000000E+00  0.00000000E+00
  0.00000000E+00  0.00000000E+00  0.00000000E+00
  0.00000000E+00  0.00000000E+00  0.00000000E+00
  0.00000000E+00  0.00000000E+00  0.00000000E+00
  0.00000000E+00  0.00000000E+00  0.00000000E+00
  0.00000000E+00  0.00000000E+00  0.00000000E+00
  0.00000000E+00  0.00000000E+00  0.00000000E+00
  0.00000000E+00  0.00000000E+00  0.00000000E+00
  0.00000000E+00  0.00000000E+00  0.00000000E+00
  0.00000000E+00  0.00000000E+00  0.00000000E+00
  0.00000000E+00  0.00000000E+00  0.00000000E+00
  0.00000000E+00  0.00000000E+00  0.00000000E+00
  0.00000000E+00  0.00000000E+00  0.00000000E+00
  0.00000000E+00  0.00000000E+00  0.00000000E+00
  0.00000000E+00  0.00000000E+00  0.00000000E+00
  0.00000000E+00  0.00000000E+00  0.00000000E+00
  0.00000000E+00  0.00000000E+00  0.00000000E+00
  0.00000000E+00  0.00000000E+00  0.00000000E+00
  0.00000000E+00  0.00000000E+00  0.00000000E+00
  0.00000000E+00  0.00000000E+00  0.00000000E+00
  0.00000000E+00  0.00000000E+00  0.00000000E+00
  0.00000000E+00  0.00000000E+00  0.00000000E+00
  0.00000000E+00  0.00000000E+00  0.00000000E+00
  0.00000000E+00  0.00000000E+00  0.00000000E+00
  0.00000000E+00  0.00000000E+00  0.00000000E+00
  0.00000000E+00  0.00000000E+00  0.00000000E+00
  0.00000000E+00  0.00000000E+00  0.00000000E+00
  0.00000000E+00  0.00000000E+00  0.00000000E+00
  0.00000000E+00  0.00000000E+00  0.00000000E+00
  0.00000000E+00  0.00000000E+00  0.00000000E+00
  0.00000000E+00  0.00000000E+00  0.00000000E+00
  0.00000000E+00  0.00000000E+00  0.00000000E+00
  0.00000000E+00  0.00000000E+00  0.00000000E+00
  0.00000000E+00  0.00000000E+00  0.00000000E+00
  0.00000000E+00  0.00000000E+00  0.00000000E+00
  0.00000000E+00  0.00000000E+00  0.00000000E+00
  0.00000000E+00  0.00000000E+00  0.00000000E+00
  0.00000000E+00  0.00000000E+00  0.00000000E+00
  0.00000000E+00  0.00000000E+00  0.00000000E+00
  0.00000000E+00  0.00000000E+00  0.00000000E+00
  0.00000000E+00  0.00000000E+00  0.00000000E+00
  0.00000000E+00  0.00000000E+00  0.00000000E+00
  0.00000000E+00  0.00000000E+00  0.00000000E+00
  0.00000000E+00  0.00000000E+00  0.00000000E+00
  0.00000000E+00  0.00000000E+00  0.00000000E+00
  0.00000000E+00  0.00000000E+00  0.00000000E+00
  0.00000000E+00  0.00000000E+00  0.00000000E+00
  0.00000000E+00  0.00000000E+00  0.00000000E+00
  0.00000000E+00  0.00000000E+00  0.00000000E+00
  0.00000000E+00  0.00000000E+00  0.00000000E+00
  0.00000000E+00  0.00000000E+00  0.00000000E+00
  0.00000000E+00  0.00000000E+00  0.00000000E+00
  0.00000000E+00  0.00000000E+00  0.00000000E+00
  0.00000000E+00  0.00000000E+00  0.00000000E+00
  0.00000000E+00  0.00000000E+00  0.00000000E+00
  0.00000000E+00  0.00000000E+00  0.00000000E+00
  0.00000000E+00  0.00000000E+00  0.00000000E+00
  0.00000000E+00  0.00000000E+00  0.00000000E+00
  0.00000000E+00  0.00000000E+00  0.00000000E+00
  0.00000000E+00  0.00000000E+00  0.00000000E+00
  0.00000000E+00  0.00000000E+00  0.00000000E+00
  0.00000000E+00  0.00000000E+00  0.00000000E+00
  0.00000000E+00  0.00000000E+00  0.00000000E+00
