C H O Si                                
   1.00000000000000     
     9.2874599999999994    0.0000000000000000    0.0000000000000000
     0.0000000000000000    8.7563099999999991    0.0000000000000000
     0.0000000000000000    0.0000000000000000   58.0000000000000000
   C    H    O    Si
    36    33    16    36
Selective dynamics
Direct
  0.9940792395807532  0.1316308459319823  0.0602029528428501   T   T   T
  0.3275470613164128  0.1315394562738197  0.0603333101070918   T   T   T
  0.6607141625833849  0.1315816624134795  0.0603176928549477   T   T   T
  0.9940883156244728  0.6317624298496093  0.0602149632238231   T   T   T
  0.3275330271995382  0.6314079785476083  0.0603845964277853   T   T   T
  0.6607324938219312  0.6315076161798807  0.0603406306375435   T   T   T
  0.1619317483222078  0.3768913689760839  0.1391800562425588   T   T   T
  0.4951203516007163  0.3772600846113804  0.1394213530386582   T   T   T
  0.8285580669287854  0.3769232694911330  0.1391252838685008   T   T   T
  0.1621865646491348  0.8768016143109980  0.1392393020150780   T   T   T
  0.4951629962206287  0.8765110786732333  0.1394203627743502   T   T   T
  0.8284037583569496  0.8768536540143763  0.1392427585192307   T   T   T
  0.3294216615894799  0.1279399584383617  0.1663508503194073   T   T   T
  0.6619938097299265  0.1278442226560079  0.1663291200843847   T   T   T
  0.9957051563701630  0.1262952147108116  0.1661483363231737   T   T   T
  0.3284760636129866  0.6270672051495789  0.1665997373620960   T   T   T
  0.6625639274181995  0.6270096089890973  0.1664724643445743   T   T   T
  0.9956143997734587  0.6271005114818866  0.1662811662718962   T   T   T
  0.1627979971682601  0.3797883066463977  0.1915653277552953   T   T   T
  0.4962818159744968  0.3842373659926657  0.1923961655929939   T   T   T
  0.8305971525220093  0.3793639267445703  0.1913774161520679   T   T   T
  0.1624401845607105  0.8824351712788093  0.1917577597071710   T   T   T
  0.4960894517108969  0.8844983386426964  0.1916725015428481   T   T   T
  0.8294155397439097  0.8824762462037259  0.1917282973544065   T   T   T
  0.1612212214694628  0.3769250955237837  0.0856893895249781   T   T   T
  0.4945172988780902  0.3768530031718775  0.0858350088289001   T   T   T
  0.8278402889606470  0.3769572780480385  0.0856581047266207   T   T   T
  0.1612648390653140  0.8769592393743630  0.0857159015117231   T   T   T
  0.4944815029963004  0.8768336046614854  0.0858198563189551   T   T   T
  0.8278085383577531  0.8770164017369029  0.0857065652733393   T   T   T
  0.3282923701298093  0.1268392422871012  0.1128710521618001   T   T   T
  0.6614899996458493  0.1267563954342886  0.1128693872491109   T   T   T
  0.9948293454079431  0.1266952501809006  0.1127627257548715   T   T   T
  0.3282283738600329  0.6267270104403632  0.1129284080241391   T   T   T
  0.6616083735882414  0.6267216827934576  0.1128773247038052   T   T   T
  0.9948273177370485  0.6268683774614865  0.1127708624066120   T   T   T
  0.0831539996075468  0.3570692097469873  0.0254349189874846   T   T   T
  0.4145326198661473  0.3573516426800091  0.0257624731121850   T   T   T
  0.7471952240307960  0.3569749776663701  0.0256269605782916   T   T   T
  0.0839798388768605  0.8573281887945317  0.0254251041378013   T   T   T
  0.4142350635274041  0.8571251597422451  0.0258014084812962   T   T   T
  0.7467432059426552  0.8570162656482960  0.0257142485950650   T   T   T
  0.3255403293822293  0.0595076884649535  0.0447604910246728   T   T   T
  0.6581538363704548  0.0595397759082071  0.0447409449910934   T   T   T
  0.9919303750052390  0.0596294665883286  0.0446259051404704   T   T   T
  0.3254328664436941  0.5592655871600561  0.0448234996575881   T   T   T
  0.6583109555482993  0.5594261133684734  0.0447672238026891   T   T   T
  0.9919528148513636  0.5598339656158446  0.0446289191481371   T   T   T
  0.8310251894271738  0.8115691765872474  0.2073949437646123   T   T   T
  0.8329696229304603  0.3076477254646996  0.2069798775869690   T   T   T
  0.1635264204138577  0.3080532199942383  0.2071605663480778   T   T   T
  0.4990707185286366  0.3109304692766237  0.2078322921451444   T   T   T
  0.1654148862099221  0.8107201880569002  0.2073433176983525   T   T   T
  0.4965440889799240  0.8165113638960746  0.2087962727686598   T   T   T
  0.0749093018963137  0.1074013488064934  0.2264132802410995   T   T   T
  0.4071810238062121  0.1096170517227181  0.2265859636703543   T   T   T
  0.7420738529090097  0.1070719848814983  0.2266301655664859   T   T   T
  0.0779736360577530  0.6081503259200360  0.2254425130384300   T   T   T
  0.3665619505078169  0.5725041190472250  0.2315575263034325   T   T   T
  0.7755371219956526  0.5997637055091435  0.2239363407474615   T   T   T
  0.5058442603908373  0.5482251181590285  0.2682729749343544   T   T   T
  0.4980208219994534  0.4621551300108526  0.3020975027012336   T   T   T
  0.5578512584023085  0.6285717162834817  0.3081569166243486   T   T   T
  0.2882025945112439  0.3334719094240620  0.2985756992552417   T   T   T
  0.4145857836773307  0.2184005586803500  0.2972410031226507   T   T   T
  0.6457479105231712  0.7694984624646583  0.3395592038950569   T   T   T
  0.4815049954065637  0.7975630548432088  0.3373839029053716   T   T   T
  0.4967147999437022  0.7927814612279765  0.2303460469412225   T   T   T
  0.5681047222696494  0.5443179766025540  0.2426225013406618   T   T   T
  0.1715425095959844  0.3442953072182069  0.0343303340027263   T   T   T
  0.5038251442617314  0.3444794142989296  0.0344411993538451   T   T   T
  0.8365989261841379  0.3440407528171328  0.0342720492985258   T   T   T
  0.1721050245877979  0.8442547999741167  0.0343712648546973   T   T   T
  0.5037050917448261  0.8440394780605700  0.0344287949390417   T   T   T
  0.8363080665386599  0.8441726143891437  0.0343234257872980   T   T   T
  0.3185843516687935  0.0941804477626350  0.2178281556917762   T   T   T
  0.6534533301699750  0.0953515628345960  0.2177328521010920   T   T   T
  0.9860210641712692  0.0950489040615363  0.2176119978048194   T   T   T
  0.3117217706384826  0.6024770137057242  0.2172553197430849   T   T   T
  0.6765282394744476  0.5924523953809944  0.2179695718263449   T   T   T
  0.9860242859040996  0.5905452933438629  0.2176128462581862   T   T   T
  0.5614922282551266  0.5456147931152532  0.2965047520506601   T   T   T
  0.3784200645358328  0.3052018095262625  0.3060350083368573   T   T   T
  0.5688046413193080  0.7831995593822485  0.3283145225557917   T   T   T
  0.4809954495679833  0.5240481840046244  0.2518712883454700   T   T   T
  0.4941202815205153  0.2496689742203660  0.0593734303202634   T   T   T
  0.8273351226605260  0.2496089819751433  0.0592262065115800   T   T   T
  0.1609958221652598  0.7495855285086346  0.0592930505487573   T   T   T
  0.4940990007379649  0.7494744570095341  0.0593828619433869   T   T   T
  0.8272901492597190  0.7496285906438739  0.0592717214383065   T   T   T
  0.1609040312408806  0.2496265398004254  0.0592571846940200   T   T   T
  0.9953370621226358  0.0021305026937298  0.1394203871745281   T   T   T
  0.3288817434142289  0.0025749644506786  0.1395910208544938   T   T   T
  0.6616447957811349  0.0024934007679306  0.1395789744282150   T   T   T
  0.9952836977015700  0.5026164366536270  0.1394436411808507   T   T   T
  0.3283449731193221  0.5026973054877176  0.1396896390304009   T   T   T
  0.6620280616507882  0.5025925326796905  0.1395779217240765   T   T   T
  0.1620101250573619  0.2516960966529322  0.1658325327254020   T   T   T
  0.4956343740382172  0.2539130922404381  0.1663138192221078   T   T   T
  0.8296657439439812  0.2512721912099291  0.1657118460598394   T   T   T
  0.1622213998660058  0.7526230474539505  0.1660038102396575   T   T   T
  0.4954046453352915  0.7511598442850504  0.1662426363011207   T   T   T
  0.8290588605272048  0.7525176710393414  0.1659881780990496   T   T   T
  0.3283669540238186  0.0010467067070943  0.1927950860749337   T   T   T
  0.6636645196380155  0.0012269779845583  0.1927922898450493   T   T   T
  0.9959740602346908  0.0002860724323126  0.1926896683852348   T   T   T
  0.3275348169697699  0.5010443060727146  0.1931912150181463   T   T   T
  0.9965987391110648  0.4976831814378426  0.1924187656359986   T   T   T
  0.6655684626593045  0.4987441624212007  0.1927121628438022   T   T   T
  0.9945223125497025  0.0023255334565443  0.0860091647271537   T   T   T
  0.3279293625798863  0.0022892542030634  0.0861156341264983   T   T   T
  0.6611030897939352  0.0022812426301019  0.0861040976055752   T   T   T
  0.9945273105412603  0.5023117682671950  0.0860108534314087   T   T   T
  0.3278594958729087  0.5021491473465260  0.0861722982133800   T   T   T
  0.6612094767045650  0.5021833659298827  0.0861216012848896   T   T   T
  0.1614994119678052  0.2525151405652680  0.1125040044437846   T   T   T
  0.4948345517764103  0.2526303790053223  0.1126783582010456   T   T   T
  0.8282359043930720  0.2524677488116097  0.1124638086174225   T   T   T
  0.1616752256343177  0.7525916263300024  0.1125402759657803   T   T   T
  0.4948418481845028  0.7523136563017961  0.1126386610753463   T   T   T
  0.8281411245986195  0.7526010299267959  0.1125258200247207   T   T   T
 
             NaN             NaN             NaN
             NaN             NaN             NaN
             NaN             NaN             NaN
             NaN             NaN             NaN
             NaN             NaN             NaN
             NaN             NaN             NaN
             NaN             NaN             NaN
             NaN             NaN             NaN
             NaN             NaN             NaN
             NaN             NaN             NaN
             NaN             NaN             NaN
             NaN             NaN             NaN
             NaN             NaN             NaN
             NaN             NaN             NaN
             NaN             NaN             NaN
             NaN             NaN             NaN
             NaN             NaN             NaN
             NaN             NaN             NaN
             NaN             NaN             NaN
             NaN             NaN             NaN
             NaN             NaN             NaN
             NaN             NaN             NaN
             NaN             NaN             NaN
             NaN             NaN             NaN
             NaN             NaN             NaN
             NaN             NaN             NaN
             NaN             NaN             NaN
             NaN             NaN             NaN
             NaN             NaN             NaN
             NaN             NaN             NaN
             NaN             NaN             NaN
             NaN             NaN             NaN
             NaN             NaN             NaN
             NaN             NaN             NaN
             NaN             NaN             NaN
             NaN             NaN             NaN
             NaN             NaN             NaN
             NaN             NaN             NaN
             NaN             NaN             NaN
             NaN             NaN             NaN
             NaN             NaN             NaN
             NaN             NaN             NaN
             NaN             NaN             NaN
             NaN             NaN             NaN
             NaN             NaN             NaN
             NaN             NaN             NaN
             NaN             NaN             NaN
             NaN             NaN             NaN
             NaN             NaN             NaN
             NaN             NaN             NaN
             NaN             NaN             NaN
             NaN             NaN             NaN
             NaN             NaN             NaN
             NaN             NaN             NaN
             NaN             NaN             NaN
             NaN             NaN             NaN
             NaN             NaN             NaN
             NaN             NaN             NaN
             NaN             NaN             NaN
             NaN             NaN             NaN
             NaN             NaN             NaN
             NaN             NaN             NaN
             NaN             NaN             NaN
             NaN             NaN             NaN
             NaN             NaN             NaN
             NaN             NaN             NaN
             NaN             NaN             NaN
             NaN             NaN             NaN
             NaN             NaN             NaN
             NaN             NaN             NaN
             NaN             NaN             NaN
             NaN             NaN             NaN
             NaN             NaN             NaN
             NaN             NaN             NaN
             NaN             NaN             NaN
             NaN             NaN             NaN
             NaN             NaN             NaN
             NaN             NaN             NaN
             NaN             NaN             NaN
             NaN             NaN             NaN
             NaN             NaN             NaN
             NaN             NaN             NaN
             NaN             NaN             NaN
             NaN             NaN             NaN
             NaN             NaN             NaN
             NaN             NaN             NaN
             NaN             NaN             NaN
             NaN             NaN             NaN
             NaN             NaN             NaN
             NaN             NaN             NaN
             NaN             NaN             NaN
             NaN             NaN             NaN
             NaN             NaN             NaN
             NaN             NaN             NaN
             NaN             NaN             NaN
             NaN             NaN             NaN
             NaN             NaN             NaN
             NaN             NaN             NaN
             NaN             NaN             NaN
             NaN             NaN             NaN
             NaN             NaN             NaN
             NaN             NaN             NaN
             NaN             NaN             NaN
             NaN             NaN             NaN
             NaN             NaN             NaN
             NaN             NaN             NaN
             NaN             NaN             NaN
             NaN             NaN             NaN
             NaN             NaN             NaN
             NaN             NaN             NaN
             NaN             NaN             NaN
             NaN             NaN             NaN
             NaN             NaN             NaN
             NaN             NaN             NaN
             NaN             NaN             NaN
             NaN             NaN             NaN
             NaN             NaN             NaN
             NaN             NaN             NaN
             NaN             NaN             NaN
             NaN             NaN             NaN
             NaN             NaN             NaN
