C H O Si                                
   1.00000000000000     
     9.2874599999999994    0.0000000000000000    0.0000000000000000
     0.0000000000000000   17.5126199999999983    0.0000000000000000
     0.0000000000000000    0.0000000000000000   58.0000000000000000
   C    H    O    Si
    72    57    28    72
Selective dynamics
Direct
  0.9933663185604548  0.0629918966371741  0.0604686263504111   T   T   T
  0.3266672586959949  0.0630449105967020  0.0605690898912180   T   T   T
  0.6599054528323597  0.0630433299036550  0.0605334516560708   T   T   T
  0.9932354857231309  0.3130211180549483  0.0604539613025892   T   T   T
  0.3265309176635540  0.3129549701635321  0.0605882988459257   T   T   T
  0.6598504738316003  0.3129867668537690  0.0605373932375208   T   T   T
  0.1599179574285144  0.1856349043953556  0.1394201621501333   T   T   T
  0.4932207418564538  0.1859070941837393  0.1396489551917386   T   T   T
  0.8266233292625547  0.1856094047691919  0.1393226423442593   T   T   T
  0.1599235938677053  0.4357317383163904  0.1394446004628606   T   T   T
  0.4932356048840446  0.4357129407970059  0.1394851212105418   T   T   T
  0.8266385974874764  0.4357667745138530  0.1394211034079105   T   T   T
  0.3274396316495741  0.0610793622245417  0.1667230642062222   T   T   T
  0.6597194075691767  0.0610211886230821  0.1666496463158337   T   T   T
  0.9938400999062292  0.0603436207749700  0.1664493354967922   T   T   T
  0.3267495507940252  0.3109038893015376  0.1667822440272648   T   T   T
  0.6605806513310647  0.3109444990066717  0.1666406883279877   T   T   T
  0.9936492707038197  0.3108602603202338  0.1665134165617521   T   T   T
  0.1603411232860823  0.1873997081045068  0.1917995256569646   T   T   T
  0.4939799263431148  0.1897603866892001  0.1927039453250193   T   T   T
  0.8280730159807731  0.1868239424384461  0.1915079043479206   T   T   T
  0.1599354760163166  0.4383547542715795  0.1919578580278289   T   T   T
  0.4935118926928920  0.4379316002764407  0.1919859933741078   T   T   T
  0.8270497330102279  0.4384459750411630  0.1918956889312543   T   T   T
  0.1597406777248149  0.1857957644192976  0.0858888977104768   T   T   T
  0.4930483982846950  0.1858260330713244  0.0860165416429671   T   T   T
  0.8264156167621589  0.1858100027838085  0.0858392171807456   T   T   T
  0.1597551047279814  0.4358079134845253  0.0859031483199263   T   T   T
  0.4930213606437067  0.4357905089384507  0.0859400900465003   T   T   T
  0.8263482500679304  0.4358074316219213  0.0858938378222604   T   T   T
  0.3264393314713139  0.0607465306002494  0.1131057990172975   T   T   T
  0.6596826992501328  0.0607480089336555  0.1130688521510436   T   T   T
  0.9931078408624675  0.0606253669333037  0.1130042491528819   T   T   T
  0.3263248635332061  0.3106810734588439  0.1131360968682034   T   T   T
  0.6598134323456909  0.3107065638040514  0.1130770696676256   T   T   T
  0.9930688792906307  0.3107033065748057  0.1129966204592576   T   T   T
  0.9933746619070415  0.5629716432517381  0.0605077671044036   T   T   T
  0.3266581272162011  0.5629968670227714  0.0605255235546318   T   T   T
  0.6600245420286116  0.5630004543009193  0.0605301318455233   T   T   T
  0.9931971519480629  0.8130275415644707  0.0605129926116457   T   T   T
  0.3265044400192726  0.8129953530066488  0.0605185293786768   T   T   T
  0.6598521811162209  0.8130288378684637  0.0605122369745112   T   T   T
  0.1599354054582267  0.6857653364070815  0.1394387228203088   T   T   T
  0.4932455984395528  0.6857752401695169  0.1394503488131967   T   T   T
  0.8265954686241100  0.6857482815463984  0.1394331937580489   T   T   T
  0.1602903894547882  0.9356978512218332  0.1394619915330700   T   T   T
  0.4931930062224434  0.9356794006356774  0.1394585997644411   T   T   T
  0.8264190003554371  0.9357318503000882  0.1394358672769882   T   T   T
  0.3268873708883454  0.5609609496384841  0.1665851159617849   T   T   T
  0.6600599279612973  0.5609370642317679  0.1665859579435729   T   T   T
  0.9935438804812922  0.5610627990711985  0.1665514967303619   T   T   T
  0.3269437244443904  0.8108748456580452  0.1666074895626011   T   T   T
  0.6602696113996305  0.8108767777248214  0.1665915489779776   T   T   T
  0.9936136959607393  0.8109330304946947  0.1665888840153491   T   T   T
  0.1603743610105816  0.6881504415375047  0.1919840867403118   T   T   T
  0.4937229418932480  0.6881119616303243  0.1919968823868622   T   T   T
  0.8269895723506329  0.6881287800610164  0.1919598917931335   T   T   T
  0.1605321682949008  0.9380836643223589  0.1920165032154467   T   T   T
  0.4939018543946896  0.9379576583669071  0.1920215886441543   T   T   T
  0.8271010103966732  0.9380702357632206  0.1919619141725875   T   T   T
  0.1596586495134428  0.6858276676725396  0.0858975341524791   T   T   T
  0.4930415248921289  0.6857957454597395  0.0859126562741772   T   T   T
  0.8263782930642275  0.6858434495102088  0.0858988993118814   T   T   T
  0.1597560859195096  0.9358191097329679  0.0859097849455153   T   T   T
  0.4930243467732003  0.9358016939045266  0.0859286927793435   T   T   T
  0.8263228261525872  0.9358621908950557  0.0858933966188209   T   T   T
  0.3263815689044375  0.5607239890792239  0.1130563055873777   T   T   T
  0.6597303813239848  0.5607229045610690  0.1130550175211721   T   T   T
  0.9930676289530572  0.5607241120752782  0.1130351009197679   T   T   T
  0.3263631277273132  0.8106858003383891  0.1130435255862790   T   T   T
  0.6596861355243322  0.8107038480498275  0.1130427006406132   T   T   T
  0.9930382049506822  0.8107619379576484  0.1130503903398588   T   T   T
  0.0797924171458633  0.1774177660738693  0.0263482938825900   T   T   T
  0.4116845937157722  0.1773400869424841  0.0265887771321593   T   T   T
  0.7451923568620711  0.1772845480284538  0.0264305774692863   T   T   T
  0.0798614897992145  0.4274213706447474  0.0263441097336558   T   T   T
  0.4113652611134374  0.4271060893865240  0.0265440726758468   T   T   T
  0.7444613560441176  0.4270872533985325  0.0265076283149902   T   T   T
  0.3242352317019682  0.0268077951718131  0.0450452727363322   T   T   T
  0.6568850068779295  0.0268704116147102  0.0449988995877306   T   T   T
  0.9906999733315035  0.0268349799042053  0.0449295607605027   T   T   T
  0.3239355613795972  0.2766611699142902  0.0450765560580325   T   T   T
  0.6571098099870510  0.2767823752764678  0.0450092142858832   T   T   T
  0.9905513857885342  0.2769055789781928  0.0449028630054515   T   T   T
  0.8291316524667957  0.4025615759745411  0.2074634047830432   T   T   T
  0.8303082365431929  0.1508302512084815  0.2070775558899762   T   T   T
  0.1615918883539113  0.1514039605706367  0.2073726823895341   T   T   T
  0.4966811151596616  0.1528666889515287  0.2080906558798089   T   T   T
  0.1623389526052431  0.4020288488739353  0.2074545206536519   T   T   T
  0.4941968540279251  0.4017674069744361  0.2075242092085488   T   T   T
  0.0760368927950887  0.0513263169231400  0.2259462177795334   T   T   T
  0.4108747227975200  0.0507000599249232  0.2260085482920728   T   T   T
  0.7443083855010629  0.0510009404959576  0.2258666519887664   T   T   T
  0.0740288131051104  0.3008960236363035  0.2255552361602121   T   T   T
  0.3761147895092473  0.3093197400966051  0.2291035124519930   T   T   T
  0.7797393691547662  0.2949666174691493  0.2234133785473798   T   T   T
  0.5419072665610122  0.3050961248755698  0.2744470033824531   T   T   T
  0.4890973433796224  0.2372862305687641  0.2936463972255686   T   T   T
  0.5697906239062750  0.3196856768697902  0.3033453723653505   T   T   T
  0.3119226948516501  0.1929163137745728  0.3097019966215209   T   T   T
  0.4216215062861642  0.1295161120273636  0.3023902935333050   T   T   T
  0.6521307535922730  0.3665386281214092  0.3332618057495949   T   T   T
  0.4863113114534349  0.3796171142936261  0.3306870852659883   T   T   T
  0.5111164573594844  0.3960785063634337  0.2525716115362306   T   T   T
  0.5823871197775554  0.3253023720478445  0.2393481374176888   T   T   T
  0.0791293102300777  0.6773856115612948  0.0264226739936371   T   T   T
  0.4122822310000421  0.6773365989626573  0.0264628713128068   T   T   T
  0.7454540194087856  0.6773011351155164  0.0264713788523959   T   T   T
  0.0788767826071396  0.9272748733661492  0.0264215826320400   T   T   T
  0.4115214159383299  0.9271450351114691  0.0265074593937443   T   T   T
  0.7451343595366788  0.9272434131030635  0.0264635853403444   T   T   T
  0.3240380279523649  0.5267926474684262  0.0449958352182896   T   T   T
  0.6573855969139173  0.5268260095454000  0.0449943386341372   T   T   T
  0.9906107607881539  0.5268075204369776  0.0449684573041489   T   T   T
  0.3238475262657322  0.7767877793455232  0.0449879553381194   T   T   T
  0.6571322823094992  0.7768449388267585  0.0449770087309786   T   T   T
  0.9905250062742829  0.7768444481417407  0.0449768028281775   T   T   T
  0.8294003617958237  0.9018457402943978  0.2074838565183215   T   T   T
  0.8294658139995280  0.6519266307815859  0.2074873231157998   T   T   T
  0.1626625802216636  0.6519036232528510  0.2075026069557068   T   T   T
  0.4962318641606241  0.6520009124661733  0.2075432322064855   T   T   T
  0.1626436308893379  0.9018601389364644  0.2075416788929823   T   T   T
  0.4963647537707698  0.9017681978129416  0.2075551953393788   T   T   T
  0.0758977532211167  0.5520570633066058  0.2258660885878999   T   T   T
  0.4098953641538430  0.5527914673105436  0.2256971447285860   T   T   T
  0.7433179930844751  0.5520829858968528  0.2257674495730358   T   T   T
  0.0765121939543284  0.8014379851707405  0.2258979465874807   T   T   T
  0.4095538648946900  0.8015730268770170  0.2259601048202106   T   T   T
  0.7445675507370513  0.8011652362466815  0.2257904563800375   T   T   T
  0.1709142302147656  0.1675286708226667  0.0341936218528089   T   T   T
  0.5032929183113409  0.1677382141496782  0.0343229720048210   T   T   T
  0.8367557996137674  0.1673942710392105  0.0341458532368139   T   T   T
  0.1709173402958915  0.4175268348771369  0.0342080309085138   T   T   T
  0.5030698515112847  0.4174347632668438  0.0342479646120802   T   T   T
  0.8362013930873503  0.4175243269008315  0.0342072571072494   T   T   T
  0.3185430088650611  0.0425953911458158  0.2183262528275172   T   T   T
  0.6517744151016607  0.0427746962819561  0.2182503490954013   T   T   T
  0.9841777366339565  0.0428660559427657  0.2181588404965932   T   T   T
  0.3000092804367940  0.2930724549008595  0.2183173413853230   T   T   T
  0.6782994894690659  0.2923422702297048  0.2183859462272163   T   T   T
  0.9814125298654814  0.2910536487901390  0.2180439871507925   T   T   T
  0.5668033015075183  0.2793018140826443  0.2899966233496360   T   T   T
  0.3794722521975246  0.1780938658954120  0.2976212458857757   T   T   T
  0.5763400707593809  0.3770360569252230  0.3220544170012433   T   T   T
  0.5063575072043389  0.3406254182900275  0.2508846299329142   T   T   T
  0.1704515689449115  0.6675276238154307  0.0342107650694372   T   T   T
  0.5037128313479865  0.6674670025646673  0.0342173322722580   T   T   T
  0.8369611264313388  0.6674539791165850  0.0342083952972554   T   T   T
  0.1702340801827462  0.9175805985893105  0.0342203224854311   T   T   T
  0.5031686961150974  0.9175872742202017  0.0342360755589888   T   T   T
  0.8366544474672925  0.9175059887028535  0.0342059218069601   T   T   T
  0.3176108695592088  0.5425915581239372  0.2182368326931979   T   T   T
  0.6509476953748513  0.5426286582322539  0.2182337321677057   T   T   T
  0.9838422389221249  0.5429001117910601  0.2182143452546570   T   T   T
  0.3176006743209987  0.7926910638663315  0.2182499760423418   T   T   T
  0.6519046686151613  0.7927094697645682  0.2182398373873638   T   T   T
  0.9843078011250445  0.7927134992338484  0.2182402155794725   T   T   T
  0.4933775287950152  0.1218106398253582  0.0597341284965109   T   T   T
  0.8267273228653017  0.1217250285072461  0.0595953686881812   T   T   T
  0.1600672169161200  0.3717340181190092  0.0596496598293209   T   T   T
  0.4932999783340982  0.3716961940031419  0.0596877180594171   T   T   T
  0.8265773121809403  0.3717400779937288  0.0596423817805393   T   T   T
  0.1601528369640424  0.1217511775617693  0.0596363415878418   T   T   T
  0.9933274522945451  0.4984685682470973  0.1397094216731154   T   T   T
  0.3265484234161667  0.4984213150367894  0.1397270283616880   T   T   T
  0.6598985442776493  0.4984173534071385  0.1397259809391533   T   T   T
  0.9932933128964598  0.2482905290732950  0.1396283037035319   T   T   T
  0.3263986884268113  0.2484437298459461  0.1398561782069520   T   T   T
  0.6600715557576855  0.2483516337600515  0.1397253804810180   T   T   T
  0.1602100501153720  0.1227683537007978  0.1660276699423387   T   T   T
  0.4935199929227217  0.1239148744906809  0.1664610501969859   T   T   T
  0.8272369055305945  0.1223690473290723  0.1658258643341653   T   T   T
  0.1601534492861014  0.3732680503081824  0.1661305441164183   T   T   T
  0.4933932327626979  0.3730102834927764  0.1661276010129053   T   T   T
  0.8271634453353853  0.3733282561215231  0.1660883235015111   T   T   T
  0.3265570055689657  0.4968953645502979  0.1927746339935736   T   T   T
  0.6601767633649221  0.4968907910743836  0.1927783095298495   T   T   T
  0.9934332275402213  0.4971531088475458  0.1927683058036578   T   T   T
  0.3249871157984607  0.2475466858079994  0.1932484310003848   T   T   T
  0.9938588869972331  0.2458412968231331  0.1924256672797650   T   T   T
  0.6632798391457796  0.2464029124478813  0.1926509427267057   T   T   T
  0.9931166026824320  0.4980735864655879  0.0863704551631906   T   T   T
  0.3264290805212532  0.4980957751423391  0.0863876562414806   T   T   T
  0.6597560233279320  0.4980785083044249  0.0863863744619870   T   T   T
  0.9931439511988005  0.2480804223425651  0.0863152322866532   T   T   T
  0.3264095004070157  0.2480674145104535  0.0864514953989371   T   T   T
  0.6597949180897810  0.2480632711280837  0.0863928134818623   T   T   T
  0.1596982838980356  0.1233152861822948  0.1127406927370022   T   T   T
  0.4930245840728023  0.1234207918452132  0.1129005301455700   T   T   T
  0.8264411146748329  0.1232935511233216  0.1126673583962196   T   T   T
  0.1596871475213876  0.3733624948817389  0.1127653891620249   T   T   T
  0.4929979843780171  0.3733404764361393  0.1128036848470394   T   T   T
  0.8264358122903059  0.3733756514813113  0.1127461547551813   T   T   T
  0.4934530065997455  0.6217396567819617  0.0596584456632116   T   T   T
  0.8267974069697092  0.6217452885612966  0.0596521244854417   T   T   T
  0.1600011085889472  0.8717527036487431  0.0596518696397211   T   T   T
  0.4932700488833208  0.8717657946099706  0.0596652595507259   T   T   T
  0.8266210361827031  0.8717809425953466  0.0596449167137930   T   T   T
  0.1601174720436556  0.6217398992089207  0.0596486751863246   T   T   T
  0.9934532918827282  0.9980794833295121  0.1396430800988798   T   T   T
  0.3269214043402138  0.9984894585015236  0.1397871474886493   T   T   T
  0.6595604083658375  0.9984310207565330  0.1397439589116356   T   T   T
  0.9932713859520667  0.7484414811359931  0.1397226186433253   T   T   T
  0.3265793555006666  0.7484258143443088  0.1397285198411151   T   T   T
  0.6599373808493934  0.7484158719534252  0.1397229528352595   T   T   T
  0.1601546515290197  0.6232624846227793  0.1661131865708831   T   T   T
  0.4934901304023076  0.6232440576065900  0.1661177029406463   T   T   T
  0.8267966017687207  0.6232236224527264  0.1661051443658816   T   T   T
  0.1602939458579584  0.8731425932843554  0.1661408857263073   T   T   T
  0.4935828925158389  0.8730982831053087  0.1661365192945034   T   T   T
  0.8268515763440868  0.8731422606733877  0.1661095256975285   T   T   T
  0.3271868993936752  0.9966956046226374  0.1928892007852821   T   T   T
  0.6603980655932418  0.9967225755139695  0.1928262352394285   T   T   T
  0.9936895948679155  0.9966974027816332  0.1927671495039217   T   T   T
  0.3269631395474017  0.7468091512556820  0.1928205691503771   T   T   T
  0.9935509283646762  0.7468467817910885  0.1928064524793813   T   T   T
  0.6603179102098056  0.7468152461742487  0.1928010115086289   T   T   T
  0.9931379397584911  0.9980663156491595  0.0863298263510079   T   T   T
  0.3264804042190291  0.9981064653192397  0.0864203232389787   T   T   T
  0.6596747853521329  0.9981065843673370  0.0863885787963033   T   T   T
  0.9930625716717846  0.7481245931362046  0.0863755904131445   T   T   T
  0.3263865835739425  0.7480710207140909  0.0863768819166808   T   T   T
  0.6597232103994841  0.7480935441288268  0.0863708147189378   T   T   T
  0.1596911977519085  0.6233965322758642  0.1127591726921312   T   T   T
  0.4930517460232294  0.6233877217234173  0.1127799626184730   T   T   T
  0.8264052818718201  0.6233955900105363  0.1127579669988170   T   T   T
  0.1598065594593903  0.8733563940598531  0.1127694519088836   T   T   T
  0.4929793843186733  0.8733257594172469  0.1127787925770405   T   T   T
  0.8262390240141817  0.8733830209374492  0.1127549396687770   T   T   T
 
  0.00000000E+00  0.00000000E+00  0.00000000E+00
  0.00000000E+00  0.00000000E+00  0.00000000E+00
  0.00000000E+00  0.00000000E+00  0.00000000E+00
  0.00000000E+00  0.00000000E+00  0.00000000E+00
  0.00000000E+00  0.00000000E+00  0.00000000E+00
  0.00000000E+00  0.00000000E+00  0.00000000E+00
  0.00000000E+00  0.00000000E+00  0.00000000E+00
  0.00000000E+00  0.00000000E+00  0.00000000E+00
  0.00000000E+00  0.00000000E+00  0.00000000E+00
  0.00000000E+00  0.00000000E+00  0.00000000E+00
  0.00000000E+00  0.00000000E+00  0.00000000E+00
  0.00000000E+00  0.00000000E+00  0.00000000E+00
  0.00000000E+00  0.00000000E+00  0.00000000E+00
  0.00000000E+00  0.00000000E+00  0.00000000E+00
  0.00000000E+00  0.00000000E+00  0.00000000E+00
  0.00000000E+00  0.00000000E+00  0.00000000E+00
  0.00000000E+00  0.00000000E+00  0.00000000E+00
  0.00000000E+00  0.00000000E+00  0.00000000E+00
  0.00000000E+00  0.00000000E+00  0.00000000E+00
  0.00000000E+00  0.00000000E+00  0.00000000E+00
  0.00000000E+00  0.00000000E+00  0.00000000E+00
  0.00000000E+00  0.00000000E+00  0.00000000E+00
  0.00000000E+00  0.00000000E+00  0.00000000E+00
  0.00000000E+00  0.00000000E+00  0.00000000E+00
  0.00000000E+00  0.00000000E+00  0.00000000E+00
  0.00000000E+00  0.00000000E+00  0.00000000E+00
  0.00000000E+00  0.00000000E+00  0.00000000E+00
  0.00000000E+00  0.00000000E+00  0.00000000E+00
  0.00000000E+00  0.00000000E+00  0.00000000E+00
  0.00000000E+00  0.00000000E+00  0.00000000E+00
  0.00000000E+00  0.00000000E+00  0.00000000E+00
  0.00000000E+00  0.00000000E+00  0.00000000E+00
  0.00000000E+00  0.00000000E+00  0.00000000E+00
  0.00000000E+00  0.00000000E+00  0.00000000E+00
  0.00000000E+00  0.00000000E+00  0.00000000E+00
  0.00000000E+00  0.00000000E+00  0.00000000E+00
  0.00000000E+00  0.00000000E+00  0.00000000E+00
  0.00000000E+00  0.00000000E+00  0.00000000E+00
  0.00000000E+00  0.00000000E+00  0.00000000E+00
  0.00000000E+00  0.00000000E+00  0.00000000E+00
  0.00000000E+00  0.00000000E+00  0.00000000E+00
  0.00000000E+00  0.00000000E+00  0.00000000E+00
  0.00000000E+00  0.00000000E+00  0.00000000E+00
  0.00000000E+00  0.00000000E+00  0.00000000E+00
  0.00000000E+00  0.00000000E+00  0.00000000E+00
  0.00000000E+00  0.00000000E+00  0.00000000E+00
  0.00000000E+00  0.00000000E+00  0.00000000E+00
  0.00000000E+00  0.00000000E+00  0.00000000E+00
  0.00000000E+00  0.00000000E+00  0.00000000E+00
  0.00000000E+00  0.00000000E+00  0.00000000E+00
  0.00000000E+00  0.00000000E+00  0.00000000E+00
  0.00000000E+00  0.00000000E+00  0.00000000E+00
  0.00000000E+00  0.00000000E+00  0.00000000E+00
  0.00000000E+00  0.00000000E+00  0.00000000E+00
  0.00000000E+00  0.00000000E+00  0.00000000E+00
  0.00000000E+00  0.00000000E+00  0.00000000E+00
  0.00000000E+00  0.00000000E+00  0.00000000E+00
  0.00000000E+00  0.00000000E+00  0.00000000E+00
  0.00000000E+00  0.00000000E+00  0.00000000E+00
  0.00000000E+00  0.00000000E+00  0.00000000E+00
  0.00000000E+00  0.00000000E+00  0.00000000E+00
  0.00000000E+00  0.00000000E+00  0.00000000E+00
  0.00000000E+00  0.00000000E+00  0.00000000E+00
  0.00000000E+00  0.00000000E+00  0.00000000E+00
  0.00000000E+00  0.00000000E+00  0.00000000E+00
  0.00000000E+00  0.00000000E+00  0.00000000E+00
  0.00000000E+00  0.00000000E+00  0.00000000E+00
  0.00000000E+00  0.00000000E+00  0.00000000E+00
  0.00000000E+00  0.00000000E+00  0.00000000E+00
  0.00000000E+00  0.00000000E+00  0.00000000E+00
  0.00000000E+00  0.00000000E+00  0.00000000E+00
  0.00000000E+00  0.00000000E+00  0.00000000E+00
  0.00000000E+00  0.00000000E+00  0.00000000E+00
  0.00000000E+00  0.00000000E+00  0.00000000E+00
  0.00000000E+00  0.00000000E+00  0.00000000E+00
  0.00000000E+00  0.00000000E+00  0.00000000E+00
  0.00000000E+00  0.00000000E+00  0.00000000E+00
  0.00000000E+00  0.00000000E+00  0.00000000E+00
  0.00000000E+00  0.00000000E+00  0.00000000E+00
  0.00000000E+00  0.00000000E+00  0.00000000E+00
  0.00000000E+00  0.00000000E+00  0.00000000E+00
  0.00000000E+00  0.00000000E+00  0.00000000E+00
  0.00000000E+00  0.00000000E+00  0.00000000E+00
  0.00000000E+00  0.00000000E+00  0.00000000E+00
  0.00000000E+00  0.00000000E+00  0.00000000E+00
  0.00000000E+00  0.00000000E+00  0.00000000E+00
  0.00000000E+00  0.00000000E+00  0.00000000E+00
  0.00000000E+00  0.00000000E+00  0.00000000E+00
  0.00000000E+00  0.00000000E+00  0.00000000E+00
  0.00000000E+00  0.00000000E+00  0.00000000E+00
  0.00000000E+00  0.00000000E+00  0.00000000E+00
  0.00000000E+00  0.00000000E+00  0.00000000E+00
  0.00000000E+00  0.00000000E+00  0.00000000E+00
  0.00000000E+00  0.00000000E+00  0.00000000E+00
  0.00000000E+00  0.00000000E+00  0.00000000E+00
  0.00000000E+00  0.00000000E+00  0.00000000E+00
  0.00000000E+00  0.00000000E+00  0.00000000E+00
  0.00000000E+00  0.00000000E+00  0.00000000E+00
  0.00000000E+00  0.00000000E+00  0.00000000E+00
  0.00000000E+00  0.00000000E+00  0.00000000E+00
  0.00000000E+00  0.00000000E+00  0.00000000E+00
  0.00000000E+00  0.00000000E+00  0.00000000E+00
  0.00000000E+00  0.00000000E+00  0.00000000E+00
  0.00000000E+00  0.00000000E+00  0.00000000E+00
  0.00000000E+00  0.00000000E+00  0.00000000E+00
  0.00000000E+00  0.00000000E+00  0.00000000E+00
  0.00000000E+00  0.00000000E+00  0.00000000E+00
  0.00000000E+00  0.00000000E+00  0.00000000E+00
  0.00000000E+00  0.00000000E+00  0.00000000E+00
  0.00000000E+00  0.00000000E+00  0.00000000E+00
  0.00000000E+00  0.00000000E+00  0.00000000E+00
  0.00000000E+00  0.00000000E+00  0.00000000E+00
  0.00000000E+00  0.00000000E+00  0.00000000E+00
  0.00000000E+00  0.00000000E+00  0.00000000E+00
  0.00000000E+00  0.00000000E+00  0.00000000E+00
  0.00000000E+00  0.00000000E+00  0.00000000E+00
  0.00000000E+00  0.00000000E+00  0.00000000E+00
  0.00000000E+00  0.00000000E+00  0.00000000E+00
  0.00000000E+00  0.00000000E+00  0.00000000E+00
  0.00000000E+00  0.00000000E+00  0.00000000E+00
  0.00000000E+00  0.00000000E+00  0.00000000E+00
  0.00000000E+00  0.00000000E+00  0.00000000E+00
  0.00000000E+00  0.00000000E+00  0.00000000E+00
  0.00000000E+00  0.00000000E+00  0.00000000E+00
  0.00000000E+00  0.00000000E+00  0.00000000E+00
  0.00000000E+00  0.00000000E+00  0.00000000E+00
  0.00000000E+00  0.00000000E+00  0.00000000E+00
  0.00000000E+00  0.00000000E+00  0.00000000E+00
  0.00000000E+00  0.00000000E+00  0.00000000E+00
  0.00000000E+00  0.00000000E+00  0.00000000E+00
  0.00000000E+00  0.00000000E+00  0.00000000E+00
  0.00000000E+00  0.00000000E+00  0.00000000E+00
  0.00000000E+00  0.00000000E+00  0.00000000E+00
  0.00000000E+00  0.00000000E+00  0.00000000E+00
  0.00000000E+00  0.00000000E+00  0.00000000E+00
  0.00000000E+00  0.00000000E+00  0.00000000E+00
  0.00000000E+00  0.00000000E+00  0.00000000E+00
  0.00000000E+00  0.00000000E+00  0.00000000E+00
  0.00000000E+00  0.00000000E+00  0.00000000E+00
  0.00000000E+00  0.00000000E+00  0.00000000E+00
  0.00000000E+00  0.00000000E+00  0.00000000E+00
  0.00000000E+00  0.00000000E+00  0.00000000E+00
  0.00000000E+00  0.00000000E+00  0.00000000E+00
  0.00000000E+00  0.00000000E+00  0.00000000E+00
  0.00000000E+00  0.00000000E+00  0.00000000E+00
  0.00000000E+00  0.00000000E+00  0.00000000E+00
  0.00000000E+00  0.00000000E+00  0.00000000E+00
  0.00000000E+00  0.00000000E+00  0.00000000E+00
  0.00000000E+00  0.00000000E+00  0.00000000E+00
  0.00000000E+00  0.00000000E+00  0.00000000E+00
  0.00000000E+00  0.00000000E+00  0.00000000E+00
  0.00000000E+00  0.00000000E+00  0.00000000E+00
  0.00000000E+00  0.00000000E+00  0.00000000E+00
  0.00000000E+00  0.00000000E+00  0.00000000E+00
  0.00000000E+00  0.00000000E+00  0.00000000E+00
  0.00000000E+00  0.00000000E+00  0.00000000E+00
  0.00000000E+00  0.00000000E+00  0.00000000E+00
  0.00000000E+00  0.00000000E+00  0.00000000E+00
  0.00000000E+00  0.00000000E+00  0.00000000E+00
  0.00000000E+00  0.00000000E+00  0.00000000E+00
  0.00000000E+00  0.00000000E+00  0.00000000E+00
  0.00000000E+00  0.00000000E+00  0.00000000E+00
  0.00000000E+00  0.00000000E+00  0.00000000E+00
  0.00000000E+00  0.00000000E+00  0.00000000E+00
  0.00000000E+00  0.00000000E+00  0.00000000E+00
  0.00000000E+00  0.00000000E+00  0.00000000E+00
  0.00000000E+00  0.00000000E+00  0.00000000E+00
  0.00000000E+00  0.00000000E+00  0.00000000E+00
  0.00000000E+00  0.00000000E+00  0.00000000E+00
  0.00000000E+00  0.00000000E+00  0.00000000E+00
  0.00000000E+00  0.00000000E+00  0.00000000E+00
  0.00000000E+00  0.00000000E+00  0.00000000E+00
  0.00000000E+00  0.00000000E+00  0.00000000E+00
  0.00000000E+00  0.00000000E+00  0.00000000E+00
  0.00000000E+00  0.00000000E+00  0.00000000E+00
  0.00000000E+00  0.00000000E+00  0.00000000E+00
  0.00000000E+00  0.00000000E+00  0.00000000E+00
  0.00000000E+00  0.00000000E+00  0.00000000E+00
  0.00000000E+00  0.00000000E+00  0.00000000E+00
  0.00000000E+00  0.00000000E+00  0.00000000E+00
  0.00000000E+00  0.00000000E+00  0.00000000E+00
  0.00000000E+00  0.00000000E+00  0.00000000E+00
  0.00000000E+00  0.00000000E+00  0.00000000E+00
  0.00000000E+00  0.00000000E+00  0.00000000E+00
  0.00000000E+00  0.00000000E+00  0.00000000E+00
  0.00000000E+00  0.00000000E+00  0.00000000E+00
  0.00000000E+00  0.00000000E+00  0.00000000E+00
  0.00000000E+00  0.00000000E+00  0.00000000E+00
  0.00000000E+00  0.00000000E+00  0.00000000E+00
  0.00000000E+00  0.00000000E+00  0.00000000E+00
  0.00000000E+00  0.00000000E+00  0.00000000E+00
  0.00000000E+00  0.00000000E+00  0.00000000E+00
  0.00000000E+00  0.00000000E+00  0.00000000E+00
  0.00000000E+00  0.00000000E+00  0.00000000E+00
  0.00000000E+00  0.00000000E+00  0.00000000E+00
  0.00000000E+00  0.00000000E+00  0.00000000E+00
  0.00000000E+00  0.00000000E+00  0.00000000E+00
  0.00000000E+00  0.00000000E+00  0.00000000E+00
  0.00000000E+00  0.00000000E+00  0.00000000E+00
  0.00000000E+00  0.00000000E+00  0.00000000E+00
  0.00000000E+00  0.00000000E+00  0.00000000E+00
  0.00000000E+00  0.00000000E+00  0.00000000E+00
  0.00000000E+00  0.00000000E+00  0.00000000E+00
  0.00000000E+00  0.00000000E+00  0.00000000E+00
  0.00000000E+00  0.00000000E+00  0.00000000E+00
  0.00000000E+00  0.00000000E+00  0.00000000E+00
  0.00000000E+00  0.00000000E+00  0.00000000E+00
  0.00000000E+00  0.00000000E+00  0.00000000E+00
  0.00000000E+00  0.00000000E+00  0.00000000E+00
  0.00000000E+00  0.00000000E+00  0.00000000E+00
  0.00000000E+00  0.00000000E+00  0.00000000E+00
  0.00000000E+00  0.00000000E+00  0.00000000E+00
  0.00000000E+00  0.00000000E+00  0.00000000E+00
  0.00000000E+00  0.00000000E+00  0.00000000E+00
  0.00000000E+00  0.00000000E+00  0.00000000E+00
  0.00000000E+00  0.00000000E+00  0.00000000E+00
  0.00000000E+00  0.00000000E+00  0.00000000E+00
  0.00000000E+00  0.00000000E+00  0.00000000E+00
  0.00000000E+00  0.00000000E+00  0.00000000E+00
  0.00000000E+00  0.00000000E+00  0.00000000E+00
  0.00000000E+00  0.00000000E+00  0.00000000E+00
  0.00000000E+00  0.00000000E+00  0.00000000E+00
  0.00000000E+00  0.00000000E+00  0.00000000E+00
  0.00000000E+00  0.00000000E+00  0.00000000E+00
  0.00000000E+00  0.00000000E+00  0.00000000E+00
  0.00000000E+00  0.00000000E+00  0.00000000E+00
  0.00000000E+00  0.00000000E+00  0.00000000E+00
  0.00000000E+00  0.00000000E+00  0.00000000E+00
  0.00000000E+00  0.00000000E+00  0.00000000E+00
