C H O Si                                
   1.00000000000000     
     9.2874599999999994    0.0000000000000000    0.0000000000000000
     0.0000000000000000   17.5126199999999983    0.0000000000000000
     0.0000000000000000    0.0000000000000000   58.0000000000000000
   C    H    O    Si
    72    57    28    72
Selective dynamics
Direct
  0.9930794044023715  0.0630621859226240  0.0604687763441262   T   T   T
  0.3265597743197330  0.0629848062536162  0.0605545526771845   T   T   T
  0.6595879695181734  0.0630624961992363  0.0605066349106151   T   T   T
  0.9929068682825634  0.3131199942118671  0.0604371127135408   T   T   T
  0.3264899347509944  0.3129357474330939  0.0605631913624252   T   T   T
  0.6596420262808901  0.3130560331675667  0.0605045401492582   T   T   T
  0.1595616097480596  0.1856078618965149  0.1394053525846235   T   T   T
  0.4928063648558620  0.1857922345820412  0.1396228379384393   T   T   T
  0.8261667458039218  0.1856114874001851  0.1393217593067698   T   T   T
  0.1593891314217279  0.4357152366265988  0.1394238524544992   T   T   T
  0.4927307145111032  0.4356003387451550  0.1394693159515984   T   T   T
  0.8260588740016083  0.4357058149374661  0.1394047369532870   T   T   T
  0.3270709643781539  0.0610092740856410  0.1667428604359973   T   T   T
  0.6594099783977078  0.0609093216440028  0.1666697690973459   T   T   T
  0.9933844861179146  0.0603382757097095  0.1664766224150371   T   T   T
  0.3263336702917236  0.3107877160028273  0.1667905882079401   T   T   T
  0.6599983589801676  0.3108340386413109  0.1666584051067405   T   T   T
  0.9932436531041784  0.3107474263553973  0.1664554679865934   T   T   T
  0.1603827038138253  0.1873257471036072  0.1918501199095201   T   T   T
  0.4939498196649073  0.1895436881461059  0.1926957677180092   T   T   T
  0.8279260685393456  0.1867855833506760  0.1915578284526437   T   T   T
  0.1602161736052865  0.4382088423758790  0.1919711218536305   T   T   T
  0.4937507760798390  0.4379322855466338  0.1920048394992653   T   T   T
  0.8273074121448666  0.4382823984858634  0.1919160580145551   T   T   T
  0.1593479804413523  0.1858815347413644  0.0858810921748376   T   T   T
  0.4927131254244198  0.1858909333810524  0.0859911318725355   T   T   T
  0.8259119865575151  0.1859162276644953  0.0858283984730436   T   T   T
  0.1595146633255990  0.4358479371350403  0.0858922128929886   T   T   T
  0.4928058858379391  0.4358249711945708  0.0859059375337799   T   T   T
  0.8260729692972854  0.4358525162974876  0.0858654957443259   T   T   T
  0.3261356865116529  0.0607465627463640  0.1130775058956617   T   T   T
  0.6592936200352825  0.0607159297737383  0.1130412802196237   T   T   T
  0.9927322945183752  0.0607307084816444  0.1129766153130129   T   T   T
  0.3260633521972608  0.3107138801431960  0.1131038516836658   T   T   T
  0.6594945863831506  0.3107301050883085  0.1130544250813484   T   T   T
  0.9927541674863097  0.3107683725699532  0.1129601739614047   T   T   T
  0.9931415069971457  0.5630139251637681  0.0604851705384582   T   T   T
  0.3265234538003871  0.5629821645569133  0.0605153651336530   T   T   T
  0.6597832586367650  0.5629985395585654  0.0605100645076989   T   T   T
  0.9929742436029860  0.8130715112261955  0.0604877636997608   T   T   T
  0.3263259314321704  0.8130242726146432  0.0604998574060803   T   T   T
  0.6595784412434037  0.8130729114011647  0.0604807054044207   T   T   T
  0.1593396295127329  0.6857744190173626  0.1394179181598620   T   T   T
  0.4926208884068672  0.6857645186582400  0.1394380259343714   T   T   T
  0.8259086858091012  0.6857692534979694  0.1394179003837105   T   T   T
  0.1596803556343929  0.9357065102377069  0.1394405359946356   T   T   T
  0.4926952732089010  0.9356577006971593  0.1394538173709396   T   T   T
  0.8259117026730433  0.9357209998442857  0.1394263743199065   T   T   T
  0.3265171905684464  0.5608705406537883  0.1665764838065787   T   T   T
  0.6595734248037256  0.5608354251820383  0.1665727141882114   T   T   T
  0.9930309813135185  0.5609579053530953  0.1665478647140756   T   T   T
  0.3264728505401558  0.8108650426145919  0.1666324013297159   T   T   T
  0.6597191657638078  0.8108346493651628  0.1666222049314377   T   T   T
  0.9931391593491856  0.8108608910024717  0.1665997670688364   T   T   T
  0.1604520311582419  0.6880358751546538  0.1919974065640270   T   T   T
  0.4938689036005077  0.6881606813235045  0.1920427083038240   T   T   T
  0.8270849613716249  0.6880147448995825  0.1919922909147591   T   T   T
  0.1605631858743629  0.9380557874731912  0.1920280045636820   T   T   T
  0.4939457590433562  0.9380125028462111  0.1920613916785388   T   T   T
  0.8270861340664447  0.9379487577558601  0.1919831331377123   T   T   T
  0.1594327774075366  0.6858790179474933  0.0858798626553609   T   T   T
  0.4927861655181293  0.6858492605515056  0.0858962455418041   T   T   T
  0.8260755729016650  0.6858927664430146  0.0858780782811264   T   T   T
  0.1594445142670918  0.9359047808357744  0.0858848039732295   T   T   T
  0.4927668028796156  0.9358417002311884  0.0858997438013722   T   T   T
  0.8260112536012646  0.9359101575878009  0.0858625058671729   T   T   T
  0.3260560194047630  0.5607062472839485  0.1130237457312468   T   T   T
  0.6593152246520583  0.5607200818878898  0.1130223865301802   T   T   T
  0.9926679217833804  0.5607554174920393  0.1129976668675623   T   T   T
  0.3261725461907167  0.8107619636414104  0.1130148137581614   T   T   T
  0.6594069590924840  0.8107624835647927  0.1130171436390486   T   T   T
  0.9928090491658614  0.8108172207309108  0.1130151631866282   T   T   T
  0.0809518499720771  0.1771953278462539  0.0264414822664095   T   T   T
  0.4125040760019448  0.1772591467062550  0.0265874573065477   T   T   T
  0.7460017559556199  0.1771650627723371  0.0264584284839218   T   T   T
  0.0808009718861856  0.4271974274324187  0.0264470242490364   T   T   T
  0.4120171795833464  0.4270226800643717  0.0265501596484171   T   T   T
  0.7448636800893235  0.4270659603042645  0.0264801010954512   T   T   T
  0.3236788512306980  0.0268916074810714  0.0449956474451947   T   T   T
  0.6563293865885399  0.0269366938241570  0.0449548132154924   T   T   T
  0.9901783803644123  0.0269694297710054  0.0449095417113368   T   T   T
  0.3234348776010508  0.2767633339061015  0.0450220979511046   T   T   T
  0.6565911546469150  0.2768387003156524  0.0449747549836801   T   T   T
  0.9901094030415364  0.2769529959435150  0.0448888792432889   T   T   T
  0.8291225355924688  0.4024396522204514  0.2075065265742806   T   T   T
  0.8304481852118643  0.1506716357830180  0.2071110417738719   T   T   T
  0.1617605829735489  0.1512193568732280  0.2074091536425664   T   T   T
  0.4966417535528772  0.1528111574043873  0.2081275809432259   T   T   T
  0.1620378592241351  0.4018357804304873  0.2074650937507944   T   T   T
  0.4939819387467354  0.4016889278823513  0.2075318202140877   T   T   T
  0.0767819430619500  0.0515118961217574  0.2259611124543515   T   T   T
  0.4120803113388355  0.0510657227171031  0.2261333969820870   T   T   T
  0.7454935393010008  0.0513602414773070  0.2260231602553008   T   T   T
  0.0742140402504710  0.3007508413288000  0.2254979156315321   T   T   T
  0.3775928642848603  0.3094447053649936  0.2292402327055454   T   T   T
  0.7792681987017106  0.2951467999646751  0.2234781813575494   T   T   T
  0.5424508694240113  0.3051682804369446  0.2743778762953500   T   T   T
  0.4891040786786193  0.2370957920424323  0.2935833370635673   T   T   T
  0.5703730682470837  0.3196119283155389  0.3032216136453987   T   T   T
  0.3127928535614712  0.1934511750102866  0.3096842791704986   T   T   T
  0.4216970199257022  0.1297188956681539  0.3023442265532797   T   T   T
  0.6517194139631187  0.3664402085247589  0.3333869157732955   T   T   T
  0.4862285967302889  0.3789122385210196  0.3306686694525863   T   T   T
  0.5120003055343101  0.3962955902311098  0.2525486472730931   T   T   T
  0.5826599297706250  0.3249642003117906  0.2393982005071107   T   T   T
  0.0801455785542238  0.6772100903044380  0.0264910029183739   T   T   T
  0.4132480524375191  0.6771658559358248  0.0265142587543178   T   T   T
  0.7463504143767787  0.6771673774118330  0.0265041019023947   T   T   T
  0.0796978899355399  0.9271291127507655  0.0264734389363132   T   T   T
  0.4120638065208445  0.9271053091735568  0.0264845773634663   T   T   T
  0.7456973373150866  0.9271648312665267  0.0264708407409466   T   T   T
  0.3234757697510313  0.5269107256472977  0.0449542231413895   T   T   T
  0.6567706365055859  0.5269115351517508  0.0449511587176816   T   T   T
  0.9901061815206920  0.5269117239250037  0.0449226555212190   T   T   T
  0.3233506281388742  0.7769014402524019  0.0449468722440872   T   T   T
  0.6565785937597080  0.7769056560908545  0.0449372323609707   T   T   T
  0.9900043188424389  0.7769133934417779  0.0449420221763555   T   T   T
  0.8293360366020702  0.9016440132952931  0.2074944164703800   T   T   T
  0.8293300091977815  0.6517930290846718  0.2075199059568684   T   T   T
  0.1624756391722582  0.6517790023634554  0.2075198306373843   T   T   T
  0.4960451336247184  0.6518839616819051  0.2075606252611335   T   T   T
  0.1623487072848403  0.9016782547288633  0.2075288438970064   T   T   T
  0.4960671171125458  0.9015858288653253  0.2075513641510995   T   T   T
  0.0766677480480760  0.5523563762442963  0.2259191732120183   T   T   T
  0.4106947325957030  0.5530646530674749  0.2257720248301329   T   T   T
  0.7440882482463023  0.5523988671104464  0.2258526513390030   T   T   T
  0.0773360716137019  0.8016975206885937  0.2259537130230416   T   T   T
  0.4104702669472801  0.8018453658479472  0.2260103624709656   T   T   T
  0.7458452069179041  0.8015322019223051  0.2259327354573807   T   T   T
  0.1722070464394274  0.1671331871868177  0.0342279746988265   T   T   T
  0.5042725808165647  0.1677356436517318  0.0343196809606410   T   T   T
  0.8377006231644284  0.1672443561743326  0.0341418193028250   T   T   T
  0.1720863971127982  0.4171294625368097  0.0342184975827306   T   T   T
  0.5039373314912292  0.4173665724017657  0.0342171862240166   T   T   T
  0.8367910402332972  0.4175445089529822  0.0341653185720285   T   T   T
  0.3198975112385805  0.0424798901071373  0.2184595421065901   T   T   T
  0.6533499237959720  0.0430591987861257  0.2182982353542970   T   T   T
  0.9850103676634089  0.0427006373923608  0.2181965588339649   T   T   T
  0.3018730991319879  0.2928235935883842  0.2184197203958498   T   T   T
  0.6779161025058761  0.2923730295393522  0.2184085039527213   T   T   T
  0.9818311121601865  0.2915861370436530  0.2178551598085716   T   T   T
  0.5667285316334267  0.2792474224597404  0.2899443527119933   T   T   T
  0.3797218697433865  0.1782902594474557  0.2975484028712918   T   T   T
  0.5767937034535051  0.3782021639807310  0.3221284022406533   T   T   T
  0.5071220750060343  0.3408119709605412  0.2509345907361433   T   T   T
  0.1717268535023216  0.6671508672208439  0.0342017837092232   T   T   T
  0.5048988931467729  0.6673216932436753  0.0342236326464523   T   T   T
  0.8379928218402127  0.6672996513101820  0.0342012767404293   T   T   T
  0.1713080222367542  0.9172734370931379  0.0341919879946936   T   T   T
  0.5038803954508793  0.9175137689480228  0.0342023257830846   T   T   T
  0.8374473468599645  0.9173709801237095  0.0341656935252229   T   T   T
  0.3187033279964817  0.5427831870628506  0.2182451829930045   T   T   T
  0.6521046173440120  0.5427623063226206  0.2182297969690448   T   T   T
  0.9848654435721580  0.5426876875449168  0.2182569552868778   T   T   T
  0.3185597928728500  0.7927211007503504  0.2183247148440776   T   T   T
  0.6535205190876491  0.7930064950596433  0.2182949286153850   T   T   T
  0.9853571835028322  0.7926923173311962  0.2182675540954989   T   T   T
  0.4931902359717253  0.1218573309014587  0.0597280356542955   T   T   T
  0.8264909574947796  0.1217466429570996  0.0596091472812226   T   T   T
  0.1600504252971768  0.3716787921851760  0.0596724167584502   T   T   T
  0.4931349312267449  0.3717389997702688  0.0596706691261620   T   T   T
  0.8263415214975136  0.3718619901514081  0.0596036557502972   T   T   T
  0.1601031005775443  0.1216800221509509  0.0596770594974516   T   T   T
  0.9927118944957958  0.4984547691071491  0.1396769094399271   T   T   T
  0.3260752849714074  0.4983879295656232  0.1396958672156977   T   T   T
  0.6593168898685599  0.4983872942252673  0.1396918631016902   T   T   T
  0.9928670128766216  0.2482800097892797  0.1395758527648477   T   T   T
  0.3260393741692955  0.2484127348048154  0.1398284916582781   T   T   T
  0.6595992044423069  0.2483479884555859  0.1397110963722139   T   T   T
  0.1598882404992331  0.1227499365290682  0.1660333251512550   T   T   T
  0.4932171918084114  0.1237685035278953  0.1664437138134588   T   T   T
  0.8268087940949551  0.1223649475993873  0.1658406286524328   T   T   T
  0.1597315124935740  0.3732110341924007  0.1661091068968448   T   T   T
  0.4929145819730604  0.3729841777120757  0.1661302087273189   T   T   T
  0.8266871332467002  0.3732052082716592  0.1660757156500518   T   T   T
  0.3268672284956622  0.4969011223244566  0.1928068912980951   T   T   T
  0.6605842461008559  0.4968704088444428  0.1928026506017023   T   T   T
  0.9937570594604722  0.4970066036083434  0.1927856546315799   T   T   T
  0.3251678789135767  0.2474725352640934  0.1933037684341302   T   T   T
  0.9938440487536104  0.2457499893746714  0.1923617861584408   T   T   T
  0.6630689955708989  0.2462913017826256  0.1926783658481024   T   T   T
  0.9928565012993243  0.4981066065201150  0.0863447634906895   T   T   T
  0.3262263660965450  0.4980875369225989  0.0863655806947440   T   T   T
  0.6594998395877565  0.4981095657809381  0.0863630179034184   T   T   T
  0.9927261878162493  0.2481551756233021  0.0862982231251702   T   T   T
  0.3261370900220500  0.2480929158729702  0.0864203855364758   T   T   T
  0.6594323094871765  0.2481713808267448  0.0863689251903192   T   T   T
  0.1593717310376181  0.1233718917480913  0.1127228201184071   T   T   T
  0.4926698617442873  0.1234226382056422  0.1128608917314876   T   T   T
  0.8259786683965830  0.1233612903308942  0.1126593605320346   T   T   T
  0.1593682210456349  0.3734080211825934  0.1127457543722690   T   T   T
  0.4926557140313557  0.3733718691575227  0.1127656465979041   T   T   T
  0.8260473599496132  0.3734178590902590  0.1127202536317883   T   T   T
  0.4933506703733391  0.6217161921715215  0.0596720223764849   T   T   T
  0.8266298544334041  0.6217250500929336  0.0596568662537178   T   T   T
  0.1598780652852753  0.8717514158668412  0.0596547365670276   T   T   T
  0.4930452096724819  0.8718168084570220  0.0596442739454157   T   T   T
  0.8264097644732369  0.8717978919785461  0.0596320812049072   T   T   T
  0.1600545613439012  0.6217085923355504  0.0596621959886621   T   T   T
  0.9928637892540885  0.9981597796706226  0.1396278685889473   T   T   T
  0.3263487588740757  0.9984698256118563  0.1397729762743192   T   T   T
  0.6590546983341083  0.9984256657330598  0.1397332535191575   T   T   T
  0.9926314922355308  0.7484634486811104  0.1396975059775593   T   T   T
  0.3259768456233767  0.7484819912729437  0.1397131455368446   T   T   T
  0.6592304229249375  0.7484686416291245  0.1397144735673558   T   T   T
  0.1597063269623030  0.6231984802082318  0.1660919960056935   T   T   T
  0.4930528741775979  0.6232650080928043  0.1661258157803348   T   T   T
  0.8262851407706274  0.6232052123101386  0.1660918180236772   T   T   T
  0.1597929345394299  0.8731690961877396  0.1661329527870351   T   T   T
  0.4931119127743200  0.8731652905564953  0.1661537373109374   T   T   T
  0.8263362957816873  0.8730990993589375  0.1660999401263681   T   T   T
  0.3273352080380155  0.9967666663024844  0.1929731746401958   T   T   T
  0.6606330310117329  0.9967831466727511  0.1929128574776759   T   T   T
  0.9937112613056138  0.9966177410308694  0.1927913887339319   T   T   T
  0.3270501971670542  0.7468282864748355  0.1928783989632697   T   T   T
  0.9937399837236940  0.7467553134731217  0.1928284973563924   T   T   T
  0.6606215373550649  0.7468900779228314  0.1928840097574741   T   T   T
  0.9928202873615115  0.9981081194495840  0.0863211699482077   T   T   T
  0.3262620533587327  0.9980994998193462  0.0863976939870348   T   T   T
  0.6593845944341052  0.9981292040359871  0.0863584908670186   T   T   T
  0.9928180064401256  0.7481698152784675  0.0863532804583899   T   T   T
  0.3261985369554624  0.7481138808327207  0.0863562264682576   T   T   T
  0.6594649509174469  0.7481567143495218  0.0863495991172628   T   T   T
  0.1593175150531516  0.6234197779186695  0.1127418064701238   T   T   T
  0.4926005040730822  0.6234143150057347  0.1127592189016503   T   T   T
  0.8259018615730627  0.6234417240583460  0.1127379722923385   T   T   T
  0.1595117426259086  0.8734427273576822  0.1127420967171436   T   T   T
  0.4926954080497851  0.8734115750981053  0.1127533008227761   T   T   T
  0.8259345828942795  0.8734406459981555  0.1127323645688365   T   T   T
 
  0.00000000E+00  0.00000000E+00  0.00000000E+00
  0.00000000E+00  0.00000000E+00  0.00000000E+00
  0.00000000E+00  0.00000000E+00  0.00000000E+00
  0.00000000E+00  0.00000000E+00  0.00000000E+00
  0.00000000E+00  0.00000000E+00  0.00000000E+00
  0.00000000E+00  0.00000000E+00  0.00000000E+00
  0.00000000E+00  0.00000000E+00  0.00000000E+00
  0.00000000E+00  0.00000000E+00  0.00000000E+00
  0.00000000E+00  0.00000000E+00  0.00000000E+00
  0.00000000E+00  0.00000000E+00  0.00000000E+00
  0.00000000E+00  0.00000000E+00  0.00000000E+00
  0.00000000E+00  0.00000000E+00  0.00000000E+00
  0.00000000E+00  0.00000000E+00  0.00000000E+00
  0.00000000E+00  0.00000000E+00  0.00000000E+00
  0.00000000E+00  0.00000000E+00  0.00000000E+00
  0.00000000E+00  0.00000000E+00  0.00000000E+00
  0.00000000E+00  0.00000000E+00  0.00000000E+00
  0.00000000E+00  0.00000000E+00  0.00000000E+00
  0.00000000E+00  0.00000000E+00  0.00000000E+00
  0.00000000E+00  0.00000000E+00  0.00000000E+00
  0.00000000E+00  0.00000000E+00  0.00000000E+00
  0.00000000E+00  0.00000000E+00  0.00000000E+00
  0.00000000E+00  0.00000000E+00  0.00000000E+00
  0.00000000E+00  0.00000000E+00  0.00000000E+00
  0.00000000E+00  0.00000000E+00  0.00000000E+00
  0.00000000E+00  0.00000000E+00  0.00000000E+00
  0.00000000E+00  0.00000000E+00  0.00000000E+00
  0.00000000E+00  0.00000000E+00  0.00000000E+00
  0.00000000E+00  0.00000000E+00  0.00000000E+00
  0.00000000E+00  0.00000000E+00  0.00000000E+00
  0.00000000E+00  0.00000000E+00  0.00000000E+00
  0.00000000E+00  0.00000000E+00  0.00000000E+00
  0.00000000E+00  0.00000000E+00  0.00000000E+00
  0.00000000E+00  0.00000000E+00  0.00000000E+00
  0.00000000E+00  0.00000000E+00  0.00000000E+00
  0.00000000E+00  0.00000000E+00  0.00000000E+00
  0.00000000E+00  0.00000000E+00  0.00000000E+00
  0.00000000E+00  0.00000000E+00  0.00000000E+00
  0.00000000E+00  0.00000000E+00  0.00000000E+00
  0.00000000E+00  0.00000000E+00  0.00000000E+00
  0.00000000E+00  0.00000000E+00  0.00000000E+00
  0.00000000E+00  0.00000000E+00  0.00000000E+00
  0.00000000E+00  0.00000000E+00  0.00000000E+00
  0.00000000E+00  0.00000000E+00  0.00000000E+00
  0.00000000E+00  0.00000000E+00  0.00000000E+00
  0.00000000E+00  0.00000000E+00  0.00000000E+00
  0.00000000E+00  0.00000000E+00  0.00000000E+00
  0.00000000E+00  0.00000000E+00  0.00000000E+00
  0.00000000E+00  0.00000000E+00  0.00000000E+00
  0.00000000E+00  0.00000000E+00  0.00000000E+00
  0.00000000E+00  0.00000000E+00  0.00000000E+00
  0.00000000E+00  0.00000000E+00  0.00000000E+00
  0.00000000E+00  0.00000000E+00  0.00000000E+00
  0.00000000E+00  0.00000000E+00  0.00000000E+00
  0.00000000E+00  0.00000000E+00  0.00000000E+00
  0.00000000E+00  0.00000000E+00  0.00000000E+00
  0.00000000E+00  0.00000000E+00  0.00000000E+00
  0.00000000E+00  0.00000000E+00  0.00000000E+00
  0.00000000E+00  0.00000000E+00  0.00000000E+00
  0.00000000E+00  0.00000000E+00  0.00000000E+00
  0.00000000E+00  0.00000000E+00  0.00000000E+00
  0.00000000E+00  0.00000000E+00  0.00000000E+00
  0.00000000E+00  0.00000000E+00  0.00000000E+00
  0.00000000E+00  0.00000000E+00  0.00000000E+00
  0.00000000E+00  0.00000000E+00  0.00000000E+00
  0.00000000E+00  0.00000000E+00  0.00000000E+00
  0.00000000E+00  0.00000000E+00  0.00000000E+00
  0.00000000E+00  0.00000000E+00  0.00000000E+00
  0.00000000E+00  0.00000000E+00  0.00000000E+00
  0.00000000E+00  0.00000000E+00  0.00000000E+00
  0.00000000E+00  0.00000000E+00  0.00000000E+00
  0.00000000E+00  0.00000000E+00  0.00000000E+00
  0.00000000E+00  0.00000000E+00  0.00000000E+00
  0.00000000E+00  0.00000000E+00  0.00000000E+00
  0.00000000E+00  0.00000000E+00  0.00000000E+00
  0.00000000E+00  0.00000000E+00  0.00000000E+00
  0.00000000E+00  0.00000000E+00  0.00000000E+00
  0.00000000E+00  0.00000000E+00  0.00000000E+00
  0.00000000E+00  0.00000000E+00  0.00000000E+00
  0.00000000E+00  0.00000000E+00  0.00000000E+00
  0.00000000E+00  0.00000000E+00  0.00000000E+00
  0.00000000E+00  0.00000000E+00  0.00000000E+00
  0.00000000E+00  0.00000000E+00  0.00000000E+00
  0.00000000E+00  0.00000000E+00  0.00000000E+00
  0.00000000E+00  0.00000000E+00  0.00000000E+00
  0.00000000E+00  0.00000000E+00  0.00000000E+00
  0.00000000E+00  0.00000000E+00  0.00000000E+00
  0.00000000E+00  0.00000000E+00  0.00000000E+00
  0.00000000E+00  0.00000000E+00  0.00000000E+00
  0.00000000E+00  0.00000000E+00  0.00000000E+00
  0.00000000E+00  0.00000000E+00  0.00000000E+00
  0.00000000E+00  0.00000000E+00  0.00000000E+00
  0.00000000E+00  0.00000000E+00  0.00000000E+00
  0.00000000E+00  0.00000000E+00  0.00000000E+00
  0.00000000E+00  0.00000000E+00  0.00000000E+00
  0.00000000E+00  0.00000000E+00  0.00000000E+00
  0.00000000E+00  0.00000000E+00  0.00000000E+00
  0.00000000E+00  0.00000000E+00  0.00000000E+00
  0.00000000E+00  0.00000000E+00  0.00000000E+00
  0.00000000E+00  0.00000000E+00  0.00000000E+00
  0.00000000E+00  0.00000000E+00  0.00000000E+00
  0.00000000E+00  0.00000000E+00  0.00000000E+00
  0.00000000E+00  0.00000000E+00  0.00000000E+00
  0.00000000E+00  0.00000000E+00  0.00000000E+00
  0.00000000E+00  0.00000000E+00  0.00000000E+00
  0.00000000E+00  0.00000000E+00  0.00000000E+00
  0.00000000E+00  0.00000000E+00  0.00000000E+00
  0.00000000E+00  0.00000000E+00  0.00000000E+00
  0.00000000E+00  0.00000000E+00  0.00000000E+00
  0.00000000E+00  0.00000000E+00  0.00000000E+00
  0.00000000E+00  0.00000000E+00  0.00000000E+00
  0.00000000E+00  0.00000000E+00  0.00000000E+00
  0.00000000E+00  0.00000000E+00  0.00000000E+00
  0.00000000E+00  0.00000000E+00  0.00000000E+00
  0.00000000E+00  0.00000000E+00  0.00000000E+00
  0.00000000E+00  0.00000000E+00  0.00000000E+00
  0.00000000E+00  0.00000000E+00  0.00000000E+00
  0.00000000E+00  0.00000000E+00  0.00000000E+00
  0.00000000E+00  0.00000000E+00  0.00000000E+00
  0.00000000E+00  0.00000000E+00  0.00000000E+00
  0.00000000E+00  0.00000000E+00  0.00000000E+00
  0.00000000E+00  0.00000000E+00  0.00000000E+00
  0.00000000E+00  0.00000000E+00  0.00000000E+00
  0.00000000E+00  0.00000000E+00  0.00000000E+00
  0.00000000E+00  0.00000000E+00  0.00000000E+00
  0.00000000E+00  0.00000000E+00  0.00000000E+00
  0.00000000E+00  0.00000000E+00  0.00000000E+00
  0.00000000E+00  0.00000000E+00  0.00000000E+00
  0.00000000E+00  0.00000000E+00  0.00000000E+00
  0.00000000E+00  0.00000000E+00  0.00000000E+00
  0.00000000E+00  0.00000000E+00  0.00000000E+00
  0.00000000E+00  0.00000000E+00  0.00000000E+00
  0.00000000E+00  0.00000000E+00  0.00000000E+00
  0.00000000E+00  0.00000000E+00  0.00000000E+00
  0.00000000E+00  0.00000000E+00  0.00000000E+00
  0.00000000E+00  0.00000000E+00  0.00000000E+00
  0.00000000E+00  0.00000000E+00  0.00000000E+00
  0.00000000E+00  0.00000000E+00  0.00000000E+00
  0.00000000E+00  0.00000000E+00  0.00000000E+00
  0.00000000E+00  0.00000000E+00  0.00000000E+00
  0.00000000E+00  0.00000000E+00  0.00000000E+00
  0.00000000E+00  0.00000000E+00  0.00000000E+00
  0.00000000E+00  0.00000000E+00  0.00000000E+00
  0.00000000E+00  0.00000000E+00  0.00000000E+00
  0.00000000E+00  0.00000000E+00  0.00000000E+00
  0.00000000E+00  0.00000000E+00  0.00000000E+00
  0.00000000E+00  0.00000000E+00  0.00000000E+00
  0.00000000E+00  0.00000000E+00  0.00000000E+00
  0.00000000E+00  0.00000000E+00  0.00000000E+00
  0.00000000E+00  0.00000000E+00  0.00000000E+00
  0.00000000E+00  0.00000000E+00  0.00000000E+00
  0.00000000E+00  0.00000000E+00  0.00000000E+00
  0.00000000E+00  0.00000000E+00  0.00000000E+00
  0.00000000E+00  0.00000000E+00  0.00000000E+00
  0.00000000E+00  0.00000000E+00  0.00000000E+00
  0.00000000E+00  0.00000000E+00  0.00000000E+00
  0.00000000E+00  0.00000000E+00  0.00000000E+00
  0.00000000E+00  0.00000000E+00  0.00000000E+00
  0.00000000E+00  0.00000000E+00  0.00000000E+00
  0.00000000E+00  0.00000000E+00  0.00000000E+00
  0.00000000E+00  0.00000000E+00  0.00000000E+00
  0.00000000E+00  0.00000000E+00  0.00000000E+00
  0.00000000E+00  0.00000000E+00  0.00000000E+00
  0.00000000E+00  0.00000000E+00  0.00000000E+00
  0.00000000E+00  0.00000000E+00  0.00000000E+00
  0.00000000E+00  0.00000000E+00  0.00000000E+00
  0.00000000E+00  0.00000000E+00  0.00000000E+00
  0.00000000E+00  0.00000000E+00  0.00000000E+00
  0.00000000E+00  0.00000000E+00  0.00000000E+00
  0.00000000E+00  0.00000000E+00  0.00000000E+00
  0.00000000E+00  0.00000000E+00  0.00000000E+00
  0.00000000E+00  0.00000000E+00  0.00000000E+00
  0.00000000E+00  0.00000000E+00  0.00000000E+00
  0.00000000E+00  0.00000000E+00  0.00000000E+00
  0.00000000E+00  0.00000000E+00  0.00000000E+00
  0.00000000E+00  0.00000000E+00  0.00000000E+00
  0.00000000E+00  0.00000000E+00  0.00000000E+00
  0.00000000E+00  0.00000000E+00  0.00000000E+00
  0.00000000E+00  0.00000000E+00  0.00000000E+00
  0.00000000E+00  0.00000000E+00  0.00000000E+00
  0.00000000E+00  0.00000000E+00  0.00000000E+00
  0.00000000E+00  0.00000000E+00  0.00000000E+00
  0.00000000E+00  0.00000000E+00  0.00000000E+00
  0.00000000E+00  0.00000000E+00  0.00000000E+00
  0.00000000E+00  0.00000000E+00  0.00000000E+00
  0.00000000E+00  0.00000000E+00  0.00000000E+00
  0.00000000E+00  0.00000000E+00  0.00000000E+00
  0.00000000E+00  0.00000000E+00  0.00000000E+00
  0.00000000E+00  0.00000000E+00  0.00000000E+00
  0.00000000E+00  0.00000000E+00  0.00000000E+00
  0.00000000E+00  0.00000000E+00  0.00000000E+00
  0.00000000E+00  0.00000000E+00  0.00000000E+00
  0.00000000E+00  0.00000000E+00  0.00000000E+00
  0.00000000E+00  0.00000000E+00  0.00000000E+00
  0.00000000E+00  0.00000000E+00  0.00000000E+00
  0.00000000E+00  0.00000000E+00  0.00000000E+00
  0.00000000E+00  0.00000000E+00  0.00000000E+00
  0.00000000E+00  0.00000000E+00  0.00000000E+00
  0.00000000E+00  0.00000000E+00  0.00000000E+00
  0.00000000E+00  0.00000000E+00  0.00000000E+00
  0.00000000E+00  0.00000000E+00  0.00000000E+00
  0.00000000E+00  0.00000000E+00  0.00000000E+00
  0.00000000E+00  0.00000000E+00  0.00000000E+00
  0.00000000E+00  0.00000000E+00  0.00000000E+00
  0.00000000E+00  0.00000000E+00  0.00000000E+00
  0.00000000E+00  0.00000000E+00  0.00000000E+00
  0.00000000E+00  0.00000000E+00  0.00000000E+00
  0.00000000E+00  0.00000000E+00  0.00000000E+00
  0.00000000E+00  0.00000000E+00  0.00000000E+00
  0.00000000E+00  0.00000000E+00  0.00000000E+00
  0.00000000E+00  0.00000000E+00  0.00000000E+00
  0.00000000E+00  0.00000000E+00  0.00000000E+00
  0.00000000E+00  0.00000000E+00  0.00000000E+00
  0.00000000E+00  0.00000000E+00  0.00000000E+00
  0.00000000E+00  0.00000000E+00  0.00000000E+00
  0.00000000E+00  0.00000000E+00  0.00000000E+00
  0.00000000E+00  0.00000000E+00  0.00000000E+00
  0.00000000E+00  0.00000000E+00  0.00000000E+00
  0.00000000E+00  0.00000000E+00  0.00000000E+00
  0.00000000E+00  0.00000000E+00  0.00000000E+00
  0.00000000E+00  0.00000000E+00  0.00000000E+00
  0.00000000E+00  0.00000000E+00  0.00000000E+00
  0.00000000E+00  0.00000000E+00  0.00000000E+00
  0.00000000E+00  0.00000000E+00  0.00000000E+00
  0.00000000E+00  0.00000000E+00  0.00000000E+00
  0.00000000E+00  0.00000000E+00  0.00000000E+00
  0.00000000E+00  0.00000000E+00  0.00000000E+00
  0.00000000E+00  0.00000000E+00  0.00000000E+00
  0.00000000E+00  0.00000000E+00  0.00000000E+00
