C H O Si                                
   1.00000000000000     
     9.2874599999999994    0.0000000000000000    0.0000000000000000
     0.0000000000000000    8.7562999999999995    0.0000000000000000
     0.0000000000000000    0.0000000000000000   58.0000000000000000
   C    H    O    Si
    36    24    12    36
Selective dynamics
Direct
  0.0006612509137227  0.1357668523954558  0.4342216751993675   T   T   T
  0.0006612509137227  0.6357668523954558  0.4342216751993675   T   T   T
  0.3339945842467245  0.1357668523954558  0.4342216751993675   T   T   T
  0.3339945842467245  0.6357668523954558  0.4342216751993675   T   T   T
  0.6673279175807210  0.1357668523954558  0.4342216751993675   T   T   T
  0.6673279175807210  0.6357668523954558  0.4342216751993675   T   T   T
  0.1676557899764930  0.3823497265017579  0.4596224012286072   T   T   T
  0.1676557899764930  0.8823497265017579  0.4596224012286072   T   T   T
  0.5009891233104895  0.3823497265017579  0.4596224012286072   T   T   T
  0.5009891233104895  0.8823497265017579  0.4596224012286072   T   T   T
  0.8343224566434913  0.3823497265017579  0.4596224012286072   T   T   T
  0.8343224566434913  0.8823497265017579  0.4596224012286072   T   T   T
  0.0010890856060826  0.1321173450040192  0.4868103548750469   T   T   T
  0.0010890856060826  0.6321173450040192  0.4868103548750469   T   T   T
  0.3344224189390843  0.1321173450040192  0.4868103548750469   T   T   T
  0.3344224189390843  0.6321173450040192  0.4868103548750469   T   T   T
  0.6677557522730879  0.1321173450040192  0.4868103548750469   T   T   T
  0.6677557522730879  0.6321173450040192  0.4868103548750469   T   T   T
  0.1677558408040838  0.3821175138130144  0.5131896451249531   T   T   T
  0.1677558408040838  0.8821175138130144  0.5131896451249531   T   T   T
  0.5010891741380874  0.3821175138130144  0.5131896451249531   T   T   T
  0.5010891741380874  0.8821175138130144  0.5131896451249531   T   T   T
  0.8344225074710891  0.3821175138130144  0.5131896451249531   T   T   T
  0.8344225074710891  0.8821175138130144  0.5131896451249531   T   T   T
  0.0009890347784918  0.1323495576927627  0.5403775987713928   T   T   T
  0.0009890347784918  0.6323495576927627  0.5403775987713928   T   T   T
  0.3343223681114864  0.1323495576927627  0.5403775987713928   T   T   T
  0.3343223681114864  0.6323495576927627  0.5403775987713928   T   T   T
  0.6676557014454900  0.1323495576927627  0.5403775987713928   T   T   T
  0.6676557014454900  0.6323495576927627  0.5403775987713928   T   T   T
  0.1673280061117310  0.3857670212044511  0.5657783248006396   T   T   T
  0.1673280061117310  0.8857670212044511  0.5657783248006396   T   T   T
  0.5006613394457204  0.3857670212044511  0.5657783248006396   T   T   T
  0.5006613394457204  0.8857670212044511  0.5657783248006396   T   T   T
  0.8339946727787222  0.3857670212044511  0.5657783248006396   T   T   T
  0.8339946727787222  0.8857670212044511  0.5657783248006396   T   T   T
  0.0032833326287403  0.0622774383247915  0.4188298533957990   T   T   T
  0.0032833326287403  0.5622774383247915  0.4188298533957990   T   T   T
  0.3366166659627439  0.0622774383247915  0.4188298533957990   T   T   T
  0.3366166659627439  0.5622774383247915  0.4188298533957990   T   T   T
  0.6699499992957456  0.0622774383247915  0.4188298533957990   T   T   T
  0.6699499992957456  0.5622774383247915  0.4188298533957990   T   T   T
  0.1699502511727431  0.3122776071337938  0.5811701466042010   T   T   T
  0.1699502511727431  0.8122776071337938  0.5811701466042010   T   T   T
  0.5032835845067396  0.3122776071337938  0.5811701466042010   T   T   T
  0.5032835845067396  0.8122776071337938  0.5811701466042010   T   T   T
  0.8366169178397413  0.3122776071337938  0.5811701466042010   T   T   T
  0.8366169178397413  0.8122776071337938  0.5811701466042010   T   T   T
  0.0902177397808117  0.1174298927817290  0.5978992633326925   T   T   T
  0.0902177397808117  0.6174298927817219  0.5978992633326925   T   T   T
  0.4235510731138135  0.1174298927817290  0.5978992633326925   T   T   T
  0.4235510731138135  0.6174298927817219  0.5978992633326925   T   T   T
  0.7568844064468081  0.1174298927817290  0.5978992633326925   T   T   T
  0.7568844064468081  0.6174298927817219  0.5978992633326925   T   T   T
  0.2568843758948134  0.3674301372187259  0.4021007366673146   T   T   T
  0.2568843758948134  0.8674301372187188  0.4021007366673146   T   T   T
  0.5902177092278080  0.3674301372187259  0.4021007366673146   T   T   T
  0.5902177092278080  0.8674301372187188  0.4021007366673146   T   T   T
  0.9235510425608098  0.3674301372187259  0.4021007366673146   T   T   T
  0.9235510425608098  0.8674301372187188  0.4021007366673146   T   T   T
  0.1602670870867371  0.3403839616840258  0.4074083697525737   T   T   T
  0.1602670870867371  0.8403839616840258  0.4074083697525737   T   T   T
  0.4936004204207336  0.3403839616840258  0.4074083697525737   T   T   T
  0.4936004204207336  0.8403839616840258  0.4074083697525737   T   T   T
  0.8269337537537353  0.3403839616840258  0.4074083697525737   T   T   T
  0.8269337537537353  0.8403839616840258  0.4074083697525737   T   T   T
  0.9936004005537384  0.0903837928750235  0.5925916302474263   T   T   T
  0.9936004005537384  0.5903837928750235  0.5925916302474263   T   T   T
  0.3269337338877349  0.0903837928750235  0.5925916302474263   T   T   T
  0.3269337338877349  0.5903837928750235  0.5925916302474263   T   T   T
  0.6602670672207367  0.0903837928750235  0.5925916302474263   T   T   T
  0.6602670672207367  0.5903837928750235  0.5925916302474263   T   T   T
  0.1670684099412512  0.2529321806677771  0.4338964614965803   T   T   T
  0.1670684099412512  0.7529321806677771  0.4338964614965803   T   T   T
  0.5004017432752477  0.2529321806677771  0.4338964614965803   T   T   T
  0.5004017432752477  0.7529321806677771  0.4338964614965803   T   T   T
  0.8337350766082494  0.2529321806677771  0.4338964614965803   T   T   T
  0.8337350766082494  0.7529321806677771  0.4338964614965803   T   T   T
  0.0009800514759348  0.0061636345204406  0.4604364134484129   T   T   T
  0.0009800514759348  0.5061636345204406  0.4604364134484129   T   T   T
  0.3343133848089366  0.0061636345204406  0.4604364134484129   T   T   T
  0.3343133848089366  0.5061636345204406  0.4604364134484129   T   T   T
  0.6676467181429331  0.0061636345204406  0.4604364134484129   T   T   T
  0.6676467181429331  0.5061636345204406  0.4604364134484129   T   T   T
  0.1677539187852375  0.2565177606450106  0.4866354097907930   T   T   T
  0.1677539187852375  0.7565177606450106  0.4866354097907930   T   T   T
  0.5010872521192340  0.2565177606450106  0.4866354097907930   T   T   T
  0.5010872521192340  0.7565177606450106  0.4866354097907930   T   T   T
  0.8344205854522357  0.2565177606450106  0.4866354097907930   T   T   T
  0.8344205854522357  0.7565177606450106  0.4866354097907930   T   T   T
  0.0010871635872363  0.0065175918350135  0.5133645902092070   T   T   T
  0.0010871635872363  0.5065175918350135  0.5133645902092070   T   T   T
  0.3344204969202380  0.0065175918350135  0.5133645902092070   T   T   T
  0.3344204969202380  0.5065175918350135  0.5133645902092070   T   T   T
  0.6677538302542345  0.0065175918350135  0.5133645902092070   T   T   T
  0.6677538302542345  0.5065175918350135  0.5133645902092070   T   T   T
  0.1676468066739361  0.2561638033304376  0.5395635865515871   T   T   T
  0.1676468066739361  0.7561638033304376  0.5395635865515871   T   T   T
  0.5009801400079326  0.2561638033304376  0.5395635865515871   T   T   T
  0.5009801400079326  0.7561638033304376  0.5395635865515871   T   T   T
  0.8343134733409343  0.2561638033304376  0.5395635865515871   T   T   T
  0.8343134733409343  0.7561638033304376  0.5395635865515871   T   T   T
  0.0004016547432499  0.0029320118577800  0.5661035385034197   T   T   T
  0.0004016547432499  0.5029320118577800  0.5661035385034197   T   T   T
  0.3337349880762517  0.0029320118577800  0.5661035385034197   T   T   T
  0.3337349880762517  0.5029320118577800  0.5661035385034197   T   T   T
  0.6670683214102482  0.0029320118577800  0.5661035385034197   T   T   T
  0.6670683214102482  0.5029320118577800  0.5661035385034197   T   T   T
 
  0.00000000E+00  0.00000000E+00  0.00000000E+00
  0.00000000E+00  0.00000000E+00  0.00000000E+00
  0.00000000E+00  0.00000000E+00  0.00000000E+00
  0.00000000E+00  0.00000000E+00  0.00000000E+00
  0.00000000E+00  0.00000000E+00  0.00000000E+00
  0.00000000E+00  0.00000000E+00  0.00000000E+00
  0.00000000E+00  0.00000000E+00  0.00000000E+00
  0.00000000E+00  0.00000000E+00  0.00000000E+00
  0.00000000E+00  0.00000000E+00  0.00000000E+00
  0.00000000E+00  0.00000000E+00  0.00000000E+00
  0.00000000E+00  0.00000000E+00  0.00000000E+00
  0.00000000E+00  0.00000000E+00  0.00000000E+00
  0.00000000E+00  0.00000000E+00  0.00000000E+00
  0.00000000E+00  0.00000000E+00  0.00000000E+00
  0.00000000E+00  0.00000000E+00  0.00000000E+00
  0.00000000E+00  0.00000000E+00  0.00000000E+00
  0.00000000E+00  0.00000000E+00  0.00000000E+00
  0.00000000E+00  0.00000000E+00  0.00000000E+00
  0.00000000E+00  0.00000000E+00  0.00000000E+00
  0.00000000E+00  0.00000000E+00  0.00000000E+00
  0.00000000E+00  0.00000000E+00  0.00000000E+00
  0.00000000E+00  0.00000000E+00  0.00000000E+00
  0.00000000E+00  0.00000000E+00  0.00000000E+00
  0.00000000E+00  0.00000000E+00  0.00000000E+00
  0.00000000E+00  0.00000000E+00  0.00000000E+00
  0.00000000E+00  0.00000000E+00  0.00000000E+00
  0.00000000E+00  0.00000000E+00  0.00000000E+00
  0.00000000E+00  0.00000000E+00  0.00000000E+00
  0.00000000E+00  0.00000000E+00  0.00000000E+00
  0.00000000E+00  0.00000000E+00  0.00000000E+00
  0.00000000E+00  0.00000000E+00  0.00000000E+00
  0.00000000E+00  0.00000000E+00  0.00000000E+00
  0.00000000E+00  0.00000000E+00  0.00000000E+00
  0.00000000E+00  0.00000000E+00  0.00000000E+00
  0.00000000E+00  0.00000000E+00  0.00000000E+00
  0.00000000E+00  0.00000000E+00  0.00000000E+00
  0.00000000E+00  0.00000000E+00  0.00000000E+00
  0.00000000E+00  0.00000000E+00  0.00000000E+00
  0.00000000E+00  0.00000000E+00  0.00000000E+00
  0.00000000E+00  0.00000000E+00  0.00000000E+00
  0.00000000E+00  0.00000000E+00  0.00000000E+00
  0.00000000E+00  0.00000000E+00  0.00000000E+00
  0.00000000E+00  0.00000000E+00  0.00000000E+00
  0.00000000E+00  0.00000000E+00  0.00000000E+00
  0.00000000E+00  0.00000000E+00  0.00000000E+00
  0.00000000E+00  0.00000000E+00  0.00000000E+00
  0.00000000E+00  0.00000000E+00  0.00000000E+00
  0.00000000E+00  0.00000000E+00  0.00000000E+00
  0.00000000E+00  0.00000000E+00  0.00000000E+00
  0.00000000E+00  0.00000000E+00  0.00000000E+00
  0.00000000E+00  0.00000000E+00  0.00000000E+00
  0.00000000E+00  0.00000000E+00  0.00000000E+00
  0.00000000E+00  0.00000000E+00  0.00000000E+00
  0.00000000E+00  0.00000000E+00  0.00000000E+00
  0.00000000E+00  0.00000000E+00  0.00000000E+00
  0.00000000E+00  0.00000000E+00  0.00000000E+00
  0.00000000E+00  0.00000000E+00  0.00000000E+00
  0.00000000E+00  0.00000000E+00  0.00000000E+00
  0.00000000E+00  0.00000000E+00  0.00000000E+00
  0.00000000E+00  0.00000000E+00  0.00000000E+00
  0.00000000E+00  0.00000000E+00  0.00000000E+00
  0.00000000E+00  0.00000000E+00  0.00000000E+00
  0.00000000E+00  0.00000000E+00  0.00000000E+00
  0.00000000E+00  0.00000000E+00  0.00000000E+00
  0.00000000E+00  0.00000000E+00  0.00000000E+00
  0.00000000E+00  0.00000000E+00  0.00000000E+00
  0.00000000E+00  0.00000000E+00  0.00000000E+00
  0.00000000E+00  0.00000000E+00  0.00000000E+00
  0.00000000E+00  0.00000000E+00  0.00000000E+00
  0.00000000E+00  0.00000000E+00  0.00000000E+00
  0.00000000E+00  0.00000000E+00  0.00000000E+00
  0.00000000E+00  0.00000000E+00  0.00000000E+00
  0.00000000E+00  0.00000000E+00  0.00000000E+00
  0.00000000E+00  0.00000000E+00  0.00000000E+00
  0.00000000E+00  0.00000000E+00  0.00000000E+00
  0.00000000E+00  0.00000000E+00  0.00000000E+00
  0.00000000E+00  0.00000000E+00  0.00000000E+00
  0.00000000E+00  0.00000000E+00  0.00000000E+00
  0.00000000E+00  0.00000000E+00  0.00000000E+00
  0.00000000E+00  0.00000000E+00  0.00000000E+00
  0.00000000E+00  0.00000000E+00  0.00000000E+00
  0.00000000E+00  0.00000000E+00  0.00000000E+00
  0.00000000E+00  0.00000000E+00  0.00000000E+00
  0.00000000E+00  0.00000000E+00  0.00000000E+00
  0.00000000E+00  0.00000000E+00  0.00000000E+00
  0.00000000E+00  0.00000000E+00  0.00000000E+00
  0.00000000E+00  0.00000000E+00  0.00000000E+00
  0.00000000E+00  0.00000000E+00  0.00000000E+00
  0.00000000E+00  0.00000000E+00  0.00000000E+00
  0.00000000E+00  0.00000000E+00  0.00000000E+00
  0.00000000E+00  0.00000000E+00  0.00000000E+00
  0.00000000E+00  0.00000000E+00  0.00000000E+00
  0.00000000E+00  0.00000000E+00  0.00000000E+00
  0.00000000E+00  0.00000000E+00  0.00000000E+00
  0.00000000E+00  0.00000000E+00  0.00000000E+00
  0.00000000E+00  0.00000000E+00  0.00000000E+00
  0.00000000E+00  0.00000000E+00  0.00000000E+00
  0.00000000E+00  0.00000000E+00  0.00000000E+00
  0.00000000E+00  0.00000000E+00  0.00000000E+00
  0.00000000E+00  0.00000000E+00  0.00000000E+00
  0.00000000E+00  0.00000000E+00  0.00000000E+00
  0.00000000E+00  0.00000000E+00  0.00000000E+00
  0.00000000E+00  0.00000000E+00  0.00000000E+00
  0.00000000E+00  0.00000000E+00  0.00000000E+00
  0.00000000E+00  0.00000000E+00  0.00000000E+00
  0.00000000E+00  0.00000000E+00  0.00000000E+00
  0.00000000E+00  0.00000000E+00  0.00000000E+00
  0.00000000E+00  0.00000000E+00  0.00000000E+00
