C H O Si                                
   1.00000000000000     
     9.2874599999999994    0.0000000000000000    0.0000000000000000
     0.0000000000000000    8.7563099999999991    0.0000000000000000
     0.0000000000000000    0.0000000000000000   58.0000000000000000
   C    H    O    Si
    36    33    16    36
Selective dynamics
Direct
  0.9946497659358179  0.1319773181167945  0.0602372146859722   T   T   T
  0.3281891723819005  0.1321176496964336  0.0604317225592832   T   T   T
  0.6610979831935078  0.1320465690824109  0.0604241661979363   T   T   T
  0.9946576616594583  0.6321774362151841  0.0602408391111296   T   T   T
  0.3281006153728639  0.6317718375592919  0.0604954383747855   T   T   T
  0.6612557336886128  0.6318395757532063  0.0604588921156007   T   T   T
  0.1617081360339067  0.3782608487799961  0.1390718681117906   T   T   T
  0.4950263016245364  0.3783397211992126  0.1394039871814132   T   T   T
  0.8283690228383851  0.3782532960896895  0.1390580374810947   T   T   T
  0.1619701188802241  0.8777320729419752  0.1391729276879483   T   T   T
  0.4951024368887724  0.8770449758784311  0.1394518492058460   T   T   T
  0.8281327115292734  0.8777030615882928  0.1391898151690783   T   T   T
  0.3287947235671180  0.1291551300262767  0.1662910555199991   T   T   T
  0.6616876110492719  0.1292459823529102  0.1663015349356584   T   T   T
  0.9952975904621559  0.1268894999343278  0.1660546814722698   T   T   T
  0.3280561354305473  0.6278175468716571  0.1666320447883542   T   T   T
  0.6621819693561842  0.6277931531645820  0.1665688102363973   T   T   T
  0.9952120750495811  0.6282043476113700  0.1661811428810440   T   T   T
  0.1615359204196628  0.3794817537835330  0.1912373964071453   T   T   T
  0.4951793589121525  0.3853450411786139  0.1925010319877921   T   T   T
  0.8299863547893114  0.3793836479932595  0.1912278899833917   T   T   T
  0.1617408890675311  0.8828466423742513  0.1916257220393661   T   T   T
  0.4952801649872395  0.8878064593754991  0.1912330953742205   T   T   T
  0.8286490370321431  0.8827749170904464  0.1916667923199989   T   T   T
  0.1612950934046147  0.3777952913186325  0.0856698948420201   T   T   T
  0.4946661442066342  0.3777198849530876  0.0858996075934624   T   T   T
  0.8279409280759409  0.3777813965696356  0.0856540574192359   T   T   T
  0.1612844798938342  0.8780602963773536  0.0857005096619012   T   T   T
  0.4946431435855564  0.8779642447893040  0.0858384471421200   T   T   T
  0.8279836419370512  0.8780416058595769  0.0856920438995992   T   T   T
  0.3281734467257213  0.1276278129646068  0.1129297277736636   T   T   T
  0.6613644471500160  0.1275934115974021  0.1129281197202483   T   T   T
  0.9947367143575856  0.1278724622598387  0.1127848105223247   T   T   T
  0.3281480613305260  0.6277671556393325  0.1129426954172145   T   T   T
  0.6614381533146476  0.6278141841913151  0.1129122499174966   T   T   T
  0.9947496441152696  0.6281042737799143  0.1127299889303106   T   T   T
  0.0789101611847603  0.3569951107435915  0.0263490961926262   T   T   T
  0.4099158827034908  0.3578407210945297  0.0268464836464645   T   T   T
  0.7424229228692126  0.3571385656089806  0.0265931043341181   T   T   T
  0.0800655690263224  0.8578107214656027  0.0263591914227122   T   T   T
  0.4094359722248455  0.8572536409393074  0.0268933874408352   T   T   T
  0.7416529734035646  0.8576800297388958  0.0267441883844055   T   T   T
  0.3269155168367832  0.0593871049008455  0.0449223321637741   T   T   T
  0.6576561950901721  0.0593014456026483  0.0449232296513059   T   T   T
  0.9923920447934819  0.0594099295207084  0.0446968073342972   T   T   T
  0.3262316443080232  0.5587239759725475  0.0450117767691533   T   T   T
  0.6584167983240318  0.5588843190065309  0.0449742618850716   T   T   T
  0.9924440999585015  0.5599250556591755  0.0446677465910341   T   T   T
  0.8301749138647271  0.8108271534606211  0.2072546254097543   T   T   T
  0.8330664663948618  0.3067605600631156  0.2067252487758757   T   T   T
  0.1621154005224569  0.3073385575431725  0.2067958810221127   T   T   T
  0.4980362161988203  0.3110198890805197  0.2078516372929631   T   T   T
  0.1649148119865721  0.8104124666298120  0.2071643441364990   T   T   T
  0.4958597636785617  0.8240852785593985  0.2125550554371496   T   T   T
  0.0802060626151449  0.1083139175281008  0.2252262366484544   T   T   T
  0.4104135129707708  0.1089651225982649  0.2256454396334047   T   T   T
  0.7477162942332874  0.1077453317249402  0.2255532839918415   T   T   T
  0.0860882300814851  0.6055177153166837  0.2238660952485321   T   T   T
  0.3654026096655245  0.5743502952904860  0.2312594977029431   T   T   T
  0.7799465732912058  0.5959513107120205  0.2234087070715084   T   T   T
  0.5098763235056268  0.5481130124797833  0.2679874324427132   T   T   T
  0.5016284549207706  0.4615644061874840  0.3021672307571148   T   T   T
  0.5609542809201179  0.6271942445467086  0.3087299894212089   T   T   T
  0.2898561475573714  0.3369462365307530  0.2977466036706268   T   T   T
  0.4137343833610009  0.2188405053739370  0.2963516316016771   T   T   T
  0.6470086963864609  0.7724564232990634  0.3399663466963573   T   T   T
  0.4824841445598270  0.8000391410055049  0.3377691622034706   T   T   T
  0.4965249265969978  0.8003700498977269  0.2282083323694056   T   T   T
  0.5673012802208767  0.5464892103132717  0.2420148070567686   T   T   T
  0.1713024383159563  0.3399494203441615  0.0339982511557745   T   T   T
  0.5032032785816291  0.3414914578857074  0.0342854504940716   T   T   T
  0.8357494146387376  0.3397182028630696  0.0339442260618679   T   T   T
  0.1721048097891565  0.8403476317221928  0.0340854561936124   T   T   T
  0.5030227481621462  0.8406110377954754  0.0342222580687498   T   T   T
  0.8352200899381858  0.8404213021785059  0.0340283470638805   T   T   T
  0.3181030114261338  0.0921147424614436  0.2179687032029948   T   T   T
  0.6549075512265495  0.0935156429285388  0.2178956854310894   T   T   T
  0.9868465671111428  0.0914056449206825  0.2178533286886713   T   T   T
  0.3025701727751912  0.5966499896139918  0.2176241115661648   T   T   T
  0.6790271554240410  0.5877109673415455  0.2183354938164556   T   T   T
  0.9888972848005011  0.5875272921151392  0.2176466327839970   T   T   T
  0.5669604795092980  0.5446583807521208  0.2970414221765698   T   T   T
  0.3782971193686457  0.3047941689622232  0.3054584025149040   T   T   T
  0.5697592001368545  0.7840615685995880  0.3286988974558524   T   T   T
  0.4832372032352983  0.5207231558832099  0.2518475243604737   T   T   T
  0.4947517610181817  0.2495385091359238  0.0597480059187767   T   T   T
  0.8279164922038069  0.2491234773762364  0.0595175763481577   T   T   T
  0.1616577002960357  0.7492314905757785  0.0596021038924330   T   T   T
  0.4947534527219321  0.7491051357980060  0.0597305775022835   T   T   T
  0.8278762476244108  0.7493209226515348  0.0595647677611992   T   T   T
  0.1615213099391421  0.2491435697636890  0.0595444656929820   T   T   T
  0.9950428794288814  0.0021594636939258  0.1393407429738074   T   T   T
  0.3288267003476170  0.0026258965443956  0.1395689551230858   T   T   T
  0.6612718659270974  0.0026893842943000  0.1395789194319707   T   T   T
  0.9950320662401434  0.5032072581147177  0.1393210969105384   T   T   T
  0.3283512898500245  0.5032328642809863  0.1396431596859819   T   T   T
  0.6616193740044560  0.5031597297640582  0.1395722389542354   T   T   T
  0.1614088584303011  0.2515585067257173  0.1655159019042814   T   T   T
  0.4950451165139365  0.2544427390913104  0.1662037876559384   T   T   T
  0.8292574176776328  0.2513749835032152  0.1654762408626666   T   T   T
  0.1618511765080906  0.7526335578329013  0.1658161150349484   T   T   T
  0.4949419674276587  0.7510793645855576  0.1663380079419676   T   T   T
  0.8284893985511453  0.7525618533085249  0.1658330340890557   T   T   T
  0.3272059635577207  0.0012461500161898  0.1924635479663887   T   T   T
  0.6630233140650943  0.0014456067500156  0.1925106975691018   T   T   T
  0.9951541598080588 -0.0001587028118339  0.1923489546155090   T   T   T
  0.3256579183419320  0.5005775254426097  0.1929856701817044   T   T   T
  0.9957262470965147  0.4971795250185283  0.1919673721509045   T   T   T
  0.6650268791815352  0.4984265916910661  0.1925919691179124   T   T   T
  0.9946269370260653  0.0024412248562143  0.0861653034531536   T   T   T
  0.3280056831821144  0.0023071756680393  0.0862917719613218   T   T   T
  0.6613042422481619  0.0022766959213425  0.0862875249689704   T   T   T
  0.9946261789376510  0.5022228869122172  0.0861425110093313   T   T   T
  0.3280242052175160  0.5020299302165350  0.0863512169282479   T   T   T
  0.6612777967271294  0.5020788207705381  0.0863217298008531   T   T   T
  0.1614579124134647  0.2528330281163391  0.1125331580860399   T   T   T
  0.4947440962535389  0.2525363181722966  0.1127416069162135   T   T   T
  0.8279893363834977  0.2528190169130176  0.1125147443251629   T   T   T
  0.1615864276714118  0.7528346786900533  0.1125484151566001   T   T   T
  0.4947569705749406  0.7526037513443316  0.1126860691249463   T   T   T
  0.8279422340415964  0.7528717361749594  0.1125417215471959   T   T   T
