C H O Si                                
   1.00000000000000     
     9.2874599999999994    0.0000000000000000    0.0000000000000000
     0.0000000000000000    8.7563099999999991    0.0000000000000000
     0.0000000000000000    0.0000000000000000   58.0000000000000000
   C    H    O    Si
    36    31    16    36
Selective dynamics
Direct
  0.9954919667758446  0.1293792823586344  0.0595455135920844   T   T   T
  0.3288430320197975  0.1293129882397324  0.0596096764854153   T   T   T
  0.6622150366851685  0.1296038373493147  0.0595862103632996   T   T   T
  0.9955643514294366  0.6295669226429439  0.0596062780779434   T   T   T
  0.3290117826228780  0.6291177948883515  0.0595555419034071   T   T   T
  0.6625308491375890  0.6291232246631182  0.0596142375357900   T   T   T
  0.1625789119000132  0.3751202600889130  0.1385701430829513   T   T   T
  0.4955768553288991  0.3754536803412449  0.1386649151364807   T   T   T
  0.8287290762618653  0.3749333787635152  0.1385221129592651   T   T   T
  0.1624271433734137  0.8755597023223913  0.1385514332348379   T   T   T
  0.4956557012196541  0.8766909483581600  0.1380340066155199   T   T   T
  0.8291328158632965  0.8755562852324701  0.1386048997130516   T   T   T
  0.3301048134632296  0.1263603458735858  0.1656486233760717   T   T   T
  0.6618463539567045  0.1257160216435551  0.1656492291471565   T   T   T
  0.9962441821081640  0.1255887951706285  0.1656016361946087   T   T   T
  0.3285533402812746  0.6262219007253407  0.1654204938334729   T   T   T
  0.6633412230172340  0.6260036343176409  0.1656310428761643   T   T   T
  0.9959466510803026  0.6259490059707176  0.1658297358779706   T   T   T
  0.1651953375595951  0.3807350593085914  0.1911888777709123   T   T   T
  0.4972947438787827  0.3834489930785381  0.1915463173271874   T   T   T
  0.8308487698757148  0.3788071990544424  0.1908873165430123   T   T   T
  0.1611734604858341  0.8802887744085766  0.1912327862558598   T   T   T
  0.4954768174271962  0.8960398635250471  0.1872448939772227   T   T   T
  0.8305658526471547  0.8807392789112072  0.1912625662897796   T   T   T
  0.1620960014749997  0.3750371462795528  0.0849602413613368   T   T   T
  0.4953845248875766  0.3749081039023210  0.0850593122389824   T   T   T
  0.8289407054309095  0.3750177044776777  0.0849643486323117   T   T   T
  0.1620982990858550  0.8749294295315764  0.0849832056891344   T   T   T
  0.4954171555456881  0.8751441415819770  0.0848670921923329   T   T   T
  0.8287578915649974  0.8750693237782414  0.0850132407681699   T   T   T
  0.3287020252817499  0.1252866725758395  0.1121167966158936   T   T   T
  0.6623625942147342  0.1252318152958409  0.1121164839670286   T   T   T
  0.9954589264844387  0.1250678122899913  0.1121158720120761   T   T   T
  0.3287559886182052  0.6246928312282876  0.1120518380380844   T   T   T
  0.6623689500120875  0.6247972607945300  0.1121218999072724   T   T   T
  0.9953796919590872  0.6249054267665670  0.1121950735237789   T   T   T
  0.0860508938170952  0.3543824104300697  0.0246149379789173   T   T   T
  0.4171518822417539  0.3539029685647677  0.0248036693533962   T   T   T
  0.7518296664932791  0.3542085799998773  0.0246095797496793   T   T   T
  0.0863101288624648  0.8543441984567650  0.0246053768782062   T   T   T
  0.4195466268221892  0.8545873417188119  0.0246041033499296   T   T   T
  0.7510342610769456  0.8539333910673079  0.0247642891031674   T   T   T
  0.3264397360952813  0.0570949963949872  0.0440516266444035   T   T   T
  0.6597259252422560  0.0574087750482519  0.0440266090984238   T   T   T
  0.9929189340283742  0.0570670986806263  0.0439998260554120   T   T   T
  0.3260800672586015  0.5570890335289320  0.0439825171461905   T   T   T
  0.6603632661924337  0.5570429965757313  0.0440386663879693   T   T   T
  0.9928258335904374  0.5570466710630555  0.0440815012454863   T   T   T
  0.8340535161216209  0.8099838155461470  0.2069372030822336   T   T   T
  0.8322666396104594  0.3073391659554687  0.2065247430091688   T   T   T
  0.1671553959681447  0.3094216718468630  0.2068357682405519   T   T   T
  0.4989305477499286  0.3113542869940531  0.2071030497796542   T   T   T
  0.1642248030842310  0.8083732228821816  0.2068105932700206   T   T   T
  0.0696543685013751  0.0998974025554986  0.2269689612366719   T   T   T
  0.4155346818482641  0.1035173640268638  0.2255594391892899   T   T   T
  0.7292601333894453  0.0983557565250024  0.2277774120809894   T   T   T
  0.0713286406873905  0.6074753474920058  0.2261342274932900   T   T   T
  0.3736710329982103  0.5800365507948584  0.2298828704213562   T   T   T
  0.7732721959065429  0.6031723920532315  0.2230944891944588   T   T   T
  0.4857922627900280  0.5441810838268353  0.2662839354032229   T   T   T
  0.4714134581434948  0.4534226291896672  0.3000827314196144   T   T   T
  0.5182116731151538  0.6239434825335763  0.3074341435684360   T   T   T
  0.2924485127935270  0.2721590836188099  0.2970927269294350   T   T   T
  0.4402076693956758  0.2104819404723557  0.2889670025700966   T   T   T
  0.6372747184156253  0.7692296658074227  0.3348706008631837   T   T   T
  0.5017166060795404  0.8598816469628687  0.3273545802104607   T   T   T
  0.5639666231872908  0.5426502415817538  0.2417770813646740   T   T   T
  0.1743537772095394  0.3402012944147401  0.0334884863438845   T   T   T
  0.5059238053504913  0.3414152368910379  0.0336271119713487   T   T   T
  0.8400769590003847  0.3411662285667632  0.0335363912772522   T   T   T
  0.1745612151925897  0.8400406145889079  0.0334795457012831   T   T   T
  0.5080231052073501  0.8394442646854117  0.0333988059123982   T   T   T
  0.8396584043847213  0.8410567770034660  0.0336013352832367   T   T   T
  0.3234193074835332  0.0887421896348357  0.2176958240143136   T   T   T
  0.6466905155406195  0.0900561142033141  0.2174437667195761   T   T   T
  0.9871632377934532  0.0994099191775248  0.2165802310882299   T   T   T
  0.3229027924142898  0.6143016763175240  0.2151866960521218   T   T   T
  0.6746448786754513  0.5967784350398802  0.2169148166268684   T   T   T
  0.9835278976863862  0.5884104967717860  0.2173120583605481   T   T   T
  0.5206451138736057  0.5476589374097216  0.2947927356111819   T   T   T
  0.3937474123204723  0.2666421889508399  0.3014355908834219   T   T   T
  0.5365615952247111  0.7569826547725853  0.3304957525668044   T   T   T
  0.4737214211177445  0.5153637815749263  0.2496979447620689   T   T   T
  0.4953832503807050  0.2471277876255442  0.0585938138267821   T   T   T
  0.8288963472264044  0.2472290015590417  0.0585228112869913   T   T   T
  0.1624060241130181  0.7469704787106863  0.0585355126653937   T   T   T
  0.4957768941612670  0.7465246110163690  0.0584546459225805   T   T   T
  0.8289072881706261  0.7471655955514436  0.0585888772051675   T   T   T
  0.1621898923412033  0.2469604050581395  0.0585316864880738   T   T   T
  0.9958692763409758  0.0008409074593771  0.1387585002499847   T   T   T
  0.3284605519229160  0.0010550707803532  0.1387640853362129   T   T   T
  0.6628656534468291  0.0008470443926143  0.1387522241697638   T   T   T
  0.9956207445354721  0.5010385383779479  0.1389174646177480   T   T   T
  0.3287360806009261  0.5005304462414273  0.1387115960288625   T   T   T
  0.6625065250924109  0.5004600981383476  0.1387669425992257   T   T   T
  0.1616672207743406  0.2513673627465494  0.1654463405723732   T   T   T
  0.4960455346597570  0.2523156118098910  0.1656524022211983   T   T   T
  0.8307385839100689  0.2501851337529786  0.1652669483994629   T   T   T
  0.1621996680931161  0.7510510914696908  0.1652478906740882   T   T   T
  0.4955520536081650  0.7468951957243206  0.1646276678994596   T   T   T
  0.8294302719564541  0.7510640456155997  0.1653148357520706   T   T   T
  0.3253678431365614  0.9989605493660321  0.1925546791597483   T   T   T
  0.6657870350150858  0.9988074216472356  0.1925989577692704   T   T   T
  0.9961755857428116  0.0003705354783961  0.1921560300464904   T   T   T
  0.3303441395740236  0.5029278831591313  0.1922006196636943   T   T   T
  0.9974519969260029  0.4965754705137257  0.1920955554409787   T   T   T
  0.6656254813786830  0.4988443317307514  0.1920470178395632   T   T   T
  0.9954317578655250  0.0000163688601305  0.0853339555957362   T   T   T
  0.3286111980198569  0.9998462612029044  0.0853445295584905   T   T   T
  0.6622001453963122  0.0000095233649446  0.0853255365350876   T   T   T
  0.9954818225670579  0.5000550523940248  0.0853764768415033   T   T   T
  0.3287313801741192  0.4996579352435546  0.0853176074114472   T   T   T
  0.6623310619112388  0.4995903705812168  0.0853645491234971   T   T   T
  0.1618280728820451  0.2506983109991054  0.1117763494763011   T   T   T
  0.4954370430240829  0.2505651801527335  0.1118898248402616   T   T   T
  0.8290323401215147  0.2506559318993737  0.1117415603722165   T   T   T
  0.1621973243696999  0.7506567937907462  0.1117945721838041   T   T   T
  0.4953930514928331  0.7493676356002936  0.1114730111030440   T   T   T
  0.8287121517897589  0.7507567507784501  0.1118347324977975   T   T   T
 
  0.00000000E+00  0.00000000E+00  0.00000000E+00
  0.00000000E+00  0.00000000E+00  0.00000000E+00
  0.00000000E+00  0.00000000E+00  0.00000000E+00
  0.00000000E+00  0.00000000E+00  0.00000000E+00
  0.00000000E+00  0.00000000E+00  0.00000000E+00
  0.00000000E+00  0.00000000E+00  0.00000000E+00
  0.00000000E+00  0.00000000E+00  0.00000000E+00
  0.00000000E+00  0.00000000E+00  0.00000000E+00
  0.00000000E+00  0.00000000E+00  0.00000000E+00
  0.00000000E+00  0.00000000E+00  0.00000000E+00
  0.00000000E+00  0.00000000E+00  0.00000000E+00
  0.00000000E+00  0.00000000E+00  0.00000000E+00
  0.00000000E+00  0.00000000E+00  0.00000000E+00
  0.00000000E+00  0.00000000E+00  0.00000000E+00
  0.00000000E+00  0.00000000E+00  0.00000000E+00
  0.00000000E+00  0.00000000E+00  0.00000000E+00
  0.00000000E+00  0.00000000E+00  0.00000000E+00
  0.00000000E+00  0.00000000E+00  0.00000000E+00
  0.00000000E+00  0.00000000E+00  0.00000000E+00
  0.00000000E+00  0.00000000E+00  0.00000000E+00
  0.00000000E+00  0.00000000E+00  0.00000000E+00
  0.00000000E+00  0.00000000E+00  0.00000000E+00
  0.00000000E+00  0.00000000E+00  0.00000000E+00
  0.00000000E+00  0.00000000E+00  0.00000000E+00
  0.00000000E+00  0.00000000E+00  0.00000000E+00
  0.00000000E+00  0.00000000E+00  0.00000000E+00
  0.00000000E+00  0.00000000E+00  0.00000000E+00
  0.00000000E+00  0.00000000E+00  0.00000000E+00
  0.00000000E+00  0.00000000E+00  0.00000000E+00
  0.00000000E+00  0.00000000E+00  0.00000000E+00
  0.00000000E+00  0.00000000E+00  0.00000000E+00
  0.00000000E+00  0.00000000E+00  0.00000000E+00
  0.00000000E+00  0.00000000E+00  0.00000000E+00
  0.00000000E+00  0.00000000E+00  0.00000000E+00
  0.00000000E+00  0.00000000E+00  0.00000000E+00
  0.00000000E+00  0.00000000E+00  0.00000000E+00
  0.00000000E+00  0.00000000E+00  0.00000000E+00
  0.00000000E+00  0.00000000E+00  0.00000000E+00
  0.00000000E+00  0.00000000E+00  0.00000000E+00
  0.00000000E+00  0.00000000E+00  0.00000000E+00
  0.00000000E+00  0.00000000E+00  0.00000000E+00
  0.00000000E+00  0.00000000E+00  0.00000000E+00
  0.00000000E+00  0.00000000E+00  0.00000000E+00
  0.00000000E+00  0.00000000E+00  0.00000000E+00
  0.00000000E+00  0.00000000E+00  0.00000000E+00
  0.00000000E+00  0.00000000E+00  0.00000000E+00
  0.00000000E+00  0.00000000E+00  0.00000000E+00
  0.00000000E+00  0.00000000E+00  0.00000000E+00
  0.00000000E+00  0.00000000E+00  0.00000000E+00
  0.00000000E+00  0.00000000E+00  0.00000000E+00
  0.00000000E+00  0.00000000E+00  0.00000000E+00
  0.00000000E+00  0.00000000E+00  0.00000000E+00
  0.00000000E+00  0.00000000E+00  0.00000000E+00
  0.00000000E+00  0.00000000E+00  0.00000000E+00
  0.00000000E+00  0.00000000E+00  0.00000000E+00
  0.00000000E+00  0.00000000E+00  0.00000000E+00
  0.00000000E+00  0.00000000E+00  0.00000000E+00
  0.00000000E+00  0.00000000E+00  0.00000000E+00
  0.00000000E+00  0.00000000E+00  0.00000000E+00
  0.00000000E+00  0.00000000E+00  0.00000000E+00
  0.00000000E+00  0.00000000E+00  0.00000000E+00
  0.00000000E+00  0.00000000E+00  0.00000000E+00
  0.00000000E+00  0.00000000E+00  0.00000000E+00
  0.00000000E+00  0.00000000E+00  0.00000000E+00
  0.00000000E+00  0.00000000E+00  0.00000000E+00
  0.00000000E+00  0.00000000E+00  0.00000000E+00
  0.00000000E+00  0.00000000E+00  0.00000000E+00
  0.00000000E+00  0.00000000E+00  0.00000000E+00
  0.00000000E+00  0.00000000E+00  0.00000000E+00
  0.00000000E+00  0.00000000E+00  0.00000000E+00
  0.00000000E+00  0.00000000E+00  0.00000000E+00
  0.00000000E+00  0.00000000E+00  0.00000000E+00
  0.00000000E+00  0.00000000E+00  0.00000000E+00
  0.00000000E+00  0.00000000E+00  0.00000000E+00
  0.00000000E+00  0.00000000E+00  0.00000000E+00
  0.00000000E+00  0.00000000E+00  0.00000000E+00
  0.00000000E+00  0.00000000E+00  0.00000000E+00
  0.00000000E+00  0.00000000E+00  0.00000000E+00
  0.00000000E+00  0.00000000E+00  0.00000000E+00
  0.00000000E+00  0.00000000E+00  0.00000000E+00
  0.00000000E+00  0.00000000E+00  0.00000000E+00
  0.00000000E+00  0.00000000E+00  0.00000000E+00
  0.00000000E+00  0.00000000E+00  0.00000000E+00
  0.00000000E+00  0.00000000E+00  0.00000000E+00
  0.00000000E+00  0.00000000E+00  0.00000000E+00
  0.00000000E+00  0.00000000E+00  0.00000000E+00
  0.00000000E+00  0.00000000E+00  0.00000000E+00
  0.00000000E+00  0.00000000E+00  0.00000000E+00
  0.00000000E+00  0.00000000E+00  0.00000000E+00
  0.00000000E+00  0.00000000E+00  0.00000000E+00
  0.00000000E+00  0.00000000E+00  0.00000000E+00
  0.00000000E+00  0.00000000E+00  0.00000000E+00
  0.00000000E+00  0.00000000E+00  0.00000000E+00
  0.00000000E+00  0.00000000E+00  0.00000000E+00
  0.00000000E+00  0.00000000E+00  0.00000000E+00
  0.00000000E+00  0.00000000E+00  0.00000000E+00
  0.00000000E+00  0.00000000E+00  0.00000000E+00
  0.00000000E+00  0.00000000E+00  0.00000000E+00
  0.00000000E+00  0.00000000E+00  0.00000000E+00
  0.00000000E+00  0.00000000E+00  0.00000000E+00
  0.00000000E+00  0.00000000E+00  0.00000000E+00
  0.00000000E+00  0.00000000E+00  0.00000000E+00
  0.00000000E+00  0.00000000E+00  0.00000000E+00
  0.00000000E+00  0.00000000E+00  0.00000000E+00
  0.00000000E+00  0.00000000E+00  0.00000000E+00
  0.00000000E+00  0.00000000E+00  0.00000000E+00
  0.00000000E+00  0.00000000E+00  0.00000000E+00
  0.00000000E+00  0.00000000E+00  0.00000000E+00
  0.00000000E+00  0.00000000E+00  0.00000000E+00
  0.00000000E+00  0.00000000E+00  0.00000000E+00
  0.00000000E+00  0.00000000E+00  0.00000000E+00
  0.00000000E+00  0.00000000E+00  0.00000000E+00
  0.00000000E+00  0.00000000E+00  0.00000000E+00
  0.00000000E+00  0.00000000E+00  0.00000000E+00
  0.00000000E+00  0.00000000E+00  0.00000000E+00
  0.00000000E+00  0.00000000E+00  0.00000000E+00
  0.00000000E+00  0.00000000E+00  0.00000000E+00
  0.00000000E+00  0.00000000E+00  0.00000000E+00
  0.00000000E+00  0.00000000E+00  0.00000000E+00
