C H O Si                                
   1.00000000000000     
     9.2874599999999994    0.0000000000000000    0.0000000000000000
     0.0000000000000000    8.7562999999999995    0.0000000000000000
     0.0000000000000000    0.0000000000000000   58.0000000000000000
   C    H    O    Si
    36    24    12    36
Selective dynamics
Direct
  0.0010550218009984  0.1358306246664913  0.4342746991378170   T   T   T
  0.0010550218009984  0.6358306246664914  0.4342746991378170   T   T   T
  0.3343883551340001  0.1358306246664913  0.4342746991378170   T   T   T
  0.3343883551340001  0.6358306246664914  0.4342746991378170   T   T   T
  0.6677216884679965  0.1358306246664913  0.4342746991378170   T   T   T
  0.6677216884679965  0.6358306246664914  0.4342746991378170   T   T   T
  0.1679076716693307  0.3820172607396572  0.4596311650141494   T   T   T
  0.1679076716693307  0.8820172607396574  0.4596311650141494   T   T   T
  0.5012410050033272  0.3820172607396572  0.4596311650141494   T   T   T
  0.5012410050033272  0.8820172607396574  0.4596311650141494   T   T   T
  0.8345743383363290  0.3820172607396572  0.4596311650141494   T   T   T
  0.8345743383363290  0.8820172607396574  0.4596311650141494   T   T   T
  0.0012838155099002  0.1318284086194207  0.4868097771037089   T   T   T
  0.0012838155099002  0.6318284086194206  0.4868097771037089   T   T   T
  0.3346171488429020  0.1318284086194207  0.4868097771037089   T   T   T
  0.3346171488429020  0.6318284086194206  0.4868097771037089   T   T   T
  0.6679504821769054  0.1318284086194207  0.4868097771037089   T   T   T
  0.6679504821769054  0.6318284086194206  0.4868097771037089   T   T   T
  0.1679505707079014  0.3818285774284159  0.5131902228962909   T   T   T
  0.1679505707079014  0.8818285774284158  0.5131902228962909   T   T   T
  0.5012839040419049  0.3818285774284159  0.5131902228962909   T   T   T
  0.5012839040419049  0.8818285774284158  0.5131902228962909   T   T   T
  0.8346172373749067  0.3818285774284159  0.5131902228962909   T   T   T
  0.8346172373749067  0.8818285774284158  0.5131902228962909   T   T   T
  0.0012409164713295  0.1320170919306619  0.5403688349858508   T   T   T
  0.0012409164713295  0.6320170919306621  0.5403688349858508   T   T   T
  0.3345742498043241  0.1320170919306619  0.5403688349858508   T   T   T
  0.3345742498043241  0.6320170919306621  0.5403688349858508   T   T   T
  0.6679075831383278  0.1320170919306619  0.5403688349858508   T   T   T
  0.6679075831383278  0.6320170919306621  0.5403688349858508   T   T   T
  0.1677217769990068  0.3858307934754865  0.5657253008621828   T   T   T
  0.1677217769990068  0.8858307934754867  0.5657253008621828   T   T   T
  0.5010551103329960  0.3858307934754865  0.5657253008621828   T   T   T
  0.5010551103329960  0.8858307934754867  0.5657253008621828   T   T   T
  0.8343884436659977  0.3858307934754865  0.5657253008621828   T   T   T
  0.8343884436659977  0.8858307934754867  0.5657253008621828   T   T   T
  0.0034985912634650  0.0628664870033020  0.4188146769248918   T   T   T
  0.0034985912634650  0.5628664870033019  0.4188146769248918   T   T   T
  0.3368319245974686  0.0628664870033020  0.4188146769248918   T   T   T
  0.3368319245974686  0.5628664870033019  0.4188146769248918   T   T   T
  0.6701652579304703  0.0628664870033020  0.4188146769248918   T   T   T
  0.6701652579304703  0.5628664870033019  0.4188146769248918   T   T   T
  0.1701655098074679  0.3128666558123044  0.5811853230751081   T   T   T
  0.1701655098074679  0.8128666558123042  0.5811853230751081   T   T   T
  0.5034988431414643  0.3128666558123044  0.5811853230751081   T   T   T
  0.5034988431414643  0.8128666558123042  0.5811853230751081   T   T   T
  0.8368321764744661  0.3128666558123044  0.5811853230751081   T   T   T
  0.8368321764744661  0.8128666558123042  0.5811853230751081   T   T   T
  0.0885459505744376  0.1158326494525676  0.5985385642450204   T   T   T
  0.0885459505744376  0.6158326494525673  0.5985385642450204   T   T   T
  0.4218792839074395  0.1158326494525676  0.5985385642450204   T   T   T
  0.4218792839074395  0.6158326494525673  0.5985385642450204   T   T   T
  0.7552126172404341  0.1158326494525676  0.5985385642450204   T   T   T
  0.7552126172404341  0.6158326494525673  0.5985385642450204   T   T   T
  0.2552125866884394  0.3658328938895645  0.4014614357549797   T   T   T
  0.2552125866884394  0.8658328938895642  0.4014614357549797   T   T   T
  0.5885459200214340  0.3658328938895645  0.4014614357549797   T   T   T
  0.5885459200214340  0.8658328938895642  0.4014614357549797   T   T   T
  0.9218792533544358  0.3658328938895645  0.4014614357549797   T   T   T
  0.9218792533544358  0.8658328938895642  0.4014614357549797   T   T   T
  0.1599695537406683  0.3419031015964135  0.4076506929200477   T   T   T
  0.1599695537406683  0.8419031015964137  0.4076506929200477   T   T   T
  0.4933028870746647  0.3419031015964135  0.4076506929200477   T   T   T
  0.4933028870746647  0.8419031015964137  0.4076506929200477   T   T   T
  0.8266362204076667  0.3419031015964135  0.4076506929200477   T   T   T
  0.8266362204076667  0.8419031015964137  0.4076506929200477   T   T   T
  0.9933028672076698  0.0919029327874112  0.5923493070799525   T   T   T
  0.9933028672076698  0.5919029327874114  0.5923493070799525   T   T   T
  0.3266362005416660  0.0919029327874112  0.5923493070799525   T   T   T
  0.3266362005416660  0.5919029327874114  0.5923493070799525   T   T   T
  0.6599695338746681  0.0919029327874112  0.5923493070799525   T   T   T
  0.6599695338746681  0.5919029327874114  0.5923493070799525   T   T   T
  0.1675362178966377  0.2530662041485928  0.4337182782841654   T   T   T
  0.1675362178966377  0.7530662041485927  0.4337182782841654   T   T   T
  0.5008695512306340  0.2530662041485928  0.4337182782841654   T   T   T
  0.5008695512306340  0.7530662041485927  0.4337182782841654   T   T   T
  0.8342028845636358  0.2530662041485928  0.4337182782841654   T   T   T
  0.8342028845636358  0.7530662041485927  0.4337182782841654   T   T   T
  0.0012339597747490  0.0060163918299326  0.4603246172485035   T   T   T
  0.0012339597747490  0.5060163918299329  0.4603246172485035   T   T   T
  0.3345672931077507  0.0060163918299326  0.4603246172485035   T   T   T
  0.3345672931077507  0.5060163918299329  0.4603246172485035   T   T   T
  0.6679006264417473  0.0060163918299326  0.4603246172485035   T   T   T
  0.6679006264417473  0.5060163918299329  0.4603246172485035   T   T   T
  0.1679458839648096  0.2565776644686299  0.4865895768046590   T   T   T
  0.1679458839648096  0.7565776644686298  0.4865895768046590   T   T   T
  0.5012792172988061  0.2565776644686299  0.4865895768046590   T   T   T
  0.5012792172988061  0.7565776644686298  0.4865895768046590   T   T   T
  0.8346125506318078  0.2565776644686299  0.4865895768046590   T   T   T
  0.8346125506318078  0.7565776644686298  0.4865895768046590   T   T   T
  0.0012791287668084  0.0065774956586327  0.5134104231953409   T   T   T
  0.0012791287668084  0.5065774956586327  0.5134104231953409   T   T   T
  0.3346124620998102  0.0065774956586327  0.5134104231953409   T   T   T
  0.3346124620998102  0.5065774956586327  0.5134104231953409   T   T   T
  0.6679457954338066  0.0065774956586327  0.5134104231953409   T   T   T
  0.6679457954338066  0.5065774956586327  0.5134104231953409   T   T   T
  0.1679007149727503  0.2560165606399297  0.5396753827514970   T   T   T
  0.1679007149727503  0.7560165606399299  0.5396753827514970   T   T   T
  0.5012340483067468  0.2560165606399297  0.5396753827514970   T   T   T
  0.5012340483067468  0.7560165606399299  0.5396753827514970   T   T   T
  0.8345673816397485  0.2560165606399297  0.5396753827514970   T   T   T
  0.8345673816397485  0.7560165606399299  0.5396753827514970   T   T   T
  0.0008694626986364  0.0030660353385957  0.5662817217158347   T   T   T
  0.0008694626986364  0.5030660353385956  0.5662817217158347   T   T   T
  0.3342027960316380  0.0030660353385957  0.5662817217158347   T   T   T
  0.3342027960316380  0.5030660353385956  0.5662817217158347   T   T   T
  0.6675361293656346  0.0030660353385957  0.5662817217158347   T   T   T
  0.6675361293656346  0.5030660353385956  0.5662817217158347   T   T   T
 
  0.00000000E+00  0.00000000E+00  0.00000000E+00
  0.00000000E+00  0.00000000E+00  0.00000000E+00
  0.00000000E+00  0.00000000E+00  0.00000000E+00
  0.00000000E+00  0.00000000E+00  0.00000000E+00
  0.00000000E+00  0.00000000E+00  0.00000000E+00
  0.00000000E+00  0.00000000E+00  0.00000000E+00
  0.00000000E+00  0.00000000E+00  0.00000000E+00
  0.00000000E+00  0.00000000E+00  0.00000000E+00
  0.00000000E+00  0.00000000E+00  0.00000000E+00
  0.00000000E+00  0.00000000E+00  0.00000000E+00
  0.00000000E+00  0.00000000E+00  0.00000000E+00
  0.00000000E+00  0.00000000E+00  0.00000000E+00
  0.00000000E+00  0.00000000E+00  0.00000000E+00
  0.00000000E+00  0.00000000E+00  0.00000000E+00
  0.00000000E+00  0.00000000E+00  0.00000000E+00
  0.00000000E+00  0.00000000E+00  0.00000000E+00
  0.00000000E+00  0.00000000E+00  0.00000000E+00
  0.00000000E+00  0.00000000E+00  0.00000000E+00
  0.00000000E+00  0.00000000E+00  0.00000000E+00
  0.00000000E+00  0.00000000E+00  0.00000000E+00
  0.00000000E+00  0.00000000E+00  0.00000000E+00
  0.00000000E+00  0.00000000E+00  0.00000000E+00
  0.00000000E+00  0.00000000E+00  0.00000000E+00
  0.00000000E+00  0.00000000E+00  0.00000000E+00
  0.00000000E+00  0.00000000E+00  0.00000000E+00
  0.00000000E+00  0.00000000E+00  0.00000000E+00
  0.00000000E+00  0.00000000E+00  0.00000000E+00
  0.00000000E+00  0.00000000E+00  0.00000000E+00
  0.00000000E+00  0.00000000E+00  0.00000000E+00
  0.00000000E+00  0.00000000E+00  0.00000000E+00
  0.00000000E+00  0.00000000E+00  0.00000000E+00
  0.00000000E+00  0.00000000E+00  0.00000000E+00
  0.00000000E+00  0.00000000E+00  0.00000000E+00
  0.00000000E+00  0.00000000E+00  0.00000000E+00
  0.00000000E+00  0.00000000E+00  0.00000000E+00
  0.00000000E+00  0.00000000E+00  0.00000000E+00
  0.00000000E+00  0.00000000E+00  0.00000000E+00
  0.00000000E+00  0.00000000E+00  0.00000000E+00
  0.00000000E+00  0.00000000E+00  0.00000000E+00
  0.00000000E+00  0.00000000E+00  0.00000000E+00
  0.00000000E+00  0.00000000E+00  0.00000000E+00
  0.00000000E+00  0.00000000E+00  0.00000000E+00
  0.00000000E+00  0.00000000E+00  0.00000000E+00
  0.00000000E+00  0.00000000E+00  0.00000000E+00
  0.00000000E+00  0.00000000E+00  0.00000000E+00
  0.00000000E+00  0.00000000E+00  0.00000000E+00
  0.00000000E+00  0.00000000E+00  0.00000000E+00
  0.00000000E+00  0.00000000E+00  0.00000000E+00
  0.00000000E+00  0.00000000E+00  0.00000000E+00
  0.00000000E+00  0.00000000E+00  0.00000000E+00
  0.00000000E+00  0.00000000E+00  0.00000000E+00
  0.00000000E+00  0.00000000E+00  0.00000000E+00
  0.00000000E+00  0.00000000E+00  0.00000000E+00
  0.00000000E+00  0.00000000E+00  0.00000000E+00
  0.00000000E+00  0.00000000E+00  0.00000000E+00
  0.00000000E+00  0.00000000E+00  0.00000000E+00
  0.00000000E+00  0.00000000E+00  0.00000000E+00
  0.00000000E+00  0.00000000E+00  0.00000000E+00
  0.00000000E+00  0.00000000E+00  0.00000000E+00
  0.00000000E+00  0.00000000E+00  0.00000000E+00
  0.00000000E+00  0.00000000E+00  0.00000000E+00
  0.00000000E+00  0.00000000E+00  0.00000000E+00
  0.00000000E+00  0.00000000E+00  0.00000000E+00
  0.00000000E+00  0.00000000E+00  0.00000000E+00
  0.00000000E+00  0.00000000E+00  0.00000000E+00
  0.00000000E+00  0.00000000E+00  0.00000000E+00
  0.00000000E+00  0.00000000E+00  0.00000000E+00
  0.00000000E+00  0.00000000E+00  0.00000000E+00
  0.00000000E+00  0.00000000E+00  0.00000000E+00
  0.00000000E+00  0.00000000E+00  0.00000000E+00
  0.00000000E+00  0.00000000E+00  0.00000000E+00
  0.00000000E+00  0.00000000E+00  0.00000000E+00
  0.00000000E+00  0.00000000E+00  0.00000000E+00
  0.00000000E+00  0.00000000E+00  0.00000000E+00
  0.00000000E+00  0.00000000E+00  0.00000000E+00
  0.00000000E+00  0.00000000E+00  0.00000000E+00
  0.00000000E+00  0.00000000E+00  0.00000000E+00
  0.00000000E+00  0.00000000E+00  0.00000000E+00
  0.00000000E+00  0.00000000E+00  0.00000000E+00
  0.00000000E+00  0.00000000E+00  0.00000000E+00
  0.00000000E+00  0.00000000E+00  0.00000000E+00
  0.00000000E+00  0.00000000E+00  0.00000000E+00
  0.00000000E+00  0.00000000E+00  0.00000000E+00
  0.00000000E+00  0.00000000E+00  0.00000000E+00
  0.00000000E+00  0.00000000E+00  0.00000000E+00
  0.00000000E+00  0.00000000E+00  0.00000000E+00
  0.00000000E+00  0.00000000E+00  0.00000000E+00
  0.00000000E+00  0.00000000E+00  0.00000000E+00
  0.00000000E+00  0.00000000E+00  0.00000000E+00
  0.00000000E+00  0.00000000E+00  0.00000000E+00
  0.00000000E+00  0.00000000E+00  0.00000000E+00
  0.00000000E+00  0.00000000E+00  0.00000000E+00
  0.00000000E+00  0.00000000E+00  0.00000000E+00
  0.00000000E+00  0.00000000E+00  0.00000000E+00
  0.00000000E+00  0.00000000E+00  0.00000000E+00
  0.00000000E+00  0.00000000E+00  0.00000000E+00
  0.00000000E+00  0.00000000E+00  0.00000000E+00
  0.00000000E+00  0.00000000E+00  0.00000000E+00
  0.00000000E+00  0.00000000E+00  0.00000000E+00
  0.00000000E+00  0.00000000E+00  0.00000000E+00
  0.00000000E+00  0.00000000E+00  0.00000000E+00
  0.00000000E+00  0.00000000E+00  0.00000000E+00
  0.00000000E+00  0.00000000E+00  0.00000000E+00
  0.00000000E+00  0.00000000E+00  0.00000000E+00
  0.00000000E+00  0.00000000E+00  0.00000000E+00
  0.00000000E+00  0.00000000E+00  0.00000000E+00
  0.00000000E+00  0.00000000E+00  0.00000000E+00
  0.00000000E+00  0.00000000E+00  0.00000000E+00
