C H O Si                                
   1.00000000000000     
     9.2874599999999994    0.0000000000000000    0.0000000000000000
     0.0000000000000000    8.7563099999999991    0.0000000000000000
     0.0000000000000000    0.0000000000000000   58.0000000000000000
   C    H    O    Si
    36    33    16    36
Selective dynamics
Direct
  0.9967105220007042  0.1303069908332475  0.0595390601979275   T   T   T
  0.3302013582009593  0.1302784737348190  0.0596095133642010   T   T   T
  0.6632752781831996  0.1302829528299867  0.0596259568642594   T   T   T
  0.9966906747101660  0.6305310390931567  0.0595344742081849   T   T   T
  0.3300811329212507  0.6301402644233249  0.0595959369692736   T   T   T
  0.6634228750231941  0.6301242370288378  0.0596228343557925   T   T   T
  0.1624643943715398  0.3757035630824319  0.1384855561977432   T   T   T
  0.4959149947915691  0.3760212704442125  0.1388051323089243   T   T   T
  0.8293729089892778  0.3756709029143153  0.1384859070423232   T   T   T
  0.1628537926239986  0.8760050569925681  0.1385599157943318   T   T   T
  0.4959752430857094  0.8755097871921151  0.1383440481814162   T   T   T
  0.8291162314661022  0.8759147716733864  0.1385950017308133   T   T   T
  0.3292031018729418  0.1265955610014231  0.1657522397660571   T   T   T
  0.6622872980852179  0.1264497153584472  0.1658356963314631   T   T   T
  0.9958857025221235  0.1252218280942827  0.1655296772238586   T   T   T
  0.3284039481902710  0.6259304516914526  0.1656968867719328   T   T   T
  0.6627813366262316  0.6257827272509360  0.1657306870817550   T   T   T
  0.9957807773494451  0.6258475581142164  0.1655917533631737   T   T   T
  0.1628053538865686  0.3788922436384112  0.1908106271757433   T   T   T
  0.4954859599894306  0.3841524375359597  0.1918256293140175   T   T   T
  0.8298922535996383  0.3785880463176952  0.1907940384937987   T   T   T
  0.1610663124267901  0.8802725979472328  0.1911264353202498   T   T   T
  0.4948193178577540  0.8889952827240393  0.1889065190819537   T   T   T
  0.8292223060368187  0.8801166397850579  0.1911712251437621   T   T   T
  0.1630280336436769  0.3757854004876862  0.0849922746865701   T   T   T
  0.4964157035752592  0.3758571620560502  0.0851619368436758   T   T   T
  0.8298141203741309  0.3757937693611169  0.0849994873582745   T   T   T
  0.1631802675179870  0.8759503507269031  0.0850350410329099   T   T   T
  0.4964069297729878  0.8757611086178159  0.0849892540444017   T   T   T
  0.8296431095187771  0.8759948312596890  0.0850618550117872   T   T   T
  0.3295566319815606  0.1258450529021502  0.1121800737818788   T   T   T
  0.6626857630952117  0.1258517223339837  0.1122092266240173   T   T   T
  0.9961368219141349  0.1256308999901279  0.1120918264627662   T   T   T
  0.3293565069728217  0.6255161220352008  0.1121587631670167   T   T   T
  0.6628824377162772  0.6255483348960595  0.1121660719751176   T   T   T
  0.9961275649219417  0.6259598897934211  0.1120931409777342   T   T   T
  0.0788699160134598  0.3563381157346157  0.0260788442347959   T   T   T
  0.4112936622465284  0.3569118196573768  0.0263067980104381   T   T   T
  0.7438494907916748  0.3559311458195609  0.0262126569941046   T   T   T
  0.0791920860497086  0.8569894970556788  0.0261186339969299   T   T   T
  0.4117199140006633  0.8556534406813867  0.0261053166523553   T   T   T
  0.7433121237810312  0.8561113075349880  0.0262913996447125   T   T   T
  0.3276247949733104  0.0582568348089865  0.0440158337676664   T   T   T
  0.6600746386616194  0.0582423500388032  0.0440376189688365   T   T   T
  0.9935768572642516  0.0582427813524760  0.0439620474699112   T   T   T
  0.3267839221367410  0.5581461109551356  0.0440071873511059   T   T   T
  0.6607687080676143  0.5581354069300204  0.0440308514797039   T   T   T
  0.9936006820730370  0.5585521515440348  0.0439403476066573   T   T   T
  0.8323343256206925  0.8085899556082836  0.2067769273949835   T   T   T
  0.8327533631055246  0.3067939812501592  0.2064047102657440   T   T   T
  0.1651602176876636  0.3076203198077465  0.2064822165954254   T   T   T
  0.4980625263081748  0.3112843011602493  0.2073314494811243   T   T   T
  0.1648870379770813  0.8080873477057935  0.2066736894457861   T   T   T
  0.5376930079885867  0.9269992799391815  0.2601285122646786   T   T   T
  0.0818957364082635  0.1072650417909813  0.2242414718880923   T   T   T
  0.4166841868258757  0.1049568614324201  0.2243570747774584   T   T   T
  0.7468271822326429  0.1060522676369615  0.2247914405410967   T   T   T
  0.0863725929539996  0.6076164294291360  0.2231797620039586   T   T   T
  0.3673114257361192  0.5721221793355156  0.2302725415807529   T   T   T
  0.7781867643533857  0.5997760188778116  0.2224719325013993   T   T   T
  0.4912686517309410  0.5436311377520084  0.2652315205760658   T   T   T
  0.4707635789267925  0.4582374474361401  0.3005910336141966   T   T   T
  0.5167833335021612  0.6257744000399015  0.3077975636965249   T   T   T
  0.2895274291495369  0.2735116063283058  0.2951655654543259   T   T   T
  0.4396754621330530  0.2224239809679531  0.2871713428606029   T   T   T
  0.6401926929849964  0.7700664239247175  0.3348020740573858   T   T   T
  0.5047005144949921  0.8635058424408726  0.3283214256661537   T   T   T
  0.5008888959757414  0.8739634781503582  0.2685001247687495   T   T   T
  0.5643624762461670  0.5346013633191831  0.2404222455188787   T   T   T
  0.1724349481950398  0.3402303136810332  0.0334000566148518   T   T   T
  0.5051192526826824  0.3407619704599156  0.0335522476258916   T   T   T
  0.8379021214245412  0.3403476974213504  0.0334145213871793   T   T   T
  0.1726428743673125  0.8404354326873218  0.0334478627890178   T   T   T
  0.5054735562318697  0.8398784205623997  0.0333898366160739   T   T   T
  0.8374631608380696  0.8407398693374049  0.0334764627152424   T   T   T
  0.3214112529567643  0.0888234400371886  0.2175777415492561   T   T   T
  0.6528852464507082  0.0876287439880414  0.2177159622653022   T   T   T
  0.9873657328441539  0.0903411805439305  0.2172713131304533   T   T   T
  0.3078347746058441  0.6032565058419692  0.2164052139197779   T   T   T
  0.6772582406639103  0.5911587000857210  0.2174401647582087   T   T   T
  0.9892083458817424  0.5872729833764510  0.2171544664733460   T   T   T
  0.5194582921671724  0.5511316962152009  0.2951227918036707   T   T   T
  0.3875561658467319  0.2586263829429143  0.3007166018707252   T   T   T
  0.5373594694186750  0.7605237575866397  0.3318770142477732   T   T   T
  0.4779762193823132  0.5040918157211678  0.2493593153301248   T   T   T
  0.4968575931964523  0.2477293060589858  0.0589726510574735   T   T   T
  0.8300667000041457  0.2475189811772722  0.0588501698929491   T   T   T
  0.1636404465957426  0.7476082311162813  0.0588793827523020   T   T   T
  0.4968879829771780  0.7473607272606699  0.0588524357393538   T   T   T
  0.8299877504735562  0.7477152428432348  0.0588921898274677   T   T   T
  0.1635890478735789  0.2474779885475300  0.0588451165173325   T   T   T
  0.9960330695801218  0.0005180364115134  0.1387372947839722   T   T   T
  0.3296930528331714  0.0009790713812592  0.1388714161304350   T   T   T
  0.6621858927298163  0.0009128833637959  0.1389037524267351   T   T   T
  0.9959779806054954  0.5008469121588774  0.1387243492354884   T   T   T
  0.3289891503859010  0.5007956482298965  0.1388872262566636   T   T   T
  0.6627032519991332  0.5006400933677000  0.1388481084696451   T   T   T
  0.1622064987083149  0.2498844620819440  0.1650970418472610   T   T   T
  0.4955908568731502  0.2518895472481191  0.1656973957770589   T   T   T
  0.8296615094934907  0.2494707325259142  0.1650529405233456   T   T   T
  0.1622989674292654  0.7505518171063272  0.1651834171087501   T   T   T
  0.4953169586174226  0.7487199274771257  0.1651257411383682   T   T   T
  0.8290585265777040  0.7503414266963517  0.1652123973868882   T   T   T
  0.3270674039441062  0.9969020479226103  0.1920784432890912   T   T   T
  0.6625508081707991  0.9963719642897786  0.1921611081328507   T   T   T
  0.9951030137250640  0.9977987757971718  0.1917507657582718   T   T   T
  0.3268450804849081  0.5014476821556642  0.1922945874280941   T   T   T
  0.9962855525886454  0.4957757255727984  0.1915493299459357   T   T   T
  0.6646375388801005  0.4981927285375889  0.1919244433149601   T   T   T
  0.9964132946898232  0.0002383831670230  0.0854613324517217   T   T   T
  0.3298849120863281  0.0002922789904289  0.0855193123038376   T   T   T
  0.6629215279609610  0.0002976068078340  0.0855444700736570   T   T   T
  0.9964062658446551  0.5003273226836953  0.0854448141238393   T   T   T
  0.3296709285135151  0.5001334566696372  0.0855237320874309   T   T   T
  0.6631692434118577  0.5001108120271738  0.0855304477774368   T   T   T
  0.1627380201033972  0.2506959097237313  0.1118756679330914   T   T   T
  0.4960690121225966  0.2509306804529743  0.1120832047204203   T   T   T
  0.8294836488351365  0.2506739719076378  0.1118681944060285   T   T   T
  0.1629322752447777  0.7508700467662592  0.1119191037913367   T   T   T
  0.4960581292182766  0.7502602424173119  0.1118141584977721   T   T   T
  0.8293178918101702  0.7508512871647355  0.1119320969370534   T   T   T
 
  0.00000000E+00  0.00000000E+00  0.00000000E+00
  0.00000000E+00  0.00000000E+00  0.00000000E+00
  0.00000000E+00  0.00000000E+00  0.00000000E+00
  0.00000000E+00  0.00000000E+00  0.00000000E+00
  0.00000000E+00  0.00000000E+00  0.00000000E+00
  0.00000000E+00  0.00000000E+00  0.00000000E+00
  0.00000000E+00  0.00000000E+00  0.00000000E+00
  0.00000000E+00  0.00000000E+00  0.00000000E+00
  0.00000000E+00  0.00000000E+00  0.00000000E+00
  0.00000000E+00  0.00000000E+00  0.00000000E+00
  0.00000000E+00  0.00000000E+00  0.00000000E+00
  0.00000000E+00  0.00000000E+00  0.00000000E+00
  0.00000000E+00  0.00000000E+00  0.00000000E+00
  0.00000000E+00  0.00000000E+00  0.00000000E+00
  0.00000000E+00  0.00000000E+00  0.00000000E+00
  0.00000000E+00  0.00000000E+00  0.00000000E+00
  0.00000000E+00  0.00000000E+00  0.00000000E+00
  0.00000000E+00  0.00000000E+00  0.00000000E+00
  0.00000000E+00  0.00000000E+00  0.00000000E+00
  0.00000000E+00  0.00000000E+00  0.00000000E+00
  0.00000000E+00  0.00000000E+00  0.00000000E+00
  0.00000000E+00  0.00000000E+00  0.00000000E+00
  0.00000000E+00  0.00000000E+00  0.00000000E+00
  0.00000000E+00  0.00000000E+00  0.00000000E+00
  0.00000000E+00  0.00000000E+00  0.00000000E+00
  0.00000000E+00  0.00000000E+00  0.00000000E+00
  0.00000000E+00  0.00000000E+00  0.00000000E+00
  0.00000000E+00  0.00000000E+00  0.00000000E+00
  0.00000000E+00  0.00000000E+00  0.00000000E+00
  0.00000000E+00  0.00000000E+00  0.00000000E+00
  0.00000000E+00  0.00000000E+00  0.00000000E+00
  0.00000000E+00  0.00000000E+00  0.00000000E+00
  0.00000000E+00  0.00000000E+00  0.00000000E+00
  0.00000000E+00  0.00000000E+00  0.00000000E+00
  0.00000000E+00  0.00000000E+00  0.00000000E+00
  0.00000000E+00  0.00000000E+00  0.00000000E+00
  0.00000000E+00  0.00000000E+00  0.00000000E+00
  0.00000000E+00  0.00000000E+00  0.00000000E+00
  0.00000000E+00  0.00000000E+00  0.00000000E+00
  0.00000000E+00  0.00000000E+00  0.00000000E+00
  0.00000000E+00  0.00000000E+00  0.00000000E+00
  0.00000000E+00  0.00000000E+00  0.00000000E+00
  0.00000000E+00  0.00000000E+00  0.00000000E+00
  0.00000000E+00  0.00000000E+00  0.00000000E+00
  0.00000000E+00  0.00000000E+00  0.00000000E+00
  0.00000000E+00  0.00000000E+00  0.00000000E+00
  0.00000000E+00  0.00000000E+00  0.00000000E+00
  0.00000000E+00  0.00000000E+00  0.00000000E+00
  0.00000000E+00  0.00000000E+00  0.00000000E+00
  0.00000000E+00  0.00000000E+00  0.00000000E+00
  0.00000000E+00  0.00000000E+00  0.00000000E+00
  0.00000000E+00  0.00000000E+00  0.00000000E+00
  0.00000000E+00  0.00000000E+00  0.00000000E+00
  0.00000000E+00  0.00000000E+00  0.00000000E+00
  0.00000000E+00  0.00000000E+00  0.00000000E+00
  0.00000000E+00  0.00000000E+00  0.00000000E+00
  0.00000000E+00  0.00000000E+00  0.00000000E+00
  0.00000000E+00  0.00000000E+00  0.00000000E+00
  0.00000000E+00  0.00000000E+00  0.00000000E+00
  0.00000000E+00  0.00000000E+00  0.00000000E+00
  0.00000000E+00  0.00000000E+00  0.00000000E+00
  0.00000000E+00  0.00000000E+00  0.00000000E+00
  0.00000000E+00  0.00000000E+00  0.00000000E+00
  0.00000000E+00  0.00000000E+00  0.00000000E+00
  0.00000000E+00  0.00000000E+00  0.00000000E+00
  0.00000000E+00  0.00000000E+00  0.00000000E+00
  0.00000000E+00  0.00000000E+00  0.00000000E+00
  0.00000000E+00  0.00000000E+00  0.00000000E+00
  0.00000000E+00  0.00000000E+00  0.00000000E+00
  0.00000000E+00  0.00000000E+00  0.00000000E+00
  0.00000000E+00  0.00000000E+00  0.00000000E+00
  0.00000000E+00  0.00000000E+00  0.00000000E+00
  0.00000000E+00  0.00000000E+00  0.00000000E+00
  0.00000000E+00  0.00000000E+00  0.00000000E+00
  0.00000000E+00  0.00000000E+00  0.00000000E+00
  0.00000000E+00  0.00000000E+00  0.00000000E+00
  0.00000000E+00  0.00000000E+00  0.00000000E+00
  0.00000000E+00  0.00000000E+00  0.00000000E+00
  0.00000000E+00  0.00000000E+00  0.00000000E+00
  0.00000000E+00  0.00000000E+00  0.00000000E+00
  0.00000000E+00  0.00000000E+00  0.00000000E+00
  0.00000000E+00  0.00000000E+00  0.00000000E+00
  0.00000000E+00  0.00000000E+00  0.00000000E+00
  0.00000000E+00  0.00000000E+00  0.00000000E+00
  0.00000000E+00  0.00000000E+00  0.00000000E+00
  0.00000000E+00  0.00000000E+00  0.00000000E+00
  0.00000000E+00  0.00000000E+00  0.00000000E+00
  0.00000000E+00  0.00000000E+00  0.00000000E+00
  0.00000000E+00  0.00000000E+00  0.00000000E+00
  0.00000000E+00  0.00000000E+00  0.00000000E+00
  0.00000000E+00  0.00000000E+00  0.00000000E+00
  0.00000000E+00  0.00000000E+00  0.00000000E+00
  0.00000000E+00  0.00000000E+00  0.00000000E+00
  0.00000000E+00  0.00000000E+00  0.00000000E+00
  0.00000000E+00  0.00000000E+00  0.00000000E+00
  0.00000000E+00  0.00000000E+00  0.00000000E+00
  0.00000000E+00  0.00000000E+00  0.00000000E+00
  0.00000000E+00  0.00000000E+00  0.00000000E+00
  0.00000000E+00  0.00000000E+00  0.00000000E+00
  0.00000000E+00  0.00000000E+00  0.00000000E+00
  0.00000000E+00  0.00000000E+00  0.00000000E+00
  0.00000000E+00  0.00000000E+00  0.00000000E+00
  0.00000000E+00  0.00000000E+00  0.00000000E+00
  0.00000000E+00  0.00000000E+00  0.00000000E+00
  0.00000000E+00  0.00000000E+00  0.00000000E+00
  0.00000000E+00  0.00000000E+00  0.00000000E+00
  0.00000000E+00  0.00000000E+00  0.00000000E+00
  0.00000000E+00  0.00000000E+00  0.00000000E+00
  0.00000000E+00  0.00000000E+00  0.00000000E+00
  0.00000000E+00  0.00000000E+00  0.00000000E+00
  0.00000000E+00  0.00000000E+00  0.00000000E+00
  0.00000000E+00  0.00000000E+00  0.00000000E+00
  0.00000000E+00  0.00000000E+00  0.00000000E+00
  0.00000000E+00  0.00000000E+00  0.00000000E+00
  0.00000000E+00  0.00000000E+00  0.00000000E+00
  0.00000000E+00  0.00000000E+00  0.00000000E+00
  0.00000000E+00  0.00000000E+00  0.00000000E+00
  0.00000000E+00  0.00000000E+00  0.00000000E+00
  0.00000000E+00  0.00000000E+00  0.00000000E+00
  0.00000000E+00  0.00000000E+00  0.00000000E+00
  0.00000000E+00  0.00000000E+00  0.00000000E+00
