C H O Si                                
   1.00000000000000     
     9.2874599999999994    0.0000000000000000    0.0000000000000000
     0.0000000000000000    8.7563099999999991    0.0000000000000000
     0.0000000000000000    0.0000000000000000   58.0000000000000000
   C    H    O    Si
    36    33    16    36
Selective dynamics
Direct
  0.9967105220007034  0.1303069908332464  0.0595390601979292   T   T   T
  0.3302013582009606  0.1302784737348201  0.0596095133642041   T   T   T
  0.6632752781832024  0.1302829528299898  0.0596259568642612   T   T   T
  0.9966906747101674  0.6305310390931573  0.0595344742081864   T   T   T
  0.3300811329212514  0.6301402644233247  0.0595959369692727   T   T   T
  0.6634228750231943  0.6301242370288370  0.0596228343557957   T   T   T
  0.1624643943715367  0.3757035630824332  0.1384855561977408   T   T   T
  0.4959149947915701  0.3760212704442146  0.1388051323089244   T   T   T
  0.8293729089892772  0.3756709029143151  0.1384859070423236   T   T   T
  0.1628537926239993  0.8760050569925715  0.1385599157943304   T   T   T
  0.4959752430857119  0.8755097871921130  0.1383440481814156   T   T   T
  0.8291162314661030  0.8759147716733856  0.1385950017308136   T   T   T
  0.3292031018729452  0.1265955610014264  0.1657522397660556   T   T   T
  0.6622872980852156  0.1264497153584451  0.1658356963314596   T   T   T
  0.9958857025221223  0.1252218280942815  0.1655296772238551   T   T   T
  0.3284039481902710  0.6259304516914532  0.1656968867719347   T   T   T
  0.6627813366262315  0.6257827272509356  0.1657306870817516   T   T   T
  0.9957807773494480  0.6258475581142183  0.1655917533631755   T   T   T
  0.1628053538865682  0.3788922436384088  0.1908106271757421   T   T   T
  0.4954859599894325  0.3841524375359618  0.1918256293140188   T   T   T
  0.8298922535996387  0.3785880463176948  0.1907940384937996   T   T   T
  0.1610663124267906  0.8802725979472359  0.1911264353202525   T   T   T
  0.4948193178577567  0.8889952827240397  0.1889065190819567   T   T   T
  0.8292223060368183  0.8801166397850552  0.1911712251437640   T   T   T
  0.1630280336436776  0.3757854004876892  0.0849922746865725   T   T   T
  0.4964157035752627  0.3758571620560536  0.0851619368436733   T   T   T
  0.8298141203741297  0.3757937693611149  0.0849994873582738   T   T   T
  0.1631802675179849  0.8759503507269029  0.0850350410329077   T   T   T
  0.4964069297729873  0.8757611086178179  0.0849892540444037   T   T   T
  0.8296431095187767  0.8759948312596880  0.0850618550117845   T   T   T
  0.3295566319815637  0.1258450529021513  0.1121800737818797   T   T   T
  0.6626857630952148  0.1258517223339835  0.1122092266240189   T   T   T
  0.9961368219141371  0.1256308999901287  0.1120918264627647   T   T   T
  0.3293565069728208  0.6255161220352000  0.1121587631670137   T   T   T
  0.6628824377162762  0.6255483348960577  0.1121660719751179   T   T   T
  0.9961275649219414  0.6259598897934201  0.1120931409777352   T   T   T
  0.0788699160134566  0.3563381157346143  0.0260788442347992   T   T   T
  0.4112936622465283  0.3569118196573778  0.0263067980104414   T   T   T
  0.7438494907916774  0.3559311458195591  0.0262126569941020   T   T   T
  0.0791920860497070  0.8569894970556786  0.0261186339969316   T   T   T
  0.4117199140006634  0.8556534406813867  0.0261053166523518   T   T   T
  0.7433121237810292  0.8561113075349852  0.0262913996447107   T   T   T
  0.3276247949733077  0.0582568348089850  0.0440158337676675   T   T   T
  0.6600746386616219  0.0582423500388042  0.0440376189688347   T   T   T
  0.9935768572642498  0.0582427813524754  0.0439620474699129   T   T   T
  0.3267839221367400  0.5581461109551379  0.0440071873511029   T   T   T
  0.6607687080676153  0.5581354069300194  0.0440308514797005   T   T   T
  0.9936006820730381  0.5585521515440329  0.0439403476066580   T   T   T
  0.8323343256206901  0.8085899556082868  0.2067769273949833   T   T   T
  0.8327533631055213  0.3067939812501593  0.2064047102657463   T   T   T
  0.1651602176876611  0.3076203198077483  0.2064822165954279   T   T   T
  0.4980625263081722  0.3112843011602467  0.2073314494811271   T   T   T
  0.1648870379770782  0.8080873477057958  0.2066736894457848   T   T   T
  0.5376930079885839  0.9269992799391807  0.2601285122646806   T   T   T
  0.0818957364082661  0.1072650417909818  0.2242414718880924   T   T   T
  0.4166841868258722  0.1049568614324174  0.2243570747774599   T   T   T
  0.7468271822326399  0.1060522676369635  0.2247914405410961   T   T   T
  0.0863725929540017  0.6076164294291341  0.2231797620039573   T   T   T
  0.3673114257361189  0.5721221793355155  0.2302725415807496   T   T   T
  0.7781867643533884  0.5997760188778084  0.2224719325014015   T   T   T
  0.4912686517309389  0.5436311377520083  0.2652315205760660   T   T   T
  0.4707635789267938  0.4582374474361431  0.3005910336141986   T   T   T
  0.5167833335021598  0.6257744000399013  0.3077975636965218   T   T   T
  0.2895274291495374  0.2735116063283027  0.2951655654543254   T   T   T
  0.4396754621330561  0.2224239809679558  0.2871713428606004   T   T   T
  0.6401926929849999  0.7700664239247170  0.3348020740573860   T   T   T
  0.5047005144949946  0.8635058424408704  0.3283214256661513   T   T   T
  0.5008888959757420  0.8739634781503607  0.2685001247687460   T   T   T
  0.5643624762461669  0.5346013633191822  0.2404222455188771   T   T   T
  0.1724349481950368  0.3402303136810341  0.0334000566148513   T   T   T
  0.5051192526826815  0.3407619704599160  0.0335522476258923   T   T   T
  0.8379021214245402  0.3403476974213491  0.0334145213871772   T   T   T
  0.1726428743673137  0.8404354326873238  0.0334478627890172   T   T   T
  0.5054735562318713  0.8398784205623986  0.0333898366160708   T   T   T
  0.8374631608380680  0.8407398693374063  0.0334764627152433   T   T   T
  0.3214112529567612  0.0888234400371854  0.2175777415492529   T   T   T
  0.6528852464507066  0.0876287439880390  0.2177159622653022   T   T   T
  0.9873657328441510  0.0903411805439313  0.2172713131304506   T   T   T
  0.3078347746058443  0.6032565058419707  0.2164052139197762   T   T   T
  0.6772582406639100  0.5911587000857238  0.2174401647582121   T   T   T
  0.9892083458817441  0.5872729833764486  0.2171544664733437   T   T   T
  0.5194582921671727  0.5511316962152005  0.2951227918036720   T   T   T
  0.3875561658467350  0.2586263829429110  0.3007166018707275   T   T   T
  0.5373594694186778  0.7605237575866383  0.3318770142477704   T   T   T
  0.4779762193823098  0.5040918157211665  0.2493593153301262   T   T   T
  0.4968575931964540  0.2477293060589887  0.0589726510574766   T   T   T
  0.8300667000041478  0.2475189811772687  0.0588501698929481   T   T   T
  0.1636404465957426  0.7476082311162846  0.0588793827522996   T   T   T
  0.4968879829771797  0.7473607272606665  0.0588524357393531   T   T   T
  0.8299877504735543  0.7477152428432352  0.0588921898274646   T   T   T
  0.1635890478735769  0.2474779885475326  0.0588451165173348   T   T   T
  0.9960330695801225  0.0005180364115103  0.1387372947839753   T   T   T
  0.3296930528331702  0.0009790713812621  0.1388714161304376   T   T   T
  0.6621858927298198  0.0009128833637944  0.1389037524267325   T   T   T
  0.9959779806054981  0.5008469121588794  0.1387243492354849   T   T   T
  0.3289891503859037  0.5007956482298964  0.1388872262566642   T   T   T
  0.6627032519991309  0.5006400933677031  0.1388481084696480   T   T   T
  0.1622064987083121  0.2498844620819438  0.1650970418472638   T   T   T
  0.4955908568731532  0.2518895472481162  0.1656973957770580   T   T   T
  0.8296615094934925  0.2494707325259158  0.1650529405233421   T   T   T
  0.1622989674292679  0.7505518171063265  0.1651834171087484   T   T   T
  0.4953169586174200  0.7487199274771242  0.1651257411383691   T   T   T
  0.8290585265777024  0.7503414266963532  0.1652123973868863   T   T   T
  0.3270674039441065  0.9969020479226123  0.1920784432890942   T   T   T
  0.6625508081708024  0.9963719642897750  0.1921611081328530   T   T   T
  0.9951030137250659  0.9977987757971701  0.1917507657582705   T   T   T
  0.3268450804849050  0.5014476821556637  0.1922945874280929   T   T   T
  0.9962855525886481  0.4957757255727998  0.1915493299459363   T   T   T
  0.6646375388801025  0.4981927285375874  0.1919244433149566   T   T   T
  0.9964132946898245  0.0002383831670240  0.0854613324517185   T   T   T
  0.3298849120863285  0.0002922789904261  0.0855193123038356   T   T   T
  0.6629215279609617  0.0002976068078334  0.0855444700736561   T   T   T
  0.9964062658446541  0.5003273226836951  0.0854448141238427   T   T   T
  0.3296709285135125  0.5001334566696395  0.0855237320874298   T   T   T
  0.6631692434118600  0.5001108120271704  0.0855304477774371   T   T   T
  0.1627380201033992  0.2506959097237340  0.1118756679330886   T   T   T
  0.4960690121225944  0.2509306804529727  0.1120832047204204   T   T   T
  0.8294836488351335  0.2506739719076400  0.1118681944060313   T   T   T
  0.1629322752447748  0.7508700467662568  0.1119191037913389   T   T   T
  0.4960581292182799  0.7502602424173098  0.1118141584977692   T   T   T
  0.8293178918101730  0.7508512871647348  0.1119320969370513   T   T   T
