C H O Si                                
   1.00000000000000     
     9.2874599999999994    0.0000000000000000    0.0000000000000000
     0.0000000000000000    8.7562999999999995    0.0000000000000000
     0.0000000000000000    0.0000000000000000   90.0000000000000000
   C    H    O    Si
    36    33    16    36
Selective dynamics
Direct
  0.0013503787310115  0.1351959772155219  0.4232258006745670   T   T   T
  0.0013217955569303  0.6353702756654614  0.4232406848941334   T   T   T
  0.3346641842019982  0.1353464095210126  0.4232913814184400   T   T   T
  0.3346449755383522  0.6352201916643476  0.4232988049581556   T   T   T
  0.6678305687370756  0.1352397039715705  0.4232880559527391   T   T   T
  0.6678643587975891  0.6351989121956358  0.4232827773700695   T   T   T
  0.1682338208852338  0.3810820958883175  0.4396035000360026   T   T   T
  0.1682940455955621  0.8811173018727264  0.4396175518608508   T   T   T
  0.5015541762848545  0.3811256838292899  0.4396831740987415   T   T   T
  0.5015442064261451  0.8810883713496130  0.4396475318817479   T   T   T
  0.8348800104839370  0.3810651034664425  0.4395757071824574   T   T   T
  0.8348169476406042  0.8811243274828192  0.4396087993476353   T   T   T
  0.0016959325240998  0.1308261369190598  0.4570839656957914   T   T   T
  0.0016967695770392  0.6310462685087543  0.4570942397266121   T   T   T
  0.3351348817203353  0.1308791752824289  0.4571435754848067   T   T   T
  0.3350648577160062  0.6307515411772500  0.4571577940244560   T   T   T
  0.6682212149973372  0.1309436909753937  0.4571467080228464   T   T   T
  0.6683334052256016  0.6309237242597669  0.4571372113043874   T   T   T
  0.1685045530422020  0.3808412911915163  0.4740780315823392   T   T   T
  0.1687479768012663  0.8808723203069614  0.4741110552606825   T   T   T
  0.5017652908626524  0.3812521916756569  0.4742378173806823   T   T   T
  0.5017860942806789  0.8805958971726773  0.4741460203123706   T   T   T
  0.8350992705158190  0.3806985486646206  0.4740446694085258   T   T   T
  0.8349673104384143  0.8809663335780828  0.4741142170379159   T   T   T
  0.0021759965525087  0.1303342566820375  0.4915017221818914   T   T   T
  0.0019387404156696  0.6310884411687238  0.4915692368211734   T   T   T
  0.3357798678142314  0.1315780257143531  0.4916674655205227   T   T   T
  0.3349616187220943  0.6311012556670026  0.4917245992737497   T   T   T
  0.6678341099131890  0.1313974374419498  0.4916607966321487   T   T   T
  0.6687778762094266  0.6312583624623374  0.4916555643618291   T   T   T
  0.1684175088460382  0.3834721131969418  0.5078153322199307   T   T   T
  0.1679259987788808  0.8857018323643147  0.5079749446891779   T   T   T
  0.5020154148237925  0.3890141455952091  0.5084580814718200   T   T   T
  0.5014778109275889  0.8849940959161903  0.5080259916185337   T   T   T
  0.8360009542049802  0.3825781344000984  0.5076754887723111   T   T   T
  0.8350409216441490  0.8857306341902099  0.5079281763997198   T   T   T
  0.0042492735457388  0.0627254205314243  0.4132303638144234   T   T   T
  0.0040972627026212  0.5628335511754343  0.4132394800369174   T   T   T
  0.3376697628956786  0.0627659491707384  0.4132968426815969   T   T   T
  0.3374697738696902  0.5625434208611010  0.4133177688930663   T   T   T
  0.6701910335734468  0.0626107767748759  0.4132979003198132   T   T   T
  0.6705007817462877  0.5625945377817072  0.4132962869527613   T   T   T
  0.1702295994165839  0.3113599582118243  0.5178384727139750   T   T   T
  0.1702338898227617  0.8128839514234947  0.5179453948913668   T   T   T
  0.5052692737406967  0.3152380855785344  0.5183692343240329   T   T   T
  0.5024177961834285  0.8125618499739710  0.5180282437174710   T   T   T
  0.8386745535806049  0.3105124115769355  0.5176977721744953   T   T   T
  0.8373390604736812  0.8138723011970024  0.5179553884297670   T   T   T
  0.0848365046261600  0.1160988686262909  0.5294457872913202   T   T   T
  0.0855449523667592  0.6109215401489597  0.5291974313954340   T   T   T
  0.4184965256624035  0.1169316803779276  0.5294722659524492   T   T   T
  0.3826374569622288  0.6339608882881088  0.5314787601921607   T   T   T
  0.7534769372066787  0.1151612723555032  0.5294269833208288   T   T   T
  0.7899655936698622  0.5988906852460482  0.5280532345100929   T   T   T
  0.2533434414321682  0.3647729976174077  0.4017961813897641   T   T   T
  0.2535210721527635  0.8646879160407309  0.4018142870974657   T   T   T
  0.5858314883118951  0.3649684545307414  0.4018337848958580   T   T   T
  0.5856697188593516  0.8648259861221260  0.4017962755509322   T   T   T
  0.9179685485464036  0.3653916974780197  0.4016909311051868   T   T   T
  0.9179336127150515  0.8655221904051583  0.4017191082721974   T   T   T
  0.5432619646651898  0.6151717218132620  0.5599369752108727   T   T   T
  0.4875601012915969  0.4759186469228681  0.5720928003085869   T   T   T
  0.5672406374731895  0.6398679219408590  0.5786281844929979   T   T   T
  0.3087686697300990  0.3840091014821361  0.5822052126873725   T   T   T
  0.4232452373167955  0.2597067065249387  0.5781677065363203   T   T   T
  0.6466657261671185  0.7343981303492360  0.5980124446861745   T   T   T
  0.4823564122184912  0.7665121606082261  0.5958187646267485   T   T   T
  0.5263686195582609  0.8044632429027164  0.5467018340936447   T   T   T
  0.5916105139207340  0.6608530367346326  0.5377894497154967   T   T   T
  0.1594526153312859  0.3428871889429876  0.4062038602454578   T   T   T
  0.1595805626974279  0.8429082471532969  0.4062174900175248   T   T   T
  0.4921422050006061  0.3432787429886596  0.4062951988518034   T   T   T
  0.4920145230025126  0.8429091894693066  0.4062555748532011   T   T   T
  0.8247125736616776  0.3425625335278144  0.4061871355106603   T   T   T
  0.8246685693542883  0.8427648631122827  0.4062166162691929   T   T   T
  0.9915735397139880  0.0936085215990378  0.5249327993135107   T   T   T
  0.9908098448024206  0.5891595089862894  0.5248694853925483   T   T   T
  0.3252313249021787  0.0928632478193815  0.5250416987876715   T   T   T
  0.3060678675116920  0.5930123531919913  0.5250451353273152   T   T   T
  0.6596059169730544  0.0931289399183581  0.5250174605921772   T   T   T
  0.6877259481756542  0.5926980884505536  0.5250473401245639   T   T   T
  0.5651815416227355  0.5600645656322528  0.5699558372010328   T   T   T
  0.3792048019173077  0.3543905878762107  0.5746888840693144   T   T   T
  0.5737299849183467  0.7574190932564590  0.5905335251933924   T   T   T
  0.5162584262733577  0.6943541277267331  0.5453139046659490   T   T   T
  0.1678694998073989  0.2526470621793511  0.4228017840073785   T   T   T
  0.1679225719919552  0.7526456856439422  0.4228154207535905   T   T   T
  0.5011004948404013  0.2526814451840620  0.4228751254721799   T   T   T
  0.5010893008189584  0.7525799980195617  0.4228497645823905   T   T   T
  0.8343986617467617  0.2524789023258648  0.4227896816069922   T   T   T
  0.8343452750123317  0.7525817931994562  0.4228135573633108   T   T   T
  0.0015501325158542  0.0052392067432940  0.4399654405324041   T   T   T
  0.0015491537030860  0.5053149439090141  0.4399656676282465   T   T   T
  0.3349247852300807  0.0052981499927116  0.4400079398622462   T   T   T
  0.3348426802749361  0.5052171439763192  0.4400257030625152   T   T   T
  0.6680901163994546  0.0052816445805982  0.4400125156700735   T   T   T
  0.6681811958186313  0.5052189148610440  0.4400056403353401   T   T   T
  0.1684009532996647  0.2557071638377683  0.4569337155660354   T   T   T
  0.1685503145726599  0.7557521509901153  0.4569568717443475   T   T   T
  0.5016660874760945  0.2558582064834776  0.4570348615250189   T   T   T
  0.5016302775616241  0.7556428269970761  0.4569765206120803   T   T   T
  0.8350030079161500  0.2556619805292302  0.4569057561028670   T   T   T
  0.8349475091305751  0.7558202623833685  0.4569540308615853   T   T   T
  0.0019692666810910  0.0053620255393174  0.4742076525754813   T   T   T
  0.0018415471187041  0.5056678832480077  0.4742088361554064   T   T   T
  0.3354706274470544  0.0058462533292628  0.4742906922509598   T   T   T
  0.3349669727617458  0.5058611418355587  0.4743328848264891   T   T   T
  0.6680566573392707  0.0058023878708957  0.4742875167569354   T   T   T
  0.6685934436518489  0.5057228711076368  0.4742677573020787   T   T   T
  0.1685498653437564  0.2546132926527139  0.4911363837869381   T   T   T
  0.1684469141532204  0.7556010773582299  0.4912477896661823   T   T   T
  0.5017694658196521  0.2569897773222560  0.4914534180008184   T   T   T
  0.5015725844941513  0.7550636532240897  0.4912733654541903   T   T   T
  0.8354921557695898  0.2537665451305869  0.4910491143746211   T   T   T
  0.8354006126228652  0.7555914875622427  0.4912268290583340   T   T   T
  0.0013468109800042  0.0030185977758975  0.5083508347624642   T   T   T
  0.0019215403550567  0.5004060901582574  0.5081460060648384   T   T   T
  0.3344525965068484  0.0028667386869454  0.5084390466937573   T   T   T
  0.3326757698817600  0.5041808665742048  0.5086729281488529   T   T   T
  0.6682027696065834  0.0027334076497815  0.5084273665144842   T   T   T
  0.6714393389859183  0.5019191356760446  0.5082862967087957   T   T   T
 
  0.00000000E+00  0.00000000E+00  0.00000000E+00
  0.00000000E+00  0.00000000E+00  0.00000000E+00
  0.00000000E+00  0.00000000E+00  0.00000000E+00
  0.00000000E+00  0.00000000E+00  0.00000000E+00
  0.00000000E+00  0.00000000E+00  0.00000000E+00
  0.00000000E+00  0.00000000E+00  0.00000000E+00
  0.00000000E+00  0.00000000E+00  0.00000000E+00
  0.00000000E+00  0.00000000E+00  0.00000000E+00
  0.00000000E+00  0.00000000E+00  0.00000000E+00
  0.00000000E+00  0.00000000E+00  0.00000000E+00
  0.00000000E+00  0.00000000E+00  0.00000000E+00
  0.00000000E+00  0.00000000E+00  0.00000000E+00
  0.00000000E+00  0.00000000E+00  0.00000000E+00
  0.00000000E+00  0.00000000E+00  0.00000000E+00
  0.00000000E+00  0.00000000E+00  0.00000000E+00
  0.00000000E+00  0.00000000E+00  0.00000000E+00
  0.00000000E+00  0.00000000E+00  0.00000000E+00
  0.00000000E+00  0.00000000E+00  0.00000000E+00
  0.00000000E+00  0.00000000E+00  0.00000000E+00
  0.00000000E+00  0.00000000E+00  0.00000000E+00
  0.00000000E+00  0.00000000E+00  0.00000000E+00
  0.00000000E+00  0.00000000E+00  0.00000000E+00
  0.00000000E+00  0.00000000E+00  0.00000000E+00
  0.00000000E+00  0.00000000E+00  0.00000000E+00
  0.00000000E+00  0.00000000E+00  0.00000000E+00
  0.00000000E+00  0.00000000E+00  0.00000000E+00
  0.00000000E+00  0.00000000E+00  0.00000000E+00
  0.00000000E+00  0.00000000E+00  0.00000000E+00
  0.00000000E+00  0.00000000E+00  0.00000000E+00
  0.00000000E+00  0.00000000E+00  0.00000000E+00
  0.00000000E+00  0.00000000E+00  0.00000000E+00
  0.00000000E+00  0.00000000E+00  0.00000000E+00
  0.00000000E+00  0.00000000E+00  0.00000000E+00
  0.00000000E+00  0.00000000E+00  0.00000000E+00
  0.00000000E+00  0.00000000E+00  0.00000000E+00
  0.00000000E+00  0.00000000E+00  0.00000000E+00
  0.00000000E+00  0.00000000E+00  0.00000000E+00
  0.00000000E+00  0.00000000E+00  0.00000000E+00
  0.00000000E+00  0.00000000E+00  0.00000000E+00
  0.00000000E+00  0.00000000E+00  0.00000000E+00
  0.00000000E+00  0.00000000E+00  0.00000000E+00
  0.00000000E+00  0.00000000E+00  0.00000000E+00
  0.00000000E+00  0.00000000E+00  0.00000000E+00
  0.00000000E+00  0.00000000E+00  0.00000000E+00
  0.00000000E+00  0.00000000E+00  0.00000000E+00
  0.00000000E+00  0.00000000E+00  0.00000000E+00
  0.00000000E+00  0.00000000E+00  0.00000000E+00
  0.00000000E+00  0.00000000E+00  0.00000000E+00
  0.00000000E+00  0.00000000E+00  0.00000000E+00
  0.00000000E+00  0.00000000E+00  0.00000000E+00
  0.00000000E+00  0.00000000E+00  0.00000000E+00
  0.00000000E+00  0.00000000E+00  0.00000000E+00
  0.00000000E+00  0.00000000E+00  0.00000000E+00
  0.00000000E+00  0.00000000E+00  0.00000000E+00
  0.00000000E+00  0.00000000E+00  0.00000000E+00
  0.00000000E+00  0.00000000E+00  0.00000000E+00
  0.00000000E+00  0.00000000E+00  0.00000000E+00
  0.00000000E+00  0.00000000E+00  0.00000000E+00
  0.00000000E+00  0.00000000E+00  0.00000000E+00
  0.00000000E+00  0.00000000E+00  0.00000000E+00
  0.00000000E+00  0.00000000E+00  0.00000000E+00
  0.00000000E+00  0.00000000E+00  0.00000000E+00
  0.00000000E+00  0.00000000E+00  0.00000000E+00
  0.00000000E+00  0.00000000E+00  0.00000000E+00
  0.00000000E+00  0.00000000E+00  0.00000000E+00
  0.00000000E+00  0.00000000E+00  0.00000000E+00
  0.00000000E+00  0.00000000E+00  0.00000000E+00
  0.00000000E+00  0.00000000E+00  0.00000000E+00
  0.00000000E+00  0.00000000E+00  0.00000000E+00
  0.00000000E+00  0.00000000E+00  0.00000000E+00
  0.00000000E+00  0.00000000E+00  0.00000000E+00
  0.00000000E+00  0.00000000E+00  0.00000000E+00
  0.00000000E+00  0.00000000E+00  0.00000000E+00
  0.00000000E+00  0.00000000E+00  0.00000000E+00
  0.00000000E+00  0.00000000E+00  0.00000000E+00
  0.00000000E+00  0.00000000E+00  0.00000000E+00
  0.00000000E+00  0.00000000E+00  0.00000000E+00
  0.00000000E+00  0.00000000E+00  0.00000000E+00
  0.00000000E+00  0.00000000E+00  0.00000000E+00
  0.00000000E+00  0.00000000E+00  0.00000000E+00
  0.00000000E+00  0.00000000E+00  0.00000000E+00
  0.00000000E+00  0.00000000E+00  0.00000000E+00
  0.00000000E+00  0.00000000E+00  0.00000000E+00
  0.00000000E+00  0.00000000E+00  0.00000000E+00
  0.00000000E+00  0.00000000E+00  0.00000000E+00
  0.00000000E+00  0.00000000E+00  0.00000000E+00
  0.00000000E+00  0.00000000E+00  0.00000000E+00
  0.00000000E+00  0.00000000E+00  0.00000000E+00
  0.00000000E+00  0.00000000E+00  0.00000000E+00
  0.00000000E+00  0.00000000E+00  0.00000000E+00
  0.00000000E+00  0.00000000E+00  0.00000000E+00
  0.00000000E+00  0.00000000E+00  0.00000000E+00
  0.00000000E+00  0.00000000E+00  0.00000000E+00
  0.00000000E+00  0.00000000E+00  0.00000000E+00
  0.00000000E+00  0.00000000E+00  0.00000000E+00
  0.00000000E+00  0.00000000E+00  0.00000000E+00
  0.00000000E+00  0.00000000E+00  0.00000000E+00
  0.00000000E+00  0.00000000E+00  0.00000000E+00
  0.00000000E+00  0.00000000E+00  0.00000000E+00
  0.00000000E+00  0.00000000E+00  0.00000000E+00
  0.00000000E+00  0.00000000E+00  0.00000000E+00
  0.00000000E+00  0.00000000E+00  0.00000000E+00
  0.00000000E+00  0.00000000E+00  0.00000000E+00
  0.00000000E+00  0.00000000E+00  0.00000000E+00
  0.00000000E+00  0.00000000E+00  0.00000000E+00
  0.00000000E+00  0.00000000E+00  0.00000000E+00
  0.00000000E+00  0.00000000E+00  0.00000000E+00
  0.00000000E+00  0.00000000E+00  0.00000000E+00
  0.00000000E+00  0.00000000E+00  0.00000000E+00
  0.00000000E+00  0.00000000E+00  0.00000000E+00
  0.00000000E+00  0.00000000E+00  0.00000000E+00
  0.00000000E+00  0.00000000E+00  0.00000000E+00
  0.00000000E+00  0.00000000E+00  0.00000000E+00
  0.00000000E+00  0.00000000E+00  0.00000000E+00
  0.00000000E+00  0.00000000E+00  0.00000000E+00
  0.00000000E+00  0.00000000E+00  0.00000000E+00
  0.00000000E+00  0.00000000E+00  0.00000000E+00
  0.00000000E+00  0.00000000E+00  0.00000000E+00
  0.00000000E+00  0.00000000E+00  0.00000000E+00
  0.00000000E+00  0.00000000E+00  0.00000000E+00
  0.00000000E+00  0.00000000E+00  0.00000000E+00
