C H O Si                                
   1.00000000000000     
     9.2874599999999994    0.0000000000000000    0.0000000000000000
     0.0000000000000000    8.7563099999999991    0.0000000000000000
     0.0000000000000000    0.0000000000000000   58.0000000000000000
   C    H    O    Si
    36    31    16    36
Selective dynamics
Direct
  0.9955325815632325  0.1307586130403118  0.0594094936784488   T   T   T
  0.3290047600212905  0.1310288713754973  0.0594808705299325   T   T   T
  0.6621512646522885  0.1308972380172759  0.0595398237602229   T   T   T
  0.9955395670908641  0.6310439252334665  0.0594205841663514   T   T   T
  0.3289516360776817  0.6306962895765429  0.0594929534448729   T   T   T
  0.6622448804812791  0.6306828290282862  0.0595178555906883   T   T   T
  0.1613474515472719  0.3764344407139789  0.1381644117957715   T   T   T
  0.4947652053190459  0.3766696496399397  0.1386523627510408   T   T   T
  0.8280812831363495  0.3764490789221432  0.1382372697801377   T   T   T
  0.1618225968970785  0.8762882661638387  0.1383126450128667   T   T   T
  0.4947736382386201  0.8743770624449874  0.1383501163237013   T   T   T
  0.8276133667412170  0.8763771718416217  0.1383722737140937   T   T   T
  0.3280521351286199  0.1266802105524518  0.1656569336368503   T   T   T
  0.6615957660606198  0.1268976460835129  0.1657859986516370   T   T   T
  0.9947318400782057  0.1255452426452963  0.1652672525168327   T   T   T
  0.3278166542396749  0.6264468907765723  0.1657272384263483   T   T   T
  0.6618996570227317  0.6266487563052439  0.1656813939897254   T   T   T
  0.9947571099863016  0.6264451827069787  0.1653026788539536   T   T   T
  0.1612497159869640  0.3778939322892370  0.1902070864430711   T   T   T
  0.4946453884156203  0.3846424054431820  0.1917578741426944   T   T   T
  0.8290469399546646  0.3788831617612460  0.1904454140680374   T   T   T
  0.1614321158296745  0.8802966033676198  0.1907142320712444   T   T   T
  0.4947050546055617  0.8774750329865240  0.1913375476938410   T   T   T
  0.8284529848486787  0.8809060828438864  0.1909241482521145   T   T   T
  0.1616423379541510  0.3766550459215564  0.0847456743189847   T   T   T
  0.4949573613957184  0.3767699349000957  0.0849616468787119   T   T   T
  0.8283077627291641  0.3766612453302287  0.0847885968901497   T   T   T
  0.1618317361579485  0.8767891696805922  0.0847961828085889   T   T   T
  0.4949308471082179  0.8765065726216513  0.0847540682534439   T   T   T
  0.8281565704835242  0.8767949643880278  0.0848312515565261   T   T   T
  0.3283223022966864  0.1262493287924628  0.1120440399348572   T   T   T
  0.6613223592739262  0.1262013265551900  0.1121022912401282   T   T   T
  0.9947828649543459  0.1261820365736924  0.1119280127689101   T   T   T
  0.3281703921271701  0.6261172982871437  0.1120419794783657   T   T   T
  0.6615260715579949  0.6261622110359061  0.1120430435602880   T   T   T
  0.9947712246435182  0.6267563438154474  0.1118994967616339   T   T   T
  0.0770766123965726  0.3634510379027421  0.0265302458408193   T   T   T
  0.4108588929413868  0.3637259690814821  0.0266732166116064   T   T   T
  0.7432919183070783  0.3633895826013696  0.0266102397187313   T   T   T
  0.0776743769314986  0.8635449866618117  0.0265571465540820   T   T   T
  0.4108082791331160  0.8632395621492382  0.0265135014813295   T   T   T
  0.7431231723743976  0.8632582509698447  0.0266294803683420   T   T   T
  0.3268577958774997  0.0582840173615353  0.0440020845584032   T   T   T
  0.6589717927895793  0.0581914362439561  0.0440578967131694   T   T   T
  0.9926811832350049  0.0582203794810835  0.0439135695843816   T   T   T
  0.3261426751144834  0.5578372687388151  0.0440309284501069   T   T   T
  0.6596780198539044  0.5578177669378040  0.0440534750549028   T   T   T
  0.9927379828291698  0.5586928394338926  0.0439017539765055   T   T   T
  0.8310615412346612  0.8067885257712560  0.2062517847064041   T   T   T
  0.8324987264784441  0.3062845576541764  0.2059249826077310   T   T   T
  0.1625655592892564  0.3054924568076829  0.2057187000853876   T   T   T
  0.4972268248468467  0.3097126756872151  0.2070033146543292   T   T   T
  0.1630671240855357  0.8063175922550732  0.2060545158581490   T   T   T
  0.0897618614741814  0.1104960848661144  0.2225981379372276   T   T   T
  0.4149374855597734  0.1031074387869037  0.2239627686964933   T   T   T
  0.7546111226938174  0.1174376785311152  0.2221556602634606   T   T   T
  0.0943873516416584  0.5975220272981204  0.2222240217602013   T   T   T
  0.3678896242061708  0.5663992439077872  0.2303168962038946   T   T   T
  0.7833240313970301  0.5897109916273396  0.2224762239493651   T   T   T
  0.5067267098864368  0.5441418736330765  0.2664414144853774   T   T   T
  0.4755372223697965  0.4551934559482274  0.3008087896499533   T   T   T
  0.5245320402011849  0.6226015560839354  0.3090253700748852   T   T   T
  0.2900610227899909  0.2751936395260918  0.2969818650184044   T   T   T
  0.4392365253133053  0.2153724256675212  0.2893080454062071   T   T   T
  0.6386853056845618  0.7744167790171593  0.3351200880884495   T   T   T
  0.5023351995285780  0.8620835932169725  0.3272143832500711   T   T   T
  0.5709233794974018  0.5386410498019866  0.2405814521601226   T   T   T
  0.1713992683934199  0.3370017847932952  0.0328309952160477   T   T   T
  0.5051074960305771  0.3375488448305086  0.0330230644521742   T   T   T
  0.8377351138457267  0.3369695837737683  0.0328684359964349   T   T   T
  0.1718760151845271  0.8370754103005448  0.0328842680410044   T   T   T
  0.5050561614618628  0.8364280609169147  0.0328115191952760   T   T   T
  0.8376391846206118  0.8372024111976143  0.0329079108044511   T   T   T
  0.3193037777483345  0.0886510774484172  0.2172559184636003   T   T   T
  0.6572027717844694  0.0885622348425351  0.2175479809940500   T   T   T
  0.9919341441437011  0.0880776479491068  0.2172942220686048   T   T   T
  0.2977409796374878  0.5872372946602923  0.2176564510778697   T   T   T
  0.6810695496703745  0.5831706281969863  0.2181918033038130   T   T   T
  0.9935262719703913  0.5829238859970044  0.2171581379243376   T   T   T
  0.5326790418815086  0.5462919763526712  0.2964571875877220   T   T   T
  0.3904467125632445  0.2690382269933747  0.3017983174066019   T   T   T
  0.5369478815621442  0.7609431076815022  0.3315176903965217   T   T   T
  0.4879073639571708  0.5084350782690733  0.2505057812986771   T   T   T
  0.4958408988721152  0.2483226696113403  0.0589844875764554   T   T   T
  0.8290120798207646  0.2480617103334757  0.0588529381094073   T   T   T
  0.1625769561119914  0.7481138844874206  0.0588650126390082   T   T   T
  0.4958080518073806  0.7480639050345419  0.0588574946625805   T   T   T
  0.8289223923708978  0.7481859539211246  0.0588883666330356   T   T   T
  0.1624132840341171  0.2480725880706417  0.0588157188547979   T   T   T
  0.9947461010277188  0.0003465989673166  0.1386175116421856   T   T   T
  0.3297070620275169  0.0007824121842129  0.1389141568858600   T   T   T
  0.6598223412283003  0.0008803218500476  0.1389933374458745   T   T   T
  0.9947797132725378  0.5009789631352500  0.1385491672319048   T   T   T
  0.3282006107053594  0.5017803091608386  0.1389384711507403   T   T   T
  0.6613408099974104  0.5017440581255123  0.1388962587643863   T   T   T
  0.1621232820644249  0.2486871687863341  0.1646431451951664   T   T   T
  0.4946703294326114  0.2511249065571095  0.1655146796726211   T   T   T
  0.8277370890752117  0.2489055030548993  0.1647498273626700   T   T   T
  0.1620196650887717  0.7505534667850208  0.1649676447888510   T   T   T
  0.4947149060913311  0.7539401307478208  0.1663802242011362   T   T   T
  0.8278879654118113  0.7509534245613741  0.1650741145468693   T   T   T
  0.3335834768318151  0.9910353693440677  0.1916597607568377   T   T   T
  0.6554037583212852  0.9912618269777526  0.1918674008836012   T   T   T
  0.9951444468864297  0.9970379653460756  0.1913279605707385   T   T   T
  0.3251390230505879  0.4999908617954816  0.1920221927119363   T   T   T
  0.9955744464158426  0.4952621801359223  0.1909629246722544   T   T   T
  0.6638173442750579  0.4988853490451112  0.1917130023117438   T   T   T
  0.9950933672215772  0.0008748598381359  0.0854626382987938   T   T   T
  0.3287399457988849  0.0010164212699847  0.0855371999143046   T   T   T
  0.6613941957047099  0.0009214077151893  0.0855861723527853   T   T   T
  0.9950672516982340  0.5009727456847013  0.0854496360516577   T   T   T
  0.3284652198776539  0.5009752874168367  0.0855683884050570   T   T   T
  0.6617321807810232  0.5009487294560800  0.0855810017219570   T   T   T
  0.1617574804995272  0.2510508277536178  0.1117720318916957   T   T   T
  0.4948594396226496  0.2513326712704075  0.1120638256443132   T   T   T
  0.8279453044886514  0.2510106639151282  0.1118194514595951   T   T   T
  0.1619220464307792  0.7512984881444099  0.1118384466615946   T   T   T
  0.4948451709046651  0.7513838959337688  0.1119520699573668   T   T   T
  0.8277868616134096  0.7513667344865994  0.1118755105336601   T   T   T
 
  0.00000000E+00  0.00000000E+00  0.00000000E+00
  0.00000000E+00  0.00000000E+00  0.00000000E+00
  0.00000000E+00  0.00000000E+00  0.00000000E+00
  0.00000000E+00  0.00000000E+00  0.00000000E+00
  0.00000000E+00  0.00000000E+00  0.00000000E+00
  0.00000000E+00  0.00000000E+00  0.00000000E+00
  0.00000000E+00  0.00000000E+00  0.00000000E+00
  0.00000000E+00  0.00000000E+00  0.00000000E+00
  0.00000000E+00  0.00000000E+00  0.00000000E+00
  0.00000000E+00  0.00000000E+00  0.00000000E+00
  0.00000000E+00  0.00000000E+00  0.00000000E+00
  0.00000000E+00  0.00000000E+00  0.00000000E+00
  0.00000000E+00  0.00000000E+00  0.00000000E+00
  0.00000000E+00  0.00000000E+00  0.00000000E+00
  0.00000000E+00  0.00000000E+00  0.00000000E+00
  0.00000000E+00  0.00000000E+00  0.00000000E+00
  0.00000000E+00  0.00000000E+00  0.00000000E+00
  0.00000000E+00  0.00000000E+00  0.00000000E+00
  0.00000000E+00  0.00000000E+00  0.00000000E+00
  0.00000000E+00  0.00000000E+00  0.00000000E+00
  0.00000000E+00  0.00000000E+00  0.00000000E+00
  0.00000000E+00  0.00000000E+00  0.00000000E+00
  0.00000000E+00  0.00000000E+00  0.00000000E+00
  0.00000000E+00  0.00000000E+00  0.00000000E+00
  0.00000000E+00  0.00000000E+00  0.00000000E+00
  0.00000000E+00  0.00000000E+00  0.00000000E+00
  0.00000000E+00  0.00000000E+00  0.00000000E+00
  0.00000000E+00  0.00000000E+00  0.00000000E+00
  0.00000000E+00  0.00000000E+00  0.00000000E+00
  0.00000000E+00  0.00000000E+00  0.00000000E+00
  0.00000000E+00  0.00000000E+00  0.00000000E+00
  0.00000000E+00  0.00000000E+00  0.00000000E+00
  0.00000000E+00  0.00000000E+00  0.00000000E+00
  0.00000000E+00  0.00000000E+00  0.00000000E+00
  0.00000000E+00  0.00000000E+00  0.00000000E+00
  0.00000000E+00  0.00000000E+00  0.00000000E+00
  0.00000000E+00  0.00000000E+00  0.00000000E+00
  0.00000000E+00  0.00000000E+00  0.00000000E+00
  0.00000000E+00  0.00000000E+00  0.00000000E+00
  0.00000000E+00  0.00000000E+00  0.00000000E+00
  0.00000000E+00  0.00000000E+00  0.00000000E+00
  0.00000000E+00  0.00000000E+00  0.00000000E+00
  0.00000000E+00  0.00000000E+00  0.00000000E+00
  0.00000000E+00  0.00000000E+00  0.00000000E+00
  0.00000000E+00  0.00000000E+00  0.00000000E+00
  0.00000000E+00  0.00000000E+00  0.00000000E+00
  0.00000000E+00  0.00000000E+00  0.00000000E+00
  0.00000000E+00  0.00000000E+00  0.00000000E+00
  0.00000000E+00  0.00000000E+00  0.00000000E+00
  0.00000000E+00  0.00000000E+00  0.00000000E+00
  0.00000000E+00  0.00000000E+00  0.00000000E+00
  0.00000000E+00  0.00000000E+00  0.00000000E+00
  0.00000000E+00  0.00000000E+00  0.00000000E+00
  0.00000000E+00  0.00000000E+00  0.00000000E+00
  0.00000000E+00  0.00000000E+00  0.00000000E+00
  0.00000000E+00  0.00000000E+00  0.00000000E+00
  0.00000000E+00  0.00000000E+00  0.00000000E+00
  0.00000000E+00  0.00000000E+00  0.00000000E+00
  0.00000000E+00  0.00000000E+00  0.00000000E+00
  0.00000000E+00  0.00000000E+00  0.00000000E+00
  0.00000000E+00  0.00000000E+00  0.00000000E+00
  0.00000000E+00  0.00000000E+00  0.00000000E+00
  0.00000000E+00  0.00000000E+00  0.00000000E+00
  0.00000000E+00  0.00000000E+00  0.00000000E+00
  0.00000000E+00  0.00000000E+00  0.00000000E+00
  0.00000000E+00  0.00000000E+00  0.00000000E+00
  0.00000000E+00  0.00000000E+00  0.00000000E+00
  0.00000000E+00  0.00000000E+00  0.00000000E+00
  0.00000000E+00  0.00000000E+00  0.00000000E+00
  0.00000000E+00  0.00000000E+00  0.00000000E+00
  0.00000000E+00  0.00000000E+00  0.00000000E+00
  0.00000000E+00  0.00000000E+00  0.00000000E+00
  0.00000000E+00  0.00000000E+00  0.00000000E+00
  0.00000000E+00  0.00000000E+00  0.00000000E+00
  0.00000000E+00  0.00000000E+00  0.00000000E+00
  0.00000000E+00  0.00000000E+00  0.00000000E+00
  0.00000000E+00  0.00000000E+00  0.00000000E+00
  0.00000000E+00  0.00000000E+00  0.00000000E+00
  0.00000000E+00  0.00000000E+00  0.00000000E+00
  0.00000000E+00  0.00000000E+00  0.00000000E+00
  0.00000000E+00  0.00000000E+00  0.00000000E+00
  0.00000000E+00  0.00000000E+00  0.00000000E+00
  0.00000000E+00  0.00000000E+00  0.00000000E+00
  0.00000000E+00  0.00000000E+00  0.00000000E+00
  0.00000000E+00  0.00000000E+00  0.00000000E+00
  0.00000000E+00  0.00000000E+00  0.00000000E+00
  0.00000000E+00  0.00000000E+00  0.00000000E+00
  0.00000000E+00  0.00000000E+00  0.00000000E+00
  0.00000000E+00  0.00000000E+00  0.00000000E+00
  0.00000000E+00  0.00000000E+00  0.00000000E+00
  0.00000000E+00  0.00000000E+00  0.00000000E+00
  0.00000000E+00  0.00000000E+00  0.00000000E+00
  0.00000000E+00  0.00000000E+00  0.00000000E+00
  0.00000000E+00  0.00000000E+00  0.00000000E+00
  0.00000000E+00  0.00000000E+00  0.00000000E+00
  0.00000000E+00  0.00000000E+00  0.00000000E+00
  0.00000000E+00  0.00000000E+00  0.00000000E+00
  0.00000000E+00  0.00000000E+00  0.00000000E+00
  0.00000000E+00  0.00000000E+00  0.00000000E+00
  0.00000000E+00  0.00000000E+00  0.00000000E+00
  0.00000000E+00  0.00000000E+00  0.00000000E+00
  0.00000000E+00  0.00000000E+00  0.00000000E+00
  0.00000000E+00  0.00000000E+00  0.00000000E+00
  0.00000000E+00  0.00000000E+00  0.00000000E+00
  0.00000000E+00  0.00000000E+00  0.00000000E+00
  0.00000000E+00  0.00000000E+00  0.00000000E+00
  0.00000000E+00  0.00000000E+00  0.00000000E+00
  0.00000000E+00  0.00000000E+00  0.00000000E+00
  0.00000000E+00  0.00000000E+00  0.00000000E+00
  0.00000000E+00  0.00000000E+00  0.00000000E+00
  0.00000000E+00  0.00000000E+00  0.00000000E+00
  0.00000000E+00  0.00000000E+00  0.00000000E+00
  0.00000000E+00  0.00000000E+00  0.00000000E+00
  0.00000000E+00  0.00000000E+00  0.00000000E+00
  0.00000000E+00  0.00000000E+00  0.00000000E+00
  0.00000000E+00  0.00000000E+00  0.00000000E+00
  0.00000000E+00  0.00000000E+00  0.00000000E+00
  0.00000000E+00  0.00000000E+00  0.00000000E+00
  0.00000000E+00  0.00000000E+00  0.00000000E+00
