C H O Si                                
   1.00000000000000     
     9.2874599999999994    0.0000000000000000    0.0000000000000000
     0.0000000000000000    8.7563099999999991    0.0000000000000000
     0.0000000000000000    0.0000000000000000   58.0000000000000000
   C    H    O    Si
    36    31    16    36
Selective dynamics
Direct
  0.9955330582887321  0.1307850031845477  0.0594148669078938   T   T   T
  0.3290291174109136  0.1310985408997755  0.0594910478818247   T   T   T
  0.6621262649254361  0.1308546166567166  0.0595492072864071   T   T   T
  0.9955396834618578  0.6309856754231004  0.0594257236174720   T   T   T
  0.3289589482197943  0.6307526078973810  0.0595001226743650   T   T   T
  0.6622106544199288  0.6306560081118217  0.0595251299737130   T   T   T
  0.1613641735056227  0.3763908202157017  0.1381611990009548   T   T   T
  0.4946905338179207  0.3766679784370651  0.1386498079293573   T   T   T
  0.8281733092841636  0.3764239658563002  0.1382315691140535   T   T   T
  0.1618708619258121  0.8763613515164074  0.1383071167946617   T   T   T
  0.4946817095039563  0.8743055930799184  0.1383468553627026   T   T   T
  0.8276459420779853  0.8764322773945105  0.1383563188351852   T   T   T
  0.3280386131824134  0.1267193498078686  0.1656648049372905   T   T   T
  0.6615959326819697  0.1268835920094994  0.1657950359519506   T   T   T
  0.9946397283449648  0.1256079747904314  0.1652557177952083   T   T   T
  0.3277639998591788  0.6264895552230861  0.1657301815785128   T   T   T
  0.6619157197823978  0.6266999191194453  0.1656876245956609   T   T   T
  0.9946944942957512  0.6264781524423084  0.1652895000184513   T   T   T
  0.1612307753187691  0.3778686475251932  0.1902162528406950   T   T   T
  0.4946265285615958  0.3846008592928429  0.1917532541757593   T   T   T
  0.8290764728421381  0.3789083714788263  0.1904483655649067   T   T   T
  0.1615512638655103  0.8802505700167238  0.1907026182868307   T   T   T
  0.4947947688704352  0.8773860072813623  0.1913266623505728   T   T   T
  0.8285081120040723  0.8809369609542691  0.1909064546723244   T   T   T
  0.1616786596257403  0.3766883550408568  0.0847438026307286   T   T   T
  0.4949260535778942  0.3767625560278890  0.0849659931700806   T   T   T
  0.8283230518351080  0.3767021317762332  0.0847916164209988   T   T   T
  0.1618912644802286  0.8768702549293432  0.0847939817467132   T   T   T
  0.4948927358588657  0.8764773964343171  0.0847592695086589   T   T   T
  0.8281847038477933  0.8769452585794513  0.0848290869329054   T   T   T
  0.3283303763497853  0.1261761850371289  0.1120419331842277   T   T   T
  0.6612795415250124  0.1261247250318634  0.1120877304317756   T   T   T
  0.9946947955349097  0.1262027402951427  0.1119233678091897   T   T   T
  0.3281685827233248  0.6261145619120255  0.1120440557578700   T   T   T
  0.6614887748640450  0.6261399094166932  0.1120350547076698   T   T   T
  0.9946900350471960  0.6267669938767912  0.1118910322450342   T   T   T
  0.0771891090975358  0.3634708420728904  0.0265330200974465   T   T   T
  0.4109997923280843  0.3637083751990657  0.0266805288611589   T   T   T
  0.7434347113954465  0.3634048886709686  0.0266153374229730   T   T   T
  0.0778241023691843  0.8635209282547471  0.0265660134638594   T   T   T
  0.4109418228611150  0.8632755781663928  0.0265117109846977   T   T   T
  0.7433084606870300  0.8632388012037314  0.0266379666470676   T   T   T
  0.3269018997915751  0.0583724719466280  0.0440128489145446   T   T   T
  0.6589731047999046  0.0582632264752845  0.0440517736120532   T   T   T
  0.9927058865389006  0.0582885677094735  0.0439148113482230   T   T   T
  0.3262120109218145  0.5579222225444996  0.0440392270437288   T   T   T
  0.6597121584380690  0.5578612828201686  0.0440543616028443   T   T   T
  0.9927442980399762  0.5587831971365637  0.0438910102994700   T   T   T
  0.8311810768197648  0.8069132433945093  0.2062423300808557   T   T   T
  0.8325791896719767  0.3062992453096952  0.2059215579044975   T   T   T
  0.1623243735935232  0.3053773704607941  0.2057270308873259   T   T   T
  0.4971978097017055  0.3097080176950781  0.2070025180211474   T   T   T
  0.1631623452784837  0.8064016567252412  0.2060519352340332   T   T   T
  0.0899096247330156  0.1106142201810951  0.2225871203547969   T   T   T
  0.4151766791429833  0.1026546245862654  0.2239408970738909   T   T   T
  0.7547444753839186  0.1174424492566172  0.2221340540923427   T   T   T
  0.0944888095146927  0.5973627800806920  0.2222173495748740   T   T   T
  0.3680287501975698  0.5665494613228594  0.2303152955741292   T   T   T
  0.7832074726192104  0.5895456487011463  0.2224704728827982   T   T   T
  0.5067684527219901  0.5444906617802022  0.2664284152708645   T   T   T
  0.4754604306891348  0.4549967639528695  0.3007921465822070   T   T   T
  0.5244761052076142  0.6224732187797631  0.3090105905319321   T   T   T
  0.2900499454509909  0.2749832853866936  0.2969472079771128   T   T   T
  0.4393665521376127  0.2157233800953831  0.2892665410061888   T   T   T
  0.6387898492077810  0.7743051724250021  0.3351036181146476   T   T   T
  0.5024480244617570  0.8621749482046670  0.3272425622067551   T   T   T
  0.5705998142792027  0.5390242710384764  0.2405813202555485   T   T   T
  0.1715597155673033  0.3370767658998046  0.0328231971765725   T   T   T
  0.5053054246950716  0.3374390436225624  0.0330090855840893   T   T   T
  0.8379404308260603  0.3369788682217470  0.0328566626067601   T   T   T
  0.1720515086601741  0.8370756048581354  0.0328874275164078   T   T   T
  0.5052117278463920  0.8364331268799773  0.0328021931654397   T   T   T
  0.8378555733436499  0.8371572196347373  0.0328998087780851   T   T   T
  0.3194260186578108  0.0884644337924333  0.2172692778114700   T   T   T
  0.6573092874349288  0.0886987926932898  0.2175310813096197   T   T   T
  0.9920152693645844  0.0880031285864360  0.2173109390440183   T   T   T
  0.2977854273365951  0.5868385595173227  0.2176613371006926   T   T   T
  0.6809901751512133  0.5830068388231627  0.2181801591133603   T   T   T
  0.9935723131163070  0.5830725751035319  0.2171533488647579   T   T   T
  0.5323595236730787  0.5462698474443997  0.2964278213134334   T   T   T
  0.3904400102449361  0.2691206824348729  0.3017695810040122   T   T   T
  0.5370466405607476  0.7609355547726141  0.3314965440859467   T   T   T
  0.4881115701477760  0.5078609720600843  0.2505338117240292   T   T   T
  0.4958532807206181  0.2483650021326084  0.0590119250692649   T   T   T
  0.8289658298258935  0.2481116794048225  0.0588720285972608   T   T   T
  0.1626437231993750  0.7481706161811692  0.0588804233661349   T   T   T
  0.4958350246014941  0.7481211175544469  0.0588664411295822   T   T   T
  0.8289250307107442  0.7482254447473505  0.0588958015195866   T   T   T
  0.1624852504970452  0.2481952307744597  0.0588216863783055   T   T   T
  0.9946243075823332  0.0004058207387220  0.1386255804383962   T   T   T
  0.3296504002164672  0.0007394486909933  0.1389278050993617   T   T   T
  0.6597554343032075  0.0008973561423811  0.1390044692102387   T   T   T
  0.9946418736758020  0.5010203205691418  0.1385421923273649   T   T   T
  0.3281212371828029  0.5017062212681082  0.1389485879752435   T   T   T
  0.6612574901742260  0.5017453384652705  0.1389108584091347   T   T   T
  0.1620052872143934  0.2486266284147836  0.1646495040131776   T   T   T
  0.4946122957113397  0.2509928527240368  0.1655169538557039   T   T   T
  0.8275540098753511  0.2489059374414124  0.1647609025519821   T   T   T
  0.1619546361116082  0.7504675851648274  0.1649760368441910   T   T   T
  0.4945989822482449  0.7538757999629446  0.1663839707465167   T   T   T
  0.8277641736688455  0.7509458288428947  0.1650750448036450   T   T   T
  0.3337350590661500  0.9908650351791221  0.1916733288884471   T   T   T
  0.6553198668896841  0.9912751335637641  0.1919189329211799   T   T   T
  0.9952384317279823  0.9969839993471507  0.1913088127026558   T   T   T
  0.3251138806358313  0.4998397643053405  0.1920325158659586   T   T   T
  0.9954993982338821  0.4953255277749436  0.1909482023400731   T   T   T
  0.6637066007775847  0.4989535986065197  0.1917321465040410   T   T   T
  0.9949251967543762  0.0009332903343873  0.0854567516696899   T   T   T
  0.3286024955354526  0.0010898235012492  0.0855492835130987   T   T   T
  0.6612590798799752  0.0010099229938358  0.0855925915987402   T   T   T
  0.9949008443048247  0.5010304117826176  0.0854473201551633   T   T   T
  0.3282879126073236  0.5010151826363481  0.0855838396614340   T   T   T
  0.6615477931890432  0.5010401935126261  0.0855884368067674   T   T   T
  0.1616173969485829  0.2510822938842633  0.1117774521963800   T   T   T
  0.4947138375494958  0.2513945542053990  0.1120750383092617   T   T   T
  0.8277790397924731  0.2510560933777148  0.1118248046980005   T   T   T
  0.1617542858758091  0.7513182712255911  0.1118452325581919   T   T   T
  0.4947119799886786  0.7513754842462484  0.1119632285557280   T   T   T
  0.8277146541804754  0.7513532278272076  0.1118742098089755   T   T   T
 
  0.00000000E+00  0.00000000E+00  0.00000000E+00
  0.00000000E+00  0.00000000E+00  0.00000000E+00
  0.00000000E+00  0.00000000E+00  0.00000000E+00
  0.00000000E+00  0.00000000E+00  0.00000000E+00
  0.00000000E+00  0.00000000E+00  0.00000000E+00
  0.00000000E+00  0.00000000E+00  0.00000000E+00
  0.00000000E+00  0.00000000E+00  0.00000000E+00
  0.00000000E+00  0.00000000E+00  0.00000000E+00
  0.00000000E+00  0.00000000E+00  0.00000000E+00
  0.00000000E+00  0.00000000E+00  0.00000000E+00
  0.00000000E+00  0.00000000E+00  0.00000000E+00
  0.00000000E+00  0.00000000E+00  0.00000000E+00
  0.00000000E+00  0.00000000E+00  0.00000000E+00
  0.00000000E+00  0.00000000E+00  0.00000000E+00
  0.00000000E+00  0.00000000E+00  0.00000000E+00
  0.00000000E+00  0.00000000E+00  0.00000000E+00
  0.00000000E+00  0.00000000E+00  0.00000000E+00
  0.00000000E+00  0.00000000E+00  0.00000000E+00
  0.00000000E+00  0.00000000E+00  0.00000000E+00
  0.00000000E+00  0.00000000E+00  0.00000000E+00
  0.00000000E+00  0.00000000E+00  0.00000000E+00
  0.00000000E+00  0.00000000E+00  0.00000000E+00
  0.00000000E+00  0.00000000E+00  0.00000000E+00
  0.00000000E+00  0.00000000E+00  0.00000000E+00
  0.00000000E+00  0.00000000E+00  0.00000000E+00
  0.00000000E+00  0.00000000E+00  0.00000000E+00
  0.00000000E+00  0.00000000E+00  0.00000000E+00
  0.00000000E+00  0.00000000E+00  0.00000000E+00
  0.00000000E+00  0.00000000E+00  0.00000000E+00
  0.00000000E+00  0.00000000E+00  0.00000000E+00
  0.00000000E+00  0.00000000E+00  0.00000000E+00
  0.00000000E+00  0.00000000E+00  0.00000000E+00
  0.00000000E+00  0.00000000E+00  0.00000000E+00
  0.00000000E+00  0.00000000E+00  0.00000000E+00
  0.00000000E+00  0.00000000E+00  0.00000000E+00
  0.00000000E+00  0.00000000E+00  0.00000000E+00
  0.00000000E+00  0.00000000E+00  0.00000000E+00
  0.00000000E+00  0.00000000E+00  0.00000000E+00
  0.00000000E+00  0.00000000E+00  0.00000000E+00
  0.00000000E+00  0.00000000E+00  0.00000000E+00
  0.00000000E+00  0.00000000E+00  0.00000000E+00
  0.00000000E+00  0.00000000E+00  0.00000000E+00
  0.00000000E+00  0.00000000E+00  0.00000000E+00
  0.00000000E+00  0.00000000E+00  0.00000000E+00
  0.00000000E+00  0.00000000E+00  0.00000000E+00
  0.00000000E+00  0.00000000E+00  0.00000000E+00
  0.00000000E+00  0.00000000E+00  0.00000000E+00
  0.00000000E+00  0.00000000E+00  0.00000000E+00
  0.00000000E+00  0.00000000E+00  0.00000000E+00
  0.00000000E+00  0.00000000E+00  0.00000000E+00
  0.00000000E+00  0.00000000E+00  0.00000000E+00
  0.00000000E+00  0.00000000E+00  0.00000000E+00
  0.00000000E+00  0.00000000E+00  0.00000000E+00
  0.00000000E+00  0.00000000E+00  0.00000000E+00
  0.00000000E+00  0.00000000E+00  0.00000000E+00
  0.00000000E+00  0.00000000E+00  0.00000000E+00
  0.00000000E+00  0.00000000E+00  0.00000000E+00
  0.00000000E+00  0.00000000E+00  0.00000000E+00
  0.00000000E+00  0.00000000E+00  0.00000000E+00
  0.00000000E+00  0.00000000E+00  0.00000000E+00
  0.00000000E+00  0.00000000E+00  0.00000000E+00
  0.00000000E+00  0.00000000E+00  0.00000000E+00
  0.00000000E+00  0.00000000E+00  0.00000000E+00
  0.00000000E+00  0.00000000E+00  0.00000000E+00
  0.00000000E+00  0.00000000E+00  0.00000000E+00
  0.00000000E+00  0.00000000E+00  0.00000000E+00
  0.00000000E+00  0.00000000E+00  0.00000000E+00
  0.00000000E+00  0.00000000E+00  0.00000000E+00
  0.00000000E+00  0.00000000E+00  0.00000000E+00
  0.00000000E+00  0.00000000E+00  0.00000000E+00
  0.00000000E+00  0.00000000E+00  0.00000000E+00
  0.00000000E+00  0.00000000E+00  0.00000000E+00
  0.00000000E+00  0.00000000E+00  0.00000000E+00
  0.00000000E+00  0.00000000E+00  0.00000000E+00
  0.00000000E+00  0.00000000E+00  0.00000000E+00
  0.00000000E+00  0.00000000E+00  0.00000000E+00
  0.00000000E+00  0.00000000E+00  0.00000000E+00
  0.00000000E+00  0.00000000E+00  0.00000000E+00
  0.00000000E+00  0.00000000E+00  0.00000000E+00
  0.00000000E+00  0.00000000E+00  0.00000000E+00
  0.00000000E+00  0.00000000E+00  0.00000000E+00
  0.00000000E+00  0.00000000E+00  0.00000000E+00
  0.00000000E+00  0.00000000E+00  0.00000000E+00
  0.00000000E+00  0.00000000E+00  0.00000000E+00
  0.00000000E+00  0.00000000E+00  0.00000000E+00
  0.00000000E+00  0.00000000E+00  0.00000000E+00
  0.00000000E+00  0.00000000E+00  0.00000000E+00
  0.00000000E+00  0.00000000E+00  0.00000000E+00
  0.00000000E+00  0.00000000E+00  0.00000000E+00
  0.00000000E+00  0.00000000E+00  0.00000000E+00
  0.00000000E+00  0.00000000E+00  0.00000000E+00
  0.00000000E+00  0.00000000E+00  0.00000000E+00
  0.00000000E+00  0.00000000E+00  0.00000000E+00
  0.00000000E+00  0.00000000E+00  0.00000000E+00
  0.00000000E+00  0.00000000E+00  0.00000000E+00
  0.00000000E+00  0.00000000E+00  0.00000000E+00
  0.00000000E+00  0.00000000E+00  0.00000000E+00
  0.00000000E+00  0.00000000E+00  0.00000000E+00
  0.00000000E+00  0.00000000E+00  0.00000000E+00
  0.00000000E+00  0.00000000E+00  0.00000000E+00
  0.00000000E+00  0.00000000E+00  0.00000000E+00
  0.00000000E+00  0.00000000E+00  0.00000000E+00
  0.00000000E+00  0.00000000E+00  0.00000000E+00
  0.00000000E+00  0.00000000E+00  0.00000000E+00
  0.00000000E+00  0.00000000E+00  0.00000000E+00
  0.00000000E+00  0.00000000E+00  0.00000000E+00
  0.00000000E+00  0.00000000E+00  0.00000000E+00
  0.00000000E+00  0.00000000E+00  0.00000000E+00
  0.00000000E+00  0.00000000E+00  0.00000000E+00
  0.00000000E+00  0.00000000E+00  0.00000000E+00
  0.00000000E+00  0.00000000E+00  0.00000000E+00
  0.00000000E+00  0.00000000E+00  0.00000000E+00
  0.00000000E+00  0.00000000E+00  0.00000000E+00
  0.00000000E+00  0.00000000E+00  0.00000000E+00
  0.00000000E+00  0.00000000E+00  0.00000000E+00
  0.00000000E+00  0.00000000E+00  0.00000000E+00
  0.00000000E+00  0.00000000E+00  0.00000000E+00
  0.00000000E+00  0.00000000E+00  0.00000000E+00
  0.00000000E+00  0.00000000E+00  0.00000000E+00
  0.00000000E+00  0.00000000E+00  0.00000000E+00
  0.00000000E+00  0.00000000E+00  0.00000000E+00
