C H O Si                                
   1.00000000000000     
     9.2874599999999994    0.0000000000000000    0.0000000000000000
     0.0000000000000000   17.5126199999999983    0.0000000000000000
     0.0000000000000000    0.0000000000000000   58.0000000000000000
   C    H    O    Si
    72    57    28    72
Selective dynamics
Direct
  0.9970322870212750  0.0651868557420353  0.0594749509021497   T   T   T
  0.3305188396301416  0.0652252909181211  0.0595656106566973   T   T   T
  0.6636340251769562  0.0651981842278477  0.0595966684802462   T   T   T
  0.9969579511703626  0.3152297477070186  0.0595000959119684   T   T   T
  0.3303414226908459  0.3151541628886032  0.0595670492091260   T   T   T
  0.6636804833962600  0.3151193473464017  0.0596009547193059   T   T   T
  0.1627894138762672  0.1880799468518065  0.1383048122496011   T   T   T
  0.4958993760544392  0.1884828462769712  0.1387085493555638   T   T   T
  0.8291486169037361  0.1881444818345051  0.1383491093711794   T   T   T
  0.1626576508844917  0.4382638781935930  0.1384224280348610   T   T   T
  0.4958916932660294  0.4373793377672246  0.1384833827463458   T   T   T
  0.8292638159646721  0.4382681599809724  0.1384862750334063   T   T   T
  0.3296526671150253  0.0633844704679939  0.1656555346676156   T   T   T
  0.6616212341654510  0.0635782859178224  0.1657121891052560   T   T   T
  0.9954433074310099  0.0626459485113493  0.1653970458165895   T   T   T
  0.3286236724044446  0.3135938902634525  0.1657733682465507   T   T   T
  0.6626046709348526  0.3136307108144367  0.1657828194315871   T   T   T
  0.9955254070744315  0.3132690311332862  0.1654660143647809   T   T   T
  0.1619564545504810  0.1887866406469513  0.1903233254256288   T   T   T
  0.4948641269757122  0.1925365469059958  0.1918156155852221   T   T   T
  0.8290808736127303  0.1892753736488847  0.1905846359653554   T   T   T
  0.1619764022071827  0.4403809725497671  0.1908291034622929   T   T   T
  0.4951202928210312  0.4389066756266660  0.1915595857630259   T   T   T
  0.8288388763475618  0.4405836187431080  0.1910365618040758   T   T   T
  0.1632906641531580  0.1882886418669898  0.0848368872234251   T   T   T
  0.4965376389431673  0.1883890608592931  0.0850367074978271   T   T   T
  0.8299046661635414  0.1883086754868399  0.0848736181960366   T   T   T
  0.1633244192009037  0.4382938307731123  0.0848886617005488   T   T   T
  0.4965600328099655  0.4382238929411257  0.0848489197252116   T   T   T
  0.8299207520279597  0.4383087028619250  0.0849244135970800   T   T   T
  0.3298065920167483  0.0632048557002383  0.1121117718363723   T   T   T
  0.6628580523793525  0.0631957902114566  0.1121344697253417   T   T   T
  0.9962431817390661  0.0630967610495518  0.1120198205782000   T   T   T
  0.3295718175576049  0.3131148062046671  0.1121442117587518   T   T   T
  0.6629751557827460  0.3131085015510643  0.1121528310309613   T   T   T
  0.9962017293575387  0.3131589816551041  0.1120358010558525   T   T   T
  0.9969977804701293  0.5652023503672946  0.0595435729438748   T   T   T
  0.3303739994169384  0.5651974731814692  0.0595349479258732   T   T   T
  0.6637388320808605  0.5651761306823664  0.0595778633310148   T   T   T
  0.9969812391383719  0.8152536635352754  0.0595157761667955   T   T   T
  0.3303991117467031  0.8151582972394963  0.0595264499408653   T   T   T
  0.6636505646190101  0.8151530108374146  0.0595351145371579   T   T   T
  0.1624709158086999  0.6883502946841427  0.1384173735564452   T   T   T
  0.4959180508429549  0.6880491506232010  0.1384870940036025   T   T   T
  0.8294903829803951  0.6883547088520794  0.1384388645394385   T   T   T
  0.1629485520361896  0.9381755267212500  0.1384241701698093   T   T   T
  0.4959462130078043  0.9380742512713470  0.1384402450194038   T   T   T
  0.8289177524170818  0.9381924686378436  0.1384183786342404   T   T   T
  0.3281311469416406  0.5634261014517569  0.1656935360757580   T   T   T
  0.6630806404245394  0.5633166706102282  0.1657986589079262   T   T   T
  0.9955770185082593  0.5636092717921253  0.1655767756297875   T   T   T
  0.3290342437018723  0.8132825938761584  0.1655788409663599   T   T   T
  0.6623238924901328  0.8132511863324936  0.1655987817740220   T   T   T
  0.9956006923300250  0.8134198704178063  0.1655618825661126   T   T   T
  0.1619228473540878  0.6904770585053838  0.1909444699133834   T   T   T
  0.4954359620378293  0.6901853365441161  0.1909953820761082   T   T   T
  0.8289442005263007  0.6905212544386261  0.1909661813286337   T   T   T
  0.1620457991570919  0.9400466648007439  0.1909373697332298   T   T   T
  0.4954481126218041  0.9400150918962193  0.1909764037123995   T   T   T
  0.8286751120025377  0.9400750068464885  0.1909483711982986   T   T   T
  0.1632829758508298  0.6883363364684064  0.0848992940876602   T   T   T
  0.4965636877950930  0.6882920422351200  0.0849057021307196   T   T   T
  0.8299571033261467  0.6883591947249023  0.0849156450073922   T   T   T
  0.1634415363559837  0.9383703301804399  0.0848780119216938   T   T   T
  0.4966156756371978  0.9383301951204599  0.0848998546000572   T   T   T
  0.8298688821180932  0.9383858573667692  0.0848880093839655   T   T   T
  0.3296586072642131  0.5630633576753920  0.1121069101965665   T   T   T
  0.6629839945304961  0.5630172381279295  0.1121489048788346   T   T   T
  0.9962142403848600  0.5631929094592589  0.1120849111665997   T   T   T
  0.3297193283401249  0.8131500103108885  0.1120634125733475   T   T   T
  0.6629481753450350  0.8131211812694493  0.1120747604474695   T   T   T
  0.9962393300329081  0.8133535081918013  0.1120550079729871   T   T   T
  0.0747713258897772  0.1812819064953424  0.0273342425547430   T   T   T
  0.4076474954584587  0.1813412995825675  0.0275163407648183   T   T   T
  0.7403369589452266  0.1811743315794962  0.0274202997870497   T   T   T
  0.0744106321181059  0.4312225754864599  0.0273572671114702   T   T   T
  0.4078344593506955  0.4310391319716380  0.0273059973671465   T   T   T
  0.7400810984841190  0.4309607960842285  0.0274261289476003   T   T   T
  0.3287075680531720  0.0285797049463417  0.0441489053211051   T   T   T
  0.6609794880406527  0.0285642963857251  0.0441762461380851   T   T   T
  0.9947172111939580  0.0285856216382551  0.0440469558612520   T   T   T
  0.3280076869925599  0.2784180659271008  0.0441714786557692   T   T   T
  0.6616226121552969  0.2783808563699526  0.0442023094554917   T   T   T
  0.9946393234826539  0.2786176440179094  0.0440732946237534   T   T   T
  0.8310358593855718  0.4032370113747716  0.2062958578597335   T   T   T
  0.8322841439487908  0.1529422691902751  0.2060657982186300   T   T   T
  0.1639958048565295  0.1529566136475346  0.2059180188751455   T   T   T
  0.4979215942158602  0.1555966091264869  0.2071640401605215   T   T   T
  0.1635790886360992  0.4031612984011481  0.2061090841542073   T   T   T
  0.5367866373664113  0.4667138260613555  0.2626651397839285   T   T   T
  0.0851407651793094  0.0574324759026253  0.2227349618290634   T   T   T
  0.4177162355485640  0.0576708358301678  0.2228936193262307   T   T   T
  0.7510965489241518  0.0575879850633061  0.2229288894565981   T   T   T
  0.0958411148352040  0.2989317209974223  0.2219761252816709   T   T   T
  0.3679612036406713  0.2820449978909087  0.2301237768589112   T   T   T
  0.7836783198760091  0.2950770110596081  0.2223269870713995   T   T   T
  0.5069335520209314  0.2697480990748992  0.2660424878479986   T   T   T
  0.4728518285305547  0.2278246735342090  0.3008111198036256   T   T   T
  0.5207254006698248  0.3117015579846030  0.3089980638353073   T   T   T
  0.2874055554382978  0.1377095450671066  0.2965046846895070   T   T   T
  0.4356470887958368  0.1073670208681037  0.2885734649472288   T   T   T
  0.6348795742338718  0.3870689405962341  0.3349379020482140   T   T   T
  0.5010796097353637  0.4322950698510931  0.3266464306416286   T   T   T
  0.5075490854045724  0.4425100489318659  0.2722676328979491   T   T   T
  0.5709277751437249  0.2660304211280424  0.2402198411376800   T   T   T
  0.0739870916660799  0.6813035690490010  0.0274353388036448   T   T   T
  0.4077580351316713  0.6813049208342014  0.0274123304159546   T   T   T
  0.7408795812883517  0.6812895670981903  0.0274320824555890   T   T   T
  0.0745729979449469  0.9313132037157748  0.0273566277468588   T   T   T
  0.4073129335882859  0.9311098749798509  0.0273811383922292   T   T   T
  0.7404615371389901  0.9311411770177996  0.0273848923917318   T   T   T
  0.3281426959265137  0.5285280177651949  0.0441216937911455   T   T   T
  0.6615638262871134  0.5284982136022539  0.0441642369923082   T   T   T
  0.9947368953667969  0.5285568975310190  0.0441254064137606   T   T   T
  0.3282246152568616  0.7785365980312945  0.0441048388651520   T   T   T
  0.6613836850087843  0.7785452498526730  0.0441071077188005   T   T   T
  0.9947656921866489  0.7786154994002205  0.0440967643339748   T   T   T
  0.8311122844819667  0.9034750407222263  0.2063712625923282   T   T   T
  0.8311633650630855  0.6537659775098271  0.2063470385055265   T   T   T
  0.1648514522017195  0.6534969100987629  0.2062732634545845   T   T   T
  0.4971178823125363  0.6529677698079661  0.2062865799544165   T   T   T
  0.1644086341313886  0.9034319919743881  0.2063537338640948   T   T   T
  0.4978268726794272  0.9033596143187460  0.2063853193053917   T   T   T
  0.0920867691858412  0.5548829789443112  0.2224005087366529   T   T   T
  0.4170702244595051  0.5512297379258260  0.2237008452363617   T   T   T
  0.7582691841307898  0.5578161859207880  0.2217936348432984   T   T   T
  0.0858673198014266  0.8064252527714618  0.2229879937159720   T   T   T
  0.4187630193479482  0.8063913048381381  0.2230051985467216   T   T   T
  0.7525306952732687  0.8063194428234084  0.2229751450985997   T   T   T
  0.1711372582158801  0.1678475906137490  0.0327890369756811   T   T   T
  0.5041082945092566  0.1681428243879232  0.0329628341749532   T   T   T
  0.8368872641458377  0.1678250754447414  0.0327946761102719   T   T   T
  0.1708154158803559  0.4178247170233809  0.0328031597614492   T   T   T
  0.5042051936139108  0.4175277871584911  0.0327439411745582   T   T   T
  0.8367389335061297  0.4178627887509249  0.0328252923231405   T   T   T
  0.3217317980145535  0.0422838255326575  0.2177510662223947   T   T   T
  0.6550944813245793  0.0422791149224533  0.2177741740334574   T   T   T
  0.9887436976546067  0.0427467796244749  0.2175831425253555   T   T   T
  0.2977212323159802  0.2937900442661413  0.2176793797303603   T   T   T
  0.6809558138399251  0.2908633492876690  0.2184187612929785   T   T   T
  0.9942171639732237  0.2905815665320595  0.2174388975505221   T   T   T
  0.5303785539670459  0.2732399392366428  0.2965479675674570   T   T   T
  0.3877457777906301  0.1336885047758193  0.3012647900718338   T   T   T
  0.5327692278914626  0.3816149501716738  0.3313601478114113   T   T   T
  0.4891782642731822  0.2498345061750540  0.2503420403186727   T   T   T
  0.1705096142935731  0.6679351250305373  0.0328335944711495   T   T   T
  0.5042002034403155  0.6679109494746237  0.0328396328759897   T   T   T
  0.8373744531361349  0.6679276858604073  0.0328444345788875   T   T   T
  0.1709428147447227  0.9178635030120347  0.0328060001691101   T   T   T
  0.5038401727958157  0.9179262387822792  0.0328247932521360   T   T   T
  0.8369592422974522  0.9179067605334693  0.0328021923976603   T   T   T
  0.3202600259954560  0.5451148419404468  0.2173444587544283   T   T   T
  0.6592243072984136  0.5446975216953633  0.2176827298621407   T   T   T
  0.9930621443748913  0.5438120989768661  0.2176055017563193   T   T   T
  0.3220745811100306  0.7932028859722461  0.2176551693004687   T   T   T
  0.6556496981920910  0.7931980130004088  0.2176833537258998   T   T   T
  0.9890258961300349  0.7934492404044328  0.2176456930350767   T   T   T
  0.4972800209592168  0.1238483657714880  0.0592965167958866   T   T   T
  0.8304880795118611  0.1237504719260264  0.0591601667417214   T   T   T
  0.1639068405029523  0.3737717023865627  0.0591694804999365   T   T   T
  0.4972082124621729  0.3737476006241865  0.0591712417297632   T   T   T
  0.8304050221639586  0.3737836684521080  0.0591957430062507   T   T   T
  0.1639748982081023  0.1237356331797634  0.0591438538113240   T   T   T
  0.9959040036476244  0.0000993202851092  0.1385449197498917   T   T   T
  0.3297629841540557  0.0004523339805555  0.1386755275944453   T   T   T
  0.6622119264190535  0.0005403150386423  0.1387051652721495   T   T   T
  0.9959719946137253  0.2504078977014080  0.1386276556640175   T   T   T
  0.3292363924332579  0.2510093972499978  0.1389346569214091   T   T   T
  0.6626005512529181  0.2510009082575734  0.1389202959547816   T   T   T
  0.1621566803715755  0.1246112289493662  0.1645877077161996   T   T   T
  0.4953661393431312  0.1265046034761963  0.1653655343932345   T   T   T
  0.8290751136689214  0.1248301272168366  0.1646783707189876   T   T   T
  0.1625761971599975  0.3754689095366959  0.1649654278071544   T   T   T
  0.4954252586885990  0.3773886640795616  0.1663990948890338   T   T   T
  0.8287244023316102  0.3755945072212653  0.1650735774237603   T   T   T
  0.3341715812049836  0.4957504297506956  0.1915420056686074   T   T   T
  0.6557092485451542  0.4958427407038382  0.1917952255089863   T   T   T
  0.9955505198923588  0.4985778024989415  0.1913197175997231   T   T   T
  0.3252977058057321  0.2504618878782668  0.1918251615637138   T   T   T
  0.9957794689355307  0.2475873179559890  0.1909209175963819   T   T   T
  0.6641282981544560  0.2498004025837067  0.1916078592579679   T   T   T
  0.9965730369524541  0.0002247919701855  0.0856443691485261   T   T   T
  0.3300205581058440  0.0002722415932228  0.0857189911041666   T   T   T
  0.6631672412032112  0.0002693771296571  0.0857351569014927   T   T   T
  0.9965067258658946  0.2502636373033162  0.0856683255692804   T   T   T
  0.3298208573562196  0.2503243370016003  0.0857786592011540   T   T   T
  0.6631920427389163  0.2503189078205945  0.0857903134178977   T   T   T
  0.1629648071653898  0.1254453429064046  0.1118608162226687   T   T   T
  0.4962211522136327  0.1256645469833090  0.1121257031813633   T   T   T
  0.8294760905566725  0.1254417294426189  0.1118950340233806   T   T   T
  0.1630183124881504  0.3755335410319637  0.1119859167610961   T   T   T
  0.4961586667706802  0.3756641500992440  0.1121023516950208   T   T   T
  0.8293528452750869  0.3755293685719855  0.1120297629715813   T   T   T
  0.4972651365785306  0.6237401723819389  0.0591932426665214   T   T   T
  0.8305454476050381  0.6237794480331635  0.0592001199105606   T   T   T
  0.1639511150437164  0.8737658658822640  0.0591662832691238   T   T   T
  0.4971971083991130  0.8737545343038653  0.0591791628509109   T   T   T
  0.8304221988746354  0.8737836940609002  0.0591657449660148   T   T   T
  0.1639001513299848  0.6237708156652809  0.0591843540042611   T   T   T
  0.9959512562908155  0.5004500480233756  0.1387353712373594   T   T   T
  0.3303290231741384  0.5002584754689026  0.1388897259005320   T   T   T
  0.6615454500324683  0.5002788480935826  0.1389535511733076   T   T   T
  0.9959566752663958  0.7504105819333681  0.1386040023719681   T   T   T
  0.3293893342771639  0.7501807960074554  0.1386292761842558   T   T   T
  0.6625655391571007  0.7501918615291560  0.1386424307211120   T   T   T
  0.1628930708661584  0.6249376905078469  0.1648810916903032   T   T   T
  0.4956188662562171  0.6242958076361170  0.1649650920173696   T   T   T
  0.8282790234523393  0.6248852079971197  0.1649105838736299   T   T   T
  0.1623759392119736  0.8751174821198602  0.1648099382930443   T   T   T
  0.4956106815658241  0.8750814580822270  0.1648412084386351   T   T   T
  0.8288384319048981  0.8751275498690509  0.1648137934529793   T   T   T
  0.3284846284283123  0.9985982809649169  0.1913407311641248   T   T   T
  0.6617625219487667  0.9986103742776919  0.1913682486650613   T   T   T
  0.9951377186492147  0.9985706174860358  0.1912366711328645   T   T   T
  0.3286418743166825  0.7485366571723602  0.1913313029533174   T   T   T
  0.9952758982349011  0.7487996100811860  0.1913293693262743   T   T   T
  0.6616401015252923  0.7485240059796263  0.1913652805229722   T   T   T
  0.9965568726720700  0.5002561881258140  0.0857182973129828   T   T   T
  0.3300299536174078  0.5002471180887696  0.0857306458176349   T   T   T
  0.6630710418591533  0.5002290315487929  0.0857609562041013   T   T   T
  0.9965543869222960  0.7503061365454776  0.0856901574142001   T   T   T
  0.3299110405513910  0.7502030938710652  0.0856896800283806   T   T   T
  0.6631859854956061  0.7502065242114688  0.0856923268770999   T   T   T
  0.1630573307268496  0.6253951324768632  0.1119575864846614   T   T   T
  0.4962420845207071  0.6253057719300360  0.1119779880744027   T   T   T
  0.8293338799090598  0.6253908528513377  0.1119794965738393   T   T   T
  0.1630867186830833  0.8754394042498340  0.1118916148963893   T   T   T
  0.4962635816983640  0.8753718617495863  0.1119095564711762   T   T   T
  0.8293321408067396  0.8754437346663292  0.1118964284731419   T   T   T
 
  0.00000000E+00  0.00000000E+00  0.00000000E+00
  0.00000000E+00  0.00000000E+00  0.00000000E+00
  0.00000000E+00  0.00000000E+00  0.00000000E+00
  0.00000000E+00  0.00000000E+00  0.00000000E+00
  0.00000000E+00  0.00000000E+00  0.00000000E+00
  0.00000000E+00  0.00000000E+00  0.00000000E+00
  0.00000000E+00  0.00000000E+00  0.00000000E+00
  0.00000000E+00  0.00000000E+00  0.00000000E+00
  0.00000000E+00  0.00000000E+00  0.00000000E+00
  0.00000000E+00  0.00000000E+00  0.00000000E+00
  0.00000000E+00  0.00000000E+00  0.00000000E+00
  0.00000000E+00  0.00000000E+00  0.00000000E+00
  0.00000000E+00  0.00000000E+00  0.00000000E+00
  0.00000000E+00  0.00000000E+00  0.00000000E+00
  0.00000000E+00  0.00000000E+00  0.00000000E+00
  0.00000000E+00  0.00000000E+00  0.00000000E+00
  0.00000000E+00  0.00000000E+00  0.00000000E+00
  0.00000000E+00  0.00000000E+00  0.00000000E+00
  0.00000000E+00  0.00000000E+00  0.00000000E+00
  0.00000000E+00  0.00000000E+00  0.00000000E+00
  0.00000000E+00  0.00000000E+00  0.00000000E+00
  0.00000000E+00  0.00000000E+00  0.00000000E+00
  0.00000000E+00  0.00000000E+00  0.00000000E+00
  0.00000000E+00  0.00000000E+00  0.00000000E+00
  0.00000000E+00  0.00000000E+00  0.00000000E+00
  0.00000000E+00  0.00000000E+00  0.00000000E+00
  0.00000000E+00  0.00000000E+00  0.00000000E+00
  0.00000000E+00  0.00000000E+00  0.00000000E+00
  0.00000000E+00  0.00000000E+00  0.00000000E+00
  0.00000000E+00  0.00000000E+00  0.00000000E+00
  0.00000000E+00  0.00000000E+00  0.00000000E+00
  0.00000000E+00  0.00000000E+00  0.00000000E+00
  0.00000000E+00  0.00000000E+00  0.00000000E+00
  0.00000000E+00  0.00000000E+00  0.00000000E+00
  0.00000000E+00  0.00000000E+00  0.00000000E+00
  0.00000000E+00  0.00000000E+00  0.00000000E+00
  0.00000000E+00  0.00000000E+00  0.00000000E+00
  0.00000000E+00  0.00000000E+00  0.00000000E+00
  0.00000000E+00  0.00000000E+00  0.00000000E+00
  0.00000000E+00  0.00000000E+00  0.00000000E+00
  0.00000000E+00  0.00000000E+00  0.00000000E+00
  0.00000000E+00  0.00000000E+00  0.00000000E+00
  0.00000000E+00  0.00000000E+00  0.00000000E+00
  0.00000000E+00  0.00000000E+00  0.00000000E+00
  0.00000000E+00  0.00000000E+00  0.00000000E+00
  0.00000000E+00  0.00000000E+00  0.00000000E+00
  0.00000000E+00  0.00000000E+00  0.00000000E+00
  0.00000000E+00  0.00000000E+00  0.00000000E+00
  0.00000000E+00  0.00000000E+00  0.00000000E+00
  0.00000000E+00  0.00000000E+00  0.00000000E+00
  0.00000000E+00  0.00000000E+00  0.00000000E+00
  0.00000000E+00  0.00000000E+00  0.00000000E+00
  0.00000000E+00  0.00000000E+00  0.00000000E+00
  0.00000000E+00  0.00000000E+00  0.00000000E+00
  0.00000000E+00  0.00000000E+00  0.00000000E+00
  0.00000000E+00  0.00000000E+00  0.00000000E+00
  0.00000000E+00  0.00000000E+00  0.00000000E+00
  0.00000000E+00  0.00000000E+00  0.00000000E+00
  0.00000000E+00  0.00000000E+00  0.00000000E+00
  0.00000000E+00  0.00000000E+00  0.00000000E+00
  0.00000000E+00  0.00000000E+00  0.00000000E+00
  0.00000000E+00  0.00000000E+00  0.00000000E+00
  0.00000000E+00  0.00000000E+00  0.00000000E+00
  0.00000000E+00  0.00000000E+00  0.00000000E+00
  0.00000000E+00  0.00000000E+00  0.00000000E+00
  0.00000000E+00  0.00000000E+00  0.00000000E+00
  0.00000000E+00  0.00000000E+00  0.00000000E+00
  0.00000000E+00  0.00000000E+00  0.00000000E+00
  0.00000000E+00  0.00000000E+00  0.00000000E+00
  0.00000000E+00  0.00000000E+00  0.00000000E+00
  0.00000000E+00  0.00000000E+00  0.00000000E+00
  0.00000000E+00  0.00000000E+00  0.00000000E+00
  0.00000000E+00  0.00000000E+00  0.00000000E+00
  0.00000000E+00  0.00000000E+00  0.00000000E+00
  0.00000000E+00  0.00000000E+00  0.00000000E+00
  0.00000000E+00  0.00000000E+00  0.00000000E+00
  0.00000000E+00  0.00000000E+00  0.00000000E+00
  0.00000000E+00  0.00000000E+00  0.00000000E+00
  0.00000000E+00  0.00000000E+00  0.00000000E+00
  0.00000000E+00  0.00000000E+00  0.00000000E+00
  0.00000000E+00  0.00000000E+00  0.00000000E+00
  0.00000000E+00  0.00000000E+00  0.00000000E+00
  0.00000000E+00  0.00000000E+00  0.00000000E+00
  0.00000000E+00  0.00000000E+00  0.00000000E+00
  0.00000000E+00  0.00000000E+00  0.00000000E+00
  0.00000000E+00  0.00000000E+00  0.00000000E+00
  0.00000000E+00  0.00000000E+00  0.00000000E+00
  0.00000000E+00  0.00000000E+00  0.00000000E+00
  0.00000000E+00  0.00000000E+00  0.00000000E+00
  0.00000000E+00  0.00000000E+00  0.00000000E+00
  0.00000000E+00  0.00000000E+00  0.00000000E+00
  0.00000000E+00  0.00000000E+00  0.00000000E+00
  0.00000000E+00  0.00000000E+00  0.00000000E+00
  0.00000000E+00  0.00000000E+00  0.00000000E+00
  0.00000000E+00  0.00000000E+00  0.00000000E+00
  0.00000000E+00  0.00000000E+00  0.00000000E+00
  0.00000000E+00  0.00000000E+00  0.00000000E+00
  0.00000000E+00  0.00000000E+00  0.00000000E+00
  0.00000000E+00  0.00000000E+00  0.00000000E+00
  0.00000000E+00  0.00000000E+00  0.00000000E+00
  0.00000000E+00  0.00000000E+00  0.00000000E+00
  0.00000000E+00  0.00000000E+00  0.00000000E+00
  0.00000000E+00  0.00000000E+00  0.00000000E+00
  0.00000000E+00  0.00000000E+00  0.00000000E+00
  0.00000000E+00  0.00000000E+00  0.00000000E+00
  0.00000000E+00  0.00000000E+00  0.00000000E+00
  0.00000000E+00  0.00000000E+00  0.00000000E+00
  0.00000000E+00  0.00000000E+00  0.00000000E+00
  0.00000000E+00  0.00000000E+00  0.00000000E+00
  0.00000000E+00  0.00000000E+00  0.00000000E+00
  0.00000000E+00  0.00000000E+00  0.00000000E+00
  0.00000000E+00  0.00000000E+00  0.00000000E+00
  0.00000000E+00  0.00000000E+00  0.00000000E+00
  0.00000000E+00  0.00000000E+00  0.00000000E+00
  0.00000000E+00  0.00000000E+00  0.00000000E+00
  0.00000000E+00  0.00000000E+00  0.00000000E+00
  0.00000000E+00  0.00000000E+00  0.00000000E+00
  0.00000000E+00  0.00000000E+00  0.00000000E+00
  0.00000000E+00  0.00000000E+00  0.00000000E+00
  0.00000000E+00  0.00000000E+00  0.00000000E+00
  0.00000000E+00  0.00000000E+00  0.00000000E+00
  0.00000000E+00  0.00000000E+00  0.00000000E+00
  0.00000000E+00  0.00000000E+00  0.00000000E+00
  0.00000000E+00  0.00000000E+00  0.00000000E+00
  0.00000000E+00  0.00000000E+00  0.00000000E+00
  0.00000000E+00  0.00000000E+00  0.00000000E+00
  0.00000000E+00  0.00000000E+00  0.00000000E+00
  0.00000000E+00  0.00000000E+00  0.00000000E+00
  0.00000000E+00  0.00000000E+00  0.00000000E+00
  0.00000000E+00  0.00000000E+00  0.00000000E+00
  0.00000000E+00  0.00000000E+00  0.00000000E+00
  0.00000000E+00  0.00000000E+00  0.00000000E+00
  0.00000000E+00  0.00000000E+00  0.00000000E+00
  0.00000000E+00  0.00000000E+00  0.00000000E+00
  0.00000000E+00  0.00000000E+00  0.00000000E+00
  0.00000000E+00  0.00000000E+00  0.00000000E+00
  0.00000000E+00  0.00000000E+00  0.00000000E+00
  0.00000000E+00  0.00000000E+00  0.00000000E+00
  0.00000000E+00  0.00000000E+00  0.00000000E+00
  0.00000000E+00  0.00000000E+00  0.00000000E+00
  0.00000000E+00  0.00000000E+00  0.00000000E+00
  0.00000000E+00  0.00000000E+00  0.00000000E+00
  0.00000000E+00  0.00000000E+00  0.00000000E+00
  0.00000000E+00  0.00000000E+00  0.00000000E+00
  0.00000000E+00  0.00000000E+00  0.00000000E+00
  0.00000000E+00  0.00000000E+00  0.00000000E+00
  0.00000000E+00  0.00000000E+00  0.00000000E+00
  0.00000000E+00  0.00000000E+00  0.00000000E+00
  0.00000000E+00  0.00000000E+00  0.00000000E+00
  0.00000000E+00  0.00000000E+00  0.00000000E+00
  0.00000000E+00  0.00000000E+00  0.00000000E+00
  0.00000000E+00  0.00000000E+00  0.00000000E+00
  0.00000000E+00  0.00000000E+00  0.00000000E+00
  0.00000000E+00  0.00000000E+00  0.00000000E+00
  0.00000000E+00  0.00000000E+00  0.00000000E+00
  0.00000000E+00  0.00000000E+00  0.00000000E+00
  0.00000000E+00  0.00000000E+00  0.00000000E+00
  0.00000000E+00  0.00000000E+00  0.00000000E+00
  0.00000000E+00  0.00000000E+00  0.00000000E+00
  0.00000000E+00  0.00000000E+00  0.00000000E+00
  0.00000000E+00  0.00000000E+00  0.00000000E+00
  0.00000000E+00  0.00000000E+00  0.00000000E+00
  0.00000000E+00  0.00000000E+00  0.00000000E+00
  0.00000000E+00  0.00000000E+00  0.00000000E+00
  0.00000000E+00  0.00000000E+00  0.00000000E+00
  0.00000000E+00  0.00000000E+00  0.00000000E+00
  0.00000000E+00  0.00000000E+00  0.00000000E+00
  0.00000000E+00  0.00000000E+00  0.00000000E+00
  0.00000000E+00  0.00000000E+00  0.00000000E+00
  0.00000000E+00  0.00000000E+00  0.00000000E+00
  0.00000000E+00  0.00000000E+00  0.00000000E+00
  0.00000000E+00  0.00000000E+00  0.00000000E+00
  0.00000000E+00  0.00000000E+00  0.00000000E+00
  0.00000000E+00  0.00000000E+00  0.00000000E+00
  0.00000000E+00  0.00000000E+00  0.00000000E+00
  0.00000000E+00  0.00000000E+00  0.00000000E+00
  0.00000000E+00  0.00000000E+00  0.00000000E+00
  0.00000000E+00  0.00000000E+00  0.00000000E+00
  0.00000000E+00  0.00000000E+00  0.00000000E+00
  0.00000000E+00  0.00000000E+00  0.00000000E+00
  0.00000000E+00  0.00000000E+00  0.00000000E+00
  0.00000000E+00  0.00000000E+00  0.00000000E+00
  0.00000000E+00  0.00000000E+00  0.00000000E+00
  0.00000000E+00  0.00000000E+00  0.00000000E+00
  0.00000000E+00  0.00000000E+00  0.00000000E+00
  0.00000000E+00  0.00000000E+00  0.00000000E+00
  0.00000000E+00  0.00000000E+00  0.00000000E+00
  0.00000000E+00  0.00000000E+00  0.00000000E+00
  0.00000000E+00  0.00000000E+00  0.00000000E+00
  0.00000000E+00  0.00000000E+00  0.00000000E+00
  0.00000000E+00  0.00000000E+00  0.00000000E+00
  0.00000000E+00  0.00000000E+00  0.00000000E+00
  0.00000000E+00  0.00000000E+00  0.00000000E+00
  0.00000000E+00  0.00000000E+00  0.00000000E+00
  0.00000000E+00  0.00000000E+00  0.00000000E+00
  0.00000000E+00  0.00000000E+00  0.00000000E+00
  0.00000000E+00  0.00000000E+00  0.00000000E+00
  0.00000000E+00  0.00000000E+00  0.00000000E+00
  0.00000000E+00  0.00000000E+00  0.00000000E+00
  0.00000000E+00  0.00000000E+00  0.00000000E+00
  0.00000000E+00  0.00000000E+00  0.00000000E+00
  0.00000000E+00  0.00000000E+00  0.00000000E+00
  0.00000000E+00  0.00000000E+00  0.00000000E+00
  0.00000000E+00  0.00000000E+00  0.00000000E+00
  0.00000000E+00  0.00000000E+00  0.00000000E+00
  0.00000000E+00  0.00000000E+00  0.00000000E+00
  0.00000000E+00  0.00000000E+00  0.00000000E+00
  0.00000000E+00  0.00000000E+00  0.00000000E+00
  0.00000000E+00  0.00000000E+00  0.00000000E+00
  0.00000000E+00  0.00000000E+00  0.00000000E+00
  0.00000000E+00  0.00000000E+00  0.00000000E+00
  0.00000000E+00  0.00000000E+00  0.00000000E+00
  0.00000000E+00  0.00000000E+00  0.00000000E+00
  0.00000000E+00  0.00000000E+00  0.00000000E+00
  0.00000000E+00  0.00000000E+00  0.00000000E+00
  0.00000000E+00  0.00000000E+00  0.00000000E+00
  0.00000000E+00  0.00000000E+00  0.00000000E+00
  0.00000000E+00  0.00000000E+00  0.00000000E+00
  0.00000000E+00  0.00000000E+00  0.00000000E+00
  0.00000000E+00  0.00000000E+00  0.00000000E+00
  0.00000000E+00  0.00000000E+00  0.00000000E+00
  0.00000000E+00  0.00000000E+00  0.00000000E+00
  0.00000000E+00  0.00000000E+00  0.00000000E+00
  0.00000000E+00  0.00000000E+00  0.00000000E+00
  0.00000000E+00  0.00000000E+00  0.00000000E+00
  0.00000000E+00  0.00000000E+00  0.00000000E+00
  0.00000000E+00  0.00000000E+00  0.00000000E+00
  0.00000000E+00  0.00000000E+00  0.00000000E+00
  0.00000000E+00  0.00000000E+00  0.00000000E+00
