C H O Si                                
   1.00000000000000     
     9.2874599999999994    0.0000000000000000    0.0000000000000000
     0.0000000000000000   17.5126199999999983    0.0000000000000000
     0.0000000000000000    0.0000000000000000   58.0000000000000000
   C    H    O    Si
    72    57    28    72
Selective dynamics
Direct
  0.9970169853351228  0.0651712534521523  0.0594788326739484   T   T   T
  0.3304883141595695  0.0652361253048152  0.0595689702866392   T   T   T
  0.6636015923122845  0.0652213982043381  0.0595925018279277   T   T   T
  0.9969255927959080  0.3152168533741095  0.0595022893033252   T   T   T
  0.3302819763017746  0.3151764579598967  0.0595669909658186   T   T   T
  0.6636120069697016  0.3151576813777507  0.0595911888110113   T   T   T
  0.1627270941105366  0.1880271902582797  0.1383167854537790   T   T   T
  0.4960021071520193  0.1884687761371742  0.1387163275476610   T   T   T
  0.8291186987253499  0.1880949527965957  0.1383755697977332   T   T   T
  0.1625869116562204  0.4382414703121554  0.1384428496026483   T   T   T
  0.4960443017453168  0.4373870121036414  0.1385031240346643   T   T   T
  0.8292586693633378  0.4382462831121838  0.1385107896181718   T   T   T
  0.3294160990416856  0.0633452824704399  0.1656459318750853   T   T   T
  0.6614915272272760  0.0635193188932581  0.1657101046576513   T   T   T
  0.9953242487051869  0.0626465066517820  0.1654079166854461   T   T   T
  0.3284654539645429  0.3135391366241801  0.1657538654334043   T   T   T
  0.6624004639857958  0.3135923210542071  0.1657643620016487   T   T   T
  0.9954303469516484  0.3132382687421872  0.1654640854599614   T   T   T
  0.1617653760157717  0.1887709489591715  0.1903230854035602   T   T   T
  0.4948573504158520  0.1925255314174620  0.1917998953607708   T   T   T
  0.8290322178665921  0.1892658658142263  0.1905771668273646   T   T   T
  0.1621136881346429  0.4404174339588734  0.1908306288595625   T   T   T
  0.4951493816651753  0.4389599460700356  0.1915640554880312   T   T   T
  0.8288147590822660  0.4406006518320748  0.1910367325060887   T   T   T
  0.1631362080645418  0.1882960238210296  0.0848605896928531   T   T   T
  0.4965057850759751  0.1883512520845909  0.0850571731180127   T   T   T
  0.8297874089837749  0.1883142468465337  0.0848909483284844   T   T   T
  0.1632283849404446  0.4383163431223943  0.0849105279898949   T   T   T
  0.4964805191607652  0.4382285075626541  0.0848670725842166   T   T   T
  0.8298643461839079  0.4383119583964758  0.0849477347279404   T   T   T
  0.3296395277552479  0.0631696268559220  0.1121127851022645   T   T   T
  0.6626219937421811  0.0631777199107315  0.1121268792874127   T   T   T
  0.9961944512514166  0.0630829323865418  0.1120098519843566   T   T   T
  0.3293712083623791  0.3130710873029462  0.1121427929421720   T   T   T
  0.6627172893965914  0.3130802874082024  0.1121501489334920   T   T   T
  0.9961421984466147  0.3131468105116266  0.1120318846968417   T   T   T
  0.9969853802876885  0.5651913817654250  0.0595491121727822   T   T   T
  0.3303213352992218  0.5651933947325084  0.0595393591415694   T   T   T
  0.6636985266263947  0.5652015661639782  0.0595713784848828   T   T   T
  0.9969617228858710  0.8152530003850708  0.0595156008145598   T   T   T
  0.3303141645081912  0.8151603526409955  0.0595281801953390   T   T   T
  0.6636134018179122  0.8151597321947832  0.0595275433900402   T   T   T
  0.1623715178001328  0.6883254097099709  0.1384392147779864   T   T   T
  0.4960361163587307  0.6880489129593240  0.1385009350123016   T   T   T
  0.8294869734775397  0.6883164189734060  0.1384678100851723   T   T   T
  0.1629898205565069  0.9381284990982953  0.1384384405762385   T   T   T
  0.4960517639490128  0.9380547161641704  0.1384573430639816   T   T   T
  0.8289526024873345  0.9381710294986026  0.1384418946779043   T   T   T
  0.3280586023600832  0.5633601716111695  0.1656846519529132   T   T   T
  0.6628247734022147  0.5633323174402147  0.1657793715185070   T   T   T
  0.9954415151062148  0.5635476836558918  0.1655693857823002   T   T   T
  0.3288349786370637  0.8132556205166065  0.1655674784050271   T   T   T
  0.6620956658167291  0.8132410312801572  0.1655887754881046   T   T   T
  0.9954543476038150  0.8133510819045271  0.1655507039820102   T   T   T
  0.1619992564918096  0.6905119686005334  0.1909445232786173   T   T   T
  0.4952983317410781  0.6902037506570576  0.1909941109574136   T   T   T
  0.8289406931649054  0.6905530008231091  0.1909619458509285   T   T   T
  0.1620460829185144  0.9400546686808837  0.1909323094279654   T   T   T
  0.4953092804633709  0.9400243139738017  0.1909746828140770   T   T   T
  0.8286231769742231  0.9400647193654671  0.1909466119724193   T   T   T
  0.1631835813480292  0.6883427366527552  0.0849232673524373   T   T   T
  0.4965237483391305  0.6882941377279649  0.0849292464864508   T   T   T
  0.8298800125117068  0.6883562972924827  0.0849371989116296   T   T   T
  0.1632964658564757  0.9383856217877775  0.0849041020333278   T   T   T
  0.4965971913554682  0.9383394052125725  0.0849254344529611   T   T   T
  0.8298001711265803  0.9383832953612371  0.0849049444357519   T   T   T
  0.3294689688370642  0.5630387279448045  0.1121068152615707   T   T   T
  0.6627567753067468  0.5629993922091712  0.1121397649368194   T   T   T
  0.9961345100259904  0.5631814305738810  0.1120824477358412   T   T   T
  0.3295310128928938  0.8131263203171276  0.1120661014609184   T   T   T
  0.6627394627417557  0.8131093749422245  0.1120717724733934   T   T   T
  0.9961628040070494  0.8133546378932078  0.1120552558527417   T   T   T
  0.0747773420015622  0.1812405492533939  0.0273311415197519   T   T   T
  0.4076530285980256  0.1813064935166425  0.0275111388093806   T   T   T
  0.7403414268822425  0.1811458023828087  0.0274127807499990   T   T   T
  0.0743986143353260  0.4311909068580330  0.0273500726551352   T   T   T
  0.4078171447842551  0.4310099964123761  0.0272960576839532   T   T   T
  0.7400692018676489  0.4309326754425009  0.0274179890659430   T   T   T
  0.3287725605034453  0.0285983104281389  0.0441534852147583   T   T   T
  0.6610419140021597  0.0285836600232106  0.0441806140439160   T   T   T
  0.9947891902304068  0.0286018737064791  0.0440496375394318   T   T   T
  0.3280856466981740  0.2784391167429482  0.0441753360817953   T   T   T
  0.6616963720074206  0.2783940342827528  0.0442050497372727   T   T   T
  0.9947029090817728  0.2786332036616339  0.0440752336897256   T   T   T
  0.8310233023645012  0.4032484246802659  0.2062942365484764   T   T   T
  0.8322682628549035  0.1529787451485518  0.2060599341379378   T   T   T
  0.1639945667020290  0.1529919646034352  0.2059146622293164   T   T   T
  0.4979050409753035  0.1556361657439708  0.2071632377061973   T   T   T
  0.1635613167895986  0.4031804091321658  0.2061071772849949   T   T   T
  0.5368222147805317  0.4666775542964818  0.2626408075175261   T   T   T
  0.0851456591652499  0.0574149738825123  0.2227453597190721   T   T   T
  0.4177273595856167  0.0576521664673695  0.2229073647059040   T   T   T
  0.7511094984758900  0.0575797151469858  0.2229428238143664   T   T   T
  0.0958587083636928  0.2989244255143391  0.2219772032457782   T   T   T
  0.3679126009939312  0.2820631998061465  0.2301314691232542   T   T   T
  0.7836661250784541  0.2950529929149961  0.2223218225872067   T   T   T
  0.5068642585094487  0.2697607998972095  0.2660349723559031   T   T   T
  0.4727953469193606  0.2278344179558210  0.3008059915641035   T   T   T
  0.5206835408615067  0.3117039739565939  0.3089906061208623   T   T   T
  0.2873852779294022  0.1376790171760173  0.2964887100780276   T   T   T
  0.4356822042266150  0.1073940694002821  0.2885501382681053   T   T   T
  0.6349303766942253  0.3870302278680922  0.3349281788830206   T   T   T
  0.5011069911108414  0.4323244106853516  0.3266499427911655   T   T   T
  0.5074990247318643  0.4424497835888816  0.2722309703211643   T   T   T
  0.5709228633652209  0.2660273383996963  0.2402214721462743   T   T   T
  0.0739870223163508  0.6812733790628800  0.0274302504470974   T   T   T
  0.4077555842576954  0.6812704124871035  0.0274087256406296   T   T   T
  0.7408737958902591  0.6812566689711754  0.0274280739226126   T   T   T
  0.0745747407921131  0.9312812475231170  0.0273500605606009   T   T   T
  0.4073025632328335  0.9310860187055952  0.0273703485560307   T   T   T
  0.7404695743637731  0.9311114939050458  0.0273759952510698   T   T   T
  0.3282101133590648  0.5285532362577610  0.0441258079474344   T   T   T
  0.6616299223178843  0.5285134253129674  0.0441671052273148   T   T   T
  0.9948026014237936  0.5285804842207132  0.0441286833648858   T   T   T
  0.3283038764239017  0.7785536156921206  0.0441076046817636   T   T   T
  0.6614546239548313  0.7785604404819430  0.0441077120492805   T   T   T
  0.9948353390047792  0.7786310256469997  0.0440993889304901   T   T   T
  0.8310906733875890  0.9034871081653311  0.2063718912099470   T   T   T
  0.8311436416041303  0.6537905831275179  0.2063407710818658   T   T   T
  0.1648238669808671  0.6535174934011554  0.2062699215044695   T   T   T
  0.4970955171600684  0.6529837767468923  0.2062825936423307   T   T   T
  0.1643887417990292  0.9034416077723861  0.2063525570526075   T   T   T
  0.4978136773920279  0.9033675620663612  0.2063851135498103   T   T   T
  0.0920658398044317  0.5548697022411863  0.2224060410917129   T   T   T
  0.4170730287448932  0.5511993727407700  0.2237074374785316   T   T   T
  0.7583000037001657  0.5577761983130141  0.2217913575392652   T   T   T
  0.0858945785711687  0.8063982259612537  0.2229940047191542   T   T   T
  0.4187779751938333  0.8063675023805992  0.2230114983174239   T   T   T
  0.7525712306699736  0.8062890132694264  0.2229815590042851   T   T   T
  0.1711876503226793  0.1679054218193033  0.0327926100409086   T   T   T
  0.5041209351089295  0.1681860666755820  0.0329699374822776   T   T   T
  0.8368906011613441  0.1678648834941472  0.0328029216810707   T   T   T
  0.1708631828385222  0.4178722073125885  0.0327973423266334   T   T   T
  0.5042324694336215  0.4175803949682555  0.0327415970613870   T   T   T
  0.8367581495014593  0.4179059617157150  0.0328246139061361   T   T   T
  0.3218051924135373  0.0422720378172392  0.2177385396692627   T   T   T
  0.6551943427394394  0.0422557354365042  0.2177565147367301   T   T   T
  0.9887741255244531  0.0427666886370716  0.2175719742752974   T   T   T
  0.2977458163334019  0.2937943804451390  0.2176654715576238   T   T   T
  0.6808277203226953  0.2909720431319398  0.2184458111647502   T   T   T
  0.9941824174150228  0.2906168487337716  0.2174340060061265   T   T   T
  0.5302407113033382  0.2732549432528269  0.2965361381190229   T   T   T
  0.3877763455612772  0.1336884253884064  0.3012457816796558   T   T   T
  0.5328095935021604  0.3816020334510516  0.3313510580769109   T   T   T
  0.4890338477060197  0.2498693296165209  0.2503314426769631   T   T   T
  0.1705439228055363  0.6679863857289787  0.0328358720464052   T   T   T
  0.5042453669536754  0.6679716521808166  0.0328399801876202   T   T   T
  0.8374217273389013  0.6679857983678812  0.0328439013721564   T   T   T
  0.1709714077233608  0.9178992539734493  0.0328069724196558   T   T   T
  0.5038320377464365  0.9179640065321291  0.0328292333577631   T   T   T
  0.8369469264210605  0.9179377600509345  0.0328112884983512   T   T   T
  0.3203108974781015  0.5450843113815037  0.2173331746350657   T   T   T
  0.6591576544300660  0.5447297607749992  0.2177018916260298   T   T   T
  0.9930374730349323  0.5438480778650785  0.2176018124489033   T   T   T
  0.3220748529522340  0.7932397040106945  0.2176548174430176   T   T   T
  0.6556370326555817  0.7932676791885963  0.2176839554427806   T   T   T
  0.9889797071885583  0.7935292476014207  0.2176514303986399   T   T   T
  0.4972549530928290  0.1238056620089465  0.0592913018816462   T   T   T
  0.8304788357981040  0.1237049816300468  0.0591566500801370   T   T   T
  0.1638928337689304  0.3737335743461784  0.0591631654061196   T   T   T
  0.4972013478102436  0.3737052237525144  0.0591645158883261   T   T   T
  0.8304125183944308  0.3737388591374483  0.0591865767741620   T   T   T
  0.1639434566830301  0.1236981415214877  0.0591364133834861   T   T   T
  0.9959566671745891  0.0000893439289111  0.1385441736197396   T   T   T
  0.3298366996759028  0.0004460748997731  0.1386789998793339   T   T   T
  0.6623027352560024  0.0005424576255063  0.1387148354994391   T   T   T
  0.9960632406017762  0.2504011977385662  0.1386328473043207   T   T   T
  0.3293791958538695  0.2510235093629875  0.1389367017606158   T   T   T
  0.6626932681890642  0.2510218417356795  0.1389177868831301   T   T   T
  0.1622263634876659  0.1246488149060065  0.1645930540004870   T   T   T
  0.4954222349242403  0.1265390813455243  0.1653643958616022   T   T   T
  0.8291443284223091  0.1248392236784550  0.1646814831552593   T   T   T
  0.1626156659846532  0.3754960211335419  0.1649605309450081   T   T   T
  0.4955756359991629  0.3774373192852721  0.1663990388752086   T   T   T
  0.8287910093810131  0.3756080455053539  0.1650654670882510   T   T   T
  0.3342691714029039  0.4957461257270431  0.1915453885307659   T   T   T
  0.6556801856271034  0.4958429016444162  0.1917933421072581   T   T   T
  0.9956575505024319  0.4985824693256558  0.1913178548460407   T   T   T
  0.3253253779873714  0.2504759632506082  0.1918230558990829   T   T   T
  0.9958501060809999  0.2475656338361406  0.1909176292808068   T   T   T
  0.6642482750713508  0.2497903996963023  0.1916128954550132   T   T   T
  0.9966629332656727  0.0002253690679310  0.0856459147043817   T   T   T
  0.3301278338911984  0.0002815696982469  0.0857202437730366   T   T   T
  0.6632400586367388  0.0002760623661691  0.0857333384467722   T   T   T
  0.9966005810624574  0.2502732064618234  0.0856688928934655   T   T   T
  0.3299381486030484  0.2503363899136940  0.0857784820993465   T   T   T
  0.6632750506983919  0.2503288664275013  0.0857897509534643   T   T   T
  0.1630788697665886  0.1254578306241680  0.1118598712267752   T   T   T
  0.4962761554739468  0.1256845738668426  0.1121274608615622   T   T   T
  0.8295916462203188  0.1254410463690934  0.1118906651287987   T   T   T
  0.1631296149341478  0.3755505408460732  0.1119889273164094   T   T   T
  0.4962350194742354  0.3756770962256054  0.1120985848387374   T   T   T
  0.8294443139173201  0.3755444211404703  0.1120264812049133   T   T   T
  0.4972273000365021  0.6237057098673132  0.0591859210980677   T   T   T
  0.8305311588253312  0.6237382694921679  0.0591926233444758   T   T   T
  0.1639424763509581  0.8737275332188750  0.0591575380584782   T   T   T
  0.4971908188255970  0.8737245903186645  0.0591710370752348   T   T   T
  0.8304289493950182  0.8737469263198659  0.0591584067086729   T   T   T
  0.1638761253084909  0.6237342101594857  0.0591766037112067   T   T   T
  0.9960158233208684  0.5004450072042028  0.1387343443148841   T   T   T
  0.3304134760617350  0.5002763864941158  0.1388862562823117   T   T   T
  0.6616720249021757  0.5002830275435737  0.1389532106260779   T   T   T
  0.9960391677249613  0.7504159675114618  0.1386075296756293   T   T   T
  0.3294927820085035  0.7501841367377354  0.1386338216869712   T   T   T
  0.6626275491332768  0.7502045324935610  0.1386450467966094   T   T   T
  0.1629241234220663  0.6249587264940042  0.1648709782885461   T   T   T
  0.4956842433005137  0.6242802515225062  0.1649670870357719   T   T   T
  0.8283607720873792  0.6248981370466560  0.1649047060794422   T   T   T
  0.1624229858526973  0.8751175039249145  0.1648052096611504   T   T   T
  0.4956642493212191  0.8750897511644389  0.1648366490064279   T   T   T
  0.8288947223273894  0.8751272272859708  0.1648163457781225   T   T   T
  0.3285629994036574  0.9986007292527180  0.1913422944852779   T   T   T
  0.6618461099461991  0.9986187043615928  0.1913620752495286   T   T   T
  0.9951975315257392  0.9985649561037422  0.1912336318705578   T   T   T
  0.3287266184538497  0.7485371189099002  0.1913313880882479   T   T   T
  0.9953691749763387  0.7487908667825309  0.1913246998094210   T   T   T
  0.6617303945136372  0.7485257199852284  0.1913581245086586   T   T   T
  0.9966512374178662  0.5002553238336376  0.0857194779695377   T   T   T
  0.3301490407874869  0.5002428907627222  0.0857323639052921   T   T   T
  0.6631389378823781  0.5002320212858833  0.0857586865730839   T   T   T
  0.9966393071673079  0.7503083731184333  0.0856905607674709   T   T   T
  0.3300118268678672  0.7502229714372960  0.0856914151408857   T   T   T
  0.6632347778489400  0.7502140463141445  0.0856936434959937   T   T   T
  0.1631618123670530  0.6253990552995692  0.1119553485711222   T   T   T
  0.4963343762894323  0.6253151354290890  0.1119741959397222   T   T   T
  0.8294441174799835  0.6254095367598472  0.1119748828539851   T   T   T
  0.1632178211849831  0.8754547541380500  0.1118894466399217   T   T   T
  0.4963408260135222  0.8753903887742583  0.1119034021520438   T   T   T
  0.8294151182528672  0.8754509868590838  0.1118904648257046   T   T   T
 
  0.00000000E+00  0.00000000E+00  0.00000000E+00
  0.00000000E+00  0.00000000E+00  0.00000000E+00
  0.00000000E+00  0.00000000E+00  0.00000000E+00
  0.00000000E+00  0.00000000E+00  0.00000000E+00
  0.00000000E+00  0.00000000E+00  0.00000000E+00
  0.00000000E+00  0.00000000E+00  0.00000000E+00
  0.00000000E+00  0.00000000E+00  0.00000000E+00
  0.00000000E+00  0.00000000E+00  0.00000000E+00
  0.00000000E+00  0.00000000E+00  0.00000000E+00
  0.00000000E+00  0.00000000E+00  0.00000000E+00
  0.00000000E+00  0.00000000E+00  0.00000000E+00
  0.00000000E+00  0.00000000E+00  0.00000000E+00
  0.00000000E+00  0.00000000E+00  0.00000000E+00
  0.00000000E+00  0.00000000E+00  0.00000000E+00
  0.00000000E+00  0.00000000E+00  0.00000000E+00
  0.00000000E+00  0.00000000E+00  0.00000000E+00
  0.00000000E+00  0.00000000E+00  0.00000000E+00
  0.00000000E+00  0.00000000E+00  0.00000000E+00
  0.00000000E+00  0.00000000E+00  0.00000000E+00
  0.00000000E+00  0.00000000E+00  0.00000000E+00
  0.00000000E+00  0.00000000E+00  0.00000000E+00
  0.00000000E+00  0.00000000E+00  0.00000000E+00
  0.00000000E+00  0.00000000E+00  0.00000000E+00
  0.00000000E+00  0.00000000E+00  0.00000000E+00
  0.00000000E+00  0.00000000E+00  0.00000000E+00
  0.00000000E+00  0.00000000E+00  0.00000000E+00
  0.00000000E+00  0.00000000E+00  0.00000000E+00
  0.00000000E+00  0.00000000E+00  0.00000000E+00
  0.00000000E+00  0.00000000E+00  0.00000000E+00
  0.00000000E+00  0.00000000E+00  0.00000000E+00
  0.00000000E+00  0.00000000E+00  0.00000000E+00
  0.00000000E+00  0.00000000E+00  0.00000000E+00
  0.00000000E+00  0.00000000E+00  0.00000000E+00
  0.00000000E+00  0.00000000E+00  0.00000000E+00
  0.00000000E+00  0.00000000E+00  0.00000000E+00
  0.00000000E+00  0.00000000E+00  0.00000000E+00
  0.00000000E+00  0.00000000E+00  0.00000000E+00
  0.00000000E+00  0.00000000E+00  0.00000000E+00
  0.00000000E+00  0.00000000E+00  0.00000000E+00
  0.00000000E+00  0.00000000E+00  0.00000000E+00
  0.00000000E+00  0.00000000E+00  0.00000000E+00
  0.00000000E+00  0.00000000E+00  0.00000000E+00
  0.00000000E+00  0.00000000E+00  0.00000000E+00
  0.00000000E+00  0.00000000E+00  0.00000000E+00
  0.00000000E+00  0.00000000E+00  0.00000000E+00
  0.00000000E+00  0.00000000E+00  0.00000000E+00
  0.00000000E+00  0.00000000E+00  0.00000000E+00
  0.00000000E+00  0.00000000E+00  0.00000000E+00
  0.00000000E+00  0.00000000E+00  0.00000000E+00
  0.00000000E+00  0.00000000E+00  0.00000000E+00
  0.00000000E+00  0.00000000E+00  0.00000000E+00
  0.00000000E+00  0.00000000E+00  0.00000000E+00
  0.00000000E+00  0.00000000E+00  0.00000000E+00
  0.00000000E+00  0.00000000E+00  0.00000000E+00
  0.00000000E+00  0.00000000E+00  0.00000000E+00
  0.00000000E+00  0.00000000E+00  0.00000000E+00
  0.00000000E+00  0.00000000E+00  0.00000000E+00
  0.00000000E+00  0.00000000E+00  0.00000000E+00
  0.00000000E+00  0.00000000E+00  0.00000000E+00
  0.00000000E+00  0.00000000E+00  0.00000000E+00
  0.00000000E+00  0.00000000E+00  0.00000000E+00
  0.00000000E+00  0.00000000E+00  0.00000000E+00
  0.00000000E+00  0.00000000E+00  0.00000000E+00
  0.00000000E+00  0.00000000E+00  0.00000000E+00
  0.00000000E+00  0.00000000E+00  0.00000000E+00
  0.00000000E+00  0.00000000E+00  0.00000000E+00
  0.00000000E+00  0.00000000E+00  0.00000000E+00
  0.00000000E+00  0.00000000E+00  0.00000000E+00
  0.00000000E+00  0.00000000E+00  0.00000000E+00
  0.00000000E+00  0.00000000E+00  0.00000000E+00
  0.00000000E+00  0.00000000E+00  0.00000000E+00
  0.00000000E+00  0.00000000E+00  0.00000000E+00
  0.00000000E+00  0.00000000E+00  0.00000000E+00
  0.00000000E+00  0.00000000E+00  0.00000000E+00
  0.00000000E+00  0.00000000E+00  0.00000000E+00
  0.00000000E+00  0.00000000E+00  0.00000000E+00
  0.00000000E+00  0.00000000E+00  0.00000000E+00
  0.00000000E+00  0.00000000E+00  0.00000000E+00
  0.00000000E+00  0.00000000E+00  0.00000000E+00
  0.00000000E+00  0.00000000E+00  0.00000000E+00
  0.00000000E+00  0.00000000E+00  0.00000000E+00
  0.00000000E+00  0.00000000E+00  0.00000000E+00
  0.00000000E+00  0.00000000E+00  0.00000000E+00
  0.00000000E+00  0.00000000E+00  0.00000000E+00
  0.00000000E+00  0.00000000E+00  0.00000000E+00
  0.00000000E+00  0.00000000E+00  0.00000000E+00
  0.00000000E+00  0.00000000E+00  0.00000000E+00
  0.00000000E+00  0.00000000E+00  0.00000000E+00
  0.00000000E+00  0.00000000E+00  0.00000000E+00
  0.00000000E+00  0.00000000E+00  0.00000000E+00
  0.00000000E+00  0.00000000E+00  0.00000000E+00
  0.00000000E+00  0.00000000E+00  0.00000000E+00
  0.00000000E+00  0.00000000E+00  0.00000000E+00
  0.00000000E+00  0.00000000E+00  0.00000000E+00
  0.00000000E+00  0.00000000E+00  0.00000000E+00
  0.00000000E+00  0.00000000E+00  0.00000000E+00
  0.00000000E+00  0.00000000E+00  0.00000000E+00
  0.00000000E+00  0.00000000E+00  0.00000000E+00
  0.00000000E+00  0.00000000E+00  0.00000000E+00
  0.00000000E+00  0.00000000E+00  0.00000000E+00
  0.00000000E+00  0.00000000E+00  0.00000000E+00
  0.00000000E+00  0.00000000E+00  0.00000000E+00
  0.00000000E+00  0.00000000E+00  0.00000000E+00
  0.00000000E+00  0.00000000E+00  0.00000000E+00
  0.00000000E+00  0.00000000E+00  0.00000000E+00
  0.00000000E+00  0.00000000E+00  0.00000000E+00
  0.00000000E+00  0.00000000E+00  0.00000000E+00
  0.00000000E+00  0.00000000E+00  0.00000000E+00
  0.00000000E+00  0.00000000E+00  0.00000000E+00
  0.00000000E+00  0.00000000E+00  0.00000000E+00
  0.00000000E+00  0.00000000E+00  0.00000000E+00
  0.00000000E+00  0.00000000E+00  0.00000000E+00
  0.00000000E+00  0.00000000E+00  0.00000000E+00
  0.00000000E+00  0.00000000E+00  0.00000000E+00
  0.00000000E+00  0.00000000E+00  0.00000000E+00
  0.00000000E+00  0.00000000E+00  0.00000000E+00
  0.00000000E+00  0.00000000E+00  0.00000000E+00
  0.00000000E+00  0.00000000E+00  0.00000000E+00
  0.00000000E+00  0.00000000E+00  0.00000000E+00
  0.00000000E+00  0.00000000E+00  0.00000000E+00
  0.00000000E+00  0.00000000E+00  0.00000000E+00
  0.00000000E+00  0.00000000E+00  0.00000000E+00
  0.00000000E+00  0.00000000E+00  0.00000000E+00
  0.00000000E+00  0.00000000E+00  0.00000000E+00
  0.00000000E+00  0.00000000E+00  0.00000000E+00
  0.00000000E+00  0.00000000E+00  0.00000000E+00
  0.00000000E+00  0.00000000E+00  0.00000000E+00
  0.00000000E+00  0.00000000E+00  0.00000000E+00
  0.00000000E+00  0.00000000E+00  0.00000000E+00
  0.00000000E+00  0.00000000E+00  0.00000000E+00
  0.00000000E+00  0.00000000E+00  0.00000000E+00
  0.00000000E+00  0.00000000E+00  0.00000000E+00
  0.00000000E+00  0.00000000E+00  0.00000000E+00
  0.00000000E+00  0.00000000E+00  0.00000000E+00
  0.00000000E+00  0.00000000E+00  0.00000000E+00
  0.00000000E+00  0.00000000E+00  0.00000000E+00
  0.00000000E+00  0.00000000E+00  0.00000000E+00
  0.00000000E+00  0.00000000E+00  0.00000000E+00
  0.00000000E+00  0.00000000E+00  0.00000000E+00
  0.00000000E+00  0.00000000E+00  0.00000000E+00
  0.00000000E+00  0.00000000E+00  0.00000000E+00
  0.00000000E+00  0.00000000E+00  0.00000000E+00
  0.00000000E+00  0.00000000E+00  0.00000000E+00
  0.00000000E+00  0.00000000E+00  0.00000000E+00
  0.00000000E+00  0.00000000E+00  0.00000000E+00
  0.00000000E+00  0.00000000E+00  0.00000000E+00
  0.00000000E+00  0.00000000E+00  0.00000000E+00
  0.00000000E+00  0.00000000E+00  0.00000000E+00
  0.00000000E+00  0.00000000E+00  0.00000000E+00
  0.00000000E+00  0.00000000E+00  0.00000000E+00
  0.00000000E+00  0.00000000E+00  0.00000000E+00
  0.00000000E+00  0.00000000E+00  0.00000000E+00
  0.00000000E+00  0.00000000E+00  0.00000000E+00
  0.00000000E+00  0.00000000E+00  0.00000000E+00
  0.00000000E+00  0.00000000E+00  0.00000000E+00
  0.00000000E+00  0.00000000E+00  0.00000000E+00
  0.00000000E+00  0.00000000E+00  0.00000000E+00
  0.00000000E+00  0.00000000E+00  0.00000000E+00
  0.00000000E+00  0.00000000E+00  0.00000000E+00
  0.00000000E+00  0.00000000E+00  0.00000000E+00
  0.00000000E+00  0.00000000E+00  0.00000000E+00
  0.00000000E+00  0.00000000E+00  0.00000000E+00
  0.00000000E+00  0.00000000E+00  0.00000000E+00
  0.00000000E+00  0.00000000E+00  0.00000000E+00
  0.00000000E+00  0.00000000E+00  0.00000000E+00
  0.00000000E+00  0.00000000E+00  0.00000000E+00
  0.00000000E+00  0.00000000E+00  0.00000000E+00
  0.00000000E+00  0.00000000E+00  0.00000000E+00
  0.00000000E+00  0.00000000E+00  0.00000000E+00
  0.00000000E+00  0.00000000E+00  0.00000000E+00
  0.00000000E+00  0.00000000E+00  0.00000000E+00
  0.00000000E+00  0.00000000E+00  0.00000000E+00
  0.00000000E+00  0.00000000E+00  0.00000000E+00
  0.00000000E+00  0.00000000E+00  0.00000000E+00
  0.00000000E+00  0.00000000E+00  0.00000000E+00
  0.00000000E+00  0.00000000E+00  0.00000000E+00
  0.00000000E+00  0.00000000E+00  0.00000000E+00
  0.00000000E+00  0.00000000E+00  0.00000000E+00
  0.00000000E+00  0.00000000E+00  0.00000000E+00
  0.00000000E+00  0.00000000E+00  0.00000000E+00
  0.00000000E+00  0.00000000E+00  0.00000000E+00
  0.00000000E+00  0.00000000E+00  0.00000000E+00
  0.00000000E+00  0.00000000E+00  0.00000000E+00
  0.00000000E+00  0.00000000E+00  0.00000000E+00
  0.00000000E+00  0.00000000E+00  0.00000000E+00
  0.00000000E+00  0.00000000E+00  0.00000000E+00
  0.00000000E+00  0.00000000E+00  0.00000000E+00
  0.00000000E+00  0.00000000E+00  0.00000000E+00
  0.00000000E+00  0.00000000E+00  0.00000000E+00
  0.00000000E+00  0.00000000E+00  0.00000000E+00
  0.00000000E+00  0.00000000E+00  0.00000000E+00
  0.00000000E+00  0.00000000E+00  0.00000000E+00
  0.00000000E+00  0.00000000E+00  0.00000000E+00
  0.00000000E+00  0.00000000E+00  0.00000000E+00
  0.00000000E+00  0.00000000E+00  0.00000000E+00
  0.00000000E+00  0.00000000E+00  0.00000000E+00
  0.00000000E+00  0.00000000E+00  0.00000000E+00
  0.00000000E+00  0.00000000E+00  0.00000000E+00
  0.00000000E+00  0.00000000E+00  0.00000000E+00
  0.00000000E+00  0.00000000E+00  0.00000000E+00
  0.00000000E+00  0.00000000E+00  0.00000000E+00
  0.00000000E+00  0.00000000E+00  0.00000000E+00
  0.00000000E+00  0.00000000E+00  0.00000000E+00
  0.00000000E+00  0.00000000E+00  0.00000000E+00
  0.00000000E+00  0.00000000E+00  0.00000000E+00
  0.00000000E+00  0.00000000E+00  0.00000000E+00
  0.00000000E+00  0.00000000E+00  0.00000000E+00
  0.00000000E+00  0.00000000E+00  0.00000000E+00
  0.00000000E+00  0.00000000E+00  0.00000000E+00
  0.00000000E+00  0.00000000E+00  0.00000000E+00
  0.00000000E+00  0.00000000E+00  0.00000000E+00
  0.00000000E+00  0.00000000E+00  0.00000000E+00
  0.00000000E+00  0.00000000E+00  0.00000000E+00
  0.00000000E+00  0.00000000E+00  0.00000000E+00
  0.00000000E+00  0.00000000E+00  0.00000000E+00
  0.00000000E+00  0.00000000E+00  0.00000000E+00
  0.00000000E+00  0.00000000E+00  0.00000000E+00
  0.00000000E+00  0.00000000E+00  0.00000000E+00
  0.00000000E+00  0.00000000E+00  0.00000000E+00
  0.00000000E+00  0.00000000E+00  0.00000000E+00
  0.00000000E+00  0.00000000E+00  0.00000000E+00
  0.00000000E+00  0.00000000E+00  0.00000000E+00
  0.00000000E+00  0.00000000E+00  0.00000000E+00
  0.00000000E+00  0.00000000E+00  0.00000000E+00
  0.00000000E+00  0.00000000E+00  0.00000000E+00
  0.00000000E+00  0.00000000E+00  0.00000000E+00
  0.00000000E+00  0.00000000E+00  0.00000000E+00
  0.00000000E+00  0.00000000E+00  0.00000000E+00
  0.00000000E+00  0.00000000E+00  0.00000000E+00
