C H O Si                                
   1.00000000000000     
     9.2874599999999994    0.0000000000000000    0.0000000000000000
     0.0000000000000000    8.7562999999999995    0.0000000000000000
     0.0000000000000000    0.0000000000000000   58.0000000000000000
   C    H    O    Si
    36    24    12    36
Selective dynamics
Direct
  0.0007610211757076  0.1359386183743973  0.4342279763200986   T   T   T
  0.0007610211757076  0.6359386183743972  0.4342279763200986   T   T   T
  0.3340943545087094  0.1359386183743973  0.4342279763200986   T   T   T
  0.3340943545087094  0.6359386183743972  0.4342279763200986   T   T   T
  0.6674276878427059  0.1359386183743973  0.4342279763200986   T   T   T
  0.6674276878427059  0.6359386183743972  0.4342279763200986   T   T   T
  0.1678442427583248  0.3821374970571826  0.4596047909415397   T   T   T
  0.1678442427583248  0.8821374970571827  0.4596047909415397   T   T   T
  0.5011775760923212  0.3821374970571826  0.4596047909415397   T   T   T
  0.5011775760923212  0.8821374970571827  0.4596047909415397   T   T   T
  0.8345109094253229  0.3821374970571826  0.4596047909415397   T   T   T
  0.8345109094253229  0.8821374970571827  0.4596047909415397   T   T   T
  0.0012561087173995  0.1319258438327625  0.4868117792740964   T   T   T
  0.0012561087173995  0.6319258438327624  0.4868117792740964   T   T   T
  0.3345894420504013  0.1319258438327625  0.4868117792740964   T   T   T
  0.3345894420504013  0.6319258438327624  0.4868117792740964   T   T   T
  0.6679227753844048  0.1319258438327625  0.4868117792740964   T   T   T
  0.6679227753844048  0.6319258438327624  0.4868117792740964   T   T   T
  0.1679228639154007  0.3819260126417577  0.5131882207259034   T   T   T
  0.1679228639154007  0.8819260126417576  0.5131882207259034   T   T   T
  0.5012561972494043  0.3819260126417577  0.5131882207259034   T   T   T
  0.5012561972494043  0.8819260126417576  0.5131882207259034   T   T   T
  0.8345895305824060  0.3819260126417577  0.5131882207259034   T   T   T
  0.8345895305824060  0.8819260126417576  0.5131882207259034   T   T   T
  0.0011774875603235  0.1321373282481875  0.5403952090584602   T   T   T
  0.0011774875603235  0.6321373282481875  0.5403952090584602   T   T   T
  0.3345108208933182  0.1321373282481875  0.5403952090584602   T   T   T
  0.3345108208933182  0.6321373282481875  0.5403952090584602   T   T   T
  0.6678441542273217  0.1321373282481875  0.5403952090584602   T   T   T
  0.6678441542273217  0.6321373282481875  0.5403952090584602   T   T   T
  0.1674277763737160  0.3859387871833924  0.5657720236799088   T   T   T
  0.1674277763737160  0.8859387871833925  0.5657720236799088   T   T   T
  0.5007611097077054  0.3859387871833924  0.5657720236799088   T   T   T
  0.5007611097077054  0.8859387871833925  0.5657720236799088   T   T   T
  0.8340944430407071  0.3859387871833924  0.5657720236799088   T   T   T
  0.8340944430407071  0.8859387871833925  0.5657720236799088   T   T   T
  0.0035113537281743  0.0624681528707992  0.4188280818288929   T   T   T
  0.0035113537281743  0.5624681528707994  0.4188280818288929   T   T   T
  0.3368446870621778  0.0624681528707992  0.4188280818288929   T   T   T
  0.3368446870621778  0.5624681528707994  0.4188280818288929   T   T   T
  0.6701780203951796  0.0624681528707992  0.4188280818288929   T   T   T
  0.6701780203951796  0.5624681528707994  0.4188280818288929   T   T   T
  0.1701782722721771  0.3124683216798015  0.5811719181711072   T   T   T
  0.1701782722721771  0.8124683216798018  0.5811719181711072   T   T   T
  0.5035116056061736  0.3124683216798015  0.5811719181711072   T   T   T
  0.5035116056061736  0.8124683216798018  0.5811719181711072   T   T   T
  0.8368449389391753  0.3124683216798015  0.5811719181711072   T   T   T
  0.8368449389391753  0.8124683216798018  0.5811719181711072   T   T   T
  0.0893666366434247  0.1166160441296707  0.5981893029549835   T   T   T
  0.0893666366434247  0.6166160441296636  0.5981893029549835   T   T   T
  0.4226999699764263  0.1166160441296707  0.5981893029549835   T   T   T
  0.4226999699764263  0.6166160441296636  0.5981893029549835   T   T   T
  0.7560333033094213  0.1166160441296707  0.5981893029549835   T   T   T
  0.7560333033094213  0.6166160441296636  0.5981893029549835   T   T   T
  0.2560332727574263  0.3666162885666677  0.4018106970450164   T   T   T
  0.2560332727574263  0.8666162885666605  0.4018106970450164   T   T   T
  0.5893666060904212  0.3666162885666677  0.4018106970450164   T   T   T
  0.5893666060904212  0.8666162885666605  0.4018106970450164   T   T   T
  0.9226999394234230  0.3666162885666677  0.4018106970450164   T   T   T
  0.9226999394234230  0.8666162885666605  0.4018106970450164   T   T   T
  0.1599331926992229  0.3411449223740812  0.4075154524560746   T   T   T
  0.1599331926992229  0.8411449223740811  0.4075154524560746   T   T   T
  0.4932665260332195  0.3411449223740812  0.4075154524560746   T   T   T
  0.4932665260332195  0.8411449223740811  0.4075154524560746   T   T   T
  0.8265998593662212  0.3411449223740812  0.4075154524560746   T   T   T
  0.8265998593662212  0.8411449223740811  0.4075154524560746   T   T   T
  0.9932665061662243  0.0911447535650789  0.5924845475439254   T   T   T
  0.9932665061662243  0.5911447535650788  0.5924845475439254   T   T   T
  0.3265998395002209  0.0911447535650789  0.5924845475439254   T   T   T
  0.3265998395002209  0.5911447535650788  0.5924845475439254   T   T   T
  0.6599331728332225  0.0911447535650789  0.5924845475439254   T   T   T
  0.6599331728332225  0.5911447535650788  0.5924845475439254   T   T   T
  0.1672148364216962  0.2529836825280785  0.4338014796066088   T   T   T
  0.1672148364216962  0.7529836825280785  0.4338014796066088   T   T   T
  0.5005481697556925  0.2529836825280785  0.4338014796066088   T   T   T
  0.5005481697556925  0.7529836825280785  0.4338014796066088   T   T   T
  0.8338815030886942  0.2529836825280785  0.4338014796066088   T   T   T
  0.8338815030886942  0.7529836825280785  0.4338014796066088   T   T   T
  0.0011624653061718  0.0061968363887448  0.4603764900279615   T   T   T
  0.0011624653061718  0.5061968363887447  0.4603764900279615   T   T   T
  0.3344957986391735  0.0061968363887448  0.4603764900279615   T   T   T
  0.3344957986391735  0.5061968363887447  0.4603764900279615   T   T   T
  0.6678291319731702  0.0061968363887448  0.4603764900279615   T   T   T
  0.6678291319731702  0.5061968363887447  0.4603764900279615   T   T   T
  0.1679268087448749  0.2565271949692906  0.4866014969456629   T   T   T
  0.1679268087448749  0.7565271949692906  0.4866014969456629   T   T   T
  0.5012601420788715  0.2565271949692906  0.4866014969456629   T   T   T
  0.5012601420788715  0.7565271949692906  0.4866014969456629   T   T   T
  0.8345934754118732  0.2565271949692906  0.4866014969456629   T   T   T
  0.8345934754118732  0.7565271949692906  0.4866014969456629   T   T   T
  0.0012600535468737  0.0065270261592935  0.5133985030543370   T   T   T
  0.0012600535468737  0.5065270261592935  0.5133985030543370   T   T   T
  0.3345933868798755  0.0065270261592935  0.5133985030543370   T   T   T
  0.3345933868798755  0.5065270261592935  0.5133985030543370   T   T   T
  0.6679267202138720  0.0065270261592935  0.5133985030543370   T   T   T
  0.6679267202138720  0.5065270261592935  0.5133985030543370   T   T   T
  0.1678292205041730  0.2561970051987419  0.5396235099720383   T   T   T
  0.1678292205041730  0.7561970051987418  0.5396235099720383   T   T   T
  0.5011625538381697  0.2561970051987419  0.5396235099720383   T   T   T
  0.5011625538381697  0.7561970051987418  0.5396235099720383   T   T   T
  0.8344958871711714  0.2561970051987419  0.5396235099720383   T   T   T
  0.8344958871711714  0.7561970051987418  0.5396235099720383   T   T   T
  0.0005480812236949  0.0029835137180814  0.5661985203933914   T   T   T
  0.0005480812236949  0.5029835137180814  0.5661985203933914   T   T   T
  0.3338814145566966  0.0029835137180814  0.5661985203933914   T   T   T
  0.3338814145566966  0.5029835137180814  0.5661985203933914   T   T   T
  0.6672147478906930  0.0029835137180814  0.5661985203933914   T   T   T
  0.6672147478906930  0.5029835137180814  0.5661985203933914   T   T   T
 
  0.00000000E+00  0.00000000E+00  0.00000000E+00
  0.00000000E+00  0.00000000E+00  0.00000000E+00
  0.00000000E+00  0.00000000E+00  0.00000000E+00
  0.00000000E+00  0.00000000E+00  0.00000000E+00
  0.00000000E+00  0.00000000E+00  0.00000000E+00
  0.00000000E+00  0.00000000E+00  0.00000000E+00
  0.00000000E+00  0.00000000E+00  0.00000000E+00
  0.00000000E+00  0.00000000E+00  0.00000000E+00
  0.00000000E+00  0.00000000E+00  0.00000000E+00
  0.00000000E+00  0.00000000E+00  0.00000000E+00
  0.00000000E+00  0.00000000E+00  0.00000000E+00
  0.00000000E+00  0.00000000E+00  0.00000000E+00
  0.00000000E+00  0.00000000E+00  0.00000000E+00
  0.00000000E+00  0.00000000E+00  0.00000000E+00
  0.00000000E+00  0.00000000E+00  0.00000000E+00
  0.00000000E+00  0.00000000E+00  0.00000000E+00
  0.00000000E+00  0.00000000E+00  0.00000000E+00
  0.00000000E+00  0.00000000E+00  0.00000000E+00
  0.00000000E+00  0.00000000E+00  0.00000000E+00
  0.00000000E+00  0.00000000E+00  0.00000000E+00
  0.00000000E+00  0.00000000E+00  0.00000000E+00
  0.00000000E+00  0.00000000E+00  0.00000000E+00
  0.00000000E+00  0.00000000E+00  0.00000000E+00
  0.00000000E+00  0.00000000E+00  0.00000000E+00
  0.00000000E+00  0.00000000E+00  0.00000000E+00
  0.00000000E+00  0.00000000E+00  0.00000000E+00
  0.00000000E+00  0.00000000E+00  0.00000000E+00
  0.00000000E+00  0.00000000E+00  0.00000000E+00
  0.00000000E+00  0.00000000E+00  0.00000000E+00
  0.00000000E+00  0.00000000E+00  0.00000000E+00
  0.00000000E+00  0.00000000E+00  0.00000000E+00
  0.00000000E+00  0.00000000E+00  0.00000000E+00
  0.00000000E+00  0.00000000E+00  0.00000000E+00
  0.00000000E+00  0.00000000E+00  0.00000000E+00
  0.00000000E+00  0.00000000E+00  0.00000000E+00
  0.00000000E+00  0.00000000E+00  0.00000000E+00
  0.00000000E+00  0.00000000E+00  0.00000000E+00
  0.00000000E+00  0.00000000E+00  0.00000000E+00
  0.00000000E+00  0.00000000E+00  0.00000000E+00
  0.00000000E+00  0.00000000E+00  0.00000000E+00
  0.00000000E+00  0.00000000E+00  0.00000000E+00
  0.00000000E+00  0.00000000E+00  0.00000000E+00
  0.00000000E+00  0.00000000E+00  0.00000000E+00
  0.00000000E+00  0.00000000E+00  0.00000000E+00
  0.00000000E+00  0.00000000E+00  0.00000000E+00
  0.00000000E+00  0.00000000E+00  0.00000000E+00
  0.00000000E+00  0.00000000E+00  0.00000000E+00
  0.00000000E+00  0.00000000E+00  0.00000000E+00
  0.00000000E+00  0.00000000E+00  0.00000000E+00
  0.00000000E+00  0.00000000E+00  0.00000000E+00
  0.00000000E+00  0.00000000E+00  0.00000000E+00
  0.00000000E+00  0.00000000E+00  0.00000000E+00
  0.00000000E+00  0.00000000E+00  0.00000000E+00
  0.00000000E+00  0.00000000E+00  0.00000000E+00
  0.00000000E+00  0.00000000E+00  0.00000000E+00
  0.00000000E+00  0.00000000E+00  0.00000000E+00
  0.00000000E+00  0.00000000E+00  0.00000000E+00
  0.00000000E+00  0.00000000E+00  0.00000000E+00
  0.00000000E+00  0.00000000E+00  0.00000000E+00
  0.00000000E+00  0.00000000E+00  0.00000000E+00
  0.00000000E+00  0.00000000E+00  0.00000000E+00
  0.00000000E+00  0.00000000E+00  0.00000000E+00
  0.00000000E+00  0.00000000E+00  0.00000000E+00
  0.00000000E+00  0.00000000E+00  0.00000000E+00
  0.00000000E+00  0.00000000E+00  0.00000000E+00
  0.00000000E+00  0.00000000E+00  0.00000000E+00
  0.00000000E+00  0.00000000E+00  0.00000000E+00
  0.00000000E+00  0.00000000E+00  0.00000000E+00
  0.00000000E+00  0.00000000E+00  0.00000000E+00
  0.00000000E+00  0.00000000E+00  0.00000000E+00
  0.00000000E+00  0.00000000E+00  0.00000000E+00
  0.00000000E+00  0.00000000E+00  0.00000000E+00
  0.00000000E+00  0.00000000E+00  0.00000000E+00
  0.00000000E+00  0.00000000E+00  0.00000000E+00
  0.00000000E+00  0.00000000E+00  0.00000000E+00
  0.00000000E+00  0.00000000E+00  0.00000000E+00
  0.00000000E+00  0.00000000E+00  0.00000000E+00
  0.00000000E+00  0.00000000E+00  0.00000000E+00
  0.00000000E+00  0.00000000E+00  0.00000000E+00
  0.00000000E+00  0.00000000E+00  0.00000000E+00
  0.00000000E+00  0.00000000E+00  0.00000000E+00
  0.00000000E+00  0.00000000E+00  0.00000000E+00
  0.00000000E+00  0.00000000E+00  0.00000000E+00
  0.00000000E+00  0.00000000E+00  0.00000000E+00
  0.00000000E+00  0.00000000E+00  0.00000000E+00
  0.00000000E+00  0.00000000E+00  0.00000000E+00
  0.00000000E+00  0.00000000E+00  0.00000000E+00
  0.00000000E+00  0.00000000E+00  0.00000000E+00
  0.00000000E+00  0.00000000E+00  0.00000000E+00
  0.00000000E+00  0.00000000E+00  0.00000000E+00
  0.00000000E+00  0.00000000E+00  0.00000000E+00
  0.00000000E+00  0.00000000E+00  0.00000000E+00
  0.00000000E+00  0.00000000E+00  0.00000000E+00
  0.00000000E+00  0.00000000E+00  0.00000000E+00
  0.00000000E+00  0.00000000E+00  0.00000000E+00
  0.00000000E+00  0.00000000E+00  0.00000000E+00
  0.00000000E+00  0.00000000E+00  0.00000000E+00
  0.00000000E+00  0.00000000E+00  0.00000000E+00
  0.00000000E+00  0.00000000E+00  0.00000000E+00
  0.00000000E+00  0.00000000E+00  0.00000000E+00
  0.00000000E+00  0.00000000E+00  0.00000000E+00
  0.00000000E+00  0.00000000E+00  0.00000000E+00
  0.00000000E+00  0.00000000E+00  0.00000000E+00
  0.00000000E+00  0.00000000E+00  0.00000000E+00
  0.00000000E+00  0.00000000E+00  0.00000000E+00
  0.00000000E+00  0.00000000E+00  0.00000000E+00
  0.00000000E+00  0.00000000E+00  0.00000000E+00
  0.00000000E+00  0.00000000E+00  0.00000000E+00
