C H O Si                                
   1.00000000000000     
     9.2874599999999994    0.0000000000000000    0.0000000000000000
     0.0000000000000000    8.7562999999999995    0.0000000000000000
     0.0000000000000000    0.0000000000000000   58.0000000000000000
   C    H    O    Si
    36    24    12    36
Selective dynamics
Direct
  0.0010531233365965  0.1359245656222873  0.4342411726422491   T   T   T
  0.0010531233365965  0.6359245656222873  0.4342411726422491   T   T   T
  0.3343864566695983  0.1359245656222873  0.4342411726422491   T   T   T
  0.3343864566695983  0.6359245656222873  0.4342411726422491   T   T   T
  0.6677197900035948  0.1359245656222873  0.4342411726422491   T   T   T
  0.6677197900035948  0.6359245656222873  0.4342411726422491   T   T   T
  0.1679211213741229  0.3820799179161605  0.4596304556431600   T   T   T
  0.1679211213741229  0.8820799179161605  0.4596304556431600   T   T   T
  0.5012544547081195  0.3820799179161605  0.4596304556431600   T   T   T
  0.5012544547081195  0.8820799179161605  0.4596304556431600   T   T   T
  0.8345877880411212  0.3820799179161605  0.4596304556431600   T   T   T
  0.8345877880411212  0.8820799179161605  0.4596304556431600   T   T   T
  0.0012749203626194  0.1317610610238146  0.4868141832613436   T   T   T
  0.0012749203626194  0.6317610610238145  0.4868141832613436   T   T   T
  0.3346082536956211  0.1317610610238146  0.4868141832613436   T   T   T
  0.3346082536956211  0.6317610610238145  0.4868141832613436   T   T   T
  0.6679415870296249  0.1317610610238146  0.4868141832613436   T   T   T
  0.6679415870296249  0.6317610610238145  0.4868141832613436   T   T   T
  0.1679416755606207  0.3817612298328099  0.5131858167386564   T   T   T
  0.1679416755606207  0.8817612298328097  0.5131858167386564   T   T   T
  0.5012750088946244  0.3817612298328099  0.5131858167386564   T   T   T
  0.5012750088946244  0.8817612298328097  0.5131858167386564   T   T   T
  0.8346083422276261  0.3817612298328099  0.5131858167386564   T   T   T
  0.8346083422276261  0.8817612298328097  0.5131858167386564   T   T   T
  0.0012543661761217  0.1320797491071653  0.5403695443568400   T   T   T
  0.0012543661761217  0.6320797491071652  0.5403695443568400   T   T   T
  0.3345876995091163  0.1320797491071653  0.5403695443568400   T   T   T
  0.3345876995091163  0.6320797491071652  0.5403695443568400   T   T   T
  0.6679210328431200  0.1320797491071653  0.5403695443568400   T   T   T
  0.6679210328431200  0.6320797491071652  0.5403695443568400   T   T   T
  0.1677198785346048  0.3859247344312826  0.5657588273577510   T   T   T
  0.1677198785346048  0.8859247344312825  0.5657588273577510   T   T   T
  0.5010532118685943  0.3859247344312826  0.5657588273577510   T   T   T
  0.5010532118685943  0.8859247344312825  0.5657588273577510   T   T   T
  0.8343865452015961  0.3859247344312826  0.5657588273577510   T   T   T
  0.8343865452015961  0.8859247344312825  0.5657588273577510   T   T   T
  0.0035122357687413  0.0627050528730805  0.4188138069488504   T   T   T
  0.0035122357687413  0.5627050528730805  0.4188138069488504   T   T   T
  0.3368455691027449  0.0627050528730805  0.4188138069488504   T   T   T
  0.3368455691027449  0.5627050528730805  0.4188138069488504   T   T   T
  0.6701789024357466  0.0627050528730805  0.4188138069488504   T   T   T
  0.6701789024357466  0.5627050528730805  0.4188138069488504   T   T   T
  0.1701791543127441  0.3127052216820828  0.5811861930511496   T   T   T
  0.1701791543127441  0.8127052216820828  0.5811861930511496   T   T   T
  0.5035124876467406  0.3127052216820828  0.5811861930511496   T   T   T
  0.5035124876467406  0.8127052216820828  0.5811861930511496   T   T   T
  0.8368458209797424  0.3127052216820828  0.5811861930511496   T   T   T
  0.8368458209797424  0.8127052216820828  0.5811861930511496   T   T   T
  0.0887036611070896  0.1159673335357365  0.5984512141772393   T   T   T
  0.0887036611070896  0.6159673335357295  0.5984512141772393   T   T   T
  0.4220369944400914  0.1159673335357365  0.5984512141772393   T   T   T
  0.4220369944400914  0.6159673335357295  0.5984512141772393   T   T   T
  0.7553703277730861  0.1159673335357365  0.5984512141772393   T   T   T
  0.7553703277730861  0.6159673335357295  0.5984512141772393   T   T   T
  0.2553702972210913  0.3659675779727334  0.4015487858227605   T   T   T
  0.2553702972210913  0.8659675779727264  0.4015487858227605   T   T   T
  0.5887036305540860  0.3659675779727334  0.4015487858227605   T   T   T
  0.5887036305540860  0.8659675779727264  0.4015487858227605   T   T   T
  0.9220369638870878  0.3659675779727334  0.4015487858227605   T   T   T
  0.9220369638870878  0.8659675779727264  0.4015487858227605   T   T   T
  0.1598214021486777  0.3418519929297213  0.4075898492742769   T   T   T
  0.1598214021486777  0.8418519929297216  0.4075898492742769   T   T   T
  0.4931547354826742  0.3418519929297213  0.4075898492742769   T   T   T
  0.4931547354826742  0.8418519929297216  0.4075898492742769   T   T   T
  0.8264880688156758  0.3418519929297213  0.4075898492742769   T   T   T
  0.8264880688156758  0.8418519929297216  0.4075898492742769   T   T   T
  0.9931547156156789  0.0918518241207191  0.5924101507257229   T   T   T
  0.9931547156156789  0.5918518241207192  0.5924101507257229   T   T   T
  0.3264880489496755  0.0918518241207191  0.5924101507257229   T   T   T
  0.3264880489496755  0.5918518241207192  0.5924101507257229   T   T   T
  0.6598213822826772  0.0918518241207191  0.5924101507257229   T   T   T
  0.6598213822826772  0.5918518241207192  0.5924101507257229   T   T   T
  0.1675123872817651  0.2531301412111361  0.4337623001210316   T   T   T
  0.1675123872817651  0.7531301412111362  0.4337623001210316   T   T   T
  0.5008457206157615  0.2531301412111361  0.4337623001210316   T   T   T
  0.5008457206157615  0.7531301412111362  0.4337623001210316   T   T   T
  0.8341790539487632  0.2531301412111361  0.4337623001210316   T   T   T
  0.8341790539487632  0.7531301412111362  0.4337623001210316   T   T   T
  0.0012399511181974  0.0060866140960642  0.4603506629889142   T   T   T
  0.0012399511181974  0.5060866140960641  0.4603506629889142   T   T   T
  0.3345732844511990  0.0060866140960642  0.4603506629889142   T   T   T
  0.3345732844511990  0.5060866140960641  0.4603506629889142   T   T   T
  0.6679066177851957  0.0060866140960642  0.4603506629889142   T   T   T
  0.6679066177851957  0.5060866140960641  0.4603506629889142   T   T   T
  0.1679378636971937  0.2564321133170137  0.4865971088634113   T   T   T
  0.1679378636971937  0.7564321133170137  0.4865971088634113   T   T   T
  0.5012711970311903  0.2564321133170137  0.4865971088634113   T   T   T
  0.5012711970311903  0.7564321133170137  0.4865971088634113   T   T   T
  0.8346045303641920  0.2564321133170137  0.4865971088634113   T   T   T
  0.8346045303641920  0.7564321133170137  0.4865971088634113   T   T   T
  0.0012711084991925  0.0064319445070166  0.5134028911365884   T   T   T
  0.0012711084991925  0.5064319445070166  0.5134028911365884   T   T   T
  0.3346044418321942  0.0064319445070166  0.5134028911365884   T   T   T
  0.3346044418321942  0.5064319445070166  0.5134028911365884   T   T   T
  0.6679377751661908  0.0064319445070166  0.5134028911365884   T   T   T
  0.6679377751661908  0.5064319445070166  0.5134028911365884   T   T   T
  0.1679067063161986  0.2560867829060612  0.5396493370110855   T   T   T
  0.1679067063161986  0.7560867829060612  0.5396493370110855   T   T   T
  0.5012400396501951  0.2560867829060612  0.5396493370110855   T   T   T
  0.5012400396501951  0.7560867829060612  0.5396493370110855   T   T   T
  0.8345733729831969  0.2560867829060612  0.5396493370110855   T   T   T
  0.8345733729831969  0.7560867829060612  0.5396493370110855   T   T   T
  0.0008456320837639  0.0031299724011390  0.5662376998789682   T   T   T
  0.0008456320837639  0.5031299724011391  0.5662376998789682   T   T   T
  0.3341789654167657  0.0031299724011390  0.5662376998789682   T   T   T
  0.3341789654167657  0.5031299724011391  0.5662376998789682   T   T   T
  0.6675122987507620  0.0031299724011390  0.5662376998789682   T   T   T
  0.6675122987507620  0.5031299724011391  0.5662376998789682   T   T   T
 
  0.00000000E+00  0.00000000E+00  0.00000000E+00
  0.00000000E+00  0.00000000E+00  0.00000000E+00
  0.00000000E+00  0.00000000E+00  0.00000000E+00
  0.00000000E+00  0.00000000E+00  0.00000000E+00
  0.00000000E+00  0.00000000E+00  0.00000000E+00
  0.00000000E+00  0.00000000E+00  0.00000000E+00
  0.00000000E+00  0.00000000E+00  0.00000000E+00
  0.00000000E+00  0.00000000E+00  0.00000000E+00
  0.00000000E+00  0.00000000E+00  0.00000000E+00
  0.00000000E+00  0.00000000E+00  0.00000000E+00
  0.00000000E+00  0.00000000E+00  0.00000000E+00
  0.00000000E+00  0.00000000E+00  0.00000000E+00
  0.00000000E+00  0.00000000E+00  0.00000000E+00
  0.00000000E+00  0.00000000E+00  0.00000000E+00
  0.00000000E+00  0.00000000E+00  0.00000000E+00
  0.00000000E+00  0.00000000E+00  0.00000000E+00
  0.00000000E+00  0.00000000E+00  0.00000000E+00
  0.00000000E+00  0.00000000E+00  0.00000000E+00
  0.00000000E+00  0.00000000E+00  0.00000000E+00
  0.00000000E+00  0.00000000E+00  0.00000000E+00
  0.00000000E+00  0.00000000E+00  0.00000000E+00
  0.00000000E+00  0.00000000E+00  0.00000000E+00
  0.00000000E+00  0.00000000E+00  0.00000000E+00
  0.00000000E+00  0.00000000E+00  0.00000000E+00
  0.00000000E+00  0.00000000E+00  0.00000000E+00
  0.00000000E+00  0.00000000E+00  0.00000000E+00
  0.00000000E+00  0.00000000E+00  0.00000000E+00
  0.00000000E+00  0.00000000E+00  0.00000000E+00
  0.00000000E+00  0.00000000E+00  0.00000000E+00
  0.00000000E+00  0.00000000E+00  0.00000000E+00
  0.00000000E+00  0.00000000E+00  0.00000000E+00
  0.00000000E+00  0.00000000E+00  0.00000000E+00
  0.00000000E+00  0.00000000E+00  0.00000000E+00
  0.00000000E+00  0.00000000E+00  0.00000000E+00
  0.00000000E+00  0.00000000E+00  0.00000000E+00
  0.00000000E+00  0.00000000E+00  0.00000000E+00
  0.00000000E+00  0.00000000E+00  0.00000000E+00
  0.00000000E+00  0.00000000E+00  0.00000000E+00
  0.00000000E+00  0.00000000E+00  0.00000000E+00
  0.00000000E+00  0.00000000E+00  0.00000000E+00
  0.00000000E+00  0.00000000E+00  0.00000000E+00
  0.00000000E+00  0.00000000E+00  0.00000000E+00
  0.00000000E+00  0.00000000E+00  0.00000000E+00
  0.00000000E+00  0.00000000E+00  0.00000000E+00
  0.00000000E+00  0.00000000E+00  0.00000000E+00
  0.00000000E+00  0.00000000E+00  0.00000000E+00
  0.00000000E+00  0.00000000E+00  0.00000000E+00
  0.00000000E+00  0.00000000E+00  0.00000000E+00
  0.00000000E+00  0.00000000E+00  0.00000000E+00
  0.00000000E+00  0.00000000E+00  0.00000000E+00
  0.00000000E+00  0.00000000E+00  0.00000000E+00
  0.00000000E+00  0.00000000E+00  0.00000000E+00
  0.00000000E+00  0.00000000E+00  0.00000000E+00
  0.00000000E+00  0.00000000E+00  0.00000000E+00
  0.00000000E+00  0.00000000E+00  0.00000000E+00
  0.00000000E+00  0.00000000E+00  0.00000000E+00
  0.00000000E+00  0.00000000E+00  0.00000000E+00
  0.00000000E+00  0.00000000E+00  0.00000000E+00
  0.00000000E+00  0.00000000E+00  0.00000000E+00
  0.00000000E+00  0.00000000E+00  0.00000000E+00
  0.00000000E+00  0.00000000E+00  0.00000000E+00
  0.00000000E+00  0.00000000E+00  0.00000000E+00
  0.00000000E+00  0.00000000E+00  0.00000000E+00
  0.00000000E+00  0.00000000E+00  0.00000000E+00
  0.00000000E+00  0.00000000E+00  0.00000000E+00
  0.00000000E+00  0.00000000E+00  0.00000000E+00
  0.00000000E+00  0.00000000E+00  0.00000000E+00
  0.00000000E+00  0.00000000E+00  0.00000000E+00
  0.00000000E+00  0.00000000E+00  0.00000000E+00
  0.00000000E+00  0.00000000E+00  0.00000000E+00
  0.00000000E+00  0.00000000E+00  0.00000000E+00
  0.00000000E+00  0.00000000E+00  0.00000000E+00
  0.00000000E+00  0.00000000E+00  0.00000000E+00
  0.00000000E+00  0.00000000E+00  0.00000000E+00
  0.00000000E+00  0.00000000E+00  0.00000000E+00
  0.00000000E+00  0.00000000E+00  0.00000000E+00
  0.00000000E+00  0.00000000E+00  0.00000000E+00
  0.00000000E+00  0.00000000E+00  0.00000000E+00
  0.00000000E+00  0.00000000E+00  0.00000000E+00
  0.00000000E+00  0.00000000E+00  0.00000000E+00
  0.00000000E+00  0.00000000E+00  0.00000000E+00
  0.00000000E+00  0.00000000E+00  0.00000000E+00
  0.00000000E+00  0.00000000E+00  0.00000000E+00
  0.00000000E+00  0.00000000E+00  0.00000000E+00
  0.00000000E+00  0.00000000E+00  0.00000000E+00
  0.00000000E+00  0.00000000E+00  0.00000000E+00
  0.00000000E+00  0.00000000E+00  0.00000000E+00
  0.00000000E+00  0.00000000E+00  0.00000000E+00
  0.00000000E+00  0.00000000E+00  0.00000000E+00
  0.00000000E+00  0.00000000E+00  0.00000000E+00
  0.00000000E+00  0.00000000E+00  0.00000000E+00
  0.00000000E+00  0.00000000E+00  0.00000000E+00
  0.00000000E+00  0.00000000E+00  0.00000000E+00
  0.00000000E+00  0.00000000E+00  0.00000000E+00
  0.00000000E+00  0.00000000E+00  0.00000000E+00
  0.00000000E+00  0.00000000E+00  0.00000000E+00
  0.00000000E+00  0.00000000E+00  0.00000000E+00
  0.00000000E+00  0.00000000E+00  0.00000000E+00
  0.00000000E+00  0.00000000E+00  0.00000000E+00
  0.00000000E+00  0.00000000E+00  0.00000000E+00
  0.00000000E+00  0.00000000E+00  0.00000000E+00
  0.00000000E+00  0.00000000E+00  0.00000000E+00
  0.00000000E+00  0.00000000E+00  0.00000000E+00
  0.00000000E+00  0.00000000E+00  0.00000000E+00
  0.00000000E+00  0.00000000E+00  0.00000000E+00
  0.00000000E+00  0.00000000E+00  0.00000000E+00
  0.00000000E+00  0.00000000E+00  0.00000000E+00
  0.00000000E+00  0.00000000E+00  0.00000000E+00
