C H O Si                                
   1.00000000000000     
    18.5749199999999988    0.0000000000000000    0.0000000000000000
     0.0000000000000000   17.5126199999999983    0.0000000000000000
     0.0000000000000000    0.0000000000000000   58.0000000000000000
   C    H    O    Si
   144   105    52   144
Selective dynamics
Direct
  0.4968446153171607  0.0631891548838369  0.0604998884954968   T   T   T
  0.1634861469876826  0.0631660368034273  0.0604591986157275   T   T   T
  0.3301795086556963  0.0631811265186540  0.0604710346681443   T   T   T
  0.4967672313947207  0.3132077850757096  0.0604825547779996   T   T   T
  0.1634179145602036  0.3132403485466806  0.0604643093305990   T   T   T
  0.3301179453289482  0.3132260638779356  0.0604703155353330   T   T   T
  0.0798808763498179  0.1860498129554806  0.1393935371117512   T   T   T
  0.2465096940092384  0.1860670560218194  0.1394273494305339   T   T   T
  0.4131707464228387  0.1860955296014508  0.1394322054469685   T   T   T
  0.0798468039387834  0.4361199920845151  0.1394305890303969   T   T   T
  0.2464987644113127  0.4361224494833915  0.1394394753934444   T   T   T
  0.4131455954104578  0.4361615703528674  0.1394421633282844   T   T   T
  0.1632776827369116  0.0611159878877520  0.1666107362933588   T   T   T
  0.3299109674494597  0.0611411949779428  0.1666247802236193   T   T   T
  0.4964777927676898  0.0610894962790937  0.1666112086649851   T   T   T
  0.1632102874677912  0.3111781752832333  0.1666267388994830   T   T   T
  0.3298895553919480  0.3112181423359632  0.1666311764419701   T   T   T
  0.4964688918256627  0.3113123289006936  0.1666143130174899   T   T   T
  0.0802038986897252  0.1879942407576806  0.1919768201489666   T   T   T
  0.2466434833964057  0.1880906917414632  0.1919944759058650   T   T   T
  0.4130876109925348  0.1880042394246455  0.1919689309380057   T   T   T
  0.0798970554059983  0.4380822505216588  0.1920247553698002   T   T   T
  0.2465512273988803  0.4381077157176743  0.1920006195906929   T   T   T
  0.4131549534827918  0.4382129356004632  0.1920097674415013   T   T   T
  0.0799438359369726  0.1862494507929850  0.0857803954972620   T   T   T
  0.2465802102120398  0.1862586350114437  0.0858190182308279   T   T   T
  0.4132259210892724  0.1862651704790839  0.0858226776260948   T   T   T
  0.0799539225599548  0.4362601891453541  0.0858094232485630   T   T   T
  0.2465896097763588  0.4362678283279395  0.0858304624216946   T   T   T
  0.4132538126203345  0.4362596753791274  0.0858303394501802   T   T   T
  0.1631867863388767  0.0610966815088434  0.1130222956899876   T   T   T
  0.3298645979907224  0.0611152266693800  0.1130372506574642   T   T   T
  0.4965139279126543  0.0611416474439776  0.1130596412615785   T   T   T
  0.1631969162930602  0.3111251727131181  0.1130385478565326   T   T   T
  0.3298857858328452  0.3111362979755016  0.1130473700553720   T   T   T
  0.4965202017430487  0.3111476332430476  0.1130503143570286   T   T   T
  0.4968533100679603  0.5631475348422246  0.0605043775618312   T   T   T
  0.1634789116925113  0.5632112040534477  0.0604830817186441   T   T   T
  0.3302013339462925  0.5631953538978717  0.0604861481889537   T   T   T
  0.4967990569228884  0.8132095090499806  0.0605024533371645   T   T   T
  0.1634256517748554  0.8131596406827992  0.0604540693390534   T   T   T
  0.3301351690112113  0.8131913159712998  0.0604602858998068   T   T   T
  0.0798294373849883  0.6861516888856179  0.1394285728982597   T   T   T
  0.2464826529815639  0.6861060989423453  0.1394470741567987   T   T   T
  0.4131546906950680  0.6861792064460759  0.1394382270195875   T   T   T
  0.0799223487047101  0.9359995603506484  0.1393829567729834   T   T   T
  0.2465277113273980  0.9360561217404366  0.1394131539386772   T   T   T
  0.4131819711792724  0.9360699112540685  0.1394236337388388   T   T   T
  0.1631509001664403  0.5612079740896821  0.1666486820789357   T   T   T
  0.3298650420271919  0.5612426973650275  0.1666499043307796   T   T   T
  0.4964625461345718  0.5613883779318246  0.1666469544018968   T   T   T
  0.1632072061275857  0.8111997850658562  0.1666324234633031   T   T   T
  0.3299170503191728  0.8112195645709919  0.1666247115726533   T   T   T
  0.4965621042060956  0.8113060394817245  0.1666541584723957   T   T   T
  0.0799845315661642  0.6882056725483626  0.1920075198849752   T   T   T
  0.2466187238059907  0.6881912757329430  0.1920219311371685   T   T   T
  0.4132326199427174  0.6882259542782569  0.1920142033818217   T   T   T
  0.0800386843071771  0.9381225255569211  0.1919885410171158   T   T   T
  0.2466448130684688  0.9381020262289718  0.1919916518739541   T   T   T
  0.4132380908421516  0.9381421094263991  0.1920076936453415   T   T   T
  0.0799061946395331  0.6862731621665438  0.0858148442757174   T   T   T
  0.2465955917917370  0.6862471755899580  0.0858269989167889   T   T   T
  0.4132578913463130  0.6862734340469872  0.0858340072733216   T   T   T
  0.0799535156333408  0.9362021245401719  0.0857716356346293   T   T   T
  0.2466008112145090  0.9362202727310850  0.0858020313278384   T   T   T
  0.4132574740229967  0.9362499209331188  0.0858221046211353   T   T   T
  0.1631584819100416  0.5611364928756204  0.1130524769252652   T   T   T
  0.3298595587409366  0.5611462618292890  0.1130561160139810   T   T   T
  0.4965041128063949  0.5611558600441545  0.1130627589034436   T   T   T
  0.1632210317180816  0.8110873702817899  0.1130265104174756   T   T   T
  0.3299007845530466  0.8111122175460620  0.1130343299991911   T   T   T
  0.4965828572114008  0.8111850370269650  0.1130681436975767   T   T   T
  0.9967580446537023  0.0631846316208878  0.0604333867759642   T   T   T
  0.6634879471388160  0.0632377059975952  0.0605676604868109   T   T   T
  0.8301167621776594  0.0632272655926751  0.0605164131966843   T   T   T
  0.9967090671192059  0.3132596276061725  0.0604379882721168   T   T   T
  0.6634183937287287  0.3131776406799454  0.0605689600956942   T   T   T
  0.8301170173214296  0.3132155691041469  0.0605049166478142   T   T   T
  0.5798140129942306  0.1861334694794829  0.1394455518017110   T   T   T
  0.7464912447489783  0.1863900383047210  0.1396631579318723   T   T   T
  0.9132097121004790  0.1860327117705267  0.1393335814652156   T   T   T
  0.5797989916596344  0.4361885956283362  0.1394705247731016   T   T   T
  0.7465039291611320  0.4361092733395299  0.1394944496843001   T   T   T
  0.9132066956528678  0.4361543707520799  0.1394316974986243   T   T   T
  0.6633634179863576  0.0615808812759152  0.1667919770242007   T   T   T
  0.8296406441880012  0.0614222497668272  0.1667179752454950   T   T   T
  0.9967669805203955  0.0609258596220463  0.1665263307622368   T   T   T
  0.6630785924864928  0.3113397685366582  0.1668263114312581   T   T   T
  0.8300569717522791  0.3113648013963472  0.1666789272660505   T   T   T
  0.9966350871718291  0.3112350531558240  0.1665706946566123   T   T   T
  0.5796182388377106  0.1876903511120953  0.1918276350068495   T   T   T
  0.7466311703122182  0.1899680547289026  0.1927709514985736   T   T   T
  0.9136586473245724  0.1869149444598007  0.1915565968172989   T   T   T
  0.5797924376462679  0.4385751560386812  0.1920141163091789   T   T   T
  0.7465312788812314  0.4380823141695118  0.1920474192062643   T   T   T
  0.9133304336872736  0.4385004578275273  0.1919590770220412   T   T   T
  0.5799102234045242  0.1862953357285061  0.0858509102479076   T   T   T
  0.7465788541383950  0.1863254528032566  0.0859582254005281   T   T   T
  0.9132304897223537  0.1862603629095599  0.0857649998059773   T   T   T
  0.5799412237652944  0.4362552176001295  0.0858604590269430   T   T   T
  0.7465905373257822  0.4362471809345563  0.0858772705816777   T   T   T
  0.9132449209816244  0.4362651880497423  0.0858293482817313   T   T   T
  0.6631949683656050  0.0612292276605311  0.1131306313231841   T   T   T
  0.8298008079164618  0.0611903554966984  0.1130857557138426   T   T   T
  0.9965296816400894  0.0610594124729680  0.1129943321792602   T   T   T
  0.6631790215763580  0.3111523716350366  0.1131603710938899   T   T   T
  0.8299117537652185  0.3111501392244290  0.1130924904622361   T   T   T
  0.9965659416921606  0.3111317020955799  0.1130069780682328   T   T   T
  0.9967725079141796  0.5631930293450162  0.0604780917204757   T   T   T
  0.6634662708240546  0.5631659805055067  0.0605153478079974   T   T   T
  0.8301709921790822  0.5631806692621270  0.0605026308390703   T   T   T
  0.9966762451052941  0.8131929871438071  0.0604639559804145   T   T   T
  0.6633952450919857  0.8132323634579451  0.0605209231927123   T   T   T
  0.8300791987271636  0.8132257983556244  0.0604924937505352   T   T   T
  0.5798297755635768  0.6861664975384560  0.1394591884025158   T   T   T
  0.7464832145108390  0.6861830320671736  0.1394650481495412   T   T   T
  0.9131359988761270  0.6861496734646159  0.1394455452620372   T   T   T
  0.5799472000311023  0.9362571822598104  0.1394976508019065   T   T   T
  0.7464675284593192  0.9361656347522941  0.1394799198691236   T   T   T
  0.9130796629120270  0.9361974995096681  0.1394475757404241   T   T   T
  0.6631930128614262  0.5613050761838345  0.1666442460223995   T   T   T
  0.8298123284653924  0.5612590702727341  0.1666501221477010   T   T   T
  0.9965875551072712  0.5613502523687881  0.1666205518556202   T   T   T
  0.6631891805478147  0.8112591612951749  0.1666742501415571   T   T   T
  0.8298864764456277  0.8112709874769183  0.1666430826309643   T   T   T
  0.9965464922534629  0.8112872453356814  0.1666247743886043   T   T   T
  0.5799812221651209  0.6881998132518585  0.1920273087437796   T   T   T
  0.7466381433741393  0.6882507950781912  0.1920399166046937   T   T   T
  0.9132534203241077  0.6882115336941576  0.1920060887165720   T   T   T
  0.5799971685613918  0.9382608568322883  0.1920551452446140   T   T   T
  0.7466273960751312  0.9381912947318550  0.1920601320204840   T   T   T
  0.9132871329582009  0.9382186775104537  0.1919967460860658   T   T   T
  0.5799365555626691  0.6862660283007327  0.0858492824141592   T   T   T
  0.7465594043678018  0.6862664847461931  0.0858545638670079   T   T   T
  0.9131936926526034  0.6862706052332466  0.0858354252079878   T   T   T
  0.5799619763557086  0.9363061058195601  0.0858672389837194   T   T   T
  0.7465718646047227  0.9362933893404226  0.0858684092182240   T   T   T
  0.9131910664133004  0.9362807493429388  0.0858236125997945   T   T   T
  0.6631798996644191  0.5611332416184175  0.1130770062401003   T   T   T
  0.8298420779326039  0.5611305701074181  0.1130742735311653   T   T   T
  0.9965255782974397  0.5611532082537415  0.1130465134654101   T   T   T
  0.6632032846015300  0.8111547342306893  0.1130754528285677   T   T   T
  0.8298371859692331  0.8111638809433206  0.1130610023901479   T   T   T
  0.9965090294880522  0.8111519844368124  0.1130418818309778   T   T   T
  0.0364675541780625  0.1776595074603277  0.0276224720320095   T   T   T
  0.2029123376624575  0.1776268712880749  0.0276931978335918   T   T   T
  0.3696195493903133  0.1775796200986078  0.0276919108646576   T   T   T
  0.0362628272946652  0.4276846165462631  0.0276511380809917   T   T   T
  0.2026670755652551  0.4275832352613113  0.0276975128690882   T   T   T
  0.3693239847461729  0.4275467104114333  0.0277043611525616   T   T   T
  0.1622338127514482  0.0264663885413444  0.0450478280539696   T   T   T
  0.3288279416578701  0.0264771007935596  0.0450622548200888   T   T   T
  0.4955728635160395  0.0265060806491688  0.0450853058552098   T   T   T
  0.1621139435550807  0.2765158067231788  0.0450580116541478   T   T   T
  0.3287325859678973  0.2764908071656962  0.0450669104311059   T   T   T
  0.4954696044275436  0.2764965466870150  0.0450734499248472   T   T   T
  0.4144387017461394  0.4014735509816599  0.2074114077987509   T   T   T
  0.4143212165843524  0.1513423469372558  0.2073894046661917   T   T   T
  0.0811006825492538  0.1512721079945835  0.2073803741804109   T   T   T
  0.2477799081328350  0.1513940656015904  0.2074093138581218   T   T   T
  0.0810759111562107  0.4013084254008806  0.2074299792101115   T   T   T
  0.2476850211509065  0.4013900602100647  0.2074087250147927   T   T   T
  0.0411838713275618  0.0523239653247133  0.2247254715618879   T   T   T
  0.2077462605591139  0.0523813260427925  0.2247616817271559   T   T   T
  0.3744562475977279  0.0524207033768956  0.2247423622029898   T   T   T
  0.0359459412519770  0.3028577189521586  0.2254850203564073   T   T   T
  0.2077002750805327  0.3024174028821337  0.2247753609598796   T   T   T
  0.3746998574442380  0.3023379002408108  0.2247062234414489   T   T   T
  0.0363547430751085  0.6776594284208403  0.0276828076134684   T   T   T
  0.2029867962873863  0.6776073294078607  0.0276938687277489   T   T   T
  0.3696692552030238  0.6775839623357206  0.0277011456463315   T   T   T
  0.0361164011217184  0.9275694304125185  0.0276527337949430   T   T   T
  0.2026701719666488  0.9275133468947500  0.0276770175141540   T   T   T
  0.3694539194469568  0.9275433212506665  0.0276861489297666   T   T   T
  0.1621788991055273  0.5264788252461976  0.0450782511825480   T   T   T
  0.3288560441595452  0.5264725510067609  0.0450806556185189   T   T   T
  0.4955379570158256  0.5264667425163858  0.0450884247707401   T   T   T
  0.1621383850918204  0.7764085377720877  0.0450557754117914   T   T   T
  0.3287843396648593  0.7764516845955592  0.0450601532263747   T   T   T
  0.4955389835550930  0.7765001793287147  0.0450927170183333   T   T   T
  0.4143513186933637  0.9013875288304423  0.2074074238225787   T   T   T
  0.4143704508193648  0.6514594708832055  0.2074149204522961   T   T   T
  0.0810824765651863  0.6514731176927293  0.2074137447568351   T   T   T
  0.2477623551494438  0.6515112265945977  0.2074399115317315   T   T   T
  0.0810976184227196  0.9013504454856480  0.2073862088632333   T   T   T
  0.2477720268404734  0.9013651578025301  0.2073974001463040   T   T   T
  0.0408307674718214  0.5531396584750949  0.2247469559185595   T   T   T
  0.2076106848446204  0.5529643951134329  0.2247073492874341   T   T   T
  0.3741574269071966  0.5528620633123391  0.2247347329573734   T   T   T
  0.0409616137842586  0.8025874308429587  0.2247714171863242   T   T   T
  0.2073941990098934  0.8027605552286569  0.2248087617391512   T   T   T
  0.3746164020221194  0.8024249300001973  0.2247166834720526   T   T   T
  0.5366001988010559  0.1776480063980901  0.0276776042243141   T   T   T
  0.7027452586875219  0.1776587475845751  0.0278284470793196   T   T   T
  0.8693361562331784  0.1775951767841740  0.0276635096043099   T   T   T
  0.5364402355362113  0.4276112680002671  0.0276893399557236   T   T   T
  0.7025704827359081  0.4274809833136450  0.0277590774774871   T   T   T
  0.8690760277437205  0.4275613464639709  0.0277068964656242   T   T   T
  0.6622686083197248  0.0265292229334807  0.0451578926644138   T   T   T
  0.8285796720612022  0.0265173640082424  0.0451114565439421   T   T   T
  0.9954484539108527  0.0264944805832667  0.0450208643492504   T   T   T
  0.6620542896329150  0.2763756798326367  0.0451801098141504   T   T   T
  0.8287089534522792  0.2764423828643764  0.0451114109297689   T   T   T
  0.9953617049454356  0.2765704503626804  0.0450250723188522   T   T   T
  0.9141340141441533  0.4020917983908051  0.2074111819764650   T   T   T
  0.9149784429854014  0.1504868999201752  0.2070253737083713   T   T   T
  0.5806243453494716  0.1511458316198424  0.2072782616995416   T   T   T
  0.7480845270712997  0.1526880774686381  0.2080569616532585   T   T   T
  0.5806593037263234  0.4017878174306417  0.2073937058190327   T   T   T
  0.7467983548833360  0.4014338699639814  0.2074770820588772   T   T   T
  0.5407158563945847  0.0526789225843412  0.2248150223568672   T   T   T
  0.7078591501357679  0.0520288558076292  0.2249168940797771   T   T   T
  0.8745799548007722  0.0521883357704582  0.2248210318918862   T   T   T
  0.5432481251929026  0.3010099315931403  0.2238870027600596   T   T   T
  0.6893470425677944  0.3103193228118908  0.2283736601952247   T   T   T
  0.8910457217684602  0.2953792695166516  0.2228047261554190   T   T   T
  0.7736239629236381  0.3061263235626103  0.2736581466144375   T   T   T
  0.7464938607390870  0.2381414029516712  0.2931742077135231   T   T   T
  0.7860600261446580  0.3197158436309737  0.3029031988333522   T   T   T
  0.6572487356885959  0.1945100770519960  0.3098095956424776   T   T   T
  0.7106962542558172  0.1300464772939901  0.3022949354954903   T   T   T
  0.8252427606055139  0.3663139183135845  0.3335919636168410   T   T   T
  0.7422740420990478  0.3771417597794564  0.3308872401471068   T   T   T
  0.7595471004852153  0.3957267424418556  0.2520007561178716   T   T   T
  0.7933569300953058  0.3232753273645904  0.2385164115750497   T   T   T
  0.5364423371398683  0.6776565190001870  0.0276961724744229   T   T   T
  0.7028967085610005  0.6776107788691346  0.0277320266765200   T   T   T
  0.8694087842754493  0.6776106710998826  0.0277184465632637   T   T   T
  0.5362152437177632  0.9276240997583208  0.0277095765912814   T   T   T
  0.7025841663480940  0.9275527888838732  0.0277399183096285   T   T   T
  0.8691761163681911  0.9276247012873906  0.0277091449698490   T   T   T
  0.6621416079610313  0.5264658456594420  0.0451055395185537   T   T   T
  0.8288121177246928  0.5264612809795124  0.0450976670364525   T   T   T
  0.9954281074103734  0.5264861202836190  0.0450680527658339   T   T   T
  0.6620442247251622  0.7765203711315386  0.0451140281107210   T   T   T
  0.8286692111048958  0.7764876076518161  0.0450910335428559   T   T   T
  0.9952616876572361  0.7764370770588876  0.0450651996813383   T   T   T
  0.9144554784357912  0.9014759608492040  0.2074023984234308   T   T   T
  0.9144525380179814  0.6515061936804704  0.2074202873853850   T   T   T
  0.5810678655065442  0.6514712794323132  0.2074359836719576   T   T   T
  0.7478514864854395  0.6516101841151153  0.2074614558563621   T   T   T
  0.5810556231875953  0.9015058725482377  0.2074566619264549   T   T   T
  0.7478441869419338  0.9014364551483702  0.2074598359193340   T   T   T
  0.5404148792783192  0.5532575793614520  0.2247723510987380   T   T   T
  0.7076730591188873  0.5540769253203370  0.2245488377638604   T   T   T
  0.8741534279758003  0.5533386858163456  0.2246990694769347   T   T   T
  0.5410026971866034  0.8025576491203831  0.2247845990769427   T   T   T
  0.7073655368926827  0.8028196312673946  0.2248348512091115   T   T   T
  0.8747071773454723  0.8023916678476547  0.2247209592209346   T   T   T
  0.0841479790651770  0.1656131397688593  0.0337408539444211   T   T   T
  0.2506989038786308  0.1657888553916611  0.0337753747375601   T   T   T
  0.4173863204957494  0.1657066768241564  0.0337819530125814   T   T   T
  0.0839822875026625  0.4157852802501601  0.0337657526175201   T   T   T
  0.2504933527887999  0.4159263644956691  0.0337782708757999   T   T   T
  0.4171448568591133  0.4158763273943039  0.0337859385401869   T   T   T
  0.1598677668306634  0.0410016475088949  0.2186739517691711   T   T   T
  0.3265326891312274  0.0410299004696955  0.2186843180642266   T   T   T
  0.4929322320386038  0.0410265481684371  0.2187019071118908   T   T   T
  0.1598355288624122  0.2909945724262218  0.2186884818702877   T   T   T
  0.3267127149868015  0.2910574209105082  0.2186676422890581   T   T   T
  0.4938741977936578  0.2911284097462006  0.2185477771986976   T   T   T
  0.0840831416767463  0.6656897316440415  0.0337815192201212   T   T   T
  0.2507596785213955  0.6657429825598418  0.0337820477240114   T   T   T
  0.4174387448910449  0.6657264956170785  0.0337964984968548   T   T   T
  0.0838706206880331  0.9155654975899602  0.0337241809891374   T   T   T
  0.2504962953835981  0.9157766714853121  0.0337478621126308   T   T   T
  0.4172458219531880  0.9157787031874415  0.0337748565803628   T   T   T
  0.1597509629852906  0.5409904931572088  0.2187045108469497   T   T   T
  0.3262905886989770  0.5410234577651019  0.2187049917932052   T   T   T
  0.4926570615767285  0.5410626952669118  0.2187396756834593   T   T   T
  0.1596215732329770  0.7909950580417151  0.2187086478479894   T   T   T
  0.3266324260326523  0.7911973684510668  0.2186740560356250   T   T   T
  0.4931226763900621  0.7909928224011132  0.2187186212119984   T   T   T
  0.5842796876097429  0.1656513381122188  0.0338068909603550   T   T   T
  0.7505802853198411  0.1660896575209578  0.0339219016082114   T   T   T
  0.9171258397171425  0.1655207366963364  0.0336948833803613   T   T   T
  0.5841553249647837  0.4157242452478706  0.0338156093548031   T   T   T
  0.7504263284569270  0.4158026651394463  0.0338194694795551   T   T   T
  0.9169372069742914  0.4159429446274023  0.0337703811150502   T   T   T
  0.6599331476312976  0.0410316679561036  0.2188022999011985   T   T   T
  0.8266342930978902  0.0410520773854581  0.2187362317997941   T   T   T
  0.9932889220397427  0.0412302650324201  0.2185956417739126   T   T   T
  0.6497038169715202  0.2911213626845258  0.2188130726294183   T   T   T
  0.8394762195701055  0.2914459522734120  0.2187001117974711   T   T   T
  0.9899227263441868  0.2889159046472390  0.2185425004004708   T   T   T
  0.7853043185008742  0.2798062998014951  0.2895674648183656   T   T   T
  0.6904474774684501  0.1790846808609421  0.2976269442428959   T   T   T
  0.7875283216528619  0.3771413422177719  0.3223412356100747   T   T   T
  0.7573633133776683  0.3401569504823007  0.2509428410260525   T   T   T
  0.5841674641952554  0.6657167202231274  0.0338068988642658   T   T   T
  0.7506883259606563  0.6657347964696061  0.0338036599645205   T   T   T
  0.9172213001387036  0.6658094715598518  0.0337872859024794   T   T   T
  0.5839752303838733  0.9158418273218462  0.0338207387708887   T   T   T
  0.7504257595459286  0.9158785472577186  0.0338101737754695   T   T   T
  0.9170068496003495  0.9159063734757315  0.0337771807422612   T   T   T
  0.6598350757341223  0.5411406740910704  0.2187073049927593   T   T   T
  0.8263457124028524  0.5410639714463287  0.2187057204801623   T   T   T
  0.9930486447305650  0.5411237852508907  0.2186915258268017   T   T   T
  0.6595941319223763  0.7909739591622952  0.2187480056378348   T   T   T
  0.8267001399905585  0.7912102010841162  0.2186828410818913   T   T   T
  0.9931081797768212  0.7910312230622555  0.2186914172653005   T   T   T
  0.2469259997404769  0.1216958187963213  0.0599658464806014   T   T   T
  0.4135934940189143  0.1216852853046898  0.0599806760205663   T   T   T
  0.0801780089832997  0.3717189534030771  0.0599602695715454   T   T   T
  0.2468603918215016  0.3717563230415293  0.0599623071491883   T   T   T
  0.4135302793180228  0.3717441639675897  0.0599716387116939   T   T   T
  0.0802324112334892  0.1216315251599002  0.0599445394074785   T   T   T
  0.4964755376323677  0.4985399784585907  0.1396700048798644   T   T   T
  0.1631846257265556  0.4984942695234653  0.1396535141170719   T   T   T
  0.3298014610393882  0.4985019145369481  0.1396581297113064   T   T   T
  0.4965076670527545  0.2485119246408601  0.1396513507527592   T   T   T
  0.1632142724575263  0.2484468671912427  0.1396322173102657   T   T   T
  0.3298170942495492  0.2484565860072688  0.1396464677499224   T   T   T
  0.0800132193429458  0.1230643852106326  0.1658276117742032   T   T   T
  0.2465970942170913  0.1231959567265313  0.1658897707223402   T   T   T
  0.4132054296224453  0.1231685021646831  0.1658886426453188   T   T   T
  0.0799814919101413  0.3732779064694161  0.1658924180392295   T   T   T
  0.2465511746629752  0.3732293342159457  0.1658954169682102   T   T   T
  0.4131839463854803  0.3733004509167671  0.1659131399311579   T   T   T
  0.1631592090146955  0.4967049072512224  0.1925165209552715   T   T   T
  0.3297675106648173  0.4967408976521404  0.1925138102876924   T   T   T
  0.4963263913669206  0.4969299663794399  0.1925165596582145   T   T   T
  0.1633227005257051  0.2467873914454119  0.1925130932102443   T   T   T
  0.4962816054921164  0.2466079187446455  0.1924488665110406   T   T   T
  0.3298584183583735  0.2467103628754342  0.1924884035402346   T   T   T
  0.4965996020750584  0.4982789419298263  0.0865907321403320   T   T   T
  0.1632663503322367  0.4983153346748286  0.0865721767957955   T   T   T
  0.3299525727264986  0.4983007022386444  0.0865794034663414   T   T   T
  0.4965589292640473  0.2483083678769259  0.0865751348079780   T   T   T
  0.1632457945112707  0.2483021778260171  0.0865531812997033   T   T   T
  0.3299240428608171  0.2483120304413281  0.0865653251997067   T   T   T
  0.0798745713224532  0.1234461437839197  0.1127618387927254   T   T   T
  0.2465361014004906  0.1234688577142584  0.1128155193055397   T   T   T
  0.4131963596418971  0.1235109996816748  0.1128148105710666   T   T   T
  0.0799045854379655  0.3735154513398936  0.1127991417824564   T   T   T
  0.2465566584026728  0.3734965459439810  0.1128296631335210   T   T   T
  0.4132172075279951  0.3735242771675173  0.1128260823612212   T   T   T
  0.2469404820068671  0.6216777598805208  0.0599766096602224   T   T   T
  0.4136247844819970  0.6216785429220989  0.0599927467103525   T   T   T
  0.0801641137627456  0.8716052667475711  0.0599327589483746   T   T   T
  0.2468655570783177  0.8716864195139373  0.0599419612620081   T   T   T
  0.4135526236775899  0.8717030172325543  0.0599711634765288   T   T   T
  0.0802165724847646  0.6216690420025346  0.0599784833769713   T   T   T
  0.4965080199666985  0.9984281047753891  0.1396526539619413   T   T   T
  0.1632203177786202  0.9984060766101117  0.1396154821266768   T   T   T
  0.3298262752942945  0.9984319960186989  0.1396375191079040   T   T   T
  0.4965194313743861  0.7485249491290970  0.1396645616654823   T   T   T
  0.1631753692086356  0.7484823989126735  0.1396426830176219   T   T   T
  0.3297977412697205  0.7484884824895524  0.1396416927568391   T   T   T
  0.0798973333535802  0.6233329749277003  0.1659004389002643   T   T   T
  0.2465201300490884  0.6232480753652085  0.1659155048304065   T   T   T
  0.4131590609894467  0.6233490324228133  0.1659078846038828   T   T   T
  0.0799120622298684  0.8732406173304332  0.1658782691972192   T   T   T
  0.2465634278576612  0.8732209234111176  0.1658888949074817   T   T   T
  0.4132187257670654  0.8732726982339628  0.1659058768454105   T   T   T
  0.1632498187798444  0.9966900528046393  0.1924904935007104   T   T   T
  0.3298696785176520  0.9967226450240542  0.1924985691763363   T   T   T
  0.4964861736708888  0.9967412159144243  0.1925111966251649   T   T   T
  0.1631978714223457  0.7467718247983548  0.1925127589987286   T   T   T
  0.4965248494380118  0.7467746663794212  0.1925197882463890   T   T   T
  0.3298613256072690  0.7468141628233954  0.1925078420817547   T   T   T
  0.4966001291033046  0.9983050867380963  0.0865837732117126   T   T   T
  0.1632667313465427  0.9982552908312120  0.0865415955805167   T   T   T
  0.3299456866875179  0.9982851812732780  0.0865602763219749   T   T   T
  0.4966047767035970  0.7483056690432741  0.0865897861173513   T   T   T
  0.1632551304955104  0.7482752415278856  0.0865528065557324   T   T   T
  0.3299326144462781  0.7482979475802509  0.0865606757368894   T   T   T
  0.0798521071646790  0.6235358565133080  0.1128119655228208   T   T   T
  0.2465290227104850  0.6234994710318970  0.1128332347748054   T   T   T
  0.4131958396412375  0.6235361463343949  0.1128271416863937   T   T   T
  0.0799056390251770  0.8734264849136442  0.1127714882765827   T   T   T
  0.2465693618426062  0.8734537474247407  0.1128057815618861   T   T   T
  0.4132294709678198  0.8734864401791477  0.1128117631641992   T   T   T
  0.7468917076427768  0.1217788620964220  0.0600834704490441   T   T   T
  0.9135135426476704  0.1217021241581954  0.0599209224858604   T   T   T
  0.5802090080644214  0.3716913435351920  0.0600149208288595   T   T   T
  0.7468432132320506  0.3716940307620940  0.0600180408273503   T   T   T
  0.9134731264582178  0.3718013014215701  0.0599585662921586   T   T   T
  0.5802602873453324  0.1217047290311866  0.0600159705060632   T   T   T
  0.9965207576359646  0.4985280662673909  0.1396417431913787   T   T   T
  0.6631247993800332  0.4984943490009261  0.1396749406556667   T   T   T
  0.8298346521464239  0.4984849653783552  0.1396719618246090   T   T   T
  0.9965178210748670  0.2483838785196391  0.1395562677760493   T   T   T
  0.6630248813331538  0.2485788508066883  0.1397941419412704   T   T   T
  0.8299555348600660  0.2484652451875668  0.1396635767766351   T   T   T
  0.5797447207034658  0.1231421739750389  0.1658715921944487   T   T   T
  0.7465088241117110  0.1240800304119957  0.1662744970774922   T   T   T
  0.9133663931000220  0.1225517036749074  0.1656236039728432   T   T   T
  0.5797230432226391  0.3734567487719861  0.1659507856151297   T   T   T
  0.7464521169937830  0.3732112848147061  0.1659522892325299   T   T   T
  0.9133764430989628  0.3734735893118078  0.1658854920546262   T   T   T
  0.6630569129941875  0.4969425041824385  0.1925072562065933   T   T   T
  0.8298519934524992  0.4968543031808323  0.1925080686816064   T   T   T
  0.9965966197154128  0.4969287332352634  0.1924914004966356   T   T   T
  0.6620087971946631  0.2475160010910030  0.1929043656676477   T   T   T
  0.9966336996998089  0.2457705355848025  0.1921284632425340   T   T   T
  0.8311913378626707  0.2465001541921641  0.1923132852401673   T   T   T
  0.9966138350326007  0.4983043159210657  0.0865682055517218   T   T   T
  0.6632882787041919  0.4982924105771075  0.0866050583488475   T   T   T
  0.8299199235752498  0.4982999056817665  0.0865949525745944   T   T   T
  0.9965969003398573  0.2482981179453986  0.0865177216138154   T   T   T
  0.6632650169893585  0.2483217282674809  0.0866685316002315   T   T   T
  0.8299204129862756  0.2483312655204861  0.0866021096982054   T   T   T
  0.5798446000484432  0.1235624237315243  0.1128501678741893   T   T   T
  0.7464980851577303  0.1236331875812623  0.1129666238330035   T   T   T
  0.9132091172002051  0.1234408227651844  0.1127451955051565   T   T   T