C H O Si                                
   1.00000000000000     
    18.5749199999999988    0.0000000000000000    0.0000000000000000
     0.0000000000000000   17.5126199999999983    0.0000000000000000
     0.0000000000000000    0.0000000000000000   58.0000000000000000
   C    H    O    Si
   144   105    52   144
Selective dynamics
Direct
  0.4967824048620055  0.0632009394251583  0.0605099358311722   T   T   T
  0.1634419044589118  0.0631520399780468  0.0604725117487615   T   T   T
  0.3300791221238901  0.0631683641590627  0.0604860464182330   T   T   T
  0.4967918960127058  0.3132085506066787  0.0604935052944037   T   T   T
  0.1634446190917425  0.3131876019860766  0.0604800455623510   T   T   T
  0.3300875196587524  0.3132026028647649  0.0604895911515678   T   T   T
  0.0798842386826147  0.1860687944431731  0.1393926735903585   T   T   T
  0.2465127609318515  0.1861169382862522  0.1394235689205102   T   T   T
  0.4131416617640221  0.1861578916170566  0.1394319991508862   T   T   T
  0.0798352847810052  0.4361933637149624  0.1394223223686461   T   T   T
  0.2464920750197084  0.4362063947806325  0.1394281782222760   T   T   T
  0.4131384170751817  0.4362157549809268  0.1394350461996220   T   T   T
  0.1632021957463634  0.0611273506398887  0.1666197666235461   T   T   T
  0.3298084328266890  0.0611592041742330  0.1666298048145018   T   T   T
  0.4964382683208305  0.0610704626034451  0.1666231882096616   T   T   T
  0.1631676314730441  0.3111777554890477  0.1666316336816405   T   T   T
  0.3297947120776567  0.3112134026585243  0.1666372263127857   T   T   T
  0.4964145907279821  0.3112664646622827  0.1666293415440776   T   T   T
  0.0801288190579053  0.1879734338169924  0.1919817483460227   T   T   T
  0.2466310663212316  0.1880744123831146  0.1920009304758232   T   T   T
  0.4131619796511269  0.1879839935456263  0.1919722773772283   T   T   T
  0.0798419470782992  0.4380498775436104  0.1920210042576400   T   T   T
  0.2465298835070475  0.4380761894941937  0.1920013426886984   T   T   T
  0.4131691350806008  0.4381154987219144  0.1920086744525936   T   T   T
  0.0798848548578659  0.1862312398889934  0.0857987431633732   T   T   T
  0.2465527434997545  0.1862297701755076  0.0858328192521186   T   T   T
  0.4132174159945449  0.1862366557119257  0.0858360348263068   T   T   T
  0.0799123981076952  0.4362828240443066  0.0858258814014392   T   T   T
  0.2465872802688657  0.4362629208610104  0.0858346517152639   T   T   T
  0.4132502717295098  0.4362575801262315  0.0858389748103831   T   T   T
  0.1631485465185840  0.0610729953439146  0.1130084676637280   T   T   T
  0.3298259818670248  0.0611128228227686  0.1130309380791180   T   T   T
  0.4964892059859629  0.0611444058888373  0.1130541869577294   T   T   T
  0.1632215966374584  0.3111269285405625  0.1130352668454048   T   T   T
  0.3298799340876529  0.3111167123951308  0.1130446464756436   T   T   T
  0.4965136468363817  0.3111300134835144  0.1130516007922777   T   T   T
  0.4967925279107583  0.5631836120097585  0.0605098875413433   T   T   T
  0.1634510623144513  0.5631728461407068  0.0604955472517961   T   T   T
  0.3301043529205628  0.5631755500669670  0.0605035208970462   T   T   T
  0.4968016554262470  0.8132022730188240  0.0605147972724997   T   T   T
  0.1634549195072739  0.8131289338912988  0.0604740897641588   T   T   T
  0.3301150906695458  0.8131711836265394  0.0604772448526034   T   T   T
  0.0798027260509108  0.6862109485775938  0.1394262278280652   T   T   T
  0.2464604010954644  0.6861667912625772  0.1394352324593501   T   T   T
  0.4131155032789448  0.6862330479784478  0.1394327457675100   T   T   T
  0.0799392168583325  0.9360459989691409  0.1393694852869331   T   T   T
  0.2465539775804425  0.9361213828653541  0.1394023049696116   T   T   T
  0.4131721411973032  0.9361511195893333  0.1394137327999874   T   T   T
  0.1630879161009184  0.5612445120134155  0.1666591266277652   T   T   T
  0.3297688321019557  0.5612761607537186  0.1666606491872389   T   T   T
  0.4963667178277575  0.5614352315438844  0.1666517731727832   T   T   T
  0.1631479414430778  0.8112191703049390  0.1666381219584861   T   T   T
  0.3298067853680191  0.8112235632786502  0.1666325853682838   T   T   T
  0.4965037397351798  0.8113022636648535  0.1666690574146738   T   T   T
  0.0799192214600375  0.6881204806073563  0.1920044871229629   T   T   T
  0.2465821948090983  0.6881404096244023  0.1920286056126441   T   T   T
  0.4132565764955629  0.6881254614662884  0.1920090900792347   T   T   T
  0.0799485172219021  0.9380550124233693  0.1919816375425114   T   T   T
  0.2466082459555214  0.9380737752315749  0.1919893737056546   T   T   T
  0.4132473431247067  0.9380686301774870  0.1920017606683871   T   T   T
  0.0798843565684302  0.6862499353599253  0.0858305716556871   T   T   T
  0.2465738448996808  0.6862115960760875  0.0858374451002445   T   T   T
  0.4132450926508377  0.6862399149937348  0.0858403214591358   T   T   T
  0.0799201067307947  0.9361920995238022  0.0857920938527994   T   T   T
  0.2465984092476863  0.9362211474720952  0.0858185870463240   T   T   T
  0.4132668495468871  0.9362487923006945  0.0858315288372141   T   T   T
  0.1631497119479201  0.5611466759987409  0.1130461720629179   T   T   T
  0.3298316257860873  0.5611450352169537  0.1130490635866064   T   T   T
  0.4964829713133330  0.5611537021572667  0.1130593511497372   T   T   T
  0.1632391957320823  0.8110792993319905  0.1130257454556277   T   T   T
  0.3298933643272081  0.8111068235285688  0.1130337146760273   T   T   T
  0.4965829625393678  0.8111729162138223  0.1130633869869308   T   T   T
  0.9967243969223754  0.0631808026059611  0.0604527442008804   T   T   T
  0.6634472945827338  0.0632379310183358  0.0605677951156173   T   T   T
  0.8300498820877285  0.0632381667608301  0.0605199561950389   T   T   T
  0.9967202899207810  0.3132401762066850  0.0604609175041377   T   T   T
  0.6634413239568822  0.3131729001990523  0.0605733952336547   T   T   T
  0.8301003574744081  0.3132119971396648  0.0605173331250080   T   T   T
  0.5797924463962008  0.1861691840693894  0.1394345897027846   T   T   T
  0.7464721477629918  0.1863415413752318  0.1396382707418595   T   T   T
  0.9132328668335736  0.1860065508446873  0.1393410329399503   T   T   T
  0.5797928874108190  0.4362466598918989  0.1394506073821455   T   T   T
  0.7465038817045512  0.4361238600031440  0.1394787085771357   T   T   T
  0.9131959019595411  0.4362270735196231  0.1394187326988559   T   T   T
  0.6633547298801905  0.0616173766592426  0.1668122080104493   T   T   T
  0.8295963512043183  0.0615024232908898  0.1667377314972623   T   T   T
  0.9966831580254057  0.0608427408073052  0.1665182541139781   T   T   T
  0.6629964265984855  0.3113801429599389  0.1668348620141636   T   T   T
  0.8299701110063955  0.3113378366899162  0.1666997821569380   T   T   T
  0.9965439920432305  0.3111913711709101  0.1665649565692122   T   T   T
  0.5796146328458016  0.1876599016450714  0.1918331812114163   T   T   T
  0.7466263544991255  0.1900011523234459  0.1927870009412579   T   T   T
  0.9136530583545075  0.1870000558239602  0.1915880503902540   T   T   T
  0.5796845547063214  0.4385455807528812  0.1920171286416427   T   T   T
  0.7465003586464485  0.4380666739854013  0.1920410312508726   T   T   T
  0.9133081267685603  0.4384227455928949  0.1919591353032098   T   T   T
  0.5798965509387422  0.1862754641774524  0.0858576121547657   T   T   T
  0.7465524555020091  0.1863391204925046  0.0859641548404802   T   T   T
  0.9131956099538144  0.1862505523555719  0.0857884805750843   T   T   T
  0.5799283686507776  0.4362598877720478  0.0858639354802365   T   T   T
  0.7465974651811700  0.4362602919174097  0.0858741301499863   T   T   T
  0.9132463072342203  0.4362662234464458  0.0858327534330077   T   T   T
  0.6631670260064501  0.0612249626311430  0.1131150109850209   T   T   T
  0.8297605614198338  0.0611973443282577  0.1130810210214053   T   T   T
  0.9964982407775279  0.0610575831221387  0.1129797030015130   T   T   T
  0.6631755527107173  0.3111550784663841  0.1131453153079206   T   T   T
  0.8298838702543958  0.3111487602267690  0.1130894532635799   T   T   T
  0.9965989379777123  0.3111155863196287  0.1130018911268987   T   T   T
  0.9967485313453356  0.5631904593564142  0.0604881584025720   T   T   T
  0.6634309433776669  0.5631735850805981  0.0605162682078423   T   T   T
  0.8301005383094633  0.5631857776732248  0.0605136076115214   T   T   T
  0.9966889056308941  0.8131906993518128  0.0604783309480885   T   T   T
  0.6634174366531054  0.8132208528968927  0.0605318063762014   T   T   T
  0.8300554518660873  0.8132153665550195  0.0605106722317841   T   T   T
  0.5798066795663360  0.6862049657230337  0.1394430857390548   T   T   T
  0.7464588436744239  0.6862212634734368  0.1394454688727222   T   T   T
  0.9131072951100546  0.6861944832468199  0.1394361681428023   T   T   T
  0.5799307588383364  0.9362955685734268  0.1394692298733827   T   T   T
  0.7464481481095244  0.9362511397808869  0.1394567007957153   T   T   T
  0.9130650871311285  0.9362836141569858  0.1394280165075498   T   T   T
  0.6631490797350249  0.5613750370029899  0.1666610558148165   T   T   T
  0.8297022169239667  0.5613087145952252  0.1666648187712116   T   T   T
  0.9965029575490820  0.5613535555921922  0.1666336982158174   T   T   T
  0.6631446346933025  0.8113169750955913  0.1666836564167171   T   T   T
  0.8298036676095495  0.8113062373743449  0.1666563095680537   T   T   T
  0.9964722516874626  0.8112642077340050  0.1666374307965412   T   T   T
  0.5799088137538528  0.6881227135985957  0.1920294970264146   T   T   T
  0.7465739532346581  0.6882133067049769  0.1920471438732753   T   T   T
  0.9132682072017925  0.6880995456199532  0.1920025635051064   T   T   T
  0.5799128420779903  0.9381892578115419  0.1920529180374902   T   T   T
  0.7465653937866380  0.9381537979859150  0.1920549362224832   T   T   T
  0.9132797467204029  0.9381097012748109  0.1919887876531529   T   T   T
  0.5798985916195627  0.6862314519791961  0.0858535315822864   T   T   T
  0.7465545999708111  0.6862333042188677  0.0858538985291108   T   T   T
  0.9132001861317718  0.6862348359851536  0.0858427251660966   T   T   T
  0.5799436332860689  0.9363330911845836  0.0858740966155758   T   T   T
  0.7465703302138222  0.9363099596332803  0.0858648637653454   T   T   T
  0.9132101007803374  0.9362671751175089  0.0858351531563940   T   T   T
  0.6631769871002694  0.5611204821290914  0.1130702146168616   T   T   T
  0.8298185842686686  0.5611279050994755  0.1130691418028864   T   T   T
  0.9964972907826535  0.5611561089885935  0.1130405902048477   T   T   T
  0.6632049013223639  0.8111415915200725  0.1130750903741312   T   T   T
  0.8298188180776428  0.8111444858597519  0.1130646859357357   T   T   T
  0.9965128690211513  0.8111634641566353  0.1130428755708704   T   T   T
  0.0364725518234009  0.1774885622068940  0.0276443919407117   T   T   T
  0.2028989100198941  0.1774715415314032  0.0277081996856870   T   T   T
  0.3696215108533224  0.1774161258073793  0.0277079159581316   T   T   T
  0.0362284874881630  0.4275432265390092  0.0276572015009018   T   T   T
  0.2026034085607306  0.4274677142764546  0.0276916065107528   T   T   T
  0.3692698588843591  0.4274259274713658  0.0276998927300618   T   T   T
  0.1622284771476104  0.0264743321984083  0.0450589886707064   T   T   T
  0.3288195906698105  0.0264841156790257  0.0450720354949377   T   T   T
  0.4955679877275764  0.0265172616431216  0.0450929180492780   T   T   T
  0.1620719144640743  0.2765201611099671  0.0450619247193213   T   T   T
  0.3286840899673005  0.2765060434149352  0.0450782721392206   T   T   T
  0.4954220444570905  0.2765031972073088  0.0450829537444950   T   T   T
  0.4144399826337248  0.4014464115199552  0.2074224021177003   T   T   T
  0.4143108529749054  0.1513246258705220  0.2073856242193640   T   T   T
  0.0811198194233078  0.1512379116533961  0.2073770914949633   T   T   T
  0.2477712912786306  0.1513771209832833  0.2074101760498536   T   T   T
  0.0810599638084290  0.4013074401008943  0.2074296240248983   T   T   T
  0.2476794781066042  0.4013839380182108  0.2074115323894218   T   T   T
  0.0412650627930776  0.0523361822865974  0.2248019157511238   T   T   T
  0.2078172604956843  0.0523769909336740  0.2248306123407375   T   T   T
  0.3745440801023058  0.0524240240840320  0.2248150245186751   T   T   T
  0.0358950524053979  0.3026330313261606  0.2254828008198928   T   T   T
  0.2077292445594930  0.3024309476518405  0.2248550095304682   T   T   T
  0.3747928787830747  0.3023163430806666  0.2247703368534003   T   T   T
  0.0363549775659754  0.6774913132614783  0.0277022775868029   T   T   T
  0.2029736559563080  0.6774472117899669  0.0277094077899931   T   T   T
  0.3696792856716769  0.6774134168559509  0.0277208934104681   T   T   T
  0.0360666871911710  0.9274420792171680  0.0276580780990089   T   T   T
  0.2025991794881128  0.9274016646255848  0.0276731046281026   T   T   T
  0.3694085747466385  0.9274152076829627  0.0276882941281829   T   T   T
  0.1621668749205772  0.5264799606876986  0.0450828406338477   T   T   T
  0.3288440619615193  0.5264839811191369  0.0450906138782783   T   T   T
  0.4955336613876818  0.5264794756724790  0.0450979879145034   T   T   T
  0.1620912325768220  0.7764244539744584  0.0450641381807685   T   T   T
  0.3287349826184557  0.7764615449418868  0.0450708829282877   T   T   T
  0.4954956269433522  0.7765071414202999  0.0451003079266627   T   T   T
  0.4143514460244471  0.9013830989023142  0.2074109826207662   T   T   T
  0.4143627778925494  0.6514416929475321  0.2074215048730478   T   T   T
  0.0810725437254680  0.6514556176851110  0.2074199794487944   T   T   T
  0.2477471595066163  0.6514914068064145  0.2074480647773154   T   T   T
  0.0810922958898848  0.9013560415875138  0.2073890877576183   T   T   T
  0.2477638855680925  0.9013698362810035  0.2073973023215543   T   T   T
  0.0408675691793854  0.5531666998402258  0.2248143851467927   T   T   T
  0.2076649383981324  0.5529966602931263  0.2247690086313814   T   T   T
  0.3742191056606610  0.5528808556047481  0.2248009363468865   T   T   T
  0.0410065378951517  0.8025981753309410  0.2248456627759745   T   T   T
  0.2074261200866259  0.8027644722840079  0.2248774959960860   T   T   T
  0.3747012335074738  0.8024267863219325  0.2247898903278245   T   T   T
  0.5366320297413459  0.1774644809018123  0.0277026073313485   T   T   T
  0.7027462257031237  0.1775108884285722  0.0278320383538443   T   T   T
  0.8692942845828812  0.1774617210539471  0.0276719791444709   T   T   T
  0.5364299053912130  0.4274530812659962  0.0277034912386121   T   T   T
  0.7025227035206486  0.4273663881240363  0.0277528902002752   T   T   T
  0.8690055768370122  0.4274513817121485  0.0276990707159920   T   T   T
  0.6622497629578975  0.0265183612362604  0.0451612868793889   T   T   T
  0.8285778674693217  0.0265074498645344  0.0451187140680732   T   T   T
  0.9954404345910469  0.0265108541930841  0.0450365254636878   T   T   T
  0.6620044462488678  0.2763687739225911  0.0451868283854915   T   T   T
  0.8286643444612303  0.2764521132290104  0.0451245528930681   T   T   T
  0.9953194659802250  0.2766011897373318  0.0450407961200259   T   T   T
  0.9141512406534495  0.4020846475056733  0.2074214998878245   T   T   T
  0.9150303832314377  0.1504548340554476  0.2070220205296411   T   T   T
  0.5806314443704287  0.1511152453117404  0.2072813556495415   T   T   T
  0.7481195574297070  0.1526918487817615  0.2080615418430864   T   T   T
  0.5806715905298575  0.4017722995600948  0.2074009295125177   T   T   T
  0.7468048733983453  0.4014592460979720  0.2074734803447536   T   T   T
  0.5407749208407706  0.0526697150931294  0.2248827026847450   T   T   T
  0.7079091837731520  0.0519959992105261  0.2249786786202329   T   T   T
  0.8746506052270426  0.0521892972545836  0.2248901587254518   T   T   T
  0.5432111354314534  0.3009930126796367  0.2238968894546670   T   T   T
  0.6894631256295373  0.3103522023350141  0.2284265716672897   T   T   T
  0.8910987115333685  0.2953418027502628  0.2227960591845310   T   T   T
  0.7736219979814243  0.3061088364234003  0.2736528197770136   T   T   T
  0.7465734746378087  0.2381750418669324  0.2931766676451149   T   T   T
  0.7860446917338144  0.3195504123836951  0.3028917947279165   T   T   T
  0.6573371844251819  0.1945276708181244  0.3098099483265856   T   T   T
  0.7106251837341362  0.1301051145349926  0.3022996722920426   T   T   T
  0.8252772784928810  0.3662861847003079  0.3336084297264237   T   T   T
  0.7421616983371898  0.3770163052570349  0.3308804055333688   T   T   T
  0.7594896889679222  0.3957178306328980  0.2519893760330510   T   T   T
  0.7933472910591137  0.3232091269648824  0.2384876871951402   T   T   T
  0.5364676930252498  0.6774773969327607  0.0277198415396358   T   T   T
  0.7028825437406764  0.6774547065073415  0.0277465073019856   T   T   T
  0.8693895425146664  0.6774641177723223  0.0277280000550163   T   T   T
  0.5361950703031043  0.9274905041115444  0.0277108996890526   T   T   T
  0.7025263389047609  0.9274396515223499  0.0277328882244361   T   T   T
  0.8691143898725741  0.9275120223607031  0.0277014369159158   T   T   T
  0.6621330240587066  0.5264585152905028  0.0451111500008684   T   T   T
  0.8287926593758289  0.5264729749480170  0.0451092868517989   T   T   T
  0.9954125615642521  0.5264915418781198  0.0450771494911600   T   T   T
  0.6620053121482841  0.7765250308399674  0.0451255788281401   T   T   T
  0.8286264416425480  0.7764967145979479  0.0451038778270380   T   T   T
  0.9952257342712920  0.7764454654933947  0.0450761233716772   T   T   T
  0.9144617774124005  0.9014723511382006  0.2074118069616208   T   T   T
  0.9144437260403401  0.6514814140945547  0.2074296930322510   T   T   T
  0.5810531977612829  0.6514453851743232  0.2074459542273948   T   T   T
  0.7478429956475916  0.6515932941780259  0.2074679451177565   T   T   T
  0.5810590728685570  0.9014952336311426  0.2074632385333466   T   T   T
  0.7478549407770970  0.9014471622095757  0.2074611244623266   T   T   T
  0.5404768447862098  0.5532785855952436  0.2248351008195231   T   T   T
  0.7077414600071950  0.5541473265748154  0.2246126952636568   T   T   T
  0.8742076462859855  0.5533723584222265  0.2247669820032625   T   T   T
  0.5410472585790829  0.8025660322293174  0.2248550802042988   T   T   T
  0.7074001104033008  0.8028181030159149  0.2249022890288974   T   T   T
  0.8747775232254723  0.8023828994130713  0.2247884943844873   T   T   T
  0.0843792122725828  0.1656599321317499  0.0336356580474920   T   T   T
  0.2508703019642531  0.1658483057107016  0.0336895809297496   T   T   T
  0.4175768586379054  0.1657647818413893  0.0336974278859804   T   T   T
  0.0841446401869790  0.4158682442995849  0.0336687753475971   T   T   T
  0.2505882442642934  0.4160254738720734  0.0336928233079794   T   T   T
  0.4172525015496444  0.4159779255524941  0.0337026147786950   T   T   T
  0.1600250896178179  0.0410338626626826  0.2186781193405677   T   T   T
  0.3267229233088565  0.0410704104226505  0.2186836184759156   T   T   T
  0.4930899030450538  0.0410337231693139  0.2187057530006978   T   T   T
  0.1599957027048657  0.2910052660096421  0.2186798918228315   T   T   T
  0.3268680726767627  0.2911298046584271  0.2186629250473633   T   T   T
  0.4937869687842933  0.2913002474818927  0.2185745197008923   T   T   T
  0.0842950482316394  0.6657547818051303  0.0336897703591879   T   T   T
  0.2509318445809436  0.6657956939430145  0.0336984979792169   T   T   T
  0.4176371396956074  0.6657813618864151  0.0337181810159717   T   T   T
  0.0840350004130093  0.9156258651998694  0.0336128147538704   T   T   T
  0.2505950436463459  0.9158373281859186  0.0336546204552310   T   T   T
  0.4173744196859630  0.9158555961712279  0.0336858612464290   T   T   T
  0.1599031919005778  0.5409974159718430  0.2187074632102258   T   T   T
  0.3264621990799687  0.5410276276217895  0.2187005062947111   T   T   T
  0.4928335804402054  0.5409812070651289  0.2187529342036489   T   T   T
  0.1597642340011413  0.7909742606090415  0.2187046869711104   T   T   T
  0.3268398839469825  0.7912256842170771  0.2186493152934440   T   T   T
  0.4932874293010581  0.7909851799728500  0.2187053815573742   T   T   T
  0.5845070914668999  0.1656763170635341  0.0337226468416776   T   T   T
  0.7507101141893538  0.1661462703559916  0.0338655777317942   T   T   T
  0.9173141616368312  0.1655764068429155  0.0335698606378398   T   T   T
  0.5843353080033405  0.4157789245183927  0.0337317094908219   T   T   T
  0.7505182138709757  0.4158582625537839  0.0337423868216765   T   T   T
  0.9170453265922628  0.4160635864903611  0.0336727700807952   T   T   T
  0.6600686922580424  0.0410624711318509  0.2187977916619625   T   T   T
  0.8268278932638061  0.0410177893664124  0.2187183415199702   T   T   T
  0.9934451803809858  0.0412609068378671  0.2186023243646376   T   T   T
  0.6500169447956315  0.2911026772869256  0.2187977631243207   T   T   T
  0.8395130013785834  0.2915638596681335  0.2187112216229204   T   T   T
  0.9898774658813434  0.2886716165124732  0.2185439270217076   T   T   T
  0.7853793881915617  0.2798245182921554  0.2895489363211400   T   T   T
  0.6905448865873073  0.1792113608193430  0.2976220266797053   T   T   T
  0.7875471446686471  0.3773637138039404  0.3223931294248326   T   T   T
  0.7573179982306122  0.3401231565124060  0.2509294742097238   T   T   T
  0.5843945098432041  0.6657613105576625  0.0337221412761085   T   T   T
  0.7508512119759955  0.6657790786945494  0.0337186947326422   T   T   T
  0.9173835948711533  0.6658827160807638  0.0337012974379882   T   T   T
  0.5841133325746959  0.9158888786104972  0.0337421013867722   T   T   T
  0.7505186413716977  0.9159481192259910  0.0337268676156512   T   T   T
  0.9171120903172911  0.9160152889971861  0.0336873631921527   T   T   T
  0.6600327317289567  0.5411025711734251  0.2186950167792752   T   T   T
  0.8265215133370583  0.5410336996060391  0.2187041711080435   T   T   T
  0.9931983342879579  0.5410946546260152  0.2186930607230338   T   T   T
  0.6597449164725991  0.7909441648596665  0.2187417747785327   T   T   T
  0.8268794088992480  0.7912504305312599  0.2186566019107109   T   T   T
  0.9932809812811655  0.7910230942630999  0.2186816416531767   T   T   T
  0.2468780546437296  0.1217957651420949  0.0599259225332896   T   T   T
  0.4135524070589912  0.1217737375471336  0.0599422980981731   T   T   T
  0.0802263416441634  0.3718264386802568  0.0599200715166690   T   T   T
  0.2468806863998493  0.3718587117318926  0.0599226438496739   T   T   T
  0.4135487193033877  0.3718203956127276  0.0599355881996975   T   T   T
  0.0802249302786767  0.1217515610547314  0.0599002825502244   T   T   T
  0.4964858134015623  0.4986035000579924  0.1396772125257762   T   T   T
  0.1631989273895160  0.4985590258876351  0.1396587500481322   T   T   T
  0.3298135625121542  0.4985729947296419  0.1396639326175453   T   T   T
  0.4965152423864746  0.2485400008844086  0.1396610082082150   T   T   T
  0.1632571154933343  0.2484615296585792  0.1396331256902635   T   T   T
  0.3298210164255709  0.2485025819823495  0.1396521008764410   T   T   T
  0.0798996191426707  0.1230785690039077  0.1658340084280972   T   T   T
  0.2464971915765884  0.1232183356712480  0.1658857323215365   T   T   T
  0.4131258037863934  0.1231908168403575  0.1658903248915373   T   T   T
  0.0798979941536134  0.3733018004026930  0.1658797481546312   T   T   T
  0.2464761923438989  0.3732792078333368  0.1658796800186031   T   T   T
  0.4131019267902643  0.3732942067741676  0.1658952170095168   T   T   T
  0.1631501159700758  0.4966685782547158  0.1925374981232589   T   T   T
  0.3297911584307483  0.4966827423628206  0.1925361366972280   T   T   T
  0.4962699498895515  0.4969511368592821  0.1925348480117730   T   T   T
  0.1633209079816635  0.2467100831153688  0.1925264693104911   T   T   T
  0.4963223574762661  0.2465981139699116  0.1924879249423100   T   T   T
  0.3299212642317026  0.2466494633292594  0.1925070835242862   T   T   T
  0.4965774621855874  0.4982638363878182  0.0866073659256046   T   T   T
  0.1632517286645083  0.4982701735072192  0.0865920856456165   T   T   T
  0.3299405439921649  0.4982637735257833  0.0865957016031129   T   T   T
  0.4965366595412793  0.2482799025680149  0.0865983227114431   T   T   T
  0.1632249601992048  0.2482621839175888  0.0865765049759577   T   T   T
  0.3299108432834688  0.2482623870945811  0.0865894825712292   T   T   T
  0.0797764840197859  0.1234245610269518  0.1127766237224010   T   T   T
  0.2464454931949894  0.1234694411985714  0.1128253444005771   T   T   T
  0.4131118213436309  0.1235062545119329  0.1128278283103910   T   T   T
  0.0798879065504917  0.3735329793974342  0.1128042633792589   T   T   T
  0.2465327747670615  0.3735247300640446  0.1128315743156731   T   T   T
  0.4131649403369956  0.3735239229922661  0.1128233283352025   T   T   T
  0.2469102119765955  0.6217805558288219  0.0599371418848256   T   T   T
  0.4135743674084560  0.6217641355895899  0.0599522549759561   T   T   T
  0.0802077738930131  0.8717184502481401  0.0598944359736150   T   T   T
  0.2468853569637541  0.8717973643110829  0.0599047424823754   T   T   T
  0.4135703196457788  0.8718023032166389  0.0599314740731799   T   T   T
  0.0802425393861617  0.6217719571745427  0.0599385999585451   T   T   T
  0.4965258065552464  0.9984922574218049  0.1396530036564448   T   T   T
  0.1632822784641799  0.9984448028212867  0.1396117797858544   T   T   T
  0.3298448346881470  0.9985113118840284  0.1396365509892598   T   T   T
  0.4965301360027658  0.7485773269156039  0.1396765686435014   T   T   T
  0.1631863874560342  0.7485187057844169  0.1396462866364112   T   T   T
  0.3297886142993971  0.7485392000909890  0.1396488383936540   T   T   T
  0.0797890276412623  0.6233627581513880  0.1658922920893085   T   T   T
  0.2464143000200899  0.6233033939748854  0.1659127310861045   T   T   T
  0.4130429209094351  0.6233852114000317  0.1658991873459903   T   T   T
  0.0798205063148932  0.8732763336805429  0.1658658327497331   T   T   T
  0.2464755425784184  0.8732651519751697  0.1658698077773420   T   T   T
  0.4131278419270853  0.8732971043535168  0.1658889885207570   T   T   T
  0.1632186948732895  0.9966135679650029  0.1925087744526371   T   T   T
  0.3298876749964638  0.9966499562753804  0.1925172443633258   T   T   T
  0.4964697086583176  0.9966957232318628  0.1925359123871526   T   T   T
  0.1631820222287814  0.7467037022913432  0.1925252186864052   T   T   T
  0.4965265266592315  0.7467000360965630  0.1925345490604098   T   T   T
  0.3298965318524321  0.7466959888023063  0.1925035179272677   T   T   T
  0.4965688525591678  0.9982801806695173  0.0866084579908374   T   T   T
  0.1632467178067102  0.9981997822390160  0.0865597690100322   T   T   T
  0.3299446782938367  0.9982352162459815  0.0865821139121733   T   T   T
  0.4965758672858626  0.7482694439682012  0.0866094660135039   T   T   T
  0.1632456176566053  0.7482218755460021  0.0865793559521591   T   T   T
  0.3299361397981387  0.7482440936708898  0.0865836532752031   T   T   T
  0.0797831297385282  0.6235375667789150  0.1128221055225869   T   T   T
  0.2464569990351021  0.6234966627066750  0.1128432378442766   T   T   T
  0.4131167648062685  0.6235320358512075  0.1128325046513576   T   T   T
  0.0798964312270753  0.8734453545260263  0.1127795435161479   T   T   T
  0.2465463789912534  0.8734674051399030  0.1128115089182181   T   T   T
  0.4132000442056297  0.8735039565081755  0.1128188129930330   T   T   T
  0.7468611552428068  0.1218778294443562  0.0600641741936091   T   T   T
  0.9135080328966393  0.1218175151880006  0.0598732178035567   T   T   T
  0.5802736707912657  0.3717858867540181  0.0599776081694092   T   T   T
  0.7468731694494813  0.3717888023272384  0.0599808719262405   T   T   T
  0.9134945623460689  0.3719030743514068  0.0599058722054055   T   T   T
  0.5802523263485689  0.1217848733693232  0.0599771004242858   T   T   T
  0.9965260234952071  0.4985903235893877  0.1396509134127666   T   T   T
  0.6631502485997748  0.4985639929518599  0.1396845574400872   T   T   T
  0.8298486837640437  0.4985521094817535  0.1396763397185002   T   T   T
  0.9965634243597851  0.2483668552083301  0.1395529736721967   T   T   T
  0.6630312088256496  0.2486170461529072  0.1397926064251663   T   T   T
  0.8299860522088154  0.2484342377783389  0.1396673055274061   T   T   T
  0.5796778967851538  0.1231787676566033  0.1658625856320638   T   T   T
  0.7464487003365959  0.1241522991178533  0.1662738315066330   T   T   T
  0.9133370845423729  0.1226086451168909  0.1656495444465178   T   T   T
  0.5796179406325453  0.3735078259824534  0.1659415255416195   T   T   T
  0.7463686289209904  0.3732192416185710  0.1659427719285725   T   T   T
  0.9132863629932797  0.3734859919905385  0.1658711908428962   T   T   T
  0.6630259386213367  0.4968916510307611  0.1925185889587389   T   T   T
  0.8298434580671088  0.4968244675334598  0.1925284367802386   T   T   T
  0.9965603387858466  0.4968957372306199  0.1925099063625429   T   T   T
  0.6620274301495871  0.2475235481756836  0.1929156598351093   T   T   T
  0.9966021298205503  0.2457639576248860  0.1921260512363379   T   T   T
  0.8311779819085535  0.2464881420330852  0.1923435854016623   T   T   T
  0.9965925650958959  0.4982700866602521  0.0865886547208681   T   T   T
  0.6632841824084905  0.4982668888153500  0.0866140558762592   T   T   T
  0.8299080975403205  0.4982741020272358  0.0866131198446402   T   T   T
  0.9965803756478154  0.2482269487701088  0.0865508617118542   T   T   T
  0.6632200973075568  0.2483151951273533  0.0866786438634968   T   T   T
  0.8298776590172989  0.2482986819020963  0.0866239497407524   T   T   T
  0.5797852239628960  0.1235423509073073  0.1128542286295161   T   T   T
  0.7464378492217865  0.1235809071919364  0.1129529030075520   T   T   T
  0.9131280264340988  0.1234431856106859  0.1127626236755136   T   T   T