C H O Si                                
   1.00000000000000     
     9.2874599999999994    0.0000000000000000    0.0000000000000000
     0.0000000000000000    8.7563099999999991    0.0000000000000000
     0.0000000000000000    0.0000000000000000   58.0000000000000000
   C    H    O    Si
    36    33    16    36
Selective dynamics
Direct
  0.9931793170750166  0.1264617310432949  0.0604338803022843   T   T   T
  0.3265506986205411  0.1265282646186013  0.0605443570663239   T   T   T
  0.6597384541576540  0.1265186279865667  0.0605267095568243   T   T   T
  0.9931971310597222  0.6266339931132315  0.0604537372360806   T   T   T
  0.3265938791202179  0.6263432722285346  0.0605756852317385   T   T   T
  0.6598199692729552  0.6264636393543060  0.0605251652770839   T   T   T
  0.1595210811273779  0.3722284943088182  0.1393796408858199   T   T   T
  0.4928053112305198  0.3727800012197927  0.1396498258193912   T   T   T
  0.8261483258080951  0.3721854034977412  0.1393244878528689   T   T   T
  0.1597687854321592  0.8723182324385699  0.1394475957407131   T   T   T
  0.4927920317973178  0.8721450857741599  0.1394906938226385   T   T   T
  0.8259815643114805  0.8723750879776470  0.1394218558087421   T   T   T
  0.3268629494228522  0.1229233816190753  0.1667108931132845   T   T   T
  0.6590086392230947  0.1226894804011609  0.1666932892253464   T   T   T
  0.9932166170394914  0.1218467665595705  0.1664441523625746   T   T   T
  0.3261375752897498  0.6225513149483672  0.1668244096686911   T   T   T
  0.6600424599955886  0.6227360049842172  0.1666584477292287   T   T   T
  0.9931309761980853  0.6225211128416971  0.1665365342997226   T   T   T
  0.1598254865849709  0.3747267215785563  0.1917274100934348   T   T   T
  0.4932988038584738  0.3799643347259412  0.1927489083671313   T   T   T
  0.8271198509542601  0.3738629777787036  0.1915316276157016   T   T   T
  0.1598001979446849  0.8769348023192282  0.1920173726310747   T   T   T
  0.4931583908203914  0.8761908706589487  0.1920939508029852   T   T   T
  0.8267711328916595  0.8769779228309327  0.1919446102083169   T   T   T
  0.1596240141535015  0.3725536810643151  0.0858179751741426   T   T   T
  0.4929394858736829  0.3725420879562099  0.0859731012058429   T   T   T
  0.8261973183746949  0.3725625967463814  0.0857882455079934   T   T   T
  0.1596601853219836  0.8725345861085446  0.0858551963460831   T   T   T
  0.4929151270182752  0.8725311463759908  0.0859043190252413   T   T   T
  0.8261338737751323  0.8726108381711291  0.0858384735953345   T   T   T
  0.3262255117551741  0.1223908148499867  0.1131077993955098   T   T   T
  0.6594237035392606  0.1223516279845734  0.1130914167355407   T   T   T
  0.9928475490029546  0.1222413580268725  0.1129897264885183   T   T   T
  0.3261751860850641  0.6222590623959271  0.1131403668900506   T   T   T
  0.6594801125833160  0.6223286096830805  0.1130749677099662   T   T   T
  0.9928076226990925  0.6224364797841776  0.1130090581688454   T   T   T
  0.0727410880698383  0.3557570692277502  0.0276163913677799   T   T   T
  0.4046479861887475  0.3557306613747758  0.0278538226122101   T   T   T
  0.7375638367637855  0.3554080775150136  0.0277086175618222   T   T   T
  0.0733654617610640  0.8559359007659318  0.0276494510810934   T   T   T
  0.4044866653529790  0.8552562990724607  0.0277999535579103   T   T   T
  0.7375496587622399  0.8555010481532419  0.0277498216374035   T   T   T
  0.3245803159258683  0.0531530035797433  0.0451295152140574   T   T   T
  0.6569688649149360  0.0531759575664678  0.0451073405441615   T   T   T
  0.9908055216826939  0.0532026367071411  0.0450035472524033   T   T   T
  0.3242700400048594  0.5529401872596845  0.0451614255471282   T   T   T
  0.6572954466635110  0.5531180835074769  0.0451075581481474   T   T   T
  0.9908248065141667  0.5533927896619981  0.0450216415162995   T   T   T
  0.8284886116891274  0.8041095091650508  0.2073956225682297   T   T   T
  0.8295337112325014  0.3012526623409864  0.2070241771975518   T   T   T
  0.1611594907120756  0.3020636313623580  0.2072120111169548   T   T   T
  0.4963333505121824  0.3057284610346792  0.2080664075854439   T   T   T
  0.1614398794243447  0.8033618974853373  0.2074086278515673   T   T   T
  0.4934193438020285  0.8026135957946094  0.2074988875158616   T   T   T
  0.0808897109797268  0.1076302139807181  0.2246484819930884   T   T   T
  0.4159768219264727  0.1078660754294141  0.2245752544531748   T   T   T
  0.7495657696901882  0.1063342962859068  0.2246368233583627   T   T   T
  0.0798780164498215  0.6019797009893161  0.2243841243889664   T   T   T
  0.3790782375529652  0.6181861189985735  0.2284669000210375   T   T   T
  0.7820876827184287  0.5906857282385265  0.2228230658410469   T   T   T
  0.5511388574568238  0.6125792642852841  0.2741323819693208   T   T   T
  0.4968347948701085  0.4771167297097690  0.2934817883267890   T   T   T
  0.5748808514346843  0.6398909833012274  0.3034449397185192   T   T   T
  0.3142017435270650  0.3889974375260781  0.3093267567735591   T   T   T
  0.4204744457465120  0.2596997498996992  0.3018827963304212   T   T   T
  0.6499676343980797  0.7331460208921755  0.3344260612060200   T   T   T
  0.4844777421515067  0.7563995852391409  0.3312262823855316   T   T   T
  0.5205761408131058  0.7899337145904585  0.2521634626336933   T   T   T
  0.5874974299940989  0.6447745367663826  0.2388180007362204   T   T   T
  0.1679014988263436  0.3315917994534073  0.0337959878913357   T   T   T
  0.5003110396753070  0.3327348829020122  0.0339619123647295   T   T   T
  0.8332327212317051  0.3316955314071544  0.0337473632997161   T   T   T
  0.1684473974390298  0.8317077255266558  0.0338583289922519   T   T   T
  0.5002012266698826  0.8323409093866443  0.0338936744623580   T   T   T
  0.8332564052575075  0.8320354411337583  0.0338025655732702   T   T   T
  0.3202337558679890  0.0829450371287866  0.2186633402569242   T   T   T
  0.6536622621192354  0.0828786892078460  0.2186459809645526   T   T   T
  0.9856235306481445  0.0832250884998056  0.2185349229998573   T   T   T
  0.2993498399347979  0.5823649231944653  0.2187724791342795   T   T   T
  0.6791706610929671  0.5830657911934406  0.2186608260082075   T   T   T
  0.9835250149306666  0.5781033473766105  0.2184341197795734   T   T   T
  0.5745568786174070  0.5602806200556593  0.2900562394541540   T   T   T
  0.3822723457224113  0.3590364075070529  0.2973465970974081   T   T   T
  0.5758205928163797  0.7538201110539908  0.3229254667997956   T   T   T
  0.5163368678240942  0.6786911563361222  0.2513142632107618   T   T   T
  0.4932794434906685  0.2437189936418284  0.0600633722236861   T   T   T
  0.8265406769730144  0.2435464564013652  0.0599141206594236   T   T   T
  0.1601973712521272  0.7434638055566758  0.0600014144584229   T   T   T
  0.4932894806464371  0.7435841629004171  0.0600212304783744   T   T   T
  0.8265389397709653  0.7436543566339744  0.0599519507729842   T   T   T
  0.1600293577267919  0.2434999442052173  0.0599559669343368   T   T   T
  0.9928919277867906  0.9966353725457168  0.1395403332976109   T   T   T
  0.3264759114194944  0.9971938744731084  0.1396874763415867   T   T   T
  0.6591211909860610  0.9970769317874790  0.1396739207439822   T   T   T
  0.9928228254389719  0.4969264297130648  0.1395392806081872   T   T   T
  0.3259679334109769  0.4971650160947874  0.1397595325812651   T   T   T
  0.6596082532998350  0.4969758197405809  0.1396329992268674   T   T   T
  0.1596799865038252  0.2458665689465284  0.1657471491402792   T   T   T
  0.4929362806552931  0.2481379051631155  0.1662438466781198   T   T   T
  0.8265151167359874  0.2451074421684880  0.1656030030723447   T   T   T
  0.1596866811373092  0.7468778687278316  0.1659285294626877   T   T   T
  0.4928556849279157  0.7464558277623485  0.1659663968818871   T   T   T
  0.8266541938973729  0.7469465772133229  0.1658785060460463   T   T   T
  0.3262692883022152  0.9939091233410102  0.1925518107627208   T   T   T
  0.6598451527521138  0.9937134501727285  0.1925452539180823   T   T   T
  0.9930928845352943  0.9940729907641435  0.1924161147694340   T   T   T
  0.3241326816174044  0.4950106733169814  0.1929005007574558   T   T   T
  0.9931395978518409  0.4913107172567277  0.1920729034684710   T   T   T
  0.6624060918272010  0.4930865970597029  0.1922951350846870   T   T   T
  0.9929234325545825  0.9965593362634974  0.0865183682117685   T   T   T
  0.3263434684208351  0.9966304952490012  0.0866126666687371   T   T   T
  0.6594617726909928  0.9966498195712361  0.0865989767802740   T   T   T
  0.9929020717380634  0.4966305361814415  0.0865206753770782   T   T   T
  0.3262871147795714  0.4965105448544708  0.0866462908798853   T   T   T
  0.6595316441214012  0.4966108913382156  0.0865969040976833   T   T   T
  0.1594964106971084  0.2470144703723751  0.1127867008800631   T   T   T
  0.4928132539444928  0.2471851338068550  0.1129703680120033   T   T   T
  0.8261801368911390  0.2469584837160558  0.1127435092717263   T   T   T
  0.1596124720936290  0.7470667396727735  0.1128403722577584   T   T   T
  0.4927742389565292  0.7469679085453385  0.1128701975230803   T   T   T
  0.8260860679049253  0.7471156173159634  0.1128142383679309   T   T   T
 
  0.00000000E+00  0.00000000E+00  0.00000000E+00
  0.00000000E+00  0.00000000E+00  0.00000000E+00
  0.00000000E+00  0.00000000E+00  0.00000000E+00
  0.00000000E+00  0.00000000E+00  0.00000000E+00
  0.00000000E+00  0.00000000E+00  0.00000000E+00
  0.00000000E+00  0.00000000E+00  0.00000000E+00
  0.00000000E+00  0.00000000E+00  0.00000000E+00
  0.00000000E+00  0.00000000E+00  0.00000000E+00
  0.00000000E+00  0.00000000E+00  0.00000000E+00
  0.00000000E+00  0.00000000E+00  0.00000000E+00
  0.00000000E+00  0.00000000E+00  0.00000000E+00
  0.00000000E+00  0.00000000E+00  0.00000000E+00
  0.00000000E+00  0.00000000E+00  0.00000000E+00
  0.00000000E+00  0.00000000E+00  0.00000000E+00
  0.00000000E+00  0.00000000E+00  0.00000000E+00
  0.00000000E+00  0.00000000E+00  0.00000000E+00
  0.00000000E+00  0.00000000E+00  0.00000000E+00
  0.00000000E+00  0.00000000E+00  0.00000000E+00
  0.00000000E+00  0.00000000E+00  0.00000000E+00
  0.00000000E+00  0.00000000E+00  0.00000000E+00
  0.00000000E+00  0.00000000E+00  0.00000000E+00
  0.00000000E+00  0.00000000E+00  0.00000000E+00
  0.00000000E+00  0.00000000E+00  0.00000000E+00
  0.00000000E+00  0.00000000E+00  0.00000000E+00
  0.00000000E+00  0.00000000E+00  0.00000000E+00
  0.00000000E+00  0.00000000E+00  0.00000000E+00
  0.00000000E+00  0.00000000E+00  0.00000000E+00
  0.00000000E+00  0.00000000E+00  0.00000000E+00
  0.00000000E+00  0.00000000E+00  0.00000000E+00
  0.00000000E+00  0.00000000E+00  0.00000000E+00
  0.00000000E+00  0.00000000E+00  0.00000000E+00
  0.00000000E+00  0.00000000E+00  0.00000000E+00
  0.00000000E+00  0.00000000E+00  0.00000000E+00
  0.00000000E+00  0.00000000E+00  0.00000000E+00
  0.00000000E+00  0.00000000E+00  0.00000000E+00
  0.00000000E+00  0.00000000E+00  0.00000000E+00
  0.00000000E+00  0.00000000E+00  0.00000000E+00
  0.00000000E+00  0.00000000E+00  0.00000000E+00
  0.00000000E+00  0.00000000E+00  0.00000000E+00
  0.00000000E+00  0.00000000E+00  0.00000000E+00
  0.00000000E+00  0.00000000E+00  0.00000000E+00
  0.00000000E+00  0.00000000E+00  0.00000000E+00
  0.00000000E+00  0.00000000E+00  0.00000000E+00
  0.00000000E+00  0.00000000E+00  0.00000000E+00
  0.00000000E+00  0.00000000E+00  0.00000000E+00
  0.00000000E+00  0.00000000E+00  0.00000000E+00
  0.00000000E+00  0.00000000E+00  0.00000000E+00
  0.00000000E+00  0.00000000E+00  0.00000000E+00
  0.00000000E+00  0.00000000E+00  0.00000000E+00
  0.00000000E+00  0.00000000E+00  0.00000000E+00
  0.00000000E+00  0.00000000E+00  0.00000000E+00
  0.00000000E+00  0.00000000E+00  0.00000000E+00
  0.00000000E+00  0.00000000E+00  0.00000000E+00
  0.00000000E+00  0.00000000E+00  0.00000000E+00
  0.00000000E+00  0.00000000E+00  0.00000000E+00
  0.00000000E+00  0.00000000E+00  0.00000000E+00
  0.00000000E+00  0.00000000E+00  0.00000000E+00
  0.00000000E+00  0.00000000E+00  0.00000000E+00
  0.00000000E+00  0.00000000E+00  0.00000000E+00
  0.00000000E+00  0.00000000E+00  0.00000000E+00
  0.00000000E+00  0.00000000E+00  0.00000000E+00
  0.00000000E+00  0.00000000E+00  0.00000000E+00
  0.00000000E+00  0.00000000E+00  0.00000000E+00
  0.00000000E+00  0.00000000E+00  0.00000000E+00
  0.00000000E+00  0.00000000E+00  0.00000000E+00
  0.00000000E+00  0.00000000E+00  0.00000000E+00
  0.00000000E+00  0.00000000E+00  0.00000000E+00
  0.00000000E+00  0.00000000E+00  0.00000000E+00
  0.00000000E+00  0.00000000E+00  0.00000000E+00
  0.00000000E+00  0.00000000E+00  0.00000000E+00
  0.00000000E+00  0.00000000E+00  0.00000000E+00
  0.00000000E+00  0.00000000E+00  0.00000000E+00
  0.00000000E+00  0.00000000E+00  0.00000000E+00
  0.00000000E+00  0.00000000E+00  0.00000000E+00
  0.00000000E+00  0.00000000E+00  0.00000000E+00
  0.00000000E+00  0.00000000E+00  0.00000000E+00
  0.00000000E+00  0.00000000E+00  0.00000000E+00
  0.00000000E+00  0.00000000E+00  0.00000000E+00
  0.00000000E+00  0.00000000E+00  0.00000000E+00
  0.00000000E+00  0.00000000E+00  0.00000000E+00
  0.00000000E+00  0.00000000E+00  0.00000000E+00
  0.00000000E+00  0.00000000E+00  0.00000000E+00
  0.00000000E+00  0.00000000E+00  0.00000000E+00
  0.00000000E+00  0.00000000E+00  0.00000000E+00
  0.00000000E+00  0.00000000E+00  0.00000000E+00
  0.00000000E+00  0.00000000E+00  0.00000000E+00
  0.00000000E+00  0.00000000E+00  0.00000000E+00
  0.00000000E+00  0.00000000E+00  0.00000000E+00
  0.00000000E+00  0.00000000E+00  0.00000000E+00
  0.00000000E+00  0.00000000E+00  0.00000000E+00
  0.00000000E+00  0.00000000E+00  0.00000000E+00
  0.00000000E+00  0.00000000E+00  0.00000000E+00
  0.00000000E+00  0.00000000E+00  0.00000000E+00
  0.00000000E+00  0.00000000E+00  0.00000000E+00
  0.00000000E+00  0.00000000E+00  0.00000000E+00
  0.00000000E+00  0.00000000E+00  0.00000000E+00
  0.00000000E+00  0.00000000E+00  0.00000000E+00
  0.00000000E+00  0.00000000E+00  0.00000000E+00
  0.00000000E+00  0.00000000E+00  0.00000000E+00
  0.00000000E+00  0.00000000E+00  0.00000000E+00
  0.00000000E+00  0.00000000E+00  0.00000000E+00
  0.00000000E+00  0.00000000E+00  0.00000000E+00
  0.00000000E+00  0.00000000E+00  0.00000000E+00
  0.00000000E+00  0.00000000E+00  0.00000000E+00
  0.00000000E+00  0.00000000E+00  0.00000000E+00
  0.00000000E+00  0.00000000E+00  0.00000000E+00
  0.00000000E+00  0.00000000E+00  0.00000000E+00
  0.00000000E+00  0.00000000E+00  0.00000000E+00
  0.00000000E+00  0.00000000E+00  0.00000000E+00
  0.00000000E+00  0.00000000E+00  0.00000000E+00
  0.00000000E+00  0.00000000E+00  0.00000000E+00
  0.00000000E+00  0.00000000E+00  0.00000000E+00
  0.00000000E+00  0.00000000E+00  0.00000000E+00
  0.00000000E+00  0.00000000E+00  0.00000000E+00
  0.00000000E+00  0.00000000E+00  0.00000000E+00
  0.00000000E+00  0.00000000E+00  0.00000000E+00
  0.00000000E+00  0.00000000E+00  0.00000000E+00
  0.00000000E+00  0.00000000E+00  0.00000000E+00
  0.00000000E+00  0.00000000E+00  0.00000000E+00
  0.00000000E+00  0.00000000E+00  0.00000000E+00
  0.00000000E+00  0.00000000E+00  0.00000000E+00
