C H O Si                                
   1.00000000000000     
     9.2874599999999994    0.0000000000000000    0.0000000000000000
     0.0000000000000000    8.7563099999999991    0.0000000000000000
     0.0000000000000000    0.0000000000000000   58.0000000000000000
   C    H    O    Si
    36    33    16    36
Selective dynamics
Direct
  0.9931240511640086  0.1265233602219644  0.0604428424880729   T   T   T
  0.3266287116781605  0.1264218474710174  0.0605545919528480   T   T   T
  0.6597693246522576  0.1265232473279084  0.0605298734178398   T   T   T
  0.9931648398696103  0.6266738582634509  0.0604645733612057   T   T   T
  0.3266688897002373  0.6262519501797783  0.0605815427549800   T   T   T
  0.6598120277770329  0.6264789521961538  0.0605298965115792   T   T   T
  0.1594201139003017  0.3722988925464834  0.1393829243442811   T   T   T
  0.4926231730786733  0.3726717357568525  0.1396436523182452   T   T   T
  0.8259608750983777  0.3721501740822834  0.1393378877532012   T   T   T
  0.1596643105461581  0.8723758797634367  0.1394364366496822   T   T   T
  0.4927160311941981  0.8720858895027340  0.1394865406078209   T   T   T
  0.8258898756196502  0.8724344172499272  0.1394137678645683   T   T   T
  0.3266871962719711  0.1230039657099387  0.1667312736551987   T   T   T
  0.6588155586095980  0.1228061228655800  0.1667094034576419   T   T   T
  0.9930015397776794  0.1218281702614339  0.1664412817978304   T   T   T
  0.3260679753617315  0.6226772813101703  0.1668192180603590   T   T   T
  0.6596605878786657  0.6228057386377995  0.1666743048700170   T   T   T
  0.9928914609844147  0.6225113425090938  0.1665434393995646   T   T   T
  0.1597120054579788  0.3746489522200837  0.1917384711132034   T   T   T
  0.4932236496913256  0.3798979979786953  0.1927559559266332   T   T   T
  0.8269150938733972  0.3738995799304725  0.1915442050867092   T   T   T
  0.1597502131958861  0.8767882772570538  0.1920064250554448   T   T   T
  0.4932896180955309  0.8760947443180249  0.1920759346705946   T   T   T
  0.8267776614213430  0.8766280574233704  0.1919300527994738   T   T   T
  0.1595427435564068  0.3725708697575274  0.0858202548372013   T   T   T
  0.4929567367421615  0.3726337671127640  0.0859757822953034   T   T   T
  0.8262065979399956  0.3725948826632468  0.0857914956621093   T   T   T
  0.1596918044525145  0.8726357871953646  0.0858542171343765   T   T   T
  0.4929463801320398  0.8726026853985485  0.0858937626194747   T   T   T
  0.8261877273981182  0.8726321249586605  0.0858347067326396   T   T   T
  0.3261774822344897  0.1223437411829032  0.1130963178900839   T   T   T
  0.6593163434017569  0.1223475704068202  0.1130941817782621   T   T   T
  0.9928113450491146  0.1221838041572310  0.1129930570908723   T   T   T
  0.3260785061828383  0.6222147444009462  0.1131230525684067   T   T   T
  0.6594035306091185  0.6222781316315520  0.1130889355370864   T   T   T
  0.9927289201582219  0.6224077854026014  0.1130091076795675   T   T   T
  0.0726044101101144  0.3555428635047669  0.0276175828187223   T   T   T
  0.4045005217760618  0.3555991984211408  0.0278341094981842   T   T   T
  0.7373323684734965  0.3552954117503457  0.0276875156572268   T   T   T
  0.0733216379682419  0.8556346682394032  0.0276675616689424   T   T   T
  0.4043658933834832  0.8551135655675021  0.0277764625960203   T   T   T
  0.7373464746313346  0.8553777152140635  0.0277293364115821   T   T   T
  0.3245965147965163  0.0531244930880563  0.0451327120677852   T   T   T
  0.6569972257530207  0.0531375721729554  0.0451160034526098   T   T   T
  0.9908630060535643  0.0532031343509270  0.0450216531355424   T   T   T
  0.3242777558417516  0.5529016604363648  0.0451639228392815   T   T   T
  0.6573247867624844  0.5530970680867613  0.0451183480720199   T   T   T
  0.9908570786851216  0.5534002701707217  0.0450381754045975   T   T   T
  0.8283654063994323  0.8040234781188432  0.2074052865887623   T   T   T
  0.8295884895140243  0.3012144583329555  0.2070203646530158   T   T   T
  0.1610557367875245  0.3019844497589519  0.2072256866047806   T   T   T
  0.4962893256600456  0.3057018797852127  0.2080798239111161   T   T   T
  0.1612655586862803  0.8033359983225620  0.2074072161922580   T   T   T
  0.4932299196150569  0.8026182429994606  0.2074869160855522   T   T   T
  0.0811017014792298  0.1077745501633365  0.2247108125110057   T   T   T
  0.4162727870850814  0.1079854736694620  0.2246060106428200   T   T   T
  0.7498713435009743  0.1064009351258473  0.2246845893218126   T   T   T
  0.0798488490502187  0.6020016642817634  0.2243757614188847   T   T   T
  0.3794574582354848  0.6181613287819961  0.2285437085730558   T   T   T
  0.7821225288168892  0.5906562016821221  0.2228278161078708   T   T   T
  0.5512460766784567  0.6125850246658749  0.2741237416084895   T   T   T
  0.4972189673946141  0.4772640586903044  0.2934860358964088   T   T   T
  0.5751394106665537  0.6399643683213023  0.3034234748292823   T   T   T
  0.3141700889359336  0.3891632586530629  0.3093434252903483   T   T   T
  0.4203787759162657  0.2596734929418107  0.3018724236504380   T   T   T
  0.6499940220936934  0.7332372820317733  0.3344549026870126   T   T   T
  0.4842340398246358  0.7563952000822065  0.3312518053731356   T   T   T
  0.5205999196172932  0.7899134042891561  0.2521216478193525   T   T   T
  0.5874239392352997  0.6445641355759496  0.2388267864223507   T   T   T
  0.1681297901345217  0.3316465662145803  0.0336945694490952   T   T   T
  0.5003100832392426  0.3328607010281652  0.0339209018943622   T   T   T
  0.8332440840648070  0.3317280041692789  0.0336544339258234   T   T   T
  0.1687835889824557  0.8317818799426661  0.0337868180089421   T   T   T
  0.5002050131562308  0.8324905531737700  0.0338489434057138   T   T   T
  0.8332412560662346  0.8320742312296667  0.0337341438889421   T   T   T
  0.3205197017241848  0.0831726238915418  0.2186775663871378   T   T   T
  0.6539830955901756  0.0831414487677520  0.2186638643501145   T   T   T
  0.9861353282655078  0.0831221694944328  0.2185214908728780   T   T   T
  0.3001803484300628  0.5823869256403611  0.2187581939351098   T   T   T
  0.6792441858760648  0.5833581944731384  0.2186377897412985   T   T   T
  0.9837010655945468  0.5773927452658445  0.2184344157680194   T   T   T
  0.5749366822144846  0.5603356750747285  0.2900270484693158   T   T   T
  0.3820826245803900  0.3589505077379341  0.2973429373232258   T   T   T
  0.5756924397050116  0.7537715905138170  0.3229747128592152   T   T   T
  0.5162987221730563  0.6786545142787781  0.2512904177998237   T   T   T
  0.4934019888928186  0.2437478450032969  0.0600626455676805   T   T   T
  0.8266314992618918  0.2436820785012085  0.0598877611265539   T   T   T
  0.1603724144034456  0.7434675750724250  0.0599898241380770   T   T   T
  0.4934143420729883  0.7436277854238554  0.0600056242624750   T   T   T
  0.8266066123118787  0.7437588216590564  0.0599307964190018   T   T   T
  0.1602383923003333  0.2435392213285231  0.0599278487408298   T   T   T
  0.9929266257581968  0.9966267250568529  0.1395686971287491   T   T   T
  0.3264169868078201  0.9972615356364188  0.1397120520283621   T   T   T
  0.6590304531102896  0.9971845364749558  0.1396995834887967   T   T   T
  0.9927694689137855  0.4969260788911209  0.1395684198659601   T   T   T
  0.3258997988877654  0.4972634078507094  0.1397777438129991   T   T   T
  0.6595093717182225  0.4970442140867474  0.1396724383572640   T   T   T
  0.1594626791379074  0.2459066476973645  0.1657427490740029   T   T   T
  0.4927335950618973  0.2481774409161680  0.1662500325704822   T   T   T
  0.8262750863604599  0.2451883957853672  0.1656331648259905   T   T   T
  0.1595271590435792  0.7469062721651978  0.1659227336148618   T   T   T
  0.4926907026273369  0.7465612214050747  0.1659593232341521   T   T   T
  0.8264247195416072  0.7468775103614136  0.1658677126488849   T   T   T
  0.3264644672800457  0.9938477536819067  0.1925802443788024   T   T   T
  0.6601006130857058  0.9935739511111850  0.1925625348820073   T   T   T
  0.9931997306754078  0.9938455466354515  0.1924080928221012   T   T   T
  0.3241997065806521  0.4950493385165268  0.1929248277937196   T   T   T
  0.9930899002882355  0.4911321772827927  0.1920831549019998   T   T   T
  0.6623500458285061  0.4930291758739237  0.1922967050725392   T   T   T
  0.9929566525642258  0.9966471478877588  0.0865298891620206   T   T   T
  0.3263627843703392  0.9966734913795949  0.0866253948856183   T   T   T
  0.6595750111657238  0.9967492771246553  0.0866069562371734   T   T   T
  0.9929071142742996  0.4967067417418011  0.0865398364538894   T   T   T
  0.3263151581493632  0.4965693426763434  0.0866533526306116   T   T   T
  0.6596180260264985  0.4966657506065656  0.0866057454818630   T   T   T
  0.1594607815937126  0.2470573982736799  0.1127857206105900   T   T   T
  0.4927325310568280  0.2471869720097438  0.1129522077408114   T   T   T
  0.8260727470169825  0.2469634045174920  0.1127516810630451   T   T   T
  0.1595513190093872  0.7470810557164592  0.1128276538019016   T   T   T
  0.4927039517969776  0.7470396219024527  0.1128524061747156   T   T   T
  0.8259649865628169  0.7471197578206069  0.1128071213287225   T   T   T
 
  0.00000000E+00  0.00000000E+00  0.00000000E+00
  0.00000000E+00  0.00000000E+00  0.00000000E+00
  0.00000000E+00  0.00000000E+00  0.00000000E+00
  0.00000000E+00  0.00000000E+00  0.00000000E+00
  0.00000000E+00  0.00000000E+00  0.00000000E+00
  0.00000000E+00  0.00000000E+00  0.00000000E+00
  0.00000000E+00  0.00000000E+00  0.00000000E+00
  0.00000000E+00  0.00000000E+00  0.00000000E+00
  0.00000000E+00  0.00000000E+00  0.00000000E+00
  0.00000000E+00  0.00000000E+00  0.00000000E+00
  0.00000000E+00  0.00000000E+00  0.00000000E+00
  0.00000000E+00  0.00000000E+00  0.00000000E+00
  0.00000000E+00  0.00000000E+00  0.00000000E+00
  0.00000000E+00  0.00000000E+00  0.00000000E+00
  0.00000000E+00  0.00000000E+00  0.00000000E+00
  0.00000000E+00  0.00000000E+00  0.00000000E+00
  0.00000000E+00  0.00000000E+00  0.00000000E+00
  0.00000000E+00  0.00000000E+00  0.00000000E+00
  0.00000000E+00  0.00000000E+00  0.00000000E+00
  0.00000000E+00  0.00000000E+00  0.00000000E+00
  0.00000000E+00  0.00000000E+00  0.00000000E+00
  0.00000000E+00  0.00000000E+00  0.00000000E+00
  0.00000000E+00  0.00000000E+00  0.00000000E+00
  0.00000000E+00  0.00000000E+00  0.00000000E+00
  0.00000000E+00  0.00000000E+00  0.00000000E+00
  0.00000000E+00  0.00000000E+00  0.00000000E+00
  0.00000000E+00  0.00000000E+00  0.00000000E+00
  0.00000000E+00  0.00000000E+00  0.00000000E+00
  0.00000000E+00  0.00000000E+00  0.00000000E+00
  0.00000000E+00  0.00000000E+00  0.00000000E+00
  0.00000000E+00  0.00000000E+00  0.00000000E+00
  0.00000000E+00  0.00000000E+00  0.00000000E+00
  0.00000000E+00  0.00000000E+00  0.00000000E+00
  0.00000000E+00  0.00000000E+00  0.00000000E+00
  0.00000000E+00  0.00000000E+00  0.00000000E+00
  0.00000000E+00  0.00000000E+00  0.00000000E+00
  0.00000000E+00  0.00000000E+00  0.00000000E+00
  0.00000000E+00  0.00000000E+00  0.00000000E+00
  0.00000000E+00  0.00000000E+00  0.00000000E+00
  0.00000000E+00  0.00000000E+00  0.00000000E+00
  0.00000000E+00  0.00000000E+00  0.00000000E+00
  0.00000000E+00  0.00000000E+00  0.00000000E+00
  0.00000000E+00  0.00000000E+00  0.00000000E+00
  0.00000000E+00  0.00000000E+00  0.00000000E+00
  0.00000000E+00  0.00000000E+00  0.00000000E+00
  0.00000000E+00  0.00000000E+00  0.00000000E+00
  0.00000000E+00  0.00000000E+00  0.00000000E+00
  0.00000000E+00  0.00000000E+00  0.00000000E+00
  0.00000000E+00  0.00000000E+00  0.00000000E+00
  0.00000000E+00  0.00000000E+00  0.00000000E+00
  0.00000000E+00  0.00000000E+00  0.00000000E+00
  0.00000000E+00  0.00000000E+00  0.00000000E+00
  0.00000000E+00  0.00000000E+00  0.00000000E+00
  0.00000000E+00  0.00000000E+00  0.00000000E+00
  0.00000000E+00  0.00000000E+00  0.00000000E+00
  0.00000000E+00  0.00000000E+00  0.00000000E+00
  0.00000000E+00  0.00000000E+00  0.00000000E+00
  0.00000000E+00  0.00000000E+00  0.00000000E+00
  0.00000000E+00  0.00000000E+00  0.00000000E+00
  0.00000000E+00  0.00000000E+00  0.00000000E+00
  0.00000000E+00  0.00000000E+00  0.00000000E+00
  0.00000000E+00  0.00000000E+00  0.00000000E+00
  0.00000000E+00  0.00000000E+00  0.00000000E+00
  0.00000000E+00  0.00000000E+00  0.00000000E+00
  0.00000000E+00  0.00000000E+00  0.00000000E+00
  0.00000000E+00  0.00000000E+00  0.00000000E+00
  0.00000000E+00  0.00000000E+00  0.00000000E+00
  0.00000000E+00  0.00000000E+00  0.00000000E+00
  0.00000000E+00  0.00000000E+00  0.00000000E+00
  0.00000000E+00  0.00000000E+00  0.00000000E+00
  0.00000000E+00  0.00000000E+00  0.00000000E+00
  0.00000000E+00  0.00000000E+00  0.00000000E+00
  0.00000000E+00  0.00000000E+00  0.00000000E+00
  0.00000000E+00  0.00000000E+00  0.00000000E+00
  0.00000000E+00  0.00000000E+00  0.00000000E+00
  0.00000000E+00  0.00000000E+00  0.00000000E+00
  0.00000000E+00  0.00000000E+00  0.00000000E+00
  0.00000000E+00  0.00000000E+00  0.00000000E+00
  0.00000000E+00  0.00000000E+00  0.00000000E+00
  0.00000000E+00  0.00000000E+00  0.00000000E+00
  0.00000000E+00  0.00000000E+00  0.00000000E+00
  0.00000000E+00  0.00000000E+00  0.00000000E+00
  0.00000000E+00  0.00000000E+00  0.00000000E+00
  0.00000000E+00  0.00000000E+00  0.00000000E+00
  0.00000000E+00  0.00000000E+00  0.00000000E+00
  0.00000000E+00  0.00000000E+00  0.00000000E+00
  0.00000000E+00  0.00000000E+00  0.00000000E+00
  0.00000000E+00  0.00000000E+00  0.00000000E+00
  0.00000000E+00  0.00000000E+00  0.00000000E+00
  0.00000000E+00  0.00000000E+00  0.00000000E+00
  0.00000000E+00  0.00000000E+00  0.00000000E+00
  0.00000000E+00  0.00000000E+00  0.00000000E+00
  0.00000000E+00  0.00000000E+00  0.00000000E+00
  0.00000000E+00  0.00000000E+00  0.00000000E+00
  0.00000000E+00  0.00000000E+00  0.00000000E+00
  0.00000000E+00  0.00000000E+00  0.00000000E+00
  0.00000000E+00  0.00000000E+00  0.00000000E+00
  0.00000000E+00  0.00000000E+00  0.00000000E+00
  0.00000000E+00  0.00000000E+00  0.00000000E+00
  0.00000000E+00  0.00000000E+00  0.00000000E+00
  0.00000000E+00  0.00000000E+00  0.00000000E+00
  0.00000000E+00  0.00000000E+00  0.00000000E+00
  0.00000000E+00  0.00000000E+00  0.00000000E+00
  0.00000000E+00  0.00000000E+00  0.00000000E+00
  0.00000000E+00  0.00000000E+00  0.00000000E+00
  0.00000000E+00  0.00000000E+00  0.00000000E+00
  0.00000000E+00  0.00000000E+00  0.00000000E+00
  0.00000000E+00  0.00000000E+00  0.00000000E+00
  0.00000000E+00  0.00000000E+00  0.00000000E+00
  0.00000000E+00  0.00000000E+00  0.00000000E+00
  0.00000000E+00  0.00000000E+00  0.00000000E+00
  0.00000000E+00  0.00000000E+00  0.00000000E+00
  0.00000000E+00  0.00000000E+00  0.00000000E+00
  0.00000000E+00  0.00000000E+00  0.00000000E+00
  0.00000000E+00  0.00000000E+00  0.00000000E+00
  0.00000000E+00  0.00000000E+00  0.00000000E+00
  0.00000000E+00  0.00000000E+00  0.00000000E+00
  0.00000000E+00  0.00000000E+00  0.00000000E+00
  0.00000000E+00  0.00000000E+00  0.00000000E+00
  0.00000000E+00  0.00000000E+00  0.00000000E+00
  0.00000000E+00  0.00000000E+00  0.00000000E+00
