C H O Si                                
   1.00000000000000     
    18.5749199999999988    0.0000000000000000    0.0000000000000000
     0.0000000000000000   17.5126199999999983    0.0000000000000000
     0.0000000000000000    0.0000000000000000   58.0000000000000000
   C    H    O    Si
   144   105    52   144
Selective dynamics
Direct
  0.4993123512036123  0.0652540356516854  0.0601133392507790   T   T   T
  0.1660095606989113  0.0652872938050650  0.0601149884451753   T   T   T
  0.3326242178341984  0.0653113552886501  0.0601268427549176   T   T   T
  0.4993069154340792  0.3152779773243528  0.0601076469477296   T   T   T
  0.1660113647509519  0.3152895306029496  0.0601209708880561   T   T   T
  0.3326189685813140  0.3153079701026217  0.0601333778534481   T   T   T
  0.0828989146197069  0.1879203557844956  0.1390056780902028   T   T   T
  0.2495534168914289  0.1879213288458494  0.1390223553713953   T   T   T
  0.4162196715646093  0.1879476080750980  0.1390254583979268   T   T   T
  0.0829157232794834  0.4379339155581402  0.1390293786436126   T   T   T
  0.2495429425532699  0.4379551366487973  0.1390372171217534   T   T   T
  0.4161710200001871  0.4379950822177940  0.1390273657899731   T   T   T
  0.1664327385006657  0.0629992828092536  0.1661390687673820   T   T   T
  0.3329795976303561  0.0630274679164237  0.1661585467812182   T   T   T
  0.4995983815309609  0.0629474336698873  0.1661071607885830   T   T   T
  0.1664236953979050  0.3130144262612669  0.1661427634005441   T   T   T
  0.3329575777565469  0.3130210894803083  0.1661499972654360   T   T   T
  0.4995466514671901  0.3130975165566979  0.1660917757397975   T   T   T
  0.0832460830951397  0.1900353028510578  0.1915057954305445   T   T   T
  0.2497756393391842  0.1901692726095571  0.1915471647397837   T   T   T
  0.4163784492159439  0.1901649405777995  0.1915620909866447   T   T   T
  0.0832276983183656  0.4400980245531067  0.1915536524980790   T   T   T
  0.2497394697621188  0.4401237030944427  0.1915598171895582   T   T   T
  0.4162604445828071  0.4401618623083734  0.1915495032640149   T   T   T
  0.0827257687880412  0.1880778183546248  0.0854903699928965   T   T   T
  0.2493694444017779  0.1881049019828729  0.0855048185307084   T   T   T
  0.4160689002561141  0.1881099471768912  0.0855065021160976   T   T   T
  0.0827226436740307  0.4381105559465529  0.0854927646943265   T   T   T
  0.2493695962083652  0.4381540301317903  0.0854946773079507   T   T   T
  0.4160661675036599  0.4381717905984795  0.0854910882032701   T   T   T
  0.1661662018347731  0.0628899870296079  0.1126198033760161   T   T   T
  0.3327714249964528  0.0628941690434441  0.1126303920622470   T   T   T
  0.4994480414688571  0.0629002668991339  0.1126348784928756   T   T   T
  0.1661798891617046  0.3129670511728713  0.1126163261610690   T   T   T
  0.3327533499979186  0.3129713304520754  0.1126268293083428   T   T   T
  0.4994241304185120  0.3129825397640942  0.1126121511531907   T   T   T
  0.4993288287678401  0.5653717008248060  0.0601171422575798   T   T   T
  0.1660105322466433  0.5653649519421665  0.0601313651942396   T   T   T
  0.3326344502670598  0.5653778320670269  0.0601317424148360   T   T   T
  0.4993617436543294  0.8153051377620710  0.0601453452610735   T   T   T
  0.1659977239708076  0.8152416821995530  0.0601343271460094   T   T   T
  0.3326170041902236  0.8152863357527076  0.0601349527248200   T   T   T
  0.0828832892666393  0.6879777935582718  0.1390465942721738   T   T   T
  0.2495266399897355  0.6879776362546641  0.1390514523939873   T   T   T
  0.4161729098210453  0.6880372863768029  0.1390304462560323   T   T   T
  0.0828903119930082  0.9378543353906296  0.1390308208143818   T   T   T
  0.2495509027259200  0.9378966202644211  0.1390432396152489   T   T   T
  0.4162212705269850  0.9378844196708721  0.1390414495298007   T   T   T
  0.1664177565661748  0.5630611967275868  0.1661679403752791   T   T   T
  0.3328893387427569  0.5630589166392621  0.1661686643040462   T   T   T
  0.4993906091117296  0.5631817943329759  0.1661352093389952   T   T   T
  0.1663647099269696  0.8130590372706753  0.1661844815565799   T   T   T
  0.3329523625512145  0.8130391801401531  0.1661826280724827   T   T   T
  0.4996334389191766  0.8130954267188478  0.1661828687764141   T   T   T
  0.0830569147577914  0.6901683765374159  0.1915704718379381   T   T   T
  0.2496931452948430  0.6902128269076618  0.1915960666801418   T   T   T
  0.4163467234033019  0.6901644931862267  0.1915587614476098   T   T   T
  0.0830480290902715  0.9402319308974080  0.1915751291079015   T   T   T
  0.2497338199615255  0.9401999253641060  0.1915745138821478   T   T   T
  0.4164049657688867  0.9402253894406611  0.1915807095513882   T   T   T
  0.0827026022207591  0.6881124596546084  0.0855264849433653   T   T   T
  0.2493728964731758  0.6881264581953169  0.0855211535434052   T   T   T
  0.4160854176946449  0.6881776867653987  0.0855166109706771   T   T   T
  0.0827017848339824  0.9380469398137691  0.0854959717851404   T   T   T
  0.2493548646442212  0.9380879265249381  0.0854931971823569   T   T   T
  0.4160838782846201  0.9380924135020821  0.0855034751162773   T   T   T
  0.1661700277042580  0.5629712860251841  0.1126405478735546   T   T   T
  0.3327421237491178  0.5629841415005369  0.1126377415487603   T   T   T
  0.4994010663095541  0.5630076016586928  0.1126308758503796   T   T   T
  0.1661638727823108  0.8129520639256721  0.1126393903673025   T   T   T
  0.3327503281387318  0.8129549473570973  0.1126361970242208   T   T   T
  0.4995213002540566  0.8130095495687880  0.1126658083117848   T   T   T
  0.9993352912657468  0.0652605117464616  0.0601074724626805   T   T   T
  0.6660363388671979  0.0653027696182258  0.0601725871211191   T   T   T
  0.8325995699250044  0.0653130171978478  0.0601752059161318   T   T   T
  0.9993260794839278  0.3153099985453185  0.0601098040614729   T   T   T
  0.6659683180475138  0.3151886334750186  0.0601105769228445   T   T   T
  0.8326340274081560  0.3152352357595254  0.0601356162769049   T   T   T
  0.5827904846291786  0.1878814274868108  0.1389982431085039   T   T   T
  0.7494729510051740  0.1881826122980816  0.1392109621750171   T   T   T
  0.9163029989219127  0.1879576528721082  0.1389873187828311   T   T   T
  0.5827271649139603  0.4380584117652271  0.1389992321229965   T   T   T
  0.7495200709599702  0.4381229297562267  0.1387034474093955   T   T   T
  0.9163142080901090  0.4379651594809960  0.1390581845190879   T   T   T
  0.6665791977667180  0.0632843767152524  0.1662596952552625   T   T   T
  0.8327470740199236  0.0634305913200707  0.1662668084157119   T   T   T
  0.9997549711741091  0.0629177646907055  0.1660859605035377   T   T   T
  0.6658956552034274  0.3133032592298997  0.1660811421588349   T   T   T
  0.8331563293003830  0.3130905202587196  0.1661925114978558   T   T   T
  0.9997624938119078  0.3130998062904941  0.1661116190577694   T   T   T
  0.5831305392867441  0.1897798139234944  0.1913138177002495   T   T   T
  0.7494646019419444  0.1921412847332349  0.1921562353368053   T   T   T
  0.9166940977369952  0.1896231777016774  0.1912939203749981   T   T   T
  0.5823356304054588  0.4403242403574790  0.1915528249935096   T   T   T
  0.7497009535504677  0.4459632679981138  0.1888378951651624   T   T   T
  0.9170345883415880  0.4401090086034924  0.1916361511101589   T   T   T
  0.5826703392436682  0.1880325314424923  0.0854875629695266   T   T   T
  0.7493547377538534  0.1880978362127067  0.0855972330390198   T   T   T
  0.9161164795206627  0.1880893687404800  0.0854885765412311   T   T   T
  0.5826868845561275  0.4381066689380452  0.0854791479419922   T   T   T
  0.7493409392335290  0.4381131430629794  0.0853990192701005   T   T   T
  0.9160838646435346  0.4381295201915663  0.0855069712085490   T   T   T
  0.6661809529681639  0.0629788681207961  0.1126956568615877   T   T   T
  0.8327468001029691  0.0629972205983761  0.1126950160731253   T   T   T
  0.9994814763227705  0.0629200117348345  0.1126282665577330   T   T   T
  0.6660709343328667  0.3128748537858809  0.1125994620634528   T   T   T
  0.8328135792344845  0.3128867792170618  0.1126314379954887   T   T   T
  0.9995046519304421  0.3129873383196393  0.1126174020280116   T   T   T
  0.9993295170833131  0.5653436896542384  0.0601302743916912   T   T   T
  0.6660121443719956  0.5653631949613679  0.0601259770338918   T   T   T
  0.8326273963401766  0.5653582739434999  0.0601398819343354   T   T   T
  0.9992820252119582  0.8152870040081479  0.0601526464877325   T   T   T
  0.6660400398080081  0.8152689525510117  0.0601805263823886   T   T   T
  0.8325896851322808  0.8152941478311662  0.0601805808856576   T   T   T
  0.5828426432572780  0.6879574570466449  0.1390473983278827   T   T   T
  0.7495452976997715  0.6878446365244414  0.1391048807966403   T   T   T
  0.9162184627288030  0.6879178273088947  0.1390569241696826   T   T   T
  0.5829593835589532  0.9380273175459335  0.1391026353660793   T   T   T
  0.7495474655721384  0.9379302010515597  0.1390990085748862   T   T   T
  0.9161317153541872  0.9380671527058867  0.1390961965601880   T   T   T
  0.6661550437472511  0.5632651420445403  0.1660940007401191   T   T   T
  0.8330891323010587  0.5630957800169619  0.1661235368034476   T   T   T
  0.9998584452421980  0.5630978202947267  0.1661475126636403   T   T   T
  0.6663605419078455  0.8129925860712492  0.1662245961922716   T   T   T
  0.8329603459553623  0.8129885608331014  0.1662229611992073   T   T   T
  0.9996004058432714  0.8131011772281570  0.1661842803996608   T   T   T
  0.5829437342484941  0.6901238216281577  0.1916090020716765   T   T   T
  0.7497119826491057  0.6900479734537817  0.1916613206396164   T   T   T
  0.9164825138262263  0.6900707915660107  0.1915965789509165   T   T   T
  0.5830497933215929  0.9402481872217220  0.1916005990925377   T   T   T
  0.7497406361026774  0.9402392977472745  0.1916212702048298   T   T   T
  0.9163678441303592  0.9403422414706023  0.1915970609811203   T   T   T
  0.5827231622382261  0.6881077955785294  0.0855315347308075   T   T   T
  0.7493840490420030  0.6880983629086156  0.0855706134335968   T   T   T
  0.9160751255502927  0.6881347132682644  0.0855442844447327   T   T   T
  0.5827397410433739  0.9380948143169469  0.0855427676090507   T   T   T
  0.7493695588792423  0.9381189172398382  0.0855578919884871   T   T   T
  0.9160298790109991  0.9381462347949462  0.0855434733782351   T   T   T
  0.6661238927705606  0.5629554915941697  0.1126176055603424   T   T   T
  0.8327849955283534  0.5629110119377343  0.1126343811665420   T   T   T
  0.9995008380576101  0.5629548632518628  0.1126462069455043   T   T   T
  0.6661782829782119  0.8129297227547424  0.1126879923295141   T   T   T
  0.8327500339648045  0.8129174213582766  0.1126874769247975   T   T   T
  0.9993933211352964  0.8129820105008806  0.1126667781755793   T   T   T
  0.0412148935089824  0.1781394392532473  0.0260728263710721   T   T   T
  0.2077419136079037  0.1781971119155356  0.0261291208635420   T   T   T
  0.3743528420927729  0.1781307980068709  0.0261228623616588   T   T   T
  0.0412685660317659  0.4281589423517216  0.0260594906507940   T   T   T
  0.2078174909906289  0.4280686475770210  0.0260849359115828   T   T   T
  0.3743145348061865  0.4280702347373453  0.0261120645523646   T   T   T
  0.1649188521863677  0.0291580414261580  0.0445654363772828   T   T   T
  0.3315347526333302  0.0291711732646254  0.0445784694688079   T   T   T
  0.4981731299579546  0.0291295105694387  0.0445623759169781   T   T   T
  0.1648902141388067  0.2791535302713110  0.0445740838591801   T   T   T
  0.3315293839222378  0.2791436253789817  0.0445910840849188   T   T   T
  0.4981776705674154  0.2791416086854533  0.0445573964850532   T   T   T
  0.4175379385055955  0.4041062730757755  0.2071044330781957   T   T   T
  0.4175151808064207  0.1539944704572549  0.2070863047479132   T   T   T
  0.0842579069819084  0.1539074030242207  0.2070447143276881   T   T   T
  0.2508916692962023  0.1540715375088205  0.2070891926450245   T   T   T
  0.0843364149251783  0.4040241810006481  0.2071076091468618   T   T   T
  0.2508865224361556  0.4040402687969878  0.2071045855060676   T   T   T
  0.0413497643823229  0.0534649171985671  0.2255052005362117   T   T   T
  0.2078597891957610  0.0537222857005024  0.2255036756733672   T   T   T
  0.3744051024354206  0.0535885367685599  0.2255659437900170   T   T   T
  0.0397293048196781  0.3030596721084330  0.2257941857707409   T   T   T
  0.2073893661928302  0.3036822326125971  0.2255656928835117   T   T   T
  0.3743687455835365  0.3036364064637332  0.2255889710564842   T   T   T
  0.0411730628761878  0.6782362707137121  0.0261098083440373   T   T   T
  0.2077633267698964  0.6782285676857837  0.0261293977610532   T   T   T
  0.3743657001766998  0.6782024061682553  0.0261219538594056   T   T   T
  0.0412802616352090  0.9281357076627735  0.0260710160573013   T   T   T
  0.2077474597532236  0.9280838868388334  0.0261022518580130   T   T   T
  0.3743763262120476  0.9280553663226987  0.0261152648829756   T   T   T
  0.1648885890139231  0.5292190063190638  0.0445828100786423   T   T   T
  0.3315683684657789  0.5292308694884564  0.0445829251448566   T   T   T
  0.4982343045423134  0.5292551194010007  0.0445614411674202   T   T   T
  0.1648726034051779  0.7790688788389570  0.0445955533341489   T   T   T
  0.3315306062968845  0.7790955733670281  0.0445991137068370   T   T   T
  0.4982858293986628  0.7791425350922105  0.0446008214182941   T   T   T
  0.4174422119946914  0.9041382313080073  0.2071274365881287   T   T   T
  0.4174012604381679  0.6539746449957190  0.2070800535037906   T   T   T
  0.0841838739602560  0.6540243768527649  0.2071048816099586   T   T   T
  0.2507586385282723  0.6540361147424307  0.2071218395319696   T   T   T
  0.0841658312303929  0.9041297857320953  0.2071197657399164   T   T   T
  0.2508349187841297  0.9041228444139016  0.2071238082132616   T   T   T
  0.0415096634755747  0.5531672333860946  0.2256223454070685   T   T   T
  0.2078965349134806  0.5525656849925752  0.2256723713056349   T   T   T
  0.3745341506224384  0.5528675766057887  0.2256181912439505   T   T   T
  0.0411670373829155  0.8031405329097163  0.2255942498540184   T   T   T
  0.2073836210011046  0.8033638531515443  0.2256733746715885   T   T   T
  0.3750742506285484  0.8027905923501039  0.2255138429561801   T   T   T
  0.5412847281155391  0.1781048318961600  0.0260774540756250   T   T   T
  0.7077800757135732  0.1781652366050743  0.0261965966284305   T   T   T
  0.8743258783021484  0.1780770011923031  0.0261159516059956   T   T   T
  0.5412970772408051  0.4281596794450594  0.0260603817647648   T   T   T
  0.7078478417539570  0.4280133724388304  0.0260255564759368   T   T   T
  0.8742926953903224  0.4280368721126377  0.0261092286045461   T   T   T
  0.6650126151121383  0.0291122753286284  0.0446357018050389   T   T   T
  0.8314076090235332  0.0291134558131266  0.0446393611095463   T   T   T
  0.9982298116680184  0.0291338129198184  0.0445566902354579   T   T   T
  0.6647527736298080  0.2790317277684798  0.0445682387585394   T   T   T
  0.8316355841238511  0.2790046245380480  0.0446069931069798   T   T   T
  0.9982131758603793  0.2791747684921961  0.0445580928016108   T   T   T
  0.9182542348741942  0.4043260014762456  0.2072216310135190   T   T   T
  0.9178548569179069  0.1536506045075739  0.2068700790109797   T   T   T
  0.5841706952482718  0.1540193105568348  0.2069407663681294   T   T   T
  0.7504635228750911  0.1556100718245079  0.2076082591242894   T   T   T
  0.5835811286873603  0.4042194902451587  0.2070706742842689   T   T   T
  0.7707698623026297  0.4630875809495287  0.2611213892716233   T   T   T
  0.5413390296135883  0.0539777156397197  0.2254214870568974   T   T   T
  0.7079410935543738  0.0542054981298768  0.2254566488725762   T   T   T
  0.8742053518130910  0.0538934448699758  0.2256281035428514   T   T   T
  0.5456875962389359  0.3042211021842507  0.2238539872687010   T   T   T
  0.6851263432560967  0.2856490852297993  0.2306975683205666   T   T   T
  0.8883539158540912  0.2998957167125211  0.2235880593136266   T   T   T
  0.7456487097773302  0.2699726635977693  0.2663010069218948   T   T   T
  0.7344293203581208  0.2281616627761832  0.3005089652173448   T   T   T
  0.7585025952756923  0.3130403697253875  0.3080315549043712   T   T   T
  0.6445611523145583  0.1357300729505901  0.2955813186593487   T   T   T
  0.7189316135385038  0.1093465009666207  0.2866211988248216   T   T   T
  0.8189815427353385  0.3859034314303741  0.3348040928730253   T   T   T
  0.7522099827032542  0.4331269515681249  0.3274448736213783   T   T   T
  0.7512526768852406  0.4362677398729639  0.2690618898242432   T   T   T
  0.7824781421195002  0.2679029092561379  0.2413780755230254   T   T   T
  0.5412214028180632  0.6782314735344885  0.0261065512007414   T   T   T
  0.7078052360936280  0.6782442336624561  0.0261480937055837   T   T   T
  0.8743853420567665  0.6782129751360030  0.0261336690179176   T   T   T
  0.5414042386188925  0.9281272571773970  0.0260960841050299   T   T   T
  0.7078179740212495  0.9280792054664512  0.0261394956807743   T   T   T
  0.8743208988292160  0.9280860176934561  0.0261435304473486   T   T   T
  0.6649247022384699  0.5292502812592078  0.0445716844848338   T   T   T
  0.8315376836757330  0.5292442743712272  0.0445838336338626   T   T   T
  0.9982122038298039  0.5292218519274802  0.0445755015229805   T   T   T
  0.6649093527535024  0.7791289499479012  0.0446332818083882   T   T   T
  0.8314837007199407  0.7791285579384206  0.0446374206559053   T   T   T
  0.9981011648254156  0.7791284645013987  0.0446080768041745   T   T   T
  0.9174538895717310  0.9042950131477248  0.2071547636891655   T   T   T
  0.9176282309364466  0.6539253084795151  0.2071312243168683   T   T   T
  0.5838761218398795  0.6540203153261157  0.2071530961806438   T   T   T
  0.7507115168998830  0.6540310460229342  0.2072230960025169   T   T   T
  0.5841270945196871  0.9041620312666576  0.2071507592614848   T   T   T
  0.7508840039950736  0.9041550478028364  0.2071707536564668   T   T   T
  0.5406248306646829  0.5527779947199344  0.2257643734170991   T   T   T
  0.7085579158258120  0.5517147200612713  0.2257241072957789   T   T   T
  0.8737450909488120  0.5518579568119817  0.2262155487029435   T   T   T
  0.5411313241469927  0.8030962096521842  0.2255978656436708   T   T   T
  0.7073928520708345  0.8033145259981761  0.2256885425545265   T   T   T
  0.8751557464081745  0.8027978392669003  0.2255206185786636   T   T   T
  0.0871634723347806  0.1701993981644903  0.0339014294014014   T   T   T
  0.2537580399528455  0.1701956205197873  0.0339112860922737   T   T   T
  0.4203610723945261  0.1701928292306799  0.0339157870039153   T   T   T
  0.0872057155119299  0.4200913560509099  0.0338826525221203   T   T   T
  0.2538067627993928  0.4200346479239987  0.0338806498752148   T   T   T
  0.4203508338895809  0.4200288490337757  0.0338802375932924   T   T   T
  0.1618448590825376  0.0450224314973212  0.2177876873593842   T   T   T
  0.3284491547692138  0.0449745191521659  0.2178099706061851   T   T   T
  0.4952284056250631  0.0449645901394668  0.2177973047259119   T   T   T
  0.1615340072464235  0.2947949159023763  0.2177802874795937   T   T   T
  0.3285288603650809  0.2949426595306047  0.2177865406960929   T   T   T
  0.4972189113516661  0.2944234031427042  0.2177614168369839   T   T   T
  0.0871416860362128  0.6702559236648129  0.0339245172582497   T   T   T
  0.2537662225201080  0.6702645020567412  0.0339238970962864   T   T   T
  0.4203683199111514  0.6702814451915720  0.0339206538080542   T   T   T
  0.0872191460772840  0.9199232715059543  0.0338798429693339   T   T   T
  0.2537583813094719  0.9199464672736556  0.0338757432050657   T   T   T
  0.4203958097583488  0.9199758803010492  0.0338884239709677   T   T   T
  0.1619673423295522  0.5449333987515661  0.2178024450688119   T   T   T
  0.3285479764101199  0.5449214207030989  0.2178105791275308   T   T   T
  0.4949119315979282  0.5452820792678491  0.2177696731382800   T   T   T
  0.1615650810841795  0.7949035626821614  0.2178244237149037   T   T   T
  0.3288617134019464  0.7948793304809088  0.2178330387469872   T   T   T
  0.4951251848112783  0.7948410438850861  0.2178318955028652   T   T   T
  0.5872295496975630  0.1700672842661212  0.0338992321439467   T   T   T
  0.7537672409491927  0.1702903436125064  0.0340088583977886   T   T   T
  0.9203364170116995  0.1700741318077803  0.0338987423696438   T   T   T
  0.5872341558034623  0.4200455871948316  0.0338799810750770   T   T   T
  0.7538287738310105  0.4197825792108008  0.0338065284621336   T   T   T
  0.9202976077753721  0.4200801738637689  0.0339041379076141   T   T   T
  0.6618071196284646  0.0449072475889552  0.2178768660231978   T   T   T
  0.8283017217297318  0.0450657000411879  0.2178621067059108   T   T   T
  0.9953184160685692  0.0451579120774473  0.2177580299632141   T   T   T
  0.6574897058523018  0.3029993593047850  0.2165957652494449   T   T   T
  0.8385713002423386  0.2960242017171403  0.2179049756762104   T   T   T
  0.9944056553844703  0.2942499565572226  0.2176825351224208   T   T   T
  0.7605314856539297  0.2745706412918707  0.2955033948903519   T   T   T
  0.6951929870023358  0.1326006869290260  0.2998817884529112   T   T   T
  0.7682439562489092  0.3812575313725171  0.3307358937629422   T   T   T
  0.7390053389982689  0.2525862763697126  0.2500803418743149   T   T   T
  0.5871817990890201  0.6703030740878937  0.0339300156622995   T   T   T
  0.7537792891414907  0.6703568283197330  0.0339682573199225   T   T   T
  0.9203645207535912  0.6703000338852845  0.0339468169056545   T   T   T
  0.5873233543794981  0.9200292570984341  0.0339278733147959   T   T   T
  0.7537953196748693  0.9200273734819440  0.0339409314986868   T   T   T
  0.9203203055857849  0.9200325013632974  0.0339301964523885   T   T   T
  0.6622681301526030  0.5440639078379065  0.2180682272209106   T   T   T
  0.8283729030292263  0.5446087124680887  0.2179834174393748   T   T   T
  0.9955739438609276  0.5450617549622666  0.2177967437938040   T   T   T
  0.6615753490375814  0.7948087746338259  0.2178438990281645   T   T   T
  0.8289368473770332  0.7947518463135687  0.2178572999473313   T   T   T
  0.9951680560226001  0.7948610643347683  0.2178250781552943   T   T   T
  0.2493491429758450  0.1240572979553354  0.0592824658629853   T   T   T
  0.4160064739139171  0.1240328359599164  0.0592840450668152   T   T   T
  0.0827099178817507  0.3740294883895270  0.0592648049096534   T   T   T
  0.2493449405882587  0.3740428230532697  0.0592750931432369   T   T   T
  0.4159890643653953  0.3740194795689384  0.0592725171737116   T   T   T
  0.0827009166497129  0.1240256178041357  0.0592664600500843   T   T   T
  0.4995318487758387  0.0005544938343939  0.1393053776447303   T   T   T
  0.1662411206085697  0.0005646815584445  0.1392954053897331   T   T   T
  0.3328812434442936  0.0005810345078543  0.1393113331057432   T   T   T
  0.4995192341223460  0.2506012141819350  0.1392614302847949   T   T   T
  0.1662528008061189  0.2506106516478351  0.1392794793338421   T   T   T
  0.3328714705864407  0.2506038133893601  0.1392944872089524   T   T   T
  0.0830543516259127  0.1251741760884233  0.1656385958818520   T   T   T
  0.2496857328699112  0.1253039706338345  0.1656826889143738   T   T   T
  0.4163187244643096  0.1252765032578933  0.1656882649098441   T   T   T
  0.0831403820492077  0.3753104093934940  0.1656789750081532   T   T   T
  0.2496778450572782  0.3753040386680125  0.1656871681998981   T   T   T
  0.4162209456091679  0.3753021040282392  0.1656808603399264   T   T   T
  0.1664771071014937  0.4989358915837824  0.1924072598710936   T   T   T
  0.3329253171063701  0.4989541008344902  0.1924093623012332   T   T   T
  0.4992102439431304  0.4992322703895595  0.1923900858027539   T   T   T
  0.1664413766618422  0.2489112678633240  0.1923821787137342   T   T   T
  0.4998359831766774  0.2486405224300406  0.1923035058277243   T   T   T
  0.3330582187182807  0.2489417024429771  0.1923954655845123   T   T   T
  0.4993910635382025  0.0003415144032530  0.0859580466652749   T   T   T
  0.1660419375537149  0.0003382878769928  0.0859417587141434   T   T   T
  0.3326857696833948  0.0003408555408463  0.0859522916779194   T   T   T
  0.4993774027897764  0.2503430549092040  0.0859415877345902   T   T   T
  0.1660596033868484  0.2503597966078914  0.0859474304071105   T   T   T
  0.3326925167938862  0.2503604240020917  0.0859591523504816   T   T   T
  0.0828091605816079  0.1255773518241947  0.1123377645767535   T   T   T
  0.2494712340837119  0.1255945700631169  0.1123509603170229   T   T   T
  0.4161198742260059  0.1255926293809403  0.1123557924528994   T   T   T
  0.0828518113499591  0.3756366388919545  0.1123441077503464   T   T   T
  0.2494695087730672  0.3756590653527537  0.1123517885790206   T   T   T
  0.4160754226839363  0.3756625995336760  0.1123454083778701   T   T   T
  0.2493539305516560  0.6241029677531470  0.0592914897807754   T   T   T
  0.4159995796927406  0.6241155599657711  0.0592888441930751   T   T   T
  0.0826916092349942  0.8739522250166072  0.0592757367221723   T   T   T
  0.2493276311390162  0.8739849385626863  0.0592738049267791   T   T   T
  0.4160022274240111  0.8739806235092762  0.0592828981472053   T   T   T
  0.0826996177420528  0.6240901383114161  0.0592915892239938   T   T   T
  0.4993745328120111  0.5006900776345535  0.1392768993216401   T   T   T
  0.1662628186212043  0.5006368805300507  0.1393080822863894   T   T   T
  0.3328171811779739  0.5006319834390497  0.1393064148226514   T   T   T
  0.4994214934131881  0.7507104453007140  0.1393335589602742   T   T   T
  0.1662334795424773  0.7506767109483281  0.1393206787505327   T   T   T
  0.3328075926788970  0.7506724148227681  0.1393175742707035   T   T   T
  0.0831499255867480  0.6253784193322701  0.1657031888805403   T   T   T
  0.2496326101403977  0.6253757018284366  0.1657134842873303   T   T   T
  0.4160837247526460  0.6254144132145321  0.1656855107628038   T   T   T
  0.0829936860975692  0.8753229999034932  0.1657223904945417   T   T   T
  0.2496504226054183  0.8753239993047965  0.1657142870908954   T   T   T
  0.4162544559477184  0.8753326597692164  0.1657233251609977   T   T   T
  0.1663706360760737  0.9989616315574130  0.1924018508583522   T   T   T
  0.3330195725297144  0.9989763993520339  0.1924140124807732   T   T   T
  0.4996756190917733  0.9990093606238117  0.1923905115222106   T   T   T
  0.1663300250488389  0.7489464501086529  0.1924292357606769   T   T   T
  0.4995708883432896  0.7489643015378533  0.1924226315112027   T   T   T
  0.3329895699496683  0.7489367629183893  0.1924258071737940   T   T   T
  0.4993635934608753  0.5004060924145751  0.0859425930634573   T   T   T
  0.1660602737171257  0.5004045395997683  0.0859554421740566   T   T   T
  0.3326816366000567  0.5004048027633871  0.0859558962088854   T   T   T
  0.4994006437327834  0.7504024966189607  0.0859863533094566   T   T   T
  0.1660602238390169  0.7503579392682506  0.0859719593360544   T   T   T
  0.3326825922598085  0.7503708037087823  0.0859685110775200   T   T   T
  0.0828433622420832  0.6256358053248646  0.1123727216119152   T   T   T
  0.2494538985986897  0.6256572114561793  0.1123723443221321   T   T   T
  0.4160518363970584  0.6256795162543437  0.1123576742294414   T   T   T
  0.0828274155963570  0.8756086355542688  0.1123656906644438   T   T   T
  0.2494622559179537  0.8756387975326086  0.1123576733881568   T   T   T
  0.4160834162716385  0.8756288871779752  0.1123671205219448   T   T   T
  0.7493486672319547  0.1240400970912359  0.0593596881605964   T   T   T
  0.9160069819357284  0.1239773392588229  0.0592756411495045   T   T   T
  0.5826761938583808  0.3739763869589429  0.0592575005309069   T   T   T
  0.7493230477096243  0.3738672817988832  0.0592025758486248   T   T   T
  0.9159987115066596  0.3739914750211605  0.0592795118244300   T   T   T
  0.5826919719907889  0.1239660451976885  0.0592753614324239   T   T   T
  0.9995988070012050  0.0005110406094876  0.1392833469835532   T   T   T
  0.6663628289034955  0.0007645579355850  0.1393993548642455   T   T   T
  0.8327117457725330  0.0007864866618324  0.1393999986958034   T   T   T
  0.9996099645891307  0.2505798220816619  0.1392448449489942   T   T   T
  0.6659958915966905  0.2505927450159511  0.1392861160959989   T   T   T
  0.8329268532812987  0.2504936556051203  0.1392898247148303   T   T   T
  0.5829954838043135  0.1251338121064586  0.1656525589763878   T   T   T
  0.7495214418704812  0.1262513696520532  0.1660778502206001   T   T   T
  0.9164038395651530  0.1250078016769072  0.1655788959711194   T   T   T
  0.5826720572483056  0.3755557466075712  0.1656331694951931   T   T   T
  0.7494871122415494  0.3743106442626560  0.1654408235626603   T   T   T
  0.9164566571375291  0.3753950796065714  0.1656902463806143   T   T   T
  0.6651495207153920  0.4989159653615409  0.1926361954920379   T   T   T
  0.8342099943770793  0.4989022921581259  0.1927008119525251   T   T   T
  0.0001881731166717  0.4991460727695359  0.1924103802049150   T   T   T
  0.6653036432969729  0.2509113233077601  0.1926538971110028   T   T   T
  0.9998782959566189  0.2484435156510952  0.1921985749364917   T   T   T
  0.8339384909197674  0.2492660368236389  0.1924575966540683   T   T   T
  0.9993992764089256  0.0003410157974705  0.0859511130154808   T   T   T
  0.6660604689840000  0.0003916255448786  0.0860148475565209   T   T   T
  0.8326615172840072  0.0003936112910958  0.0860141441303008   T   T   T
  0.9994228857000363  0.2503464842941958  0.0859377318108987   T   T   T
  0.6659823924851669  0.2502514647594504  0.0859445006630975   T   T   T
  0.8327299910465075  0.2502491109375797  0.0859619024817190   T   T   T
  0.5827609170936426  0.1255708802181048  0.1123495662197813   T   T   T
  0.7494355521238985  0.1256769208772437  0.1124795335437637   T   T   T
  0.9161381942532123  0.1255734095779569  0.1123335826576703   T   T   T