C H O Si                                
   1.00000000000000     
    18.5749199999999988    0.0000000000000000    0.0000000000000000
     0.0000000000000000   17.5126199999999983    0.0000000000000000
     0.0000000000000000    0.0000000000000000   58.0000000000000000
   C    H    O    Si
   144   105    52   144
Selective dynamics
Direct
  0.4992951952364445  0.0653000657574158  0.0601122688578646   T   T   T
  0.1659801024084700  0.0653198182990080  0.0601172429521312   T   T   T
  0.3326401015191151  0.0653229318533343  0.0601232240152199   T   T   T
  0.4992771845465231  0.3152944199416030  0.0601100570342730   T   T   T
  0.1659732992649924  0.3153151834618261  0.0601223030176748   T   T   T
  0.3326198395533274  0.3152909016718567  0.0601324289180375   T   T   T
  0.0829350934137880  0.1879816722356032  0.1390013825466762   T   T   T
  0.2495723443579416  0.1879523338237229  0.1390119647538212   T   T   T
  0.4162052296715105  0.1879488415447648  0.1390156624304910   T   T   T
  0.0829759765282782  0.4379669589800054  0.1390242319065493   T   T   T
  0.2495677780300625  0.4379781524866047  0.1390304415633074   T   T   T
  0.4161716975919428  0.4380093915816799  0.1390262024681141   T   T   T
  0.1663526816439830  0.0629764823671856  0.1661410637476745   T   T   T
  0.3329649605598441  0.0630132757143245  0.1661617519501767   T   T   T
  0.4995747561095301  0.0628957927306900  0.1661307043635356   T   T   T
  0.1663557988552790  0.3129778076569222  0.1661430577202833   T   T   T
  0.3329512855877150  0.3130035785986853  0.1661566673157224   T   T   T
  0.4995201325621863  0.3130536257223089  0.1661131902414751   T   T   T
  0.0832454894745842  0.1900638149771179  0.1914942216387191   T   T   T
  0.2497773650515420  0.1902161612613252  0.1915422608608416   T   T   T
  0.4163503916699678  0.1901639229432464  0.1915551568943618   T   T   T
  0.0832215712178193  0.4401518709512868  0.1915512971720234   T   T   T
  0.2497343746148631  0.4401672201445346  0.1915569094906164   T   T   T
  0.4162538135047981  0.4401817642683460  0.1915494347105868   T   T   T
  0.0827127766704087  0.1881109111369541  0.0855279198516928   T   T   T
  0.2493862656347203  0.1881004297658411  0.0855433824520563   T   T   T
  0.4160348892127175  0.1881009664061511  0.0855417390400480   T   T   T
  0.0827305059264810  0.4381399815869661  0.0855218886043589   T   T   T
  0.2493764795650079  0.4381443049397358  0.0855282261324821   T   T   T
  0.4160316409319366  0.4381490653031376  0.0855233105198802   T   T   T
  0.1661026888755413  0.0628839398071317  0.1126207844762606   T   T   T
  0.3327630820804164  0.0628813490073038  0.1126294729822755   T   T   T
  0.4994045681870881  0.0628682736638866  0.1126253296536565   T   T   T
  0.1661129988481934  0.3129707660335414  0.1126221931159562   T   T   T
  0.3327498986375473  0.3129829744199197  0.1126275528664914   T   T   T
  0.4993820711735096  0.3129864303890788  0.1126022894440185   T   T   T
  0.4993218656361247  0.5654219730727073  0.0601142433440588   T   T   T
  0.1659786429013223  0.5653883352426629  0.0601324105023711   T   T   T
  0.3326514856765418  0.5653931131880221  0.0601294737440019   T   T   T
  0.4993287979864753  0.8153249738622624  0.0601467908942904   T   T   T
  0.1659544178846021  0.8152542642821120  0.0601400261369216   T   T   T
  0.3326217934493393  0.8152689451066207  0.0601339766017473   T   T   T
  0.0829164796113381  0.6880179391664609  0.1390371870893151   T   T   T
  0.2495435517299383  0.6880212238092956  0.1390439118716977   T   T   T
  0.4161868921253649  0.6880331105820453  0.1390276959235142   T   T   T
  0.0829179458703681  0.9378819967930175  0.1390314536019011   T   T   T
  0.2495870328895229  0.9379213304015838  0.1390364852553029   T   T   T
  0.4162359479707093  0.9378804093289324  0.1390320008070764   T   T   T
  0.1663494489335038  0.5630559975871895  0.1661821243363368   T   T   T
  0.3328889270271371  0.5630793665688267  0.1661772853017175   T   T   T
  0.4993334765763858  0.5631436238478994  0.1661411802502719   T   T   T
  0.1662718205329837  0.8130402067583815  0.1661967351124779   T   T   T
  0.3329368791303802  0.8130259269165694  0.1661940376339728   T   T   T
  0.4996267161102370  0.8130386826943690  0.1662064516527828   T   T   T
  0.0830574909251016  0.6901908375036059  0.1915620907634858   T   T   T
  0.2496968663602534  0.6901987416759170  0.1915870284734725   T   T   T
  0.4163257481893297  0.6901627596199613  0.1915521469813668   T   T   T
  0.0830564476294628  0.9402343038668786  0.1915628661212078   T   T   T
  0.2497285762791882  0.9402156552164634  0.1915685203529842   T   T   T
  0.4163866156921575  0.9402403478231802  0.1915761220962670   T   T   T
  0.0827137769197927  0.6881240532619055  0.0855590219623616   T   T   T
  0.2493857010501446  0.6881244174285533  0.0855587957423723   T   T   T
  0.4160569453827628  0.6881590772861867  0.0855467784107224   T   T   T
  0.0826877154523092  0.9380681061920180  0.0855313589137425   T   T   T
  0.2493638703587988  0.9380879858066937  0.0855293207548557   T   T   T
  0.4160230959316086  0.9380685696295894  0.0855331575850378   T   T   T
  0.1661047412889781  0.5629550407438477  0.1126431257920466   T   T   T
  0.3327398610385836  0.5629766275641928  0.1126405846281313   T   T   T
  0.4993483483726718  0.5629876471030236  0.1126236046124830   T   T   T
  0.1660970370023114  0.8129577720883361  0.1126400118422225   T   T   T
  0.3327451358285344  0.8129583590107132  0.1126380391842451   T   T   T
  0.4994673303665326  0.8129875774879630  0.1126618853570261   T   T   T
  0.9993156214746166  0.0653044285321953  0.0601072419077075   T   T   T
  0.6659786492610705  0.0653037527942621  0.0601792294261953   T   T   T
  0.8326165530142071  0.0653147339193475  0.0601792806048440   T   T   T
  0.9993070683827416  0.3153234457501194  0.0601106836055595   T   T   T
  0.6659286521595537  0.3151964637653089  0.0601129279162466   T   T   T
  0.8326404708259716  0.3152031564250464  0.0601432591919119   T   T   T
  0.5828224072949630  0.1879168662553411  0.1389895519947956   T   T   T
  0.7495384073592333  0.1881591545410103  0.1391936679963068   T   T   T
  0.9162942598118512  0.1879807417926103  0.1389829111454165   T   T   T
  0.5827833232439500  0.4380826374638347  0.1389978834086942   T   T   T
  0.7495517984847838  0.4381280926127757  0.1387224650822131   T   T   T
  0.9163128836833379  0.4379736095686376  0.1390535629750284   T   T   T
  0.6665461876595777  0.0632979215328138  0.1662850475067595   T   T   T
  0.8327255501658907  0.0634199650345056  0.1662832445831643   T   T   T
  0.9997545468530108  0.0628754379128082  0.1661010458710091   T   T   T
  0.6657877356649086  0.3132754165053798  0.1660878994146596   T   T   T
  0.8332054557589801  0.3130629141126940  0.1662020609151231   T   T   T
  0.9997435684910261  0.3130138376022745  0.1661317643773849   T   T   T
  0.5830837699140118  0.1898677689723513  0.1913115433875257   T   T   T
  0.7494047602726720  0.1920759988622748  0.1921393746704041   T   T   T
  0.9167311346516491  0.1897068831934549  0.1913006651624668   T   T   T
  0.5823468164423123  0.4403242670749907  0.1915440887024211   T   T   T
  0.7497170751689195  0.4461021583182215  0.1888118791845790   T   T   T
  0.9170662144466381  0.4400810963227035  0.1916261183789140   T   T   T
  0.5826731221389965  0.1880515156177875  0.0855285946051928   T   T   T
  0.7493914721688861  0.1880853816702564  0.0856279800180681   T   T   T
  0.9160779234294104  0.1880753572809331  0.0855251367497082   T   T   T
  0.5826829996957678  0.4381364458507729  0.0855102295512701   T   T   T
  0.7493466986302201  0.4381050896635795  0.0854359714323943   T   T   T
  0.9160390320477012  0.4381116434963283  0.0855391184205341   T   T   T
  0.6660971595705492  0.0629842914723328  0.1127053697870659   T   T   T
  0.8327118540984488  0.0630132523804655  0.1127056236336021   T   T   T
  0.9994409658037747  0.0628906404454644  0.1126181938667929   T   T   T
  0.6659779625254706  0.3128879499107019  0.1125977946771652   T   T   T
  0.8328147339713794  0.3129058298524902  0.1126294489574607   T   T   T
  0.9994574146328872  0.3129941203304492  0.1126089252482231   T   T   T
  0.9993109443058151  0.5653881546075930  0.0601297999292791   T   T   T
  0.6659869168160472  0.5653887017677973  0.0601287734779126   T   T   T
  0.8326445415010175  0.5653669485190599  0.0601391048478239   T   T   T
  0.9992537038482627  0.8153135653198166  0.0601533702511031   T   T   T
  0.6659773581449934  0.8152590184585441  0.0601880839524853   T   T   T
  0.8326084717034701  0.8152569967703307  0.0601882594665259   T   T   T
  0.5828852052924536  0.6879993407583844  0.1390366071365087   T   T   T
  0.7495545532448703  0.6878850759332870  0.1390986729974442   T   T   T
  0.9162050569696731  0.6879223930047048  0.1390418244343897   T   T   T
  0.5830045844202034  0.9380634750471433  0.1390907201370999   T   T   T
  0.7495755241748044  0.9379535348619470  0.1390967960150560   T   T   T
  0.9161660331694964  0.9380528209060687  0.1390878274143118   T   T   T
  0.6660724173999018  0.5632284546287833  0.1661071764664848   T   T   T
  0.8331125315137480  0.5630502373625051  0.1661339472211900   T   T   T
  0.9998653373857317  0.5630194544468259  0.1661703758778323   T   T   T
  0.6663097765488830  0.8129940709691467  0.1662335948190208   T   T   T
  0.8329653480299311  0.8129804390866608  0.1662367199431804   T   T   T
  0.9995905531880698  0.8130432047763948  0.1662043193474944   T   T   T
  0.5829638832168053  0.6901090648542142  0.1915977450801390   T   T   T
  0.7496892520902656  0.6900368757427586  0.1916520962316851   T   T   T
  0.9164210748835169  0.6900703751876140  0.1915961832758752   T   T   T
  0.5830765696028331  0.9402614814817052  0.1915873340872075   T   T   T
  0.7497407536720840  0.9402529197214683  0.1916126433691479   T   T   T
  0.9163838860146656  0.9403589182613437  0.1915881508836700   T   T   T
  0.5827261750893702  0.6881334649844465  0.0855651756842560   T   T   T
  0.7493865403447498  0.6880838648652726  0.0855995061474209   T   T   T
  0.9160465446651381  0.6880898827396087  0.0855718459244371   T   T   T
  0.5827300457913009  0.9381113830149377  0.0855663188814273   T   T   T
  0.7493606223478729  0.9381042709520445  0.0855840438880776   T   T   T
  0.9160058384629999  0.9381205259309929  0.0855702574358049   T   T   T
  0.6660597872736379  0.5629415806190192  0.1126254319174601   T   T   T
  0.8327802775392539  0.5628904120630027  0.1126401514538222   T   T   T
  0.9994721109743619  0.5629222611140156  0.1126414842685206   T   T   T
  0.6661131131655543  0.8129686358635265  0.1126889962549467   T   T   T
  0.8327236211923834  0.8129643949800334  0.1126911746312514   T   T   T
  0.9993443557165405  0.8130097325723290  0.1126679095057040   T   T   T
  0.0411599145686627  0.1781038833553575  0.0260793439100881   T   T   T
  0.2076897614821236  0.1781543421084886  0.0261443469762203   T   T   T
  0.3743069645876688  0.1780806427378839  0.0261393018783444   T   T   T
  0.0412195302874671  0.4281304974062723  0.0260621370094658   T   T   T
  0.2077692401361299  0.4280253973743968  0.0260919240215943   T   T   T
  0.3742655403920838  0.4280199600097099  0.0261266362705858   T   T   T
  0.1649441225578550  0.0291897498055285  0.0445760852450558   T   T   T
  0.3315605218517997  0.0291878045840182  0.0445834767473621   T   T   T
  0.4982005929264745  0.0291656606360536  0.0445719078494078   T   T   T
  0.1649133909906569  0.2791813236088712  0.0445815462367242   T   T   T
  0.3315567717366077  0.2791516726665996  0.0445926424148192   T   T   T
  0.4982016395038319  0.2791695703029003  0.0445642208121796   T   T   T
  0.4175382899364276  0.4041392474864228  0.2070973143255131   T   T   T
  0.4174840765149531  0.1539917271490182  0.2070755340000101   T   T   T
  0.0842444634592035  0.1539276520012766  0.2070239205747517   T   T   T
  0.2508733914564095  0.1540967168946079  0.2070762462424633   T   T   T
  0.0843112123661994  0.4040697782009141  0.2070926408851589   T   T   T
  0.2508731650449118  0.4040758901743625  0.2070944188476352   T   T   T
  0.0414018891626404  0.0534457019306347  0.2254855875539260   T   T   T
  0.2079241921815943  0.0537348912630573  0.2254923505715001   T   T   T
  0.3744589962760767  0.0535871653387930  0.2255559967581069   T   T   T
  0.0398925651090727  0.3030452929298446  0.2257607196719676   T   T   T
  0.2074171752542924  0.3036810168630975  0.2255515680201363   T   T   T
  0.3744474739762748  0.3036215705111837  0.2255570889639659   T   T   T
  0.0411156003482882  0.6781987265629101  0.0261167870780811   T   T   T
  0.2077189013944762  0.6781870470059631  0.0261423659812871   T   T   T
  0.3743202359282159  0.6781561417137378  0.0261369878797388   T   T   T
  0.0412323548020668  0.9281057697608039  0.0260746125345834   T   T   T
  0.2077014998715925  0.9280536054682628  0.0261074834225988   T   T   T
  0.3743312067232966  0.9280116826390368  0.0261299354532203   T   T   T
  0.1649108217117922  0.5292488312047741  0.0445906562690813   T   T   T
  0.3315998803957707  0.5292525907075710  0.0445896894786029   T   T   T
  0.4982553155989602  0.5292899831029078  0.0445715912223392   T   T   T
  0.1648962322907387  0.7790979983252779  0.0446039987655705   T   T   T
  0.3315588155465693  0.7791047007179805  0.0446007957427861   T   T   T
  0.4983061991815355  0.7791778113561220  0.0446073966644501   T   T   T
  0.4174258154757193  0.9041704008918861  0.2071194787436829   T   T   T
  0.4173953442217376  0.6539795071228294  0.2070714156364379   T   T   T
  0.0841687777705279  0.6540441696805167  0.2070902280900011   T   T   T
  0.2507400003591987  0.6540520643023698  0.2071157069368366   T   T   T
  0.0841552714494334  0.9041682465570060  0.2071061563187463   T   T   T
  0.2508228547649450  0.9041598213128494  0.2071156114088734   T   T   T
  0.0415496496073682  0.5531314946924590  0.2256008303570282   T   T   T
  0.2079567342035988  0.5524949327016814  0.2256623053793447   T   T   T
  0.3745942483786669  0.5528251928277756  0.2256049023868483   T   T   T
  0.0412111021221275  0.8031000807547494  0.2255750912593472   T   T   T
  0.2074162730628840  0.8033297176504008  0.2256541948912166   T   T   T
  0.3751527023945053  0.8027280957617300  0.2254882483737309   T   T   T
  0.5412267106791768  0.1780704041860452  0.0260846785552059   T   T   T
  0.7077293104924167  0.1781214514379565  0.0262109531094102   T   T   T
  0.8742922322441833  0.1780277263486505  0.0261348957837869   T   T   T
  0.5412477974085187  0.4281283281581211  0.0260646169979150   T   T   T
  0.7078059952414616  0.4279715311981509  0.0260379244647036   T   T   T
  0.8742459503933385  0.4279943999051897  0.0261217946646201   T   T   T
  0.6650392153046818  0.0291493808529543  0.0446425593234807   T   T   T
  0.8314318613077329  0.0291446742283830  0.0446465424903895   T   T   T
  0.9982503831855354  0.0291707360918085  0.0445666662073373   T   T   T
  0.6647823000827733  0.2790522613051604  0.0445753784177993   T   T   T
  0.8316554454762217  0.2790195831284092  0.0446130835147625   T   T   T
  0.9982317866617284  0.2792056240909597  0.0445625796530025   T   T   T
  0.9182401372014511  0.4043433020229457  0.2072131629926866   T   T   T
  0.9178657965100842  0.1536651478202868  0.2068560539535029   T   T   T
  0.5841405729394420  0.1540282793953472  0.2069155049771691   T   T   T
  0.7504528177105084  0.1556446938981846  0.2076092294858220   T   T   T
  0.5835534622280228  0.4042383802142410  0.2070588625710245   T   T   T
  0.7707463276575620  0.4630858120795712  0.2610972967318236   T   T   T
  0.5414008426999352  0.0539679398148803  0.2254011001483626   T   T   T
  0.7079876212533348  0.0542527240714671  0.2254303098237521   T   T   T
  0.8742665167481180  0.0538790810403785  0.2256101396729284   T   T   T
  0.5456990571582221  0.3041823785578007  0.2238264407446450   T   T   T
  0.6850464103941668  0.2855569140165301  0.2307046209338184   T   T   T
  0.8884027068394587  0.2998272140266970  0.2235820770346983   T   T   T
  0.7456275044784693  0.2699007190692868  0.2662755371405847   T   T   T
  0.7343927983075628  0.2281996214527058  0.3005105458547440   T   T   T
  0.7584830828530407  0.3130850514546918  0.3080308244046479   T   T   T
  0.6445573134085815  0.1357285609871239  0.2955353202592367   T   T   T
  0.7189893844082907  0.1094875371165866  0.2865581341907516   T   T   T
  0.8190512400112741  0.3859403691985797  0.3348032980652990   T   T   T
  0.7522997477650547  0.4332251913853664  0.3274827410633394   T   T   T
  0.7512356468508421  0.4362407353744004  0.2690311293669024   T   T   T
  0.7824743096796082  0.2678227845300445  0.2413641781669868   T   T   T
  0.5411626641489218  0.6781925680014624  0.0261155544232369   T   T   T
  0.7077658683460858  0.6782015189292231  0.0261598855798346   T   T   T
  0.8743465595112594  0.6781662916762531  0.0261474220942098   T   T   T
  0.5413537082170418  0.9280953554240186  0.0261011957953632   T   T   T
  0.7077691988391932  0.9280432664565741  0.0261454848255146   T   T   T
  0.8742820791994294  0.9280384154338353  0.0261561333160866   T   T   T
  0.6649492260364716  0.5292747293514662  0.0445825140947975   T   T   T
  0.8315669163542270  0.5292612689582984  0.0445917356582691   T   T   T
  0.9982342237288611  0.5292599446517973  0.0445858107771468   T   T   T
  0.6649347332671454  0.7791684498409006  0.0446379679607447   T   T   T
  0.8315051170472106  0.7791597905547871  0.0446406288785654   T   T   T
  0.9981194847498914  0.7791651642994343  0.0446147846630988   T   T   T
  0.9174316719790079  0.9043314657493877  0.2071418225824102   T   T   T
  0.9176158918295986  0.6539206608881861  0.2071253848612388   T   T   T
  0.5838716635286785  0.6540366665359824  0.2071432433198143   T   T   T
  0.7506853956250231  0.6540344718895508  0.2072131605221610   T   T   T
  0.5841151700244687  0.9042002001579229  0.2071328640582053   T   T   T
  0.7508724547532104  0.9041891653278515  0.2071570857578214   T   T   T
  0.5407384889932160  0.5527652584845701  0.2257450356343184   T   T   T
  0.7085754007598301  0.5516252477750468  0.2257398801624637   T   T   T
  0.8739002055987877  0.5518723468029132  0.2261787815885818   T   T   T
  0.5411801765230851  0.8030569313050288  0.2255797050020504   T   T   T
  0.7074305272153212  0.8032895056399217  0.2256698397776984   T   T   T
  0.8752224924252086  0.8027426932353218  0.2254948822394813   T   T   T
  0.0871082874894696  0.1702397892873870  0.0339163511519049   T   T   T
  0.2537413602831511  0.1702424315704900  0.0339208819392416   T   T   T
  0.4203775214951861  0.1702677397918465  0.0339152933054830   T   T   T
  0.0871403463020097  0.4200726038640525  0.0338978658170873   T   T   T
  0.2537841852569958  0.4200317709692887  0.0338859610591306   T   T   T
  0.4203708672435799  0.4200522116090448  0.0338722064447893   T   T   T
  0.1619099534519495  0.0450172472406650  0.2177757314012380   T   T   T
  0.3284968263083687  0.0449844551451839  0.2177994722035047   T   T   T
  0.4952686177569594  0.0449658183117299  0.2177897889028020   T   T   T
  0.1615733419237052  0.2947515889123041  0.2177618563552206   T   T   T
  0.3285781306150439  0.2949120149127986  0.2177703812046885   T   T   T
  0.4972157981136387  0.2944033060113928  0.2177376659760331   T   T   T
  0.0870912717653013  0.6702985937466389  0.0339402988398317   T   T   T
  0.2537411366166672  0.6702949328148845  0.0339392571399448   T   T   T
  0.4203725409919338  0.6703535735496482  0.0339224133336557   T   T   T
  0.0871840532527430  0.9198941505634546  0.0338856185424607   T   T   T
  0.2537280269145128  0.9199406131681798  0.0338836893211898   T   T   T
  0.4204055111427047  0.9199950098394247  0.0338813647328119   T   T   T
  0.1620077622994117  0.5449696210861876  0.2177923605765481   T   T   T
  0.3285820131350657  0.5449546423934271  0.2177996759641627   T   T   T
  0.4949904941529237  0.5452638710845154  0.2177671769818666   T   T   T
  0.1615668931374743  0.7949004171159845  0.2178123698075979   T   T   T
  0.3288925796799893  0.7948775197157453  0.2178213384335961   T   T   T
  0.4951532633310103  0.7948387836819877  0.2178174494478614   T   T   T
  0.5871737081158889  0.1700951262789468  0.0339157845495920   T   T   T
  0.7537656911919723  0.1703393831547204  0.0340150411869503   T   T   T
  0.9203589698974952  0.1701428321903519  0.0338965610551090   T   T   T
  0.5871747163465248  0.4200173770938082  0.0338964275384588   T   T   T
  0.7538140313206413  0.4197861357234063  0.0338125220669841   T   T   T
  0.9203216335774417  0.4201086173956931  0.0338945703759920   T   T   T
  0.6618413503003268  0.0449116227022642  0.2178567381775002   T   T   T
  0.8283295310880001  0.0450814023246888  0.2178525858853792   T   T   T
  0.9953340862791535  0.0451451144698931  0.2177549488048445   T   T   T
  0.6573944673051670  0.3030421017852155  0.2166198495453181   T   T   T
  0.8385803822437409  0.2959964017936755  0.2179196766933051   T   T   T
  0.9945325435638981  0.2942447273016187  0.2176714737281972   T   T   T
  0.7604900520705785  0.2746016820120270  0.2955060965592798   T   T   T
  0.6952257630440077  0.1325167036753519  0.2998362375487952   T   T   T
  0.7682988942263258  0.3813298038291085  0.3307444547899233   T   T   T
  0.7389654589543322  0.2525729811746749  0.2500571550514734   T   T   T
  0.5871262266828018  0.6703418188272651  0.0339476369843389   T   T   T
  0.7537471697057410  0.6703731298735151  0.0339873343824943   T   T   T
  0.9203628965676088  0.6703695431556366  0.0339546448353473   T   T   T
  0.5872800468468831  0.9200119805109114  0.0339393396078903   T   T   T
  0.7537900138868986  0.9200545763929324  0.0339401823962291   T   T   T
  0.9203489573282915  0.9200816752302849  0.0339177960146565   T   T   T
  0.6623097793111339  0.5441096458359319  0.2180525057012623   T   T   T
  0.8284727897471840  0.5446402761737047  0.2179668291361692   T   T   T
  0.9955626525893710  0.5450737950734637  0.2177912729791735   T   T   T
  0.6616007858907341  0.7947917409469659  0.2178234898741197   T   T   T
  0.8289876872658020  0.7947346086332732  0.2178339533375896   T   T   T
  0.9951981434358850  0.7948573873543472  0.2178085111879353   T   T   T
  0.2493313984229013  0.1240044183354510  0.0592844897230935   T   T   T
  0.4159853711058216  0.1239990202941530  0.0592769852004708   T   T   T
  0.0826777466637633  0.3739842070886103  0.0592622697726138   T   T   T
  0.2493323856029150  0.3739713014225864  0.0592746746254605   T   T   T
  0.4159685799503821  0.3739778738654976  0.0592651152937134   T   T   T
  0.0826688593050929  0.1239862169825599  0.0592656584251351   T   T   T
  0.4995526255800595  0.0005477099479172  0.1392949722497906   T   T   T
  0.1662746018808570  0.0005587256618248  0.1392852493884163   T   T   T
  0.3329266896619857  0.0005880425358344  0.1392976542565961   T   T   T
  0.4995440111223160  0.2506249393265708  0.1392582110615958   T   T   T
  0.1662858344461069  0.2506194977370171  0.1392710300857371   T   T   T
  0.3329111104589138  0.2506268639755975  0.1392822445331758   T   T   T
  0.0830294689073313  0.1252024380714465  0.1656372276936741   T   T   T
  0.2496446869005409  0.1253193628666235  0.1656877674061277   T   T   T
  0.4162990351494024  0.1252845980355884  0.1656899029187235   T   T   T
  0.0830995458829579  0.3753073987583754  0.1656893302305382   T   T   T
  0.2496362063868659  0.3752870819782426  0.1656972611121366   T   T   T
  0.4162043964999157  0.3752934150769803  0.1656909487799545   T   T   T
  0.1664787746574263  0.4989509281440864  0.1924020421966104   T   T   T
  0.3329630371268225  0.4989525709610278  0.1924027467996823   T   T   T
  0.4992266098835222  0.4992189692674754  0.1923846735611136   T   T   T
  0.1664469862512239  0.2489036963272312  0.1923665015203743   T   T   T
  0.4998241943016105  0.2486008934040814  0.1922930953022586   T   T   T
  0.3330847918528664  0.2489413334161107  0.1923825810078416   T   T   T
  0.4994207406152903  0.0003527903029796  0.0859587025089540   T   T   T
  0.1661002616522052  0.0003488861231810  0.0859541977752901   T   T   T
  0.3327636416131522  0.0003572215228202  0.0859600972994031   T   T   T
  0.4994107769168029  0.2503711901607137  0.0859510220470909   T   T   T
  0.1661186620724451  0.2503878482648375  0.0859639415209336   T   T   T
  0.3327658168263615  0.2503831528888250  0.0859738498013774   T   T   T
  0.0827878200550009  0.1255925860116325  0.1123268937651750   T   T   T
  0.2494437670774640  0.1255881968087733  0.1123486356173073   T   T   T
  0.4160980891032777  0.1255840023765404  0.1123500415073130   T   T   T
  0.0828267122038380  0.3756633501895869  0.1123311855024891   T   T   T
  0.2494423491138013  0.3756662930599702  0.1123441263300884   T   T   T
  0.4160581697643543  0.3756707585904921  0.1123390815660516   T   T   T
  0.2493283016635672  0.6240379740340399  0.0592954524531978   T   T   T
  0.4159836966601549  0.6240763027717807  0.0592794901182571   T   T   T
  0.0826578530481618  0.8739111627729457  0.0592758957600204   T   T   T
  0.2493174158604952  0.8739193281217716  0.0592745866615249   T   T   T
  0.4159840856773022  0.8739323831614282  0.0592741442820980   T   T   T
  0.0826679229391091  0.6240482985251220  0.0592903843471305   T   T   T
  0.4994235541878130  0.5006768151362327  0.1392704620900954   T   T   T
  0.1663016930372683  0.5006373863549223  0.1393005532877545   T   T   T
  0.3328618231914445  0.5006527201710288  0.1393013380082616   T   T   T
  0.4994618345787095  0.7507027004544038  0.1393244900163215   T   T   T
  0.1662736260990755  0.7506868743824094  0.1393090722983968   T   T   T
  0.3328655632444698  0.7506816503158521  0.1393077944930012   T   T   T
  0.0831214284179642  0.6253930861090697  0.1657070547673306   T   T   T
  0.2495973876190268  0.6253797117394211  0.1657250251249036   T   T   T
  0.4160465489108961  0.6254297744881544  0.1656864759641367   T   T   T
  0.0829612690842409  0.8753146820591142  0.1657314435125485   T   T   T
  0.2496125122842251  0.8753156532362032  0.1657322599426245   T   T   T
  0.4162448981909491  0.8753302718265030  0.1657379634219016   T   T   T
  0.1663794802091818  0.9989646603765996  0.1923940933546376   T   T   T
  0.3330288820166548  0.9989813171089253  0.1924076588011585   T   T   T
  0.4996933606312537  0.9989835728179822  0.1923925764594095   T   T   T
  0.1663659235739837  0.7489508870871586  0.1924162385508688   T   T   T
  0.4996007598226906  0.7489270921797603  0.1924144616803463   T   T   T
  0.3330168116013638  0.7489284607344524  0.1924131499195747   T   T   T
  0.4993893026114183  0.5004237542485709  0.0859442683209965   T   T   T
  0.1661228428240896  0.5004112844512200  0.0859649512901060   T   T   T
  0.3327590890882219  0.5004207411020841  0.0859650776423928   T   T   T
  0.4994350279213551  0.7504149440296425  0.0859897403709704   T   T   T
  0.1661206619290215  0.7503793722886603  0.0859848382718988   T   T   T
  0.3327578047463741  0.7503944026475330  0.0859802487762681   T   T   T
  0.0828043467227610  0.6256336053733468  0.1123635289511149   T   T   T
  0.2494274742661679  0.6256373809055312  0.1123692621707128   T   T   T
  0.4160384244540721  0.6256727170932274  0.1123516129728102   T   T   T
  0.0827861811847923  0.8756196103526069  0.1123579677353722   T   T   T
  0.2494353004425285  0.8756489655587750  0.1123523121242948   T   T   T
  0.4160632060064320  0.8756233476058978  0.1123590494954294   T   T   T
  0.7493243719341097  0.1239860007317246  0.0593648016822479   T   T   T
  0.9159901516967134  0.1239485750707562  0.0592681465143781   T   T   T
  0.5826431457991038  0.3739242622939994  0.0592578387083372   T   T   T
  0.7493112413357462  0.3738048289722468  0.0592031746592305   T   T   T
  0.9159795381326397  0.3739392990740316  0.0592702617750474   T   T   T
  0.5826525342583564  0.1239365430800866  0.0592769141696608   T   T   T
  0.9996288516983317  0.0005126189007245  0.1392765277671373   T   T   T
  0.6663955364666014  0.0007702910031353  0.1393856224337465   T   T   T
  0.8327575562528772  0.0007824309510264  0.1393849162534595   T   T   T
  0.9996373162512655  0.2505967922820285  0.1392379778990835   T   T   T
  0.6660552205941968  0.2505679604959941  0.1392763208581042   T   T   T
  0.8329829029684552  0.2505022656744172  0.1392754591842223   T   T   T
  0.5829484207885679  0.1251361944831176  0.1656496669088146   T   T   T
  0.7495186049330318  0.1262668561071472  0.1660829899327344   T   T   T
  0.9164129678733934  0.1249981030880572  0.1655742606152416   T   T   T
  0.5826206736349848  0.3755618294852146  0.1656369414601744   T   T   T
  0.7494886371742372  0.3742603791352952  0.1654297573266358   T   T   T
  0.9164950465232820  0.3753892206135503  0.1657047717989613   T   T   T
  0.6651348672769242  0.4989208207489628  0.1926331287047124   T   T   T
  0.8342749072337907  0.4989015214039525  0.1926931412255112   T   T   T
  0.0002033275921080  0.4991281435492402  0.1924118520879794   T   T   T
  0.6652825487978943  0.2509213063904583  0.1926740953688761   T   T   T
  0.9999129520607621  0.2484259225616062  0.1921938565292096   T   T   T
  0.8339327857919655  0.2492677481677276  0.1924579384842263   T   T   T
  0.9994318281819822  0.0003589451729994  0.0859528699170847   T   T   T
  0.6661044239929949  0.0003965499457070  0.0860238543624008   T   T   T
  0.8327304447202128  0.0004063160625435  0.0860245246660453   T   T   T
  0.9994610625953579  0.2503728240623476  0.0859460201173597   T   T   T
  0.6660378136803395  0.2502665145351792  0.0859569856158812   T   T   T
  0.8328130546787585  0.2502570446091495  0.0859759175336073   T   T   T
  0.5827299363351597  0.1255769533285581  0.1123399541314370   T   T   T
  0.7494115166232516  0.1256468187775008  0.1124896615401180   T   T   T
  0.9161258150813256  0.1255868544622714  0.1123224824681542   T   T   T