C H O Si                                
   1.00000000000000     
     9.2874599999999994    0.0000000000000000    0.0000000000000000
     0.0000000000000000    8.7563099999999991    0.0000000000000000
     0.0000000000000000    0.0000000000000000   58.0000000000000000
   C    H    O    Si
    36    32    16    36
Selective dynamics
Direct
  0.9931609453454512  0.1258863672755912  0.0606174410541602   T   T   T
  0.3266108150694481  0.1257697810629105  0.0605628154359822   T   T   T
  0.6598407323821277  0.1256628277663594  0.0607521807531490   T   T   T
  0.9931034504148704  0.6259347907919935  0.0606179813823222   T   T   T
  0.3266297329314155  0.6257724520994504  0.0607318715412957   T   T   T
  0.6598920337055282  0.6257118962738216  0.0607563363900456   T   T   T
  0.1596515779252233  0.3717200805128402  0.1393682390304297   T   T   T
  0.4929802844626039  0.3708065352512941  0.1397011687105885   T   T   T
  0.8261485301364854  0.3714945044410224  0.1395435809892459   T   T   T
  0.1596953535239562  0.8715841499545478  0.1395112151034036   T   T   T
  0.4928508672348042  0.8709796206243364  0.1397276250675114   T   T   T
  0.8255465914977937  0.8712307411339537  0.1395480621660860   T   T   T
  0.3267380924750237  0.1226676255454793  0.1661314928223718   T   T   T
  0.6590381649738775  0.1219573619835508  0.1669636354566923   T   T   T
  0.9931149301315803  0.1206307701435511  0.1664360112475243   T   T   T
  0.3257291758368003  0.6220373478295720  0.1670147232226969   T   T   T
  0.6594720106254104  0.6205404364639870  0.1672003356633614   T   T   T
  0.9932908647459187  0.6221826917388045  0.1665059829272965   T   T   T
  0.1578828612811703  0.3743548302028608  0.1914506562396333   T   T   T
  0.4893663556583958  0.3721740792212641  0.1935483768207224   T   T   T
  0.8260421431960386  0.3733183213166605  0.1917724196475912   T   T   T
  0.1622626821664198  0.8776058211553546  0.1921741961308962   T   T   T
  0.4932143002557963  0.8783328254209406  0.1924415335886942   T   T   T
  0.8282354353131757  0.8748838809464698  0.1918184756329682   T   T   T
  0.1595468293967368  0.3717105686396019  0.0859430567037394   T   T   T
  0.4928558596272289  0.3715812226715578  0.0860583247019081   T   T   T
  0.8260672315708263  0.3716274381105416  0.0860280332785101   T   T   T
  0.1595918917263359  0.8716530433654449  0.0859986348028264   T   T   T
  0.4928282452258665  0.8715549712079907  0.0861131913594653   T   T   T
  0.8260292336607654  0.8716624410343777  0.0860320083526014   T   T   T
  0.3262272065971514  0.1213520412673746  0.1130086263974200   T   T   T
  0.6593015387271810  0.1213747621892189  0.1133013428984017   T   T   T
  0.9926874000379107  0.1213873712282283  0.1131103113646481   T   T   T
  0.3262044792636833  0.6212512741411356  0.1132782906011079   T   T   T
  0.6593862156747200  0.6212080393306293  0.1133132509315273   T   T   T
  0.9927124945064130  0.6215492927689755  0.1130887473921819   T   T   T
  0.0750050189153119  0.3569700689021870  0.0275236922823452   T   T   T
  0.4085873760731411  0.3564705829196215  0.0275856512469744   T   T   T
  0.7401792454237665  0.3564538227339606  0.0276816073915030   T   T   T
  0.0752766891201317  0.8567992909554851  0.0275747518385358   T   T   T
  0.4081219702941323  0.8565957879873050  0.0276989435266111   T   T   T
  0.7404213732841610  0.8566056300936984  0.0276597299650319   T   T   T
  0.3241293664508219  0.0534817856447769  0.0450316495090674   T   T   T
  0.6569112458747918  0.0527598328444505  0.0452837598260292   T   T   T
  0.9901895299691795  0.0532354362280954  0.0451264143005203   T   T   T
  0.3240949713391840  0.5529102400872258  0.0452523867833989   T   T   T
  0.6569093436145134  0.5527978017735184  0.0452845430236974   T   T   T
  0.9902157250997509  0.5533741290805304  0.0451190501394204   T   T   T
  0.8300954749072854  0.8025850345060789  0.2073447725562691   T   T   T
  0.8301184313713136  0.2995434877709656  0.2071474948584571   T   T   T
  0.1572872628161855  0.3018185266248172  0.2069375197727482   T   T   T
  0.1646575565902459  0.8036888985504762  0.2075243046898430   T   T   T
  0.4906911600036362  0.8058865146039719  0.2079676221399749   T   T   T
  0.0831974302207993  0.1117155479308105  0.2239335331171407   T   T   T
  0.3865609852508828  0.1996105792172748  0.2133625168778108   T   T   T
  0.7722465282556423  0.0901420451704028  0.2240528516195782   T   T   T
  0.0860152016743510  0.5996775335253729  0.2236961210937970   T   T   T
  0.3740255233396542  0.6138626374556621  0.2286833426609080   T   T   T
  0.7798922079905451  0.5912909555128897  0.2226807454806734   T   T   T
  0.5452773240901125  0.6083018507688582  0.2739157567941069   T   T   T
  0.4905879852249747  0.4734063104825186  0.2936025350037030   T   T   T
  0.5698739874690780  0.6375573170446586  0.3031670703044131   T   T   T
  0.3107782813140405  0.3806244195195377  0.3095882687082679   T   T   T
  0.4227669550710783  0.2554879206496589  0.3026290599583383   T   T   T
  0.6517452563693177  0.7334866333201798  0.3333946404213549   T   T   T
  0.4866330204653492  0.7619763864549035  0.3307216460636620   T   T   T
  0.5186447721708305  0.7859737040224125  0.2523996685541255   T   T   T
  0.5850022071597891  0.6407965331757220  0.2388363855409662   T   T   T
  0.1691279096000965  0.3328679380538177  0.0340986014863431   T   T   T
  0.5027817798954891  0.3325241652216407  0.0341581353947628   T   T   T
  0.8346809528045164  0.3328346320833671  0.0341764917415658   T   T   T
  0.1693811477353733  0.8323913483937814  0.0341338148921892   T   T   T
  0.5023952468944644  0.8329021200913359  0.0342640926768396   T   T   T
  0.8348433388713312  0.8328269104970788  0.0341676044574497   T   T   T
  0.3228748575275255  0.1084140253464121  0.2164350585353645   T   T   T
  0.6713737574546842  0.0768239713790376  0.2194759332412394   T   T   T
  0.9874962261371070  0.0816433213590430  0.2185015845542523   T   T   T
  0.2954089055414412  0.5843322046828516  0.2183144081209828   T   T   T
  0.6768602532891608  0.5809035992128256  0.2189506769445763   T   T   T
  0.9872078642031595  0.5800905837956891  0.2182340894975991   T   T   T
  0.5678902775765716  0.5567198681974516  0.2900137476768518   T   T   T
  0.3796764096451123  0.3516918574879880  0.2976567739550752   T   T   T
  0.5767950928926497  0.7563323135943451  0.3221184773970576   T   T   T
  0.5132853922541446  0.6748642559518051  0.2513460471178394   T   T   T
  0.4934934636346816  0.2431155706509281  0.0600578473453087   T   T   T
  0.8264933914758045  0.2430419057903525  0.0600309915095998   T   T   T
  0.1601355511580052  0.7429362148100978  0.0600171646205210   T   T   T
  0.4934730791015003  0.7429825165138009  0.0601128196194036   T   T   T
  0.8265109366447044  0.7431424719240428  0.0600303448625470   T   T   T
  0.1601477816626075  0.2430725074142948  0.0599535651143709   T   T   T
  0.9926633452049791  0.9954587942320958  0.1397514001223702   T   T   T
  0.3267672538077711  0.9968093596402394  0.1397463487099296   T   T   T
  0.6588005153710674  0.9967769614870881  0.1401315657914489   T   T   T
  0.9930482961629398  0.4963062807054937  0.1397611122762257   T   T   T
  0.3271022790632645  0.4964496873912248  0.1401474820121731   T   T   T
  0.6585856907168604  0.4961600319300741  0.1401675592144308   T   T   T
  0.1597138134504322  0.2450510606957542  0.1658222125517136   T   T   T
  0.4924891846763926  0.2505696184255323  0.1675212852958707   T   T   T
  0.8259623361336733  0.2444161821242531  0.1660510327803331   T   T   T
  0.1609141631364778  0.7461905073599044  0.1662701914089600   T   T   T
  0.4928632005682214  0.7453648795370980  0.1665838493840933   T   T   T
  0.8257791306009571  0.7445264889260148  0.1661689101215858   T   T   T
  0.3271103876851085  0.9989175031423095  0.1924548351011564   T   T   T
  0.6618371494487727  0.9939433725401764  0.1932119949542870   T   T   T
  0.9942922353670245  0.9922360000856381  0.1924760730280770   T   T   T
  0.3275865183038690  0.4884467914179858  0.1931759236212366   T   T   T
  0.9920489880517495  0.4910352510844810  0.1921782004414136   T   T   T
  0.6542423071708515  0.4837549654921901  0.1931423358411937   T   T   T
  0.9928455317035372  0.9958976755711676  0.0866115989566625   T   T   T
  0.3263168940314006  0.9960177981418532  0.0865738325378178   T   T   T
  0.6593955033365887  0.9959978761524685  0.0867659662810793   T   T   T
  0.9928219753514725  0.4959574528256780  0.0865960061704300   T   T   T
  0.3263909808295916  0.4959064757858622  0.0867354806582854   T   T   T
  0.6593855107074104  0.4958902804906247  0.0867622159133472   T   T   T
  0.1596735818093020  0.2462789755863617  0.1129035779159562   T   T   T
  0.4927917826601692  0.2467468508232344  0.1131908930427224   T   T   T
  0.8258900648374345  0.2462953552944152  0.1130215293752189   T   T   T
  0.1597193105948758  0.7461933734043763  0.1130161320668956   T   T   T
  0.4928124932735281  0.7461426418133157  0.1131511219014974   T   T   T
  0.8257326321600724  0.7462563374383501  0.1130213096049605   T   T   T
 
  0.00000000E+00  0.00000000E+00  0.00000000E+00
  0.00000000E+00  0.00000000E+00  0.00000000E+00
  0.00000000E+00  0.00000000E+00  0.00000000E+00
  0.00000000E+00  0.00000000E+00  0.00000000E+00
  0.00000000E+00  0.00000000E+00  0.00000000E+00
  0.00000000E+00  0.00000000E+00  0.00000000E+00
  0.00000000E+00  0.00000000E+00  0.00000000E+00
  0.00000000E+00  0.00000000E+00  0.00000000E+00
  0.00000000E+00  0.00000000E+00  0.00000000E+00
  0.00000000E+00  0.00000000E+00  0.00000000E+00
  0.00000000E+00  0.00000000E+00  0.00000000E+00
  0.00000000E+00  0.00000000E+00  0.00000000E+00
  0.00000000E+00  0.00000000E+00  0.00000000E+00
  0.00000000E+00  0.00000000E+00  0.00000000E+00
  0.00000000E+00  0.00000000E+00  0.00000000E+00
  0.00000000E+00  0.00000000E+00  0.00000000E+00
  0.00000000E+00  0.00000000E+00  0.00000000E+00
  0.00000000E+00  0.00000000E+00  0.00000000E+00
  0.00000000E+00  0.00000000E+00  0.00000000E+00
  0.00000000E+00  0.00000000E+00  0.00000000E+00
  0.00000000E+00  0.00000000E+00  0.00000000E+00
  0.00000000E+00  0.00000000E+00  0.00000000E+00
  0.00000000E+00  0.00000000E+00  0.00000000E+00
  0.00000000E+00  0.00000000E+00  0.00000000E+00
  0.00000000E+00  0.00000000E+00  0.00000000E+00
  0.00000000E+00  0.00000000E+00  0.00000000E+00
  0.00000000E+00  0.00000000E+00  0.00000000E+00
  0.00000000E+00  0.00000000E+00  0.00000000E+00
  0.00000000E+00  0.00000000E+00  0.00000000E+00
  0.00000000E+00  0.00000000E+00  0.00000000E+00
  0.00000000E+00  0.00000000E+00  0.00000000E+00
  0.00000000E+00  0.00000000E+00  0.00000000E+00
  0.00000000E+00  0.00000000E+00  0.00000000E+00
  0.00000000E+00  0.00000000E+00  0.00000000E+00
  0.00000000E+00  0.00000000E+00  0.00000000E+00
  0.00000000E+00  0.00000000E+00  0.00000000E+00
  0.00000000E+00  0.00000000E+00  0.00000000E+00
  0.00000000E+00  0.00000000E+00  0.00000000E+00
  0.00000000E+00  0.00000000E+00  0.00000000E+00
  0.00000000E+00  0.00000000E+00  0.00000000E+00
  0.00000000E+00  0.00000000E+00  0.00000000E+00
  0.00000000E+00  0.00000000E+00  0.00000000E+00
  0.00000000E+00  0.00000000E+00  0.00000000E+00
  0.00000000E+00  0.00000000E+00  0.00000000E+00
  0.00000000E+00  0.00000000E+00  0.00000000E+00
  0.00000000E+00  0.00000000E+00  0.00000000E+00
  0.00000000E+00  0.00000000E+00  0.00000000E+00
  0.00000000E+00  0.00000000E+00  0.00000000E+00
  0.00000000E+00  0.00000000E+00  0.00000000E+00
  0.00000000E+00  0.00000000E+00  0.00000000E+00
  0.00000000E+00  0.00000000E+00  0.00000000E+00
  0.00000000E+00  0.00000000E+00  0.00000000E+00
  0.00000000E+00  0.00000000E+00  0.00000000E+00
  0.00000000E+00  0.00000000E+00  0.00000000E+00
  0.00000000E+00  0.00000000E+00  0.00000000E+00
  0.00000000E+00  0.00000000E+00  0.00000000E+00
  0.00000000E+00  0.00000000E+00  0.00000000E+00
  0.00000000E+00  0.00000000E+00  0.00000000E+00
  0.00000000E+00  0.00000000E+00  0.00000000E+00
  0.00000000E+00  0.00000000E+00  0.00000000E+00
  0.00000000E+00  0.00000000E+00  0.00000000E+00
  0.00000000E+00  0.00000000E+00  0.00000000E+00
  0.00000000E+00  0.00000000E+00  0.00000000E+00
  0.00000000E+00  0.00000000E+00  0.00000000E+00
  0.00000000E+00  0.00000000E+00  0.00000000E+00
  0.00000000E+00  0.00000000E+00  0.00000000E+00
  0.00000000E+00  0.00000000E+00  0.00000000E+00
  0.00000000E+00  0.00000000E+00  0.00000000E+00
  0.00000000E+00  0.00000000E+00  0.00000000E+00
  0.00000000E+00  0.00000000E+00  0.00000000E+00
  0.00000000E+00  0.00000000E+00  0.00000000E+00
  0.00000000E+00  0.00000000E+00  0.00000000E+00
  0.00000000E+00  0.00000000E+00  0.00000000E+00
  0.00000000E+00  0.00000000E+00  0.00000000E+00
  0.00000000E+00  0.00000000E+00  0.00000000E+00
  0.00000000E+00  0.00000000E+00  0.00000000E+00
  0.00000000E+00  0.00000000E+00  0.00000000E+00
  0.00000000E+00  0.00000000E+00  0.00000000E+00
  0.00000000E+00  0.00000000E+00  0.00000000E+00
  0.00000000E+00  0.00000000E+00  0.00000000E+00
  0.00000000E+00  0.00000000E+00  0.00000000E+00
  0.00000000E+00  0.00000000E+00  0.00000000E+00
  0.00000000E+00  0.00000000E+00  0.00000000E+00
  0.00000000E+00  0.00000000E+00  0.00000000E+00
  0.00000000E+00  0.00000000E+00  0.00000000E+00
  0.00000000E+00  0.00000000E+00  0.00000000E+00
  0.00000000E+00  0.00000000E+00  0.00000000E+00
  0.00000000E+00  0.00000000E+00  0.00000000E+00
  0.00000000E+00  0.00000000E+00  0.00000000E+00
  0.00000000E+00  0.00000000E+00  0.00000000E+00
  0.00000000E+00  0.00000000E+00  0.00000000E+00
  0.00000000E+00  0.00000000E+00  0.00000000E+00
  0.00000000E+00  0.00000000E+00  0.00000000E+00
  0.00000000E+00  0.00000000E+00  0.00000000E+00
  0.00000000E+00  0.00000000E+00  0.00000000E+00
  0.00000000E+00  0.00000000E+00  0.00000000E+00
  0.00000000E+00  0.00000000E+00  0.00000000E+00
  0.00000000E+00  0.00000000E+00  0.00000000E+00
  0.00000000E+00  0.00000000E+00  0.00000000E+00
  0.00000000E+00  0.00000000E+00  0.00000000E+00
  0.00000000E+00  0.00000000E+00  0.00000000E+00
  0.00000000E+00  0.00000000E+00  0.00000000E+00
  0.00000000E+00  0.00000000E+00  0.00000000E+00
  0.00000000E+00  0.00000000E+00  0.00000000E+00
  0.00000000E+00  0.00000000E+00  0.00000000E+00
  0.00000000E+00  0.00000000E+00  0.00000000E+00
  0.00000000E+00  0.00000000E+00  0.00000000E+00
  0.00000000E+00  0.00000000E+00  0.00000000E+00
  0.00000000E+00  0.00000000E+00  0.00000000E+00
  0.00000000E+00  0.00000000E+00  0.00000000E+00
  0.00000000E+00  0.00000000E+00  0.00000000E+00
  0.00000000E+00  0.00000000E+00  0.00000000E+00
  0.00000000E+00  0.00000000E+00  0.00000000E+00
  0.00000000E+00  0.00000000E+00  0.00000000E+00
  0.00000000E+00  0.00000000E+00  0.00000000E+00
  0.00000000E+00  0.00000000E+00  0.00000000E+00
  0.00000000E+00  0.00000000E+00  0.00000000E+00
  0.00000000E+00  0.00000000E+00  0.00000000E+00
  0.00000000E+00  0.00000000E+00  0.00000000E+00
  0.00000000E+00  0.00000000E+00  0.00000000E+00
