C H O Si                                
   1.00000000000000     
     9.2874599999999994    0.0000000000000000    0.0000000000000000
     0.0000000000000000    8.7563099999999991    0.0000000000000000
     0.0000000000000000    0.0000000000000000   58.0000000000000000
   C    H    O    Si
    36    32    16    36
Selective dynamics
Direct
  0.9931696299093650  0.1258609882360251  0.0606280576242903   T   T   T
  0.3265842607356390  0.1257192992676890  0.0605627639222663   T   T   T
  0.6597225902666262  0.1256026473593438  0.0607501586266780   T   T   T
  0.9930963548173293  0.6259664754576681  0.0606245095807958   T   T   T
  0.3265850454882833  0.6256899833940753  0.0607315043724993   T   T   T
  0.6597666139231035  0.6256474006956600  0.0607485501314210   T   T   T
  0.1596057801718651  0.3717379098068256  0.1393651060967046   T   T   T
  0.4929367161791856  0.3707258905318151  0.1397110176097388   T   T   T
  0.8261951739312559  0.3715468790978448  0.1395355360477384   T   T   T
  0.1597048480982328  0.8716054386675930  0.1395044015922407   T   T   T
  0.4928028905987028  0.8708774513136417  0.1397309308207545   T   T   T
  0.8255975832779695  0.8712632981011471  0.1395489106928136   T   T   T
  0.3267707626859843  0.1226554717460935  0.1661303454160411   T   T   T
  0.6590098778554220  0.1218937728957422  0.1669711305145485   T   T   T
  0.9930232607851247  0.1206563358712270  0.1664427173680119   T   T   T
  0.3257636312591717  0.6220022349654470  0.1670247321397800   T   T   T
  0.6594101848896907  0.6206489386592936  0.1672000006650484   T   T   T
  0.9932339228076390  0.6221273997035408  0.1665059269975319   T   T   T
  0.1579158161023828  0.3742780407631456  0.1914608223061464   T   T   T
  0.4893552041424536  0.3721423468986382  0.1935551794930032   T   T   T
  0.8260219368197279  0.3732687180216296  0.1917854600517946   T   T   T
  0.1621322997279442  0.8776252907507537  0.1921777043427661   T   T   T
  0.4931634433029100  0.8783716986317101  0.1924409844944180   T   T   T
  0.8282575335461347  0.8748296093274510  0.1918262516256335   T   T   T
  0.1595605486397917  0.3716078049012096  0.0859414146916000   T   T   T
  0.4928203532737080  0.3715340423412077  0.0860523530985467   T   T   T
  0.8260539298436673  0.3716475609143284  0.0860216223512451   T   T   T
  0.1595948855062978  0.8715889542191260  0.0859972825751038   T   T   T
  0.4927899144420164  0.8715169780579010  0.0861060049316212   T   T   T
  0.8259903608011745  0.8716711316030979  0.0860332469140537   T   T   T
  0.3262013241322543  0.1214322084323426  0.1130121382518758   T   T   T
  0.6592312968859562  0.1212567637954750  0.1133029076272548   T   T   T
  0.9927514395859961  0.1214007045535242  0.1131151881089815   T   T   T
  0.3261127494222258  0.6212061964130026  0.1132811328125076   T   T   T
  0.6593744510975491  0.6211827844122009  0.1133211527030495   T   T   T
  0.9927422721248479  0.6215694220496768  0.1130879454420285   T   T   T
  0.0749996406780454  0.3568835160062633  0.0275519390427909   T   T   T
  0.4085288718157712  0.3563937046870597  0.0276131637573537   T   T   T
  0.7401373970056458  0.3564369287615973  0.0276962995889454   T   T   T
  0.0752549038408699  0.8567257325440527  0.0276049321146798   T   T   T
  0.4080889544387843  0.8565333029011424  0.0277233868521603   T   T   T
  0.7403910213117655  0.8565646528704830  0.0276786752287527   T   T   T
  0.3241188733934354  0.0534538453871858  0.0450273497502729   T   T   T
  0.6568839873655945  0.0527530612401056  0.0452784784800888   T   T   T
  0.9901627313340287  0.0532387408309485  0.0451307084835135   T   T   T
  0.3240731027044407  0.5529190627887606  0.0452495632095149   T   T   T
  0.6568874627921820  0.5527893369836168  0.0452787004915743   T   T   T
  0.9901884401317380  0.5533683102818679  0.0451258300049212   T   T   T
  0.8300656919548548  0.8026374952551522  0.2073469355734661   T   T   T
  0.8301695838841594  0.2995606185302976  0.2071533423552457   T   T   T
  0.1572260872680407  0.3018438513415131  0.2069466221924327   T   T   T
  0.1646461409702160  0.8036645718919235  0.2075217456468410   T   T   T
  0.4906715206222438  0.8059351593015773  0.2079657397055802   T   T   T
  0.0833503908918993  0.1117100397394529  0.2239365305876146   T   T   T
  0.3864971713814103  0.1996647342653480  0.2133591372093797   T   T   T
  0.7722358278119209  0.0901532994036543  0.2240614769729046   T   T   T
  0.0860895397866622  0.5996869469480915  0.2237047449239402   T   T   T
  0.3740194647778451  0.6138194363735352  0.2286748053680049   T   T   T
  0.7798780068820139  0.5913443557039024  0.2226779186388535   T   T   T
  0.5453710695829542  0.6083857765775668  0.2739220918195564   T   T   T
  0.4906669269537529  0.4734273848832642  0.2935981362911542   T   T   T
  0.5699357933399043  0.6375862343295888  0.3031619096394056   T   T   T
  0.3108441440947731  0.3807064232891725  0.3095878687230568   T   T   T
  0.4227850998187793  0.2555549669274300  0.3026273111851039   T   T   T
  0.6517241209285036  0.7334462848937953  0.3334075315023374   T   T   T
  0.4865998332145614  0.7618816492151568  0.3307294532677251   T   T   T
  0.5188131208224980  0.7859097949237411  0.2523952272196728   T   T   T
  0.5850900334679174  0.6409809426960164  0.2388378393333367   T   T   T
  0.1693754691747336  0.3330022488345801  0.0340858431633826   T   T   T
  0.5029651336297440  0.3325925658856753  0.0341403402485361   T   T   T
  0.8348088359482477  0.3329943616144682  0.0341660787058018   T   T   T
  0.1695955492848562  0.8324727852271080  0.0341138531845194   T   T   T
  0.5025702820986061  0.8330171635152435  0.0342586501802307   T   T   T
  0.8350075722199560  0.8329882030596751  0.0341468560696012   T   T   T
  0.3227994737341381  0.1085186175993837  0.2164260524579984   T   T   T
  0.6714916156568203  0.0767460409707682  0.2194472328169163   T   T   T
  0.9876651907580219  0.0816007126163174  0.2184854296103123   T   T   T
  0.2953801745064687  0.5843821756010168  0.2183082766069983   T   T   T
  0.6769416088433650  0.5806668634539459  0.2189302850968844   T   T   T
  0.9873624819769126  0.5801062302402181  0.2182347938419642   T   T   T
  0.5679127281070365  0.5566470927816048  0.2900161658816403   T   T   T
  0.3795904739979022  0.3516491925154315  0.2976499923218942   T   T   T
  0.5768280798614853  0.7565573558768716  0.3221270838806038   T   T   T
  0.5131802018211137  0.6747741169048901  0.2513337713135254   T   T   T
  0.4934682457883386  0.2431990083055920  0.0600424507415695   T   T   T
  0.8264890377143983  0.2430681587676959  0.0600208570904072   T   T   T
  0.1602208036380419  0.7430273248068062  0.0599962522743437   T   T   T
  0.4934424209424669  0.7430224471347910  0.0601016069991445   T   T   T
  0.8264730125363038  0.7431979626111479  0.0600160307575689   T   T   T
  0.1601818225997574  0.2431610918291784  0.0599313062560645   T   T   T
  0.9926879962180835  0.9955059850467673  0.1397511237821784   T   T   T
  0.3268006921180598  0.9968308625574082  0.1397329098877206   T   T   T
  0.6586885575844909  0.9967546628979667  0.1401391556582507   T   T   T
  0.9931024846454823  0.4963758458166725  0.1397489045960053   T   T   T
  0.3270471588634421  0.4964265212189196  0.1401549384186567   T   T   T
  0.6585296803676325  0.4961515070762537  0.1401782259687664   T   T   T
  0.1596342318713365  0.2449770853725512  0.1658135440593277   T   T   T
  0.4924961056029254  0.2504268032638381  0.1675066130755766   T   T   T
  0.8258835625182266  0.2444377808199856  0.1660382940800480   T   T   T
  0.1608760831620201  0.7461818906066253  0.1662627866751057   T   T   T
  0.4928046604547960  0.7454010268686900  0.1665881998938251   T   T   T
  0.8257400424654646  0.7445640381094101  0.1661455298049241   T   T   T
  0.3270712454578241  0.9989904047985587  0.1924396272816132   T   T   T
  0.6618874864606235  0.9939090568752363  0.1932102453481043   T   T   T
  0.9942738823051993  0.9922196435506196  0.1924708852894997   T   T   T
  0.3276642708196256  0.4885056875408045  0.1931902837018143   T   T   T
  0.9921066984215687  0.4909460326302997  0.1921708021614698   T   T   T
  0.6542547175308311  0.4838036925099229  0.1931278010539969   T   T   T
  0.9928537894978892  0.9957997822104614  0.0866355179271570   T   T   T
  0.3263107206228730  0.9960314966264476  0.0865918453881175   T   T   T
  0.6593208476824847  0.9959608286067297  0.0867889409896041   T   T   T
  0.9928700951543169  0.4958417505721074  0.0866084414369615   T   T   T
  0.3263352717745105  0.4958327934031793  0.0867598260407004   T   T   T
  0.6593203410982439  0.4958801921291661  0.0867914885380374   T   T   T
  0.1595819773270978  0.2463493843929023  0.1129113485707424   T   T   T
  0.4927106994738957  0.2466909354072040  0.1131905501904458   T   T   T
  0.8258440282532904  0.2463703053149363  0.1130173269546420   T   T   T
  0.1596462278233927  0.7462133364411299  0.1130120638252627   T   T   T
  0.4927435415698624  0.7461458319400726  0.1131491557655489   T   T   T
  0.8257114824050196  0.7462534642793502  0.1130223866366881   T   T   T
 
  0.00000000E+00  0.00000000E+00  0.00000000E+00
  0.00000000E+00  0.00000000E+00  0.00000000E+00
  0.00000000E+00  0.00000000E+00  0.00000000E+00
  0.00000000E+00  0.00000000E+00  0.00000000E+00
  0.00000000E+00  0.00000000E+00  0.00000000E+00
  0.00000000E+00  0.00000000E+00  0.00000000E+00
  0.00000000E+00  0.00000000E+00  0.00000000E+00
  0.00000000E+00  0.00000000E+00  0.00000000E+00
  0.00000000E+00  0.00000000E+00  0.00000000E+00
  0.00000000E+00  0.00000000E+00  0.00000000E+00
  0.00000000E+00  0.00000000E+00  0.00000000E+00
  0.00000000E+00  0.00000000E+00  0.00000000E+00
  0.00000000E+00  0.00000000E+00  0.00000000E+00
  0.00000000E+00  0.00000000E+00  0.00000000E+00
  0.00000000E+00  0.00000000E+00  0.00000000E+00
  0.00000000E+00  0.00000000E+00  0.00000000E+00
  0.00000000E+00  0.00000000E+00  0.00000000E+00
  0.00000000E+00  0.00000000E+00  0.00000000E+00
  0.00000000E+00  0.00000000E+00  0.00000000E+00
  0.00000000E+00  0.00000000E+00  0.00000000E+00
  0.00000000E+00  0.00000000E+00  0.00000000E+00
  0.00000000E+00  0.00000000E+00  0.00000000E+00
  0.00000000E+00  0.00000000E+00  0.00000000E+00
  0.00000000E+00  0.00000000E+00  0.00000000E+00
  0.00000000E+00  0.00000000E+00  0.00000000E+00
  0.00000000E+00  0.00000000E+00  0.00000000E+00
  0.00000000E+00  0.00000000E+00  0.00000000E+00
  0.00000000E+00  0.00000000E+00  0.00000000E+00
  0.00000000E+00  0.00000000E+00  0.00000000E+00
  0.00000000E+00  0.00000000E+00  0.00000000E+00
  0.00000000E+00  0.00000000E+00  0.00000000E+00
  0.00000000E+00  0.00000000E+00  0.00000000E+00
  0.00000000E+00  0.00000000E+00  0.00000000E+00
  0.00000000E+00  0.00000000E+00  0.00000000E+00
  0.00000000E+00  0.00000000E+00  0.00000000E+00
  0.00000000E+00  0.00000000E+00  0.00000000E+00
  0.00000000E+00  0.00000000E+00  0.00000000E+00
  0.00000000E+00  0.00000000E+00  0.00000000E+00
  0.00000000E+00  0.00000000E+00  0.00000000E+00
  0.00000000E+00  0.00000000E+00  0.00000000E+00
  0.00000000E+00  0.00000000E+00  0.00000000E+00
  0.00000000E+00  0.00000000E+00  0.00000000E+00
  0.00000000E+00  0.00000000E+00  0.00000000E+00
  0.00000000E+00  0.00000000E+00  0.00000000E+00
  0.00000000E+00  0.00000000E+00  0.00000000E+00
  0.00000000E+00  0.00000000E+00  0.00000000E+00
  0.00000000E+00  0.00000000E+00  0.00000000E+00
  0.00000000E+00  0.00000000E+00  0.00000000E+00
  0.00000000E+00  0.00000000E+00  0.00000000E+00
  0.00000000E+00  0.00000000E+00  0.00000000E+00
  0.00000000E+00  0.00000000E+00  0.00000000E+00
  0.00000000E+00  0.00000000E+00  0.00000000E+00
  0.00000000E+00  0.00000000E+00  0.00000000E+00
  0.00000000E+00  0.00000000E+00  0.00000000E+00
  0.00000000E+00  0.00000000E+00  0.00000000E+00
  0.00000000E+00  0.00000000E+00  0.00000000E+00
  0.00000000E+00  0.00000000E+00  0.00000000E+00
  0.00000000E+00  0.00000000E+00  0.00000000E+00
  0.00000000E+00  0.00000000E+00  0.00000000E+00
  0.00000000E+00  0.00000000E+00  0.00000000E+00
  0.00000000E+00  0.00000000E+00  0.00000000E+00
  0.00000000E+00  0.00000000E+00  0.00000000E+00
  0.00000000E+00  0.00000000E+00  0.00000000E+00
  0.00000000E+00  0.00000000E+00  0.00000000E+00
  0.00000000E+00  0.00000000E+00  0.00000000E+00
  0.00000000E+00  0.00000000E+00  0.00000000E+00
  0.00000000E+00  0.00000000E+00  0.00000000E+00
  0.00000000E+00  0.00000000E+00  0.00000000E+00
  0.00000000E+00  0.00000000E+00  0.00000000E+00
  0.00000000E+00  0.00000000E+00  0.00000000E+00
  0.00000000E+00  0.00000000E+00  0.00000000E+00
  0.00000000E+00  0.00000000E+00  0.00000000E+00
  0.00000000E+00  0.00000000E+00  0.00000000E+00
  0.00000000E+00  0.00000000E+00  0.00000000E+00
  0.00000000E+00  0.00000000E+00  0.00000000E+00
  0.00000000E+00  0.00000000E+00  0.00000000E+00
  0.00000000E+00  0.00000000E+00  0.00000000E+00
  0.00000000E+00  0.00000000E+00  0.00000000E+00
  0.00000000E+00  0.00000000E+00  0.00000000E+00
  0.00000000E+00  0.00000000E+00  0.00000000E+00
  0.00000000E+00  0.00000000E+00  0.00000000E+00
  0.00000000E+00  0.00000000E+00  0.00000000E+00
  0.00000000E+00  0.00000000E+00  0.00000000E+00
  0.00000000E+00  0.00000000E+00  0.00000000E+00
  0.00000000E+00  0.00000000E+00  0.00000000E+00
  0.00000000E+00  0.00000000E+00  0.00000000E+00
  0.00000000E+00  0.00000000E+00  0.00000000E+00
  0.00000000E+00  0.00000000E+00  0.00000000E+00
  0.00000000E+00  0.00000000E+00  0.00000000E+00
  0.00000000E+00  0.00000000E+00  0.00000000E+00
  0.00000000E+00  0.00000000E+00  0.00000000E+00
  0.00000000E+00  0.00000000E+00  0.00000000E+00
  0.00000000E+00  0.00000000E+00  0.00000000E+00
  0.00000000E+00  0.00000000E+00  0.00000000E+00
  0.00000000E+00  0.00000000E+00  0.00000000E+00
  0.00000000E+00  0.00000000E+00  0.00000000E+00
  0.00000000E+00  0.00000000E+00  0.00000000E+00
  0.00000000E+00  0.00000000E+00  0.00000000E+00
  0.00000000E+00  0.00000000E+00  0.00000000E+00
  0.00000000E+00  0.00000000E+00  0.00000000E+00
  0.00000000E+00  0.00000000E+00  0.00000000E+00
  0.00000000E+00  0.00000000E+00  0.00000000E+00
  0.00000000E+00  0.00000000E+00  0.00000000E+00
  0.00000000E+00  0.00000000E+00  0.00000000E+00
  0.00000000E+00  0.00000000E+00  0.00000000E+00
  0.00000000E+00  0.00000000E+00  0.00000000E+00
  0.00000000E+00  0.00000000E+00  0.00000000E+00
  0.00000000E+00  0.00000000E+00  0.00000000E+00
  0.00000000E+00  0.00000000E+00  0.00000000E+00
  0.00000000E+00  0.00000000E+00  0.00000000E+00
  0.00000000E+00  0.00000000E+00  0.00000000E+00
  0.00000000E+00  0.00000000E+00  0.00000000E+00
  0.00000000E+00  0.00000000E+00  0.00000000E+00
  0.00000000E+00  0.00000000E+00  0.00000000E+00
  0.00000000E+00  0.00000000E+00  0.00000000E+00
  0.00000000E+00  0.00000000E+00  0.00000000E+00
  0.00000000E+00  0.00000000E+00  0.00000000E+00
  0.00000000E+00  0.00000000E+00  0.00000000E+00
  0.00000000E+00  0.00000000E+00  0.00000000E+00
  0.00000000E+00  0.00000000E+00  0.00000000E+00
