C H O Si                                
   1.00000000000000     
     9.2874599999999994    0.0000000000000000    0.0000000000000000
     0.0000000000000000    8.7562999999999995    0.0000000000000000
     0.0000000000000000    0.0000000000000000   90.0000000000000000
   C    H    O    Si
    36    33    16    36
Selective dynamics
Direct
  0.0006109369039131  0.1352093918777423  0.4232234953410499   T   T   T
  0.0005719870302796  0.6353614662840481  0.4232351679208934   T   T   T
  0.3339158882212992  0.1352772768208824  0.4232810220203835   T   T   T
  0.3338683269933532  0.6352015622133628  0.4232890130483143   T   T   T
  0.6671991016409698  0.1352164034252492  0.4232736637817199   T   T   T
  0.6672300120132838  0.6351773475713567  0.4232742095308464   T   T   T
  0.1675895522994506  0.3815306434183919  0.4395927775730546   T   T   T
  0.1676705595206665  0.8815433851321193  0.4396077506171130   T   T   T
  0.5009403661118723  0.3814879246185499  0.4396630828553548   T   T   T
  0.5009498338286921  0.8814476711000785  0.4396274351580853   T   T   T
  0.8342292139956898  0.3815217879697713  0.4395653598498545   T   T   T
  0.8341527560133720  0.8815945132279668  0.4395955134213128   T   T   T
  0.0009830579452926  0.1312863143269398  0.4570955360194868   T   T   T
  0.0009496624587141  0.6314823382741647  0.4571030035165612   T   T   T
  0.3344287052036324  0.1313255392709134  0.4571526634316371   T   T   T
  0.3343637361672652  0.6311979856567610  0.4571684694463930   T   T   T
  0.6674991559428510  0.1313882145096651  0.4571487389149862   T   T   T
  0.6675755670036968  0.6313369766444203  0.4571435299202308   T   T   T
  0.1677446749228695  0.3813194797291989  0.4740834516993677   T   T   T
  0.1679799301604069  0.8814319017675297  0.4741206121901634   T   T   T
  0.5009869905048909  0.3817678629458688  0.4742437064171776   T   T   T
  0.5010235936074763  0.8811390797931548  0.4741558608491459   T   T   T
  0.8343154435396459  0.3813040461220132  0.4740550198147176   T   T   T
  0.8341518957006505  0.8815134946724006  0.4741177287760075   T   T   T
  0.0012020485955915  0.1309425866721860  0.4915390133518733   T   T   T
  0.0011739852842090  0.6316707166679697  0.4915930861447670   T   T   T
  0.3348737852482317  0.1321010930470773  0.4917018623572160   T   T   T
  0.3341289119667443  0.6318177224734735  0.4917563029591331   T   T   T
  0.6670353364585498  0.1320111010947814  0.4916876572259626   T   T   T
  0.6680053080481498  0.6319019140532242  0.4916811535929450   T   T   T
  0.1673331488637156  0.3835807753490971  0.5078169332374917   T   T   T
  0.1670374945189420  0.8859219777358025  0.5080049634311335   T   T   T
  0.5009462234764027  0.3892647818639455  0.5084965388978245   T   T   T
  0.5005603179477928  0.8852492465319945  0.5080656893869702   T   T   T
  0.8349873731316829  0.3830233396142233  0.5077185124581985   T   T   T
  0.8340772139897021  0.8859012413997970  0.5079620185169665   T   T   T
  0.0033980415003963  0.0618457903481335  0.4132880846159012   T   T   T
  0.0032696246404735  0.5620088144768657  0.4132977180377846   T   T   T
  0.3367150719596503  0.0618606467974101  0.4133506714891889   T   T   T
  0.3365240069009338  0.5616792471923041  0.4133658143691601   T   T   T
  0.6695481226645690  0.0617544784914464  0.4133442480484789   T   T   T
  0.6698261069397062  0.5617601118277817  0.4133434755947002   T   T   T
  0.1693857596364282  0.3107486926428482  0.5177861684049199   T   T   T
  0.1692108301139317  0.8122546032431534  0.5179149680247778   T   T   T
  0.5043588813719451  0.3145582663435841  0.5183369544124860   T   T   T
  0.5017323117717367  0.8121430649176191  0.5180227185199910   T   T   T
  0.8377476985967433  0.3101216829993373  0.5176803290835434   T   T   T
  0.8362083580305196  0.8131607022230394  0.5179243216132458   T   T   T
  0.0881291743064923  0.1180240386001208  0.5288278004958037   T   T   T
  0.0891442760798364  0.6116630526235349  0.5286205496259533   T   T   T
  0.4217710546146760  0.1185250631350733  0.5288634462851152   T   T   T
  0.3832077329478499  0.6362625487890959  0.5309763946937557   T   T   T
  0.7572154821704494  0.1165038108412510  0.5288052440591638   T   T   T
  0.7904518469637412  0.6001644361142978  0.5277926704154307   T   T   T
  0.2568636348886829  0.3660170009584847  0.4024241901932303   T   T   T
  0.2570016417801753  0.8659559699898594  0.4024412834758983   T   T   T
  0.5895691033097776  0.3662287830367942  0.4024602655181046   T   T   T
  0.5894083790773599  0.8660440585775393  0.4024226502770151   T   T   T
  0.9217165093388966  0.3665852750110983  0.4023317371813241   T   T   T
  0.9217030290221179  0.8667254565552056  0.4023598663713188   T   T   T
  0.5462387716556117  0.6172591540873738  0.5594946193299392   T   T   T
  0.4889959381338716  0.4772677775937886  0.5718183217161216   T   T   T
  0.5680773439654528  0.6392531720811689  0.5783613561256021   T   T   T
  0.3103188893816531  0.3853927770490488  0.5823657813320260   T   T   T
  0.4233897474335323  0.2603785669584135  0.5781726620291023   T   T   T
  0.6457248508724243  0.7343664317917658  0.5979715356432524   T   T   T
  0.4812941913234546  0.7647894993269471  0.5957288477861721   T   T   T
  0.5332525746358244  0.8049656458683327  0.5466330570736158   T   T   T
  0.5946086376791299  0.6588153303003197  0.5374768133588294   T   T   T
  0.1605179171822184  0.3403753934457552  0.4060173988512847   T   T   T
  0.1606164106175757  0.8404484278242014  0.4060330164298800   T   T   T
  0.4933246131540254  0.3406063116026674  0.4060843980526120   T   T   T
  0.4932155220342540  0.8402238199703981  0.4060484783927139   T   T   T
  0.8258559995600034  0.3400349919548973  0.4059920251678782   T   T   T
  0.8258267128427518  0.8402653736136542  0.4060205014101577   T   T   T
  0.9923635172778724  0.0914499337025011  0.5251425083226978   T   T   T
  0.9918592325429636  0.5876371365896093  0.5250306208234691   T   T   T
  0.3260486800454274  0.0909376242302948  0.5252436027799416   T   T   T
  0.3046733919413909  0.5898519263795217  0.5252761888589017   T   T   T
  0.6607412158696921  0.0913166282053875  0.5252103516236437   T   T   T
  0.6873009768901911  0.5911134686893100  0.5252485760996577   T   T   T
  0.5666579389949946  0.5604014370520529  0.5696949952289648   T   T   T
  0.3790184551807992  0.3549452756652662  0.5747135457315919   T   T   T
  0.5729918798126600  0.7575953517156591  0.5904795471440900   T   T   T
  0.5224020894368342  0.6947912065065607  0.5454574728568333   T   T   T
  0.1670624411708304  0.2523282910336956  0.4229762453199412   T   T   T
  0.1670925770737948  0.7523434044177324  0.4229893422058781   T   T   T
  0.5003461026843022  0.2522862927740977  0.4230335467745215   T   T   T
  0.5003279158230527  0.7521668208345240  0.4230090705695252   T   T   T
  0.8336331205786420  0.2521859674816489  0.4229604889918642   T   T   T
  0.8335748608987837  0.7522965759799028  0.4229843516814237   T   T   T
  0.0009168700766735  0.0054547208414342  0.4400786611075390   T   T   T
  0.0008899094111209  0.5055247369602592  0.4400805395275577   T   T   T
  0.3343451245588818  0.0054586186538333  0.4401201362214534   T   T   T
  0.3342671780466737  0.5054059931261374  0.4401335139029739   T   T   T
  0.6674569324601396  0.0054981058266525  0.4401185025728344   T   T   T
  0.6675350440241705  0.5054102358711625  0.4401150618673726   T   T   T
  0.1677110376594052  0.2558309197542775  0.4569725966211022   T   T   T
  0.1678348213021963  0.7558883328470123  0.4569976915550492   T   T   T
  0.5009307223225580  0.2559935115566550  0.4570712757066258   T   T   T
  0.5009305362124916  0.7557738051259723  0.4570163949506076   T   T   T
  0.8342792711976200  0.2558046991146636  0.4569507003227326   T   T   T
  0.8341861038887348  0.7559648065039092  0.4569913679214642   T   T   T
  0.0011310978651279  0.0055740268735688  0.4741975040853979   T   T   T
  0.0010672452762072  0.5059044158478713  0.4741939473101871   T   T   T
  0.3347052928034546  0.0060766878664070  0.4742792151811282   T   T   T
  0.3341751267099461  0.5060663293506776  0.4743178734835845   T   T   T
  0.6672997283804379  0.0060421515817564  0.4742715243673099   T   T   T
  0.6678131418944845  0.5059260904202553  0.4742524539858197   T   T   T
  0.1676500955078062  0.2548520947112742  0.4910430102168704   T   T   T
  0.1676404387569586  0.7560052298254483  0.4911589126445048   T   T   T
  0.5009398175463174  0.2572963562170654  0.4913631310940005   T   T   T
  0.5008536145604540  0.7554768246063021  0.4911937269781568   T   T   T
  0.8346097024419096  0.2542589383485397  0.4909678596308956   T   T   T
  0.8346488631393845  0.7559654329136137  0.4911360307848124   T   T   T
  0.0003273577149821  0.0028634957045926  0.5082081012445760   T   T   T
  0.0009126215082066  0.5004358771191227  0.5079996486566731   T   T   T
  0.3334779942712774  0.0027550444980908  0.5082976061111093   T   T   T
  0.3314645609835724  0.5039432519869540  0.5084936203820577   T   T   T
  0.6672115102421298  0.0026969858706565  0.5082830510837326   T   T   T
  0.6702377939876115  0.5019253493344099  0.5081296482560789   T   T   T
 
  0.00000000E+00  0.00000000E+00  0.00000000E+00
  0.00000000E+00  0.00000000E+00  0.00000000E+00
  0.00000000E+00  0.00000000E+00  0.00000000E+00
  0.00000000E+00  0.00000000E+00  0.00000000E+00
  0.00000000E+00  0.00000000E+00  0.00000000E+00
  0.00000000E+00  0.00000000E+00  0.00000000E+00
  0.00000000E+00  0.00000000E+00  0.00000000E+00
  0.00000000E+00  0.00000000E+00  0.00000000E+00
  0.00000000E+00  0.00000000E+00  0.00000000E+00
  0.00000000E+00  0.00000000E+00  0.00000000E+00
  0.00000000E+00  0.00000000E+00  0.00000000E+00
  0.00000000E+00  0.00000000E+00  0.00000000E+00
  0.00000000E+00  0.00000000E+00  0.00000000E+00
  0.00000000E+00  0.00000000E+00  0.00000000E+00
  0.00000000E+00  0.00000000E+00  0.00000000E+00
  0.00000000E+00  0.00000000E+00  0.00000000E+00
  0.00000000E+00  0.00000000E+00  0.00000000E+00
  0.00000000E+00  0.00000000E+00  0.00000000E+00
  0.00000000E+00  0.00000000E+00  0.00000000E+00
  0.00000000E+00  0.00000000E+00  0.00000000E+00
  0.00000000E+00  0.00000000E+00  0.00000000E+00
  0.00000000E+00  0.00000000E+00  0.00000000E+00
  0.00000000E+00  0.00000000E+00  0.00000000E+00
  0.00000000E+00  0.00000000E+00  0.00000000E+00
  0.00000000E+00  0.00000000E+00  0.00000000E+00
  0.00000000E+00  0.00000000E+00  0.00000000E+00
  0.00000000E+00  0.00000000E+00  0.00000000E+00
  0.00000000E+00  0.00000000E+00  0.00000000E+00
  0.00000000E+00  0.00000000E+00  0.00000000E+00
  0.00000000E+00  0.00000000E+00  0.00000000E+00
  0.00000000E+00  0.00000000E+00  0.00000000E+00
  0.00000000E+00  0.00000000E+00  0.00000000E+00
  0.00000000E+00  0.00000000E+00  0.00000000E+00
  0.00000000E+00  0.00000000E+00  0.00000000E+00
  0.00000000E+00  0.00000000E+00  0.00000000E+00
  0.00000000E+00  0.00000000E+00  0.00000000E+00
  0.00000000E+00  0.00000000E+00  0.00000000E+00
  0.00000000E+00  0.00000000E+00  0.00000000E+00
  0.00000000E+00  0.00000000E+00  0.00000000E+00
  0.00000000E+00  0.00000000E+00  0.00000000E+00
  0.00000000E+00  0.00000000E+00  0.00000000E+00
  0.00000000E+00  0.00000000E+00  0.00000000E+00
  0.00000000E+00  0.00000000E+00  0.00000000E+00
  0.00000000E+00  0.00000000E+00  0.00000000E+00
  0.00000000E+00  0.00000000E+00  0.00000000E+00
  0.00000000E+00  0.00000000E+00  0.00000000E+00
  0.00000000E+00  0.00000000E+00  0.00000000E+00
  0.00000000E+00  0.00000000E+00  0.00000000E+00
  0.00000000E+00  0.00000000E+00  0.00000000E+00
  0.00000000E+00  0.00000000E+00  0.00000000E+00
  0.00000000E+00  0.00000000E+00  0.00000000E+00
  0.00000000E+00  0.00000000E+00  0.00000000E+00
  0.00000000E+00  0.00000000E+00  0.00000000E+00
  0.00000000E+00  0.00000000E+00  0.00000000E+00
  0.00000000E+00  0.00000000E+00  0.00000000E+00
  0.00000000E+00  0.00000000E+00  0.00000000E+00
  0.00000000E+00  0.00000000E+00  0.00000000E+00
  0.00000000E+00  0.00000000E+00  0.00000000E+00
  0.00000000E+00  0.00000000E+00  0.00000000E+00
  0.00000000E+00  0.00000000E+00  0.00000000E+00
  0.00000000E+00  0.00000000E+00  0.00000000E+00
  0.00000000E+00  0.00000000E+00  0.00000000E+00
  0.00000000E+00  0.00000000E+00  0.00000000E+00
  0.00000000E+00  0.00000000E+00  0.00000000E+00
  0.00000000E+00  0.00000000E+00  0.00000000E+00
  0.00000000E+00  0.00000000E+00  0.00000000E+00
  0.00000000E+00  0.00000000E+00  0.00000000E+00
  0.00000000E+00  0.00000000E+00  0.00000000E+00
  0.00000000E+00  0.00000000E+00  0.00000000E+00
  0.00000000E+00  0.00000000E+00  0.00000000E+00
  0.00000000E+00  0.00000000E+00  0.00000000E+00
  0.00000000E+00  0.00000000E+00  0.00000000E+00
  0.00000000E+00  0.00000000E+00  0.00000000E+00
  0.00000000E+00  0.00000000E+00  0.00000000E+00
  0.00000000E+00  0.00000000E+00  0.00000000E+00
  0.00000000E+00  0.00000000E+00  0.00000000E+00
  0.00000000E+00  0.00000000E+00  0.00000000E+00
  0.00000000E+00  0.00000000E+00  0.00000000E+00
  0.00000000E+00  0.00000000E+00  0.00000000E+00
  0.00000000E+00  0.00000000E+00  0.00000000E+00
  0.00000000E+00  0.00000000E+00  0.00000000E+00
  0.00000000E+00  0.00000000E+00  0.00000000E+00
  0.00000000E+00  0.00000000E+00  0.00000000E+00
  0.00000000E+00  0.00000000E+00  0.00000000E+00
  0.00000000E+00  0.00000000E+00  0.00000000E+00
  0.00000000E+00  0.00000000E+00  0.00000000E+00
  0.00000000E+00  0.00000000E+00  0.00000000E+00
  0.00000000E+00  0.00000000E+00  0.00000000E+00
  0.00000000E+00  0.00000000E+00  0.00000000E+00
  0.00000000E+00  0.00000000E+00  0.00000000E+00
  0.00000000E+00  0.00000000E+00  0.00000000E+00
  0.00000000E+00  0.00000000E+00  0.00000000E+00
  0.00000000E+00  0.00000000E+00  0.00000000E+00
  0.00000000E+00  0.00000000E+00  0.00000000E+00
  0.00000000E+00  0.00000000E+00  0.00000000E+00
  0.00000000E+00  0.00000000E+00  0.00000000E+00
  0.00000000E+00  0.00000000E+00  0.00000000E+00
  0.00000000E+00  0.00000000E+00  0.00000000E+00
  0.00000000E+00  0.00000000E+00  0.00000000E+00
  0.00000000E+00  0.00000000E+00  0.00000000E+00
  0.00000000E+00  0.00000000E+00  0.00000000E+00
  0.00000000E+00  0.00000000E+00  0.00000000E+00
  0.00000000E+00  0.00000000E+00  0.00000000E+00
  0.00000000E+00  0.00000000E+00  0.00000000E+00
  0.00000000E+00  0.00000000E+00  0.00000000E+00
  0.00000000E+00  0.00000000E+00  0.00000000E+00
  0.00000000E+00  0.00000000E+00  0.00000000E+00
  0.00000000E+00  0.00000000E+00  0.00000000E+00
  0.00000000E+00  0.00000000E+00  0.00000000E+00
  0.00000000E+00  0.00000000E+00  0.00000000E+00
  0.00000000E+00  0.00000000E+00  0.00000000E+00
  0.00000000E+00  0.00000000E+00  0.00000000E+00
  0.00000000E+00  0.00000000E+00  0.00000000E+00
  0.00000000E+00  0.00000000E+00  0.00000000E+00
  0.00000000E+00  0.00000000E+00  0.00000000E+00
  0.00000000E+00  0.00000000E+00  0.00000000E+00
  0.00000000E+00  0.00000000E+00  0.00000000E+00
  0.00000000E+00  0.00000000E+00  0.00000000E+00
  0.00000000E+00  0.00000000E+00  0.00000000E+00
  0.00000000E+00  0.00000000E+00  0.00000000E+00
  0.00000000E+00  0.00000000E+00  0.00000000E+00
