C H O Si                                
   1.00000000000000     
     9.2874599999999994    0.0000000000000000    0.0000000000000000
     0.0000000000000000    8.7562999999999995    0.0000000000000000
     0.0000000000000000    0.0000000000000000   58.0000000000000000
   C    H    O    Si
    36    33    16    36
Selective dynamics
Direct
  0.0017164127373286  0.1353536995776234  0.3755462561638287   T   T   T
  0.0017280754645373  0.6354628568021219  0.3755616352634120   T   T   T
  0.3350542024303669  0.1354019055046665  0.3756557707115239   T   T   T
  0.3350658464408884  0.6352662265367383  0.3756685950427842   T   T   T
  0.6681581492538531  0.1352422196970944  0.3756584448616752   T   T   T
  0.6682083294572958  0.6351913026368324  0.3756570528963806   T   T   T
  0.1685134863139559  0.3812204282114833  0.4009740323605279   T   T   T
  0.1686095108918495  0.8812208470083038  0.4009944674725177   T   T   T
  0.5018561337276566  0.3811815693959269  0.4011119268516804   T   T   T
  0.5018416002045104  0.8811424972929213  0.4010468059386162   T   T   T
  0.8352460726017201  0.3810851785627228  0.4009184639502745   T   T   T
  0.8351682216883105  0.8811402644494483  0.4009550600504645   T   T   T
  0.0019862067223796  0.1308183334763888  0.4280712533985739   T   T   T
  0.0019407970009088  0.6311185569902442  0.4280919617565089   T   T   T
  0.3353209729110914  0.1310376909466473  0.4282036641799425   T   T   T
  0.3352605207592017  0.6309311424043522  0.4282208728923857   T   T   T
  0.6684566554898924  0.1309487398445622  0.4281731108228390   T   T   T
  0.6685409984603163  0.6309078251540939  0.4281624498660455   T   T   T
  0.1686698744897410  0.3808862582947517  0.4544821931075579   T   T   T
  0.1689702765191509  0.8809400609981012  0.4545443533084719   T   T   T
  0.5019252913607094  0.3812440902219904  0.4547368407059368   T   T   T
  0.5019724348388725  0.8806527162906754  0.4546062720812785   T   T   T
  0.8353598930311319  0.3807219968392779  0.4543914613447264   T   T   T
  0.8351697536435406  0.8809676275493858  0.4544954475373313   T   T   T
  0.0022174485920407  0.1303696056928162  0.4814843995912228   T   T   T
  0.0021150922330450  0.6310966956227364  0.4815817262619027   T   T   T
  0.3359233175896927  0.1316472060520291  0.4817836073127029   T   T   T
  0.3352664354495205  0.6311131514727282  0.4818606809316012   T   T   T
  0.6680072399747992  0.1314733727699772  0.4817417432469080   T   T   T
  0.6689604162984693  0.6312395482246804  0.4817235170101619   T   T   T
  0.1686027600824294  0.3835593784533966  0.5068159054985110   T   T   T
  0.1680815525345089  0.8856821700835517  0.5070482228535568   T   T   T
  0.5023099565956984  0.3889839737764565  0.5078391334056375   T   T   T
  0.5016546949893799  0.8850435404845394  0.5071296377765707   T   T   T
  0.8362091634455221  0.3826650103599071  0.5065878283109044   T   T   T
  0.8352291407421888  0.8856144102828398  0.5069741897715052   T   T   T
  0.0044849984477092  0.0629825417178168  0.3600145343274647   T   T   T
  0.0044295025034369  0.5630802661121757  0.3600314171673792   T   T   T
  0.3378569719303307  0.0629217273715682  0.3601403233595640   T   T   T
  0.3377032767953312  0.5626978419865274  0.3601622701445779   T   T   T
  0.6703058898282993  0.0628211417885883  0.3601345554837904   T   T   T
  0.6705690652009494  0.5627604819065460  0.3601317992274782   T   T   T
  0.1701760688314069  0.3115564573341917  0.5223816667999257   T   T   T
  0.1702293708458724  0.8130206186213161  0.5225467878095933   T   T   T
  0.5055224216008167  0.3153198624143831  0.5232294710684480   T   T   T
  0.5024317322793852  0.8127768969375455  0.5226717687864655   T   T   T
  0.8388746495673721  0.3105885637693253  0.5221455077392932   T   T   T
  0.8373496552752029  0.8138513786446968  0.5225493635928393   T   T   T
  0.0840022232573274  0.1152423310310855  0.5406207340244902   T   T   T
  0.0844793243422460  0.6107649610071071  0.5402166537295675   T   T   T
  0.4173718556599201  0.1163256870051140  0.5406957597733949   T   T   T
  0.3825033434237222  0.6329555696859835  0.5437631075075068   T   T   T
  0.7525056285118999  0.1145829903324707  0.5406026509066705   T   T   T
  0.7895729744774262  0.5988778719335888  0.5383488471535437   T   T   T
  0.2525279339849004  0.3643681762984714  0.3420468219876707   T   T   T
  0.2527660386720774  0.8642876846602238  0.3420782491031925   T   T   T
  0.5851812270340702  0.3645189862531786  0.3421192019819098   T   T   T
  0.5850032271773421  0.8643716355262184  0.3420616932117822   T   T   T
  0.9170043273594677  0.3649194147915602  0.3418797413951639   T   T   T
  0.9169700914932489  0.8650292159574743  0.3419089009035960   T   T   T
  0.5423553192569113  0.6145512309088803  0.5879392607293542   T   T   T
  0.4870654778313807  0.4753490797695907  0.6067330942575773   T   T   T
  0.5664117145905690  0.6400512068523253  0.6169100263456158   T   T   T
  0.3078243005622766  0.3820548075035604  0.6220232970158489   T   T   T
  0.4236257889759106  0.2586804105614232  0.6159635770036221   T   T   T
  0.6469435081121735  0.7349529368174371  0.6468034825595044   T   T   T
  0.4825570275457896  0.7674086885747626  0.6435470071580868   T   T   T
  0.5229641688159162  0.8037364009695904  0.5672447638630685   T   T   T
  0.5908534824149726  0.6611265635520287  0.5535711972016453   T   T   T
  0.1593604193800863  0.3433110267185722  0.3491884616940956   T   T   T
  0.1595440169563459  0.8433282110076361  0.3492098527310869   T   T   T
  0.4921412002171290  0.3435612416926630  0.3493129305460205   T   T   T
  0.4920076829233287  0.8432053032834813  0.3492547307808450   T   T   T
  0.8244678272058450  0.3427848447199024  0.3491416558063498   T   T   T
  0.8244581231972916  0.8429526921743660  0.3491814983337115   T   T   T
  0.9913930329592155  0.0937917079798518  0.5333312709740156   T   T   T
  0.9904545369208977  0.5896212665360676  0.5332197699526653   T   T   T
  0.3248605598375939  0.0930714046157070  0.5335114062601527   T   T   T
  0.3064144106848079  0.5934435932982405  0.5335165033275884   T   T   T
  0.6593576130519565  0.0933185449973458  0.5334620143138102   T   T   T
  0.6876376044146252  0.5932287874377915  0.5335335403231364   T   T   T
  0.5644600931903173  0.5599561808558079  0.6034553032246449   T   T   T
  0.3794328568890813  0.3531525889414378  0.6105038784383156   T   T   T
  0.5735619621150972  0.7577206388646055  0.6352555334060032   T   T   T
  0.5144308097297989  0.6934796860284835  0.5650684738083525   T   T   T
  0.1682862651177518  0.2527855321079746  0.3748388136799719   T   T   T
  0.1683696825652633  0.7527741583017897  0.3748600624301791   T   T   T
  0.5015012082073762  0.2528139542492224  0.3749527097208865   T   T   T
  0.5015008120302104  0.7527002236413014  0.3749135561088597   T   T   T
  0.8347420168495235  0.2525337887377553  0.3748072158463402   T   T   T
  0.8347199202468890  0.7526010685975473  0.3748397157085198   T   T   T
  0.0018754363797801  0.0053804702684354  0.4014664061378095   T   T   T
  0.0018693436444275  0.5054780200495487  0.4014742937258712   T   T   T
  0.3352109081960621  0.0055022336229307  0.4015668433955928   T   T   T
  0.3351639951420227  0.5054269813827676  0.4015907828115182   T   T   T
  0.6684048993698001  0.0053467527926692  0.4015580312992730   T   T   T
  0.6684838754956244  0.5052960184802030  0.4015548227646472   T   T   T
  0.1686201784561717  0.2558617517306249  0.4278507717636647   T   T   T
  0.1687638778394621  0.7559313346669012  0.4278904285217670   T   T   T
  0.5018917876089914  0.2559456483188587  0.4280147283277442   T   T   T
  0.5018650938864404  0.7557564752720295  0.4279274174919154   T   T   T
  0.8352899208132795  0.2556645617368432  0.4277823873608871   T   T   T
  0.8351568407922495  0.7558830694299629  0.4278489943636731   T   T   T
  0.0021548559092698  0.0054149785520187  0.4546718255481798   T   T   T
  0.0020456459245528  0.5057487487483077  0.4546663793310759   T   T   T
  0.3356922709697798  0.0060155044214736  0.4548352266086168   T   T   T
  0.3351638364009208  0.5059721511389551  0.4548893728424986   T   T   T
  0.6682671429903259  0.0058902920912185  0.4548050185813187   T   T   T
  0.6687658101794806  0.5057442869271975  0.4547726890566093   T   T   T
  0.1686540432479880  0.2546987899689427  0.4809833148433314   T   T   T
  0.1686885246564984  0.7556096917547976  0.4811527218318481   T   T   T
  0.5019637477890188  0.2571311258202374  0.4814912900961221   T   T   T
  0.5018032183589929  0.7551226799632672  0.4811927055709373   T   T   T
  0.8356366766994158  0.2539840768691149  0.4808244703184594   T   T   T
  0.8355675526057397  0.7556259269817233  0.4810883003098228   T   T   T
  0.0015151884446975  0.0030539809988867  0.5076976261618462   T   T   T
  0.0021390653853107  0.5005351785929283  0.5073712922852437   T   T   T
  0.3346096715848357  0.0028797739180123  0.5078452222314825   T   T   T
  0.3329341039339971  0.5042153078554027  0.5082264861948769   T   T   T
  0.6684616985827585  0.0027780069391664  0.5078195021238495   T   T   T
  0.6716994577794460  0.5020717929572071  0.5076316415727760   T   T   T
 
  0.00000000E+00  0.00000000E+00  0.00000000E+00
  0.00000000E+00  0.00000000E+00  0.00000000E+00
  0.00000000E+00  0.00000000E+00  0.00000000E+00
  0.00000000E+00  0.00000000E+00  0.00000000E+00
  0.00000000E+00  0.00000000E+00  0.00000000E+00
  0.00000000E+00  0.00000000E+00  0.00000000E+00
  0.00000000E+00  0.00000000E+00  0.00000000E+00
  0.00000000E+00  0.00000000E+00  0.00000000E+00
  0.00000000E+00  0.00000000E+00  0.00000000E+00
  0.00000000E+00  0.00000000E+00  0.00000000E+00
  0.00000000E+00  0.00000000E+00  0.00000000E+00
  0.00000000E+00  0.00000000E+00  0.00000000E+00
  0.00000000E+00  0.00000000E+00  0.00000000E+00
  0.00000000E+00  0.00000000E+00  0.00000000E+00
  0.00000000E+00  0.00000000E+00  0.00000000E+00
  0.00000000E+00  0.00000000E+00  0.00000000E+00
  0.00000000E+00  0.00000000E+00  0.00000000E+00
  0.00000000E+00  0.00000000E+00  0.00000000E+00
  0.00000000E+00  0.00000000E+00  0.00000000E+00
  0.00000000E+00  0.00000000E+00  0.00000000E+00
  0.00000000E+00  0.00000000E+00  0.00000000E+00
  0.00000000E+00  0.00000000E+00  0.00000000E+00
  0.00000000E+00  0.00000000E+00  0.00000000E+00
  0.00000000E+00  0.00000000E+00  0.00000000E+00
  0.00000000E+00  0.00000000E+00  0.00000000E+00
  0.00000000E+00  0.00000000E+00  0.00000000E+00
  0.00000000E+00  0.00000000E+00  0.00000000E+00
  0.00000000E+00  0.00000000E+00  0.00000000E+00
  0.00000000E+00  0.00000000E+00  0.00000000E+00
  0.00000000E+00  0.00000000E+00  0.00000000E+00
  0.00000000E+00  0.00000000E+00  0.00000000E+00
  0.00000000E+00  0.00000000E+00  0.00000000E+00
  0.00000000E+00  0.00000000E+00  0.00000000E+00
  0.00000000E+00  0.00000000E+00  0.00000000E+00
  0.00000000E+00  0.00000000E+00  0.00000000E+00
  0.00000000E+00  0.00000000E+00  0.00000000E+00
  0.00000000E+00  0.00000000E+00  0.00000000E+00
  0.00000000E+00  0.00000000E+00  0.00000000E+00
  0.00000000E+00  0.00000000E+00  0.00000000E+00
  0.00000000E+00  0.00000000E+00  0.00000000E+00
  0.00000000E+00  0.00000000E+00  0.00000000E+00
  0.00000000E+00  0.00000000E+00  0.00000000E+00
  0.00000000E+00  0.00000000E+00  0.00000000E+00
  0.00000000E+00  0.00000000E+00  0.00000000E+00
  0.00000000E+00  0.00000000E+00  0.00000000E+00
  0.00000000E+00  0.00000000E+00  0.00000000E+00
  0.00000000E+00  0.00000000E+00  0.00000000E+00
  0.00000000E+00  0.00000000E+00  0.00000000E+00
  0.00000000E+00  0.00000000E+00  0.00000000E+00
  0.00000000E+00  0.00000000E+00  0.00000000E+00
  0.00000000E+00  0.00000000E+00  0.00000000E+00
  0.00000000E+00  0.00000000E+00  0.00000000E+00
  0.00000000E+00  0.00000000E+00  0.00000000E+00
  0.00000000E+00  0.00000000E+00  0.00000000E+00
  0.00000000E+00  0.00000000E+00  0.00000000E+00
  0.00000000E+00  0.00000000E+00  0.00000000E+00
  0.00000000E+00  0.00000000E+00  0.00000000E+00
  0.00000000E+00  0.00000000E+00  0.00000000E+00
  0.00000000E+00  0.00000000E+00  0.00000000E+00
  0.00000000E+00  0.00000000E+00  0.00000000E+00
  0.00000000E+00  0.00000000E+00  0.00000000E+00
  0.00000000E+00  0.00000000E+00  0.00000000E+00
  0.00000000E+00  0.00000000E+00  0.00000000E+00
  0.00000000E+00  0.00000000E+00  0.00000000E+00
  0.00000000E+00  0.00000000E+00  0.00000000E+00
  0.00000000E+00  0.00000000E+00  0.00000000E+00
  0.00000000E+00  0.00000000E+00  0.00000000E+00
  0.00000000E+00  0.00000000E+00  0.00000000E+00
  0.00000000E+00  0.00000000E+00  0.00000000E+00
  0.00000000E+00  0.00000000E+00  0.00000000E+00
  0.00000000E+00  0.00000000E+00  0.00000000E+00
  0.00000000E+00  0.00000000E+00  0.00000000E+00
  0.00000000E+00  0.00000000E+00  0.00000000E+00
  0.00000000E+00  0.00000000E+00  0.00000000E+00
  0.00000000E+00  0.00000000E+00  0.00000000E+00
  0.00000000E+00  0.00000000E+00  0.00000000E+00
  0.00000000E+00  0.00000000E+00  0.00000000E+00
  0.00000000E+00  0.00000000E+00  0.00000000E+00
  0.00000000E+00  0.00000000E+00  0.00000000E+00
  0.00000000E+00  0.00000000E+00  0.00000000E+00
  0.00000000E+00  0.00000000E+00  0.00000000E+00
  0.00000000E+00  0.00000000E+00  0.00000000E+00
  0.00000000E+00  0.00000000E+00  0.00000000E+00
  0.00000000E+00  0.00000000E+00  0.00000000E+00
  0.00000000E+00  0.00000000E+00  0.00000000E+00
  0.00000000E+00  0.00000000E+00  0.00000000E+00
  0.00000000E+00  0.00000000E+00  0.00000000E+00
  0.00000000E+00  0.00000000E+00  0.00000000E+00
  0.00000000E+00  0.00000000E+00  0.00000000E+00
  0.00000000E+00  0.00000000E+00  0.00000000E+00
  0.00000000E+00  0.00000000E+00  0.00000000E+00
  0.00000000E+00  0.00000000E+00  0.00000000E+00
  0.00000000E+00  0.00000000E+00  0.00000000E+00
  0.00000000E+00  0.00000000E+00  0.00000000E+00
  0.00000000E+00  0.00000000E+00  0.00000000E+00
  0.00000000E+00  0.00000000E+00  0.00000000E+00
  0.00000000E+00  0.00000000E+00  0.00000000E+00
  0.00000000E+00  0.00000000E+00  0.00000000E+00
  0.00000000E+00  0.00000000E+00  0.00000000E+00
  0.00000000E+00  0.00000000E+00  0.00000000E+00
  0.00000000E+00  0.00000000E+00  0.00000000E+00
  0.00000000E+00  0.00000000E+00  0.00000000E+00
  0.00000000E+00  0.00000000E+00  0.00000000E+00
  0.00000000E+00  0.00000000E+00  0.00000000E+00
  0.00000000E+00  0.00000000E+00  0.00000000E+00
  0.00000000E+00  0.00000000E+00  0.00000000E+00
  0.00000000E+00  0.00000000E+00  0.00000000E+00
  0.00000000E+00  0.00000000E+00  0.00000000E+00
  0.00000000E+00  0.00000000E+00  0.00000000E+00
  0.00000000E+00  0.00000000E+00  0.00000000E+00
  0.00000000E+00  0.00000000E+00  0.00000000E+00
  0.00000000E+00  0.00000000E+00  0.00000000E+00
  0.00000000E+00  0.00000000E+00  0.00000000E+00
  0.00000000E+00  0.00000000E+00  0.00000000E+00
  0.00000000E+00  0.00000000E+00  0.00000000E+00
  0.00000000E+00  0.00000000E+00  0.00000000E+00
  0.00000000E+00  0.00000000E+00  0.00000000E+00
  0.00000000E+00  0.00000000E+00  0.00000000E+00
  0.00000000E+00  0.00000000E+00  0.00000000E+00
  0.00000000E+00  0.00000000E+00  0.00000000E+00
  0.00000000E+00  0.00000000E+00  0.00000000E+00
