C H O Si                                
   1.00000000000000     
     9.2874599999999994    0.0000000000000000    0.0000000000000000
     0.0000000000000000    8.7562999999999995    0.0000000000000000
     0.0000000000000000    0.0000000000000000   58.0000000000000000
   C    H    O    Si
    36    33    16    36
Selective dynamics
Direct
  0.0017234518548153  0.1353559087424084  0.3755419386070132   T   T   T
  0.0017333930670000  0.6354710755096932  0.3755576658218747   T   T   T
  0.3350705789116110  0.1354186247439545  0.3756537421180668   T   T   T
  0.3350740832640547  0.6352841654483797  0.3756675578944094   T   T   T
  0.6681666790531977  0.1352462667770647  0.3756597052930317   T   T   T
  0.6682187292222211  0.6352034019054784  0.3756552902888828   T   T   T
  0.1685307963818631  0.3812547456258912  0.4009743780255999   T   T   T
  0.1685972946951530  0.8812557563523582  0.4009945938294003   T   T   T
  0.5018436925229729  0.3812214547093069  0.4011122769581402   T   T   T
  0.5018270344332724  0.8811831156080929  0.4010491474658133   T   T   T
  0.8352610806601825  0.3811567077016673  0.4009176063674116   T   T   T
  0.8351693333569101  0.8811956857699186  0.4009583790836640   T   T   T
  0.0020099806736021  0.1307922459775157  0.4280686720713702   T   T   T
  0.0019333909600899  0.6310980234441839  0.4280864877578667   T   T   T
  0.3353355731025242  0.1309910876853196  0.4282008335206449   T   T   T
  0.3352516700522880  0.6308666339429337  0.4282161176039719   T   T   T
  0.6684504826205108  0.1309044297890704  0.4281737383235687   T   T   T
  0.6685566486869721  0.6308769838011675  0.4281650895482468   T   T   T
  0.1686683794222713  0.3808465137883776  0.4544878565169988   T   T   T
  0.1689786414874082  0.8809270500163583  0.4545514766454278   T   T   T
  0.5019455364240694  0.3812240162372393  0.4547410729169098   T   T   T
  0.5020025418518781  0.8806141114809610  0.4546093265528960   T   T   T
  0.8353584610914648  0.3806932729811695  0.4543945997629723   T   T   T
  0.8351626744255543  0.8809329576968070  0.4544999478979875   T   T   T
  0.0022070142200008  0.1304293084443929  0.4814833111966952   T   T   T
  0.0021525458793109  0.6311318032550608  0.4815862966531216   T   T   T
  0.3359143557292775  0.1316648382552072  0.4817823437510264   T   T   T
  0.3352482548581313  0.6311250775526293  0.4818593735088541   T   T   T
  0.6680320652909016  0.1315003934837070  0.4817400422691815   T   T   T
  0.6689530952275912  0.6312485453776228  0.4817271225920231   T   T   T
  0.1686125589846418  0.3835609060599235  0.5068175639385905   T   T   T
  0.1680975648828939  0.8856558532817350  0.5070543058214720   T   T   T
  0.5023146000897641  0.3889739127617134  0.5078412176640369   T   T   T
  0.5016679408552892  0.8850575529498477  0.5071337034515823   T   T   T
  0.8362345393741852  0.3826771090859836  0.5065947463607136   T   T   T
  0.8352196655213862  0.8855802903537481  0.5069804135456589   T   T   T
  0.0044905164975815  0.0629667120879673  0.3600142212159979   T   T   T
  0.0044374347127702  0.5630601835035883  0.3600292348872876   T   T   T
  0.3378577416445614  0.0629023930312032  0.3601396340800807   T   T   T
  0.3377012274831079  0.5626798125537171  0.3601624558779319   T   T   T
  0.6703048553903697  0.0628126313868178  0.3601328115600358   T   T   T
  0.6705669939116046  0.5627665687503131  0.3601343926350727   T   T   T
  0.1701735251194831  0.3115663765934128  0.5223822530178098   T   T   T
  0.1702108011191025  0.8130096666426623  0.5225488657867555   T   T   T
  0.5055329059430204  0.3152961061144169  0.5232310737672429   T   T   T
  0.5024043750201604  0.8127808731816526  0.5226753753135063   T   T   T
  0.8388781504666585  0.3105651088541208  0.5221434971350937   T   T   T
  0.8373376407145272  0.8138528539013371  0.5225491168756957   T   T   T
  0.0839543592056156  0.1152547317614295  0.5406235280856271   T   T   T
  0.0844453599020328  0.6107424384470467  0.5402187984212680   T   T   T
  0.4173143937561820  0.1163287472987138  0.5406990638685183   T   T   T
  0.3824927569855515  0.6329928348004817  0.5437599600641131   T   T   T
  0.7524659262305662  0.1145865802882336  0.5406055608216201   T   T   T
  0.7896193856185639  0.5988733949373947  0.5383515356787359   T   T   T
  0.2524795554693690  0.3643718781384736  0.3420456015967896   T   T   T
  0.2527170005293720  0.8642916172838191  0.3420775121346353   T   T   T
  0.5851318241665042  0.3645265377408808  0.3421179123780342   T   T   T
  0.5849605716555669  0.8643784507756016  0.3420600216295049   T   T   T
  0.9169686156787027  0.3649302297541441  0.3418785321455897   T   T   T
  0.9169293178702871  0.8650418665708187  0.3419070376163383   T   T   T
  0.5424097685035481  0.6145227781948487  0.5879356831204823   T   T   T
  0.4870961322462985  0.4753831343101325  0.6067214244085108   T   T   T
  0.5664413585534670  0.6400461334771356  0.6169024914928283   T   T   T
  0.3078962487545649  0.3821357631385385  0.6220270879332417   T   T   T
  0.4236330429334070  0.2587143803040107  0.6159597108049615   T   T   T
  0.6469168312107135  0.7349418025224465  0.6468007443483879   T   T   T
  0.4825386224436259  0.7673427191018644  0.6435385442399332   T   T   T
  0.5231031756954860  0.8037570341068047  0.5672406369189771   T   T   T
  0.5909146896004436  0.6611591325105756  0.5535761902866424   T   T   T
  0.1593342837091016  0.3432685941493895  0.3491896679483662   T   T   T
  0.1595133766645720  0.8432970690246587  0.3492098596027221   T   T   T
  0.4921171473054679  0.3435212277017513  0.3493153283121062   T   T   T
  0.4919784423238708  0.8431633726791263  0.3492542283753499   T   T   T
  0.8244450652861579  0.3427717445451065  0.3491424033070223   T   T   T
  0.8244439403148668  0.8429437632052263  0.3491826679521874   T   T   T
  0.9913571801480309  0.0937522151806275  0.5333330079629255   T   T   T
  0.9904319285769432  0.5895636688340289  0.5332182712511456   T   T   T
  0.3248188343675990  0.0930377568330840  0.5335156726053878   T   T   T
  0.3064303767234342  0.5934018617522325  0.5335196298164603   T   T   T
  0.6593212746114914  0.0932836705271192  0.5334636358033006   T   T   T
  0.6875797508876489  0.5931819106002476  0.5335371254133228   T   T   T
  0.5644826925495998  0.5599684260864046  0.6034536907988045   T   T   T
  0.3794470614911918  0.3531832486685192  0.6105032297322949   T   T   T
  0.5735602282177507  0.7577362127755410  0.6352517434085119   T   T   T
  0.5144511583950626  0.6935309898190295  0.5650576741108047   T   T   T
  0.1683068753374748  0.2527877785326074  0.3748383849905450   T   T   T
  0.1683886772172591  0.7527655226164129  0.3748565980299050   T   T   T
  0.5015100485458696  0.2528246620607181  0.3749524033069556   T   T   T
  0.5015056643631819  0.7526929751054461  0.3749108440701021   T   T   T
  0.8347510298448652  0.2525333463471283  0.3748067382294853   T   T   T
  0.8347327427344213  0.7525972069963324  0.3748374581921833   T   T   T
  0.0018742893610573  0.0053919374662257  0.4014648748598941   T   T   T
  0.0018554541664401  0.5055169091442445  0.4014737783534551   T   T   T
  0.3352062687909219  0.0055152775644305  0.4015685639348133   T   T   T
  0.3351474350113681  0.5054282645081017  0.4015868383723280   T   T   T
  0.6683889404237274  0.0053511527430345  0.4015574598930324   T   T   T
  0.6684820709680095  0.5052995655867878  0.4015549284654400   T   T   T
  0.1686193041896140  0.2558736653045482  0.4278493956462845   T   T   T
  0.1687646620200939  0.7559568247982150  0.4278880289876739   T   T   T
  0.5018841822734913  0.2559542842418631  0.4280138767872164   T   T   T
  0.5018569147905670  0.7557745218218286  0.4279245232044366   T   T   T
  0.8352898648382867  0.2556830087411081  0.4277792269625998   T   T   T
  0.8351628374165366  0.7558742968506105  0.4278504405400961   T   T   T
  0.0021539306133213  0.0054015438179638  0.4546710919936531   T   T   T
  0.0020338318063667  0.5057460564626846  0.4546659068831653   T   T   T
  0.3356948445717726  0.0060559140395928  0.4548334820962771   T   T   T
  0.3351769939408979  0.5060140786369346  0.4548894885282345   T   T   T
  0.6682687012146747  0.0058947204100700  0.4548039006254653   T   T   T
  0.6687819659317864  0.5057327253331553  0.4547671104741628   T   T   T
  0.1686334646722862  0.2547028548813451  0.4809851545607260   T   T   T
  0.1686994528210702  0.7556226182433510  0.4811551318559892   T   T   T
  0.5019815446870324  0.2571423305395895  0.4814965948392217   T   T   T
  0.5018123480320317  0.7551455597362149  0.4811937971329313   T   T   T
  0.8356456959532910  0.2539730357940459  0.4808224704134021   T   T   T
  0.8355700478902528  0.7556435253778095  0.4810899937822061   T   T   T
  0.0015167410162163  0.0030237788520724  0.5076982645916214   T   T   T
  0.0021642538000742  0.5005444395268689  0.5073745328877742   T   T   T
  0.3346403837095761  0.0028812060576855  0.5078485099493810   T   T   T
  0.3329666270417534  0.5042160969713666  0.5082306170563264   T   T   T
  0.6684720079040649  0.0027741005124088  0.5078209384223112   T   T   T
  0.6716985716894233  0.5020649669305270  0.5076287716525196   T   T   T
 
  0.00000000E+00  0.00000000E+00  0.00000000E+00
  0.00000000E+00  0.00000000E+00  0.00000000E+00
  0.00000000E+00  0.00000000E+00  0.00000000E+00
  0.00000000E+00  0.00000000E+00  0.00000000E+00
  0.00000000E+00  0.00000000E+00  0.00000000E+00
  0.00000000E+00  0.00000000E+00  0.00000000E+00
  0.00000000E+00  0.00000000E+00  0.00000000E+00
  0.00000000E+00  0.00000000E+00  0.00000000E+00
  0.00000000E+00  0.00000000E+00  0.00000000E+00
  0.00000000E+00  0.00000000E+00  0.00000000E+00
  0.00000000E+00  0.00000000E+00  0.00000000E+00
  0.00000000E+00  0.00000000E+00  0.00000000E+00
  0.00000000E+00  0.00000000E+00  0.00000000E+00
  0.00000000E+00  0.00000000E+00  0.00000000E+00
  0.00000000E+00  0.00000000E+00  0.00000000E+00
  0.00000000E+00  0.00000000E+00  0.00000000E+00
  0.00000000E+00  0.00000000E+00  0.00000000E+00
  0.00000000E+00  0.00000000E+00  0.00000000E+00
  0.00000000E+00  0.00000000E+00  0.00000000E+00
  0.00000000E+00  0.00000000E+00  0.00000000E+00
  0.00000000E+00  0.00000000E+00  0.00000000E+00
  0.00000000E+00  0.00000000E+00  0.00000000E+00
  0.00000000E+00  0.00000000E+00  0.00000000E+00
  0.00000000E+00  0.00000000E+00  0.00000000E+00
  0.00000000E+00  0.00000000E+00  0.00000000E+00
  0.00000000E+00  0.00000000E+00  0.00000000E+00
  0.00000000E+00  0.00000000E+00  0.00000000E+00
  0.00000000E+00  0.00000000E+00  0.00000000E+00
  0.00000000E+00  0.00000000E+00  0.00000000E+00
  0.00000000E+00  0.00000000E+00  0.00000000E+00
  0.00000000E+00  0.00000000E+00  0.00000000E+00
  0.00000000E+00  0.00000000E+00  0.00000000E+00
  0.00000000E+00  0.00000000E+00  0.00000000E+00
  0.00000000E+00  0.00000000E+00  0.00000000E+00
  0.00000000E+00  0.00000000E+00  0.00000000E+00
  0.00000000E+00  0.00000000E+00  0.00000000E+00
  0.00000000E+00  0.00000000E+00  0.00000000E+00
  0.00000000E+00  0.00000000E+00  0.00000000E+00
  0.00000000E+00  0.00000000E+00  0.00000000E+00
  0.00000000E+00  0.00000000E+00  0.00000000E+00
  0.00000000E+00  0.00000000E+00  0.00000000E+00
  0.00000000E+00  0.00000000E+00  0.00000000E+00
  0.00000000E+00  0.00000000E+00  0.00000000E+00
  0.00000000E+00  0.00000000E+00  0.00000000E+00
  0.00000000E+00  0.00000000E+00  0.00000000E+00
  0.00000000E+00  0.00000000E+00  0.00000000E+00
  0.00000000E+00  0.00000000E+00  0.00000000E+00
  0.00000000E+00  0.00000000E+00  0.00000000E+00
  0.00000000E+00  0.00000000E+00  0.00000000E+00
  0.00000000E+00  0.00000000E+00  0.00000000E+00
  0.00000000E+00  0.00000000E+00  0.00000000E+00
  0.00000000E+00  0.00000000E+00  0.00000000E+00
  0.00000000E+00  0.00000000E+00  0.00000000E+00
  0.00000000E+00  0.00000000E+00  0.00000000E+00
  0.00000000E+00  0.00000000E+00  0.00000000E+00
  0.00000000E+00  0.00000000E+00  0.00000000E+00
  0.00000000E+00  0.00000000E+00  0.00000000E+00
  0.00000000E+00  0.00000000E+00  0.00000000E+00
  0.00000000E+00  0.00000000E+00  0.00000000E+00
  0.00000000E+00  0.00000000E+00  0.00000000E+00
  0.00000000E+00  0.00000000E+00  0.00000000E+00
  0.00000000E+00  0.00000000E+00  0.00000000E+00
  0.00000000E+00  0.00000000E+00  0.00000000E+00
  0.00000000E+00  0.00000000E+00  0.00000000E+00
  0.00000000E+00  0.00000000E+00  0.00000000E+00
  0.00000000E+00  0.00000000E+00  0.00000000E+00
  0.00000000E+00  0.00000000E+00  0.00000000E+00
  0.00000000E+00  0.00000000E+00  0.00000000E+00
  0.00000000E+00  0.00000000E+00  0.00000000E+00
  0.00000000E+00  0.00000000E+00  0.00000000E+00
  0.00000000E+00  0.00000000E+00  0.00000000E+00
  0.00000000E+00  0.00000000E+00  0.00000000E+00
  0.00000000E+00  0.00000000E+00  0.00000000E+00
  0.00000000E+00  0.00000000E+00  0.00000000E+00
  0.00000000E+00  0.00000000E+00  0.00000000E+00
  0.00000000E+00  0.00000000E+00  0.00000000E+00
  0.00000000E+00  0.00000000E+00  0.00000000E+00
  0.00000000E+00  0.00000000E+00  0.00000000E+00
  0.00000000E+00  0.00000000E+00  0.00000000E+00
  0.00000000E+00  0.00000000E+00  0.00000000E+00
  0.00000000E+00  0.00000000E+00  0.00000000E+00
  0.00000000E+00  0.00000000E+00  0.00000000E+00
  0.00000000E+00  0.00000000E+00  0.00000000E+00
  0.00000000E+00  0.00000000E+00  0.00000000E+00
  0.00000000E+00  0.00000000E+00  0.00000000E+00
  0.00000000E+00  0.00000000E+00  0.00000000E+00
  0.00000000E+00  0.00000000E+00  0.00000000E+00
  0.00000000E+00  0.00000000E+00  0.00000000E+00
  0.00000000E+00  0.00000000E+00  0.00000000E+00
  0.00000000E+00  0.00000000E+00  0.00000000E+00
  0.00000000E+00  0.00000000E+00  0.00000000E+00
  0.00000000E+00  0.00000000E+00  0.00000000E+00
  0.00000000E+00  0.00000000E+00  0.00000000E+00
  0.00000000E+00  0.00000000E+00  0.00000000E+00
  0.00000000E+00  0.00000000E+00  0.00000000E+00
  0.00000000E+00  0.00000000E+00  0.00000000E+00
  0.00000000E+00  0.00000000E+00  0.00000000E+00
  0.00000000E+00  0.00000000E+00  0.00000000E+00
  0.00000000E+00  0.00000000E+00  0.00000000E+00
  0.00000000E+00  0.00000000E+00  0.00000000E+00
  0.00000000E+00  0.00000000E+00  0.00000000E+00
  0.00000000E+00  0.00000000E+00  0.00000000E+00
  0.00000000E+00  0.00000000E+00  0.00000000E+00
  0.00000000E+00  0.00000000E+00  0.00000000E+00
  0.00000000E+00  0.00000000E+00  0.00000000E+00
  0.00000000E+00  0.00000000E+00  0.00000000E+00
  0.00000000E+00  0.00000000E+00  0.00000000E+00
  0.00000000E+00  0.00000000E+00  0.00000000E+00
  0.00000000E+00  0.00000000E+00  0.00000000E+00
  0.00000000E+00  0.00000000E+00  0.00000000E+00
  0.00000000E+00  0.00000000E+00  0.00000000E+00
  0.00000000E+00  0.00000000E+00  0.00000000E+00
  0.00000000E+00  0.00000000E+00  0.00000000E+00
  0.00000000E+00  0.00000000E+00  0.00000000E+00
  0.00000000E+00  0.00000000E+00  0.00000000E+00
  0.00000000E+00  0.00000000E+00  0.00000000E+00
  0.00000000E+00  0.00000000E+00  0.00000000E+00
  0.00000000E+00  0.00000000E+00  0.00000000E+00
  0.00000000E+00  0.00000000E+00  0.00000000E+00
  0.00000000E+00  0.00000000E+00  0.00000000E+00
  0.00000000E+00  0.00000000E+00  0.00000000E+00
