C H O Si                                
   1.00000000000000     
     9.2874599999999994    0.0000000000000000    0.0000000000000000
     0.0000000000000000   17.5126199999999983    0.0000000000000000
     0.0000000000000000    0.0000000000000000   58.0000000000000000
   C    H    O    Si
    72    57    28    72
Selective dynamics
Direct
  0.9937190081415020  0.0631673560898721  0.0604542689877446   T   T   T
  0.3270729459719225  0.0631847690976176  0.0605279552213623   T   T   T
  0.6603747427446107  0.0631887288963905  0.0605139363139000   T   T   T
  0.9936693581726375  0.3131898080795487  0.0604508350826034   T   T   T
  0.3269621996686672  0.3131494874172481  0.0605372702138456   T   T   T
  0.6603294392831187  0.3131558526664595  0.0605172061282643   T   T   T
  0.1599008131001154  0.1860659919650620  0.1393885206973315   T   T   T
  0.4931732735128193  0.1863591282757718  0.1396422353222605   T   T   T
  0.8265975910032668  0.1860440077052403  0.1393437427011442   T   T   T
  0.1598262914409686  0.4361905849597698  0.1394351316839822   T   T   T
  0.4931824327948729  0.4361152636901037  0.1394845770269940   T   T   T
  0.8265663844816111  0.4361951927016089  0.1394273545761650   T   T   T
  0.3270820535274490  0.0614348197586459  0.1667256799530223   T   T   T
  0.6594140241182921  0.0614610912954995  0.1667068315168342   T   T   T
  0.9934000150868618  0.0607439640449754  0.1664821690179473   T   T   T
  0.3262879501031543  0.3113337228302281  0.1668018585563047   T   T   T
  0.6602347734343346  0.3113895457182688  0.1666893479149296   T   T   T
  0.9932630989680014  0.3112376238495650  0.1665452632472259   T   T   T
  0.1598237552241799  0.1871765130855690  0.1917172464233421   T   T   T
  0.4933142549121123  0.1899990035993492  0.1927896064250263   T   T   T
  0.8272498329111772  0.1869040933943422  0.1916013079990770   T   T   T
  0.1595515057996260  0.4384153763103292  0.1919954340597681   T   T   T
  0.4930675520611327  0.4380376614899368  0.1920572758302818   T   T   T
  0.8266485063106097  0.4384523152507843  0.1919624504854479   T   T   T
  0.1600433724375575  0.1862743754561950  0.0858040552934839   T   T   T
  0.4932976297596694  0.1863100761642599  0.0859438030320855   T   T   T
  0.8266303300033061  0.1862771434253151  0.0857832176655982   T   T   T
  0.1600430507517172  0.4362794780378430  0.0858301409969405   T   T   T
  0.4932960007117538  0.4362591611568007  0.0858671654561353   T   T   T
  0.8266374827766646  0.4362751707364940  0.0858212372259151   T   T   T
  0.3265917637585637  0.0611742374684496  0.1130959173048467   T   T   T
  0.6597876245315105  0.0611872018290391  0.1130830559367421   T   T   T
  0.9932115342477246  0.0610967220684749  0.1130117781759178   T   T   T
  0.3265312038868791  0.3111446130371808  0.1131387507289668   T   T   T
  0.6599747595529091  0.3111720759244436  0.1130996451192322   T   T   T
  0.9932767614405538  0.3111556534178155  0.1130093582882756   T   T   T
  0.9937459641123524  0.5631500299807786  0.0604830606238619   T   T   T
  0.3270362240143432  0.5631654797899792  0.0604985491975763   T   T   T
  0.6604559607860917  0.5631578490954585  0.0604947619996623   T   T   T
  0.9936731617517789  0.8131833392945456  0.0604923975390735   T   T   T
  0.3269855628451122  0.8131530799167764  0.0604886159165037   T   T   T
  0.6603581060545011  0.8131542914832994  0.0604827098982729   T   T   T
  0.1598242261170970  0.6862006806081838  0.1394306215701601   T   T   T
  0.4931320962627489  0.6861805322206106  0.1394410409206726   T   T   T
  0.8264103706297558  0.6861969506225619  0.1394273806963654   T   T   T
  0.1602263057931347  0.9361479011406302  0.1394371354294099   T   T   T
  0.4931782174537545  0.9361114711375955  0.1394471002696031   T   T   T
  0.8262794436757928  0.9361770563465364  0.1394374596511225   T   T   T
  0.3264451847208888  0.5612936477676391  0.1666285196498685   T   T   T
  0.6596888772609526  0.5612788029178117  0.1666350893193839   T   T   T
  0.9931247663122869  0.5614704938715698  0.1665984727004901   T   T   T
  0.3265132484903512  0.8112403364610394  0.1666398157917270   T   T   T
  0.6598784082851028  0.8112498426824465  0.1666283742506263   T   T   T
  0.9931864913402206  0.8113281766219277  0.1666260238224572   T   T   T
  0.1599361385565784  0.6881887610469436  0.1920165435380156   T   T   T
  0.4932126831113184  0.6881544827703001  0.1920263458486516   T   T   T
  0.8264663087264501  0.6881852503866935  0.1920090042531202   T   T   T
  0.1600450195136235  0.9381269048892410  0.1920193468068094   T   T   T
  0.4932859280498458  0.9380985722236833  0.1920406794774437   T   T   T
  0.8264750979228573  0.9381457196413073  0.1920018398973318   T   T   T
  0.1600303363506690  0.6862958628313294  0.0858256927860643   T   T   T
  0.4933327651973335  0.6862574633099976  0.0858368217764844   T   T   T
  0.8266493585426992  0.6862854994261218  0.0858287220540444   T   T   T
  0.1600629644061100  0.9362880699428817  0.0858282216188869   T   T   T
  0.4932990038249134  0.9362768279480170  0.0858409153141132   T   T   T
  0.8265679847562701  0.9362896411261229  0.0858221749361812   T   T   T
  0.3264937284990225  0.5611514711551377  0.1130650201952532   T   T   T
  0.6598566486897085  0.5611510145301664  0.1130668425667228   T   T   T
  0.9931942219328500  0.5611859896529361  0.1130437855695551   T   T   T
  0.3266004643064266  0.8111228986552393  0.1130463822175112   T   T   T
  0.6598559891096800  0.8111356597006856  0.1130444530376646   T   T   T
  0.9932157734963717  0.8112338981883551  0.1130643984694388   T   T   T
  0.0719579717771998  0.1784010389914116  0.0280124551000049   T   T   T
  0.4046114347257724  0.1783638778312255  0.0281707020479375   T   T   T
  0.7377304040162126  0.1783105490472643  0.0280500805426114   T   T   T
  0.0717518709416348  0.4284626129507319  0.0280367279833449   T   T   T
  0.4041939051150928  0.4282623714760550  0.0281181371114357   T   T   T
  0.7372264663710827  0.4282828124016336  0.0280934583287117   T   T   T
  0.3248037401822957  0.0263623610569498  0.0451443667419757   T   T   T
  0.6573917607927159  0.0263767403787537  0.0451312754670044   T   T   T
  0.9911981602792991  0.0264027702397082  0.0450621413083808   T   T   T
  0.3243058006738080  0.2762565447247980  0.0451683097704667   T   T   T
  0.6575435871698632  0.2763030356640608  0.0451413140626472   T   T   T
  0.9909665418813393  0.2764378227594181  0.0450547940400802   T   T   T
  0.8285709381892932  0.4019462702583684  0.2073966802109224   T   T   T
  0.8300008951278359  0.1503698835473888  0.2070397241798816   T   T   T
  0.1615879346950826  0.1507505239960234  0.2071828087848032   T   T   T
  0.4962961663579925  0.1525686183906666  0.2080407752549764   T   T   T
  0.1614426656480182  0.4015236647289679  0.2073601967611242   T   T   T
  0.4938187689949293  0.4012908387150195  0.2074679863733291   T   T   T
  0.0826696200131552  0.0533171684388483  0.2243832891132925   T   T   T
  0.4163813798019846  0.0528513133611791  0.2245122328965058   T   T   T
  0.7498795297452073  0.0530137968843667  0.2244509214081687   T   T   T
  0.0817899731692317  0.3012002120063557  0.2240507237175253   T   T   T
  0.3778397938448762  0.3106807850788349  0.2280897551071417   T   T   T
  0.7824400927535869  0.2957109973986778  0.2227540281253522   T   T   T
  0.5475334419843044  0.3059319315433967  0.2736517028370377   T   T   T
  0.4929049472635039  0.2380108489618849  0.2932274963645288   T   T   T
  0.5719139397074123  0.3195101142556186  0.3029423001948692   T   T   T
  0.3141071374875271  0.1936069566338342  0.3097408269444237   T   T   T
  0.4221622985246755  0.1296684527076312  0.3023501934193781   T   T   T
  0.6509262738108647  0.3663511112362929  0.3335666253205134   T   T   T
  0.4851659623051818  0.3780639044204929  0.3308739740618942   T   T   T
  0.5198729770142919  0.3953606088054177  0.2521400465877027   T   T   T
  0.5869977958772857  0.3228042559985256  0.2385423592579931   T   T   T
  0.0716177941817719  0.6784225840729807  0.0280642169434473   T   T   T
  0.4047164199767289  0.6783475454824121  0.0280851278984809   T   T   T
  0.7379429716608338  0.6783478488108972  0.0280863595881502   T   T   T
  0.0713923199351561  0.9283933118550495  0.0280650912957246   T   T   T
  0.4043077176121479  0.9282917348918729  0.0280921493396891   T   T   T
  0.7376292743225515  0.9283561887888517  0.0280849671998279   T   T   T
  0.3244583097929765  0.5263388759704699  0.0451170010162766   T   T   T
  0.6578425560706115  0.5263433001505260  0.0451130501753493   T   T   T
  0.9911192792804665  0.5263637658207478  0.0450933537559502   T   T   T
  0.3243209672085342  0.7763505137377417  0.0451030727741678   T   T   T
  0.6575657591368718  0.7763615999834617  0.0450988651644087   T   T   T
  0.9909479800007138  0.7763725889134834  0.0451084425119316   T   T   T
  0.8289866815084967  0.9013274693250005  0.2073851715757017   T   T   T
  0.8289788351816452  0.6513587472176914  0.2073897619652384   T   T   T
  0.1622501436512554  0.6513457336392559  0.2073947894272939   T   T   T
  0.4957321405983616  0.6513990716589819  0.2074220646737632   T   T   T
  0.1623467931529640  0.9013086352602180  0.2074037224403069   T   T   T
  0.4958732055156131  0.9012519517858509  0.2074180751538110   T   T   T
  0.0822469133546428  0.5541319916833408  0.2243729544921023   T   T   T
  0.4160079259143377  0.5544548599753493  0.2242533338384717   T   T   T
  0.7494204251039573  0.5540167110469799  0.2243211656357067   T   T   T
  0.0827892268141413  0.8033916064226457  0.2244076317119814   T   T   T
  0.4157830355839567  0.8036570366372009  0.2244504588783662   T   T   T
  0.7500155492971587  0.8031584788010143  0.2243637720455012   T   T   T
  0.1680294009475064  0.1654031715689119  0.0336709824140981   T   T   T
  0.5009313198507187  0.1657187031698724  0.0338100287404262   T   T   T
  0.8340222076428918  0.1653654523382018  0.0336362086059315   T   T   T
  0.1678556472434736  0.4155970042988520  0.0337102062297411   T   T   T
  0.5005573643058615  0.4155108434062522  0.0337232581850004   T   T   T
  0.8336123523941432  0.4154612670295729  0.0336730316940672   T   T   T
  0.3199941648607904  0.0409644021081558  0.2187540845073089   T   T   T
  0.6533904232290756  0.0410312810729064  0.2187356720136515   T   T   T
  0.9864319144551940  0.0410424278178545  0.2186294552003745   T   T   T
  0.2981322566213694  0.2905276033089269  0.2188304485907490   T   T   T
  0.6791674884630141  0.2913260248981209  0.2188220110368699   T   T   T
  0.9845369940075454  0.2888002254415712  0.2185163919862969   T   T   T
  0.5704415562302426  0.2796004883021475  0.2896602813879720   T   T   T
  0.3806851158717949  0.1783521082277086  0.2975643738710846   T   T   T
  0.5756840549430736  0.3776716666266625  0.3223249017678320   T   T   T
  0.5156068725663199  0.3397947645073738  0.2511211636090131   T   T   T
  0.1678005454350219  0.6655391753638561  0.0337034843886058   T   T   T
  0.5009909581348674  0.6655270540910121  0.0337084125255257   T   T   T
  0.8342247694940864  0.6655450960170519  0.0337062330056768   T   T   T
  0.1676039048171670  0.9155767697983844  0.0337084622654918   T   T   T
  0.5006592416687602  0.9155238497750529  0.0336968785755549   T   T   T
  0.8339329445989526  0.9154530602920313  0.0336790316641699   T   T   T
  0.3198304598260940  0.5410235913313030  0.2187121305824915   T   T   T
  0.6531462218876667  0.5410655072098475  0.2187076611268592   T   T   T
  0.9861671460294241  0.5410016254464080  0.2187286293232520   T   T   T
  0.3196636766588573  0.7909212703538745  0.2187420374805958   T   T   T
  0.6534629063915715  0.7910255536147797  0.2187062616386714   T   T   T
  0.9864849075619367  0.7909460842408075  0.2187128140363141   T   T   T
  0.4939407993957568  0.1217112040399033  0.0601473419996688   T   T   T
  0.8272024795112406  0.1216738119404746  0.0600149398311446   T   T   T
  0.1605720517569318  0.3716754129938792  0.0600589924732261   T   T   T
  0.4938646408895209  0.3716556579676308  0.0600835510580856   T   T   T
  0.8271267177158219  0.3716816063063639  0.0600463741892620   T   T   T
  0.1606250202510020  0.1216549283278279  0.0600407622614842   T   T   T
  0.9932049830746306  0.4985232645064552  0.1396155191531624   T   T   T
  0.3265005674611134  0.4984391793585385  0.1396363627302491   T   T   T
  0.6598279178036831  0.4984437204981980  0.1396382885730868   T   T   T
  0.9932400433104626  0.2483361949214141  0.1395314719179995   T   T   T
  0.3263337398226789  0.2484726922549721  0.1397408342112822   T   T   T
  0.6600407413870162  0.2483855324729461  0.1396440551502864   T   T   T
  0.1598832065294199  0.1227889856292481  0.1656982589519475   T   T   T
  0.4932017749895775  0.1240695460781611  0.1662063883334582   T   T   T
  0.8268329906248394  0.1225559968893894  0.1655997033770873   T   T   T
  0.1597325876725933  0.3734202355911064  0.1658554239753610   T   T   T
  0.4930427908494206  0.3731851332679458  0.1658943423159558   T   T   T
  0.8268595324018634  0.3734509395641453  0.1658296806420706   T   T   T
  0.3260582085465368  0.4968185463016785  0.1923957914723575   T   T   T
  0.6596910418454065  0.4967812985694630  0.1924052313636967   T   T   T
  0.9929203273748692  0.4970140896230541  0.1923733834262141   T   T   T
  0.3239998600685495  0.2473716131149137  0.1927629332316503   T   T   T
  0.9932912954928742  0.2455623443439274  0.1920032469896634   T   T   T
  0.6624394085368882  0.2464756937900016  0.1922448287397550   T   T   T
  0.9933296931911108  0.4982258525115968  0.0866340471542849   T   T   T
  0.3266567091909584  0.4982342302796355  0.0866463784915528   T   T   T
  0.6599721915187575  0.4982221332049104  0.0866453721573527   T   T   T
  0.9933282843168698  0.2482074406955218  0.0865931097364334   T   T   T
  0.3266321831775704  0.2482510036093236  0.0867025043011843   T   T   T
  0.6599701148289639  0.2482347658547316  0.0866684497860516   T   T   T
  0.1599005559534336  0.1234337663762227  0.1128178719374828   T   T   T
  0.4931665220259634  0.1235440167527044  0.1129793988009167   T   T   T
  0.8265748602066095  0.1233955189195813  0.1127827979161165   T   T   T
  0.1599245286930567  0.3734769959199963  0.1128597197398254   T   T   T
  0.4932385669891558  0.3734524317676587  0.1128840511809764   T   T   T
  0.8266390262094394  0.3734743382730386  0.1128446117512147   T   T   T
  0.4939676253247777  0.6216459152810380  0.0600617825235349   T   T   T
  0.8272730179097074  0.6216705474080229  0.0600615846306717   T   T   T
  0.1605738476928558  0.8716719747625283  0.0600602770000831   T   T   T
  0.4938800451126869  0.8716703072404282  0.0600588158569151   T   T   T
  0.8271527462185115  0.8716827068677974  0.0600491265590582   T   T   T
  0.1605982056841412  0.6216713535507689  0.0600561222373816   T   T   T
  0.9932725155540835  0.9981699709306774  0.1395422696147985   T   T   T
  0.3269058292908537  0.9985378856660826  0.1396750878531700   T   T   T
  0.6595217568670149  0.9985195207161971  0.1396593488265256   T   T   T
  0.9931196030452715  0.7484762923007507  0.1396233630916861   T   T   T
  0.3264794833019196  0.7484630152216346  0.1396260638553587   T   T   T
  0.6597547951732021  0.7484573259345499  0.1396218106709970   T   T   T
  0.1597920822059969  0.6233581469163987  0.1658349226135553   T   T   T
  0.4930984226978464  0.6233063488645540  0.1658573580515052   T   T   T
  0.8263771219379773  0.6233386053955436  0.1658366130529484   T   T   T
  0.1599111953566694  0.8732519364344589  0.1658487222659944   T   T   T
  0.4931882015733526  0.8732407826128453  0.1658664539732179   T   T   T
  0.8264481314471964  0.8732600095404285  0.1658385527943398   T   T   T
  0.3264523451872394  0.9966599782563917  0.1924556042973491   T   T   T
  0.6597142357996655  0.9966760222280683  0.1924312094127099   T   T   T
  0.9930811917149654  0.9965855300396730  0.1923505051545798   T   T   T
  0.3263410757462933  0.7467134666998909  0.1924210157805301   T   T   T
  0.9929983267261721  0.7467175126171798  0.1924003154724676   T   T   T
  0.6596615236555345  0.7467141664003935  0.1924031775851656   T   T   T
  0.9933239801795822  0.9982048668123842  0.0865971610483482   T   T   T
  0.3267033108046634  0.9982469418169199  0.0866644977613777   T   T   T
  0.6599045952172988  0.9982523466304494  0.0866549211567435   T   T   T
  0.9933090647695414  0.7482540048990524  0.0866413421701364   T   T   T
  0.3266783918377261  0.7482171558881385  0.0866362308088008   T   T   T
  0.6599497405684972  0.7482186212004117  0.0866313960758759   T   T   T
  0.1598734137409077  0.6234903451648377  0.1128534051692160   T   T   T
  0.4931895065166940  0.6234643267420130  0.1128590486536017   T   T   T
  0.8265326336169091  0.6234859557930706  0.1128532108633256   T   T   T
  0.1600369014597865  0.8734702951129104  0.1128519916589965   T   T   T
  0.4932247363299243  0.8734558512397476  0.1128520309620920   T   T   T
  0.8264391857081755  0.8734889989988092  0.1128482998031683   T   T   T
 
  0.00000000E+00  0.00000000E+00  0.00000000E+00
  0.00000000E+00  0.00000000E+00  0.00000000E+00
  0.00000000E+00  0.00000000E+00  0.00000000E+00
  0.00000000E+00  0.00000000E+00  0.00000000E+00
  0.00000000E+00  0.00000000E+00  0.00000000E+00
  0.00000000E+00  0.00000000E+00  0.00000000E+00
  0.00000000E+00  0.00000000E+00  0.00000000E+00
  0.00000000E+00  0.00000000E+00  0.00000000E+00
  0.00000000E+00  0.00000000E+00  0.00000000E+00
  0.00000000E+00  0.00000000E+00  0.00000000E+00
  0.00000000E+00  0.00000000E+00  0.00000000E+00
  0.00000000E+00  0.00000000E+00  0.00000000E+00
  0.00000000E+00  0.00000000E+00  0.00000000E+00
  0.00000000E+00  0.00000000E+00  0.00000000E+00
  0.00000000E+00  0.00000000E+00  0.00000000E+00
  0.00000000E+00  0.00000000E+00  0.00000000E+00
  0.00000000E+00  0.00000000E+00  0.00000000E+00
  0.00000000E+00  0.00000000E+00  0.00000000E+00
  0.00000000E+00  0.00000000E+00  0.00000000E+00
  0.00000000E+00  0.00000000E+00  0.00000000E+00
  0.00000000E+00  0.00000000E+00  0.00000000E+00
  0.00000000E+00  0.00000000E+00  0.00000000E+00
  0.00000000E+00  0.00000000E+00  0.00000000E+00
  0.00000000E+00  0.00000000E+00  0.00000000E+00
  0.00000000E+00  0.00000000E+00  0.00000000E+00
  0.00000000E+00  0.00000000E+00  0.00000000E+00
  0.00000000E+00  0.00000000E+00  0.00000000E+00
  0.00000000E+00  0.00000000E+00  0.00000000E+00
  0.00000000E+00  0.00000000E+00  0.00000000E+00
  0.00000000E+00  0.00000000E+00  0.00000000E+00
  0.00000000E+00  0.00000000E+00  0.00000000E+00
  0.00000000E+00  0.00000000E+00  0.00000000E+00
  0.00000000E+00  0.00000000E+00  0.00000000E+00
  0.00000000E+00  0.00000000E+00  0.00000000E+00
  0.00000000E+00  0.00000000E+00  0.00000000E+00
  0.00000000E+00  0.00000000E+00  0.00000000E+00
  0.00000000E+00  0.00000000E+00  0.00000000E+00
  0.00000000E+00  0.00000000E+00  0.00000000E+00
  0.00000000E+00  0.00000000E+00  0.00000000E+00
  0.00000000E+00  0.00000000E+00  0.00000000E+00
  0.00000000E+00  0.00000000E+00  0.00000000E+00
  0.00000000E+00  0.00000000E+00  0.00000000E+00
  0.00000000E+00  0.00000000E+00  0.00000000E+00
  0.00000000E+00  0.00000000E+00  0.00000000E+00
  0.00000000E+00  0.00000000E+00  0.00000000E+00
  0.00000000E+00  0.00000000E+00  0.00000000E+00
  0.00000000E+00  0.00000000E+00  0.00000000E+00
  0.00000000E+00  0.00000000E+00  0.00000000E+00
  0.00000000E+00  0.00000000E+00  0.00000000E+00
  0.00000000E+00  0.00000000E+00  0.00000000E+00
  0.00000000E+00  0.00000000E+00  0.00000000E+00
  0.00000000E+00  0.00000000E+00  0.00000000E+00
  0.00000000E+00  0.00000000E+00  0.00000000E+00
  0.00000000E+00  0.00000000E+00  0.00000000E+00
  0.00000000E+00  0.00000000E+00  0.00000000E+00
  0.00000000E+00  0.00000000E+00  0.00000000E+00
  0.00000000E+00  0.00000000E+00  0.00000000E+00
  0.00000000E+00  0.00000000E+00  0.00000000E+00
  0.00000000E+00  0.00000000E+00  0.00000000E+00
  0.00000000E+00  0.00000000E+00  0.00000000E+00
  0.00000000E+00  0.00000000E+00  0.00000000E+00
  0.00000000E+00  0.00000000E+00  0.00000000E+00
  0.00000000E+00  0.00000000E+00  0.00000000E+00
  0.00000000E+00  0.00000000E+00  0.00000000E+00
  0.00000000E+00  0.00000000E+00  0.00000000E+00
  0.00000000E+00  0.00000000E+00  0.00000000E+00
  0.00000000E+00  0.00000000E+00  0.00000000E+00
  0.00000000E+00  0.00000000E+00  0.00000000E+00
  0.00000000E+00  0.00000000E+00  0.00000000E+00
  0.00000000E+00  0.00000000E+00  0.00000000E+00
  0.00000000E+00  0.00000000E+00  0.00000000E+00
  0.00000000E+00  0.00000000E+00  0.00000000E+00
  0.00000000E+00  0.00000000E+00  0.00000000E+00
  0.00000000E+00  0.00000000E+00  0.00000000E+00
  0.00000000E+00  0.00000000E+00  0.00000000E+00
  0.00000000E+00  0.00000000E+00  0.00000000E+00
  0.00000000E+00  0.00000000E+00  0.00000000E+00
  0.00000000E+00  0.00000000E+00  0.00000000E+00
  0.00000000E+00  0.00000000E+00  0.00000000E+00
  0.00000000E+00  0.00000000E+00  0.00000000E+00
  0.00000000E+00  0.00000000E+00  0.00000000E+00
  0.00000000E+00  0.00000000E+00  0.00000000E+00
  0.00000000E+00  0.00000000E+00  0.00000000E+00
  0.00000000E+00  0.00000000E+00  0.00000000E+00
  0.00000000E+00  0.00000000E+00  0.00000000E+00
  0.00000000E+00  0.00000000E+00  0.00000000E+00
  0.00000000E+00  0.00000000E+00  0.00000000E+00
  0.00000000E+00  0.00000000E+00  0.00000000E+00
  0.00000000E+00  0.00000000E+00  0.00000000E+00
  0.00000000E+00  0.00000000E+00  0.00000000E+00
  0.00000000E+00  0.00000000E+00  0.00000000E+00
  0.00000000E+00  0.00000000E+00  0.00000000E+00
  0.00000000E+00  0.00000000E+00  0.00000000E+00
  0.00000000E+00  0.00000000E+00  0.00000000E+00
  0.00000000E+00  0.00000000E+00  0.00000000E+00
  0.00000000E+00  0.00000000E+00  0.00000000E+00
  0.00000000E+00  0.00000000E+00  0.00000000E+00
  0.00000000E+00  0.00000000E+00  0.00000000E+00
  0.00000000E+00  0.00000000E+00  0.00000000E+00
  0.00000000E+00  0.00000000E+00  0.00000000E+00
  0.00000000E+00  0.00000000E+00  0.00000000E+00
  0.00000000E+00  0.00000000E+00  0.00000000E+00
  0.00000000E+00  0.00000000E+00  0.00000000E+00
  0.00000000E+00  0.00000000E+00  0.00000000E+00
  0.00000000E+00  0.00000000E+00  0.00000000E+00
  0.00000000E+00  0.00000000E+00  0.00000000E+00
  0.00000000E+00  0.00000000E+00  0.00000000E+00
  0.00000000E+00  0.00000000E+00  0.00000000E+00
  0.00000000E+00  0.00000000E+00  0.00000000E+00
  0.00000000E+00  0.00000000E+00  0.00000000E+00
  0.00000000E+00  0.00000000E+00  0.00000000E+00
  0.00000000E+00  0.00000000E+00  0.00000000E+00
  0.00000000E+00  0.00000000E+00  0.00000000E+00
  0.00000000E+00  0.00000000E+00  0.00000000E+00
  0.00000000E+00  0.00000000E+00  0.00000000E+00
  0.00000000E+00  0.00000000E+00  0.00000000E+00
  0.00000000E+00  0.00000000E+00  0.00000000E+00
  0.00000000E+00  0.00000000E+00  0.00000000E+00
  0.00000000E+00  0.00000000E+00  0.00000000E+00
  0.00000000E+00  0.00000000E+00  0.00000000E+00
  0.00000000E+00  0.00000000E+00  0.00000000E+00
  0.00000000E+00  0.00000000E+00  0.00000000E+00
  0.00000000E+00  0.00000000E+00  0.00000000E+00
  0.00000000E+00  0.00000000E+00  0.00000000E+00
  0.00000000E+00  0.00000000E+00  0.00000000E+00
  0.00000000E+00  0.00000000E+00  0.00000000E+00
  0.00000000E+00  0.00000000E+00  0.00000000E+00
  0.00000000E+00  0.00000000E+00  0.00000000E+00
  0.00000000E+00  0.00000000E+00  0.00000000E+00
  0.00000000E+00  0.00000000E+00  0.00000000E+00
  0.00000000E+00  0.00000000E+00  0.00000000E+00
  0.00000000E+00  0.00000000E+00  0.00000000E+00
  0.00000000E+00  0.00000000E+00  0.00000000E+00
  0.00000000E+00  0.00000000E+00  0.00000000E+00
  0.00000000E+00  0.00000000E+00  0.00000000E+00
  0.00000000E+00  0.00000000E+00  0.00000000E+00
  0.00000000E+00  0.00000000E+00  0.00000000E+00
  0.00000000E+00  0.00000000E+00  0.00000000E+00
  0.00000000E+00  0.00000000E+00  0.00000000E+00
  0.00000000E+00  0.00000000E+00  0.00000000E+00
  0.00000000E+00  0.00000000E+00  0.00000000E+00
  0.00000000E+00  0.00000000E+00  0.00000000E+00
  0.00000000E+00  0.00000000E+00  0.00000000E+00
  0.00000000E+00  0.00000000E+00  0.00000000E+00
  0.00000000E+00  0.00000000E+00  0.00000000E+00
  0.00000000E+00  0.00000000E+00  0.00000000E+00
  0.00000000E+00  0.00000000E+00  0.00000000E+00
  0.00000000E+00  0.00000000E+00  0.00000000E+00
  0.00000000E+00  0.00000000E+00  0.00000000E+00
  0.00000000E+00  0.00000000E+00  0.00000000E+00
  0.00000000E+00  0.00000000E+00  0.00000000E+00
  0.00000000E+00  0.00000000E+00  0.00000000E+00
  0.00000000E+00  0.00000000E+00  0.00000000E+00
  0.00000000E+00  0.00000000E+00  0.00000000E+00
  0.00000000E+00  0.00000000E+00  0.00000000E+00
  0.00000000E+00  0.00000000E+00  0.00000000E+00
  0.00000000E+00  0.00000000E+00  0.00000000E+00
  0.00000000E+00  0.00000000E+00  0.00000000E+00
  0.00000000E+00  0.00000000E+00  0.00000000E+00
  0.00000000E+00  0.00000000E+00  0.00000000E+00
  0.00000000E+00  0.00000000E+00  0.00000000E+00
  0.00000000E+00  0.00000000E+00  0.00000000E+00
  0.00000000E+00  0.00000000E+00  0.00000000E+00
  0.00000000E+00  0.00000000E+00  0.00000000E+00
  0.00000000E+00  0.00000000E+00  0.00000000E+00
  0.00000000E+00  0.00000000E+00  0.00000000E+00
  0.00000000E+00  0.00000000E+00  0.00000000E+00
  0.00000000E+00  0.00000000E+00  0.00000000E+00
  0.00000000E+00  0.00000000E+00  0.00000000E+00
  0.00000000E+00  0.00000000E+00  0.00000000E+00
  0.00000000E+00  0.00000000E+00  0.00000000E+00
  0.00000000E+00  0.00000000E+00  0.00000000E+00
  0.00000000E+00  0.00000000E+00  0.00000000E+00
  0.00000000E+00  0.00000000E+00  0.00000000E+00
  0.00000000E+00  0.00000000E+00  0.00000000E+00
  0.00000000E+00  0.00000000E+00  0.00000000E+00
  0.00000000E+00  0.00000000E+00  0.00000000E+00
  0.00000000E+00  0.00000000E+00  0.00000000E+00
  0.00000000E+00  0.00000000E+00  0.00000000E+00
  0.00000000E+00  0.00000000E+00  0.00000000E+00
  0.00000000E+00  0.00000000E+00  0.00000000E+00
  0.00000000E+00  0.00000000E+00  0.00000000E+00
  0.00000000E+00  0.00000000E+00  0.00000000E+00
  0.00000000E+00  0.00000000E+00  0.00000000E+00
  0.00000000E+00  0.00000000E+00  0.00000000E+00
  0.00000000E+00  0.00000000E+00  0.00000000E+00
  0.00000000E+00  0.00000000E+00  0.00000000E+00
  0.00000000E+00  0.00000000E+00  0.00000000E+00
  0.00000000E+00  0.00000000E+00  0.00000000E+00
  0.00000000E+00  0.00000000E+00  0.00000000E+00
  0.00000000E+00  0.00000000E+00  0.00000000E+00
  0.00000000E+00  0.00000000E+00  0.00000000E+00
  0.00000000E+00  0.00000000E+00  0.00000000E+00
  0.00000000E+00  0.00000000E+00  0.00000000E+00
  0.00000000E+00  0.00000000E+00  0.00000000E+00
  0.00000000E+00  0.00000000E+00  0.00000000E+00
  0.00000000E+00  0.00000000E+00  0.00000000E+00
  0.00000000E+00  0.00000000E+00  0.00000000E+00
  0.00000000E+00  0.00000000E+00  0.00000000E+00
  0.00000000E+00  0.00000000E+00  0.00000000E+00
  0.00000000E+00  0.00000000E+00  0.00000000E+00
  0.00000000E+00  0.00000000E+00  0.00000000E+00
  0.00000000E+00  0.00000000E+00  0.00000000E+00
  0.00000000E+00  0.00000000E+00  0.00000000E+00
  0.00000000E+00  0.00000000E+00  0.00000000E+00
  0.00000000E+00  0.00000000E+00  0.00000000E+00
  0.00000000E+00  0.00000000E+00  0.00000000E+00
  0.00000000E+00  0.00000000E+00  0.00000000E+00
  0.00000000E+00  0.00000000E+00  0.00000000E+00
  0.00000000E+00  0.00000000E+00  0.00000000E+00
  0.00000000E+00  0.00000000E+00  0.00000000E+00
  0.00000000E+00  0.00000000E+00  0.00000000E+00
  0.00000000E+00  0.00000000E+00  0.00000000E+00
  0.00000000E+00  0.00000000E+00  0.00000000E+00
  0.00000000E+00  0.00000000E+00  0.00000000E+00
  0.00000000E+00  0.00000000E+00  0.00000000E+00
  0.00000000E+00  0.00000000E+00  0.00000000E+00
  0.00000000E+00  0.00000000E+00  0.00000000E+00
  0.00000000E+00  0.00000000E+00  0.00000000E+00
  0.00000000E+00  0.00000000E+00  0.00000000E+00
  0.00000000E+00  0.00000000E+00  0.00000000E+00
  0.00000000E+00  0.00000000E+00  0.00000000E+00
  0.00000000E+00  0.00000000E+00  0.00000000E+00
  0.00000000E+00  0.00000000E+00  0.00000000E+00
  0.00000000E+00  0.00000000E+00  0.00000000E+00
  0.00000000E+00  0.00000000E+00  0.00000000E+00
  0.00000000E+00  0.00000000E+00  0.00000000E+00
  0.00000000E+00  0.00000000E+00  0.00000000E+00
  0.00000000E+00  0.00000000E+00  0.00000000E+00
