C H O Si                                
   1.00000000000000     
     9.2874599999999994    0.0000000000000000    0.0000000000000000
     0.0000000000000000   17.5126199999999983    0.0000000000000000
     0.0000000000000000    0.0000000000000000   58.0000000000000000
   C    H    O    Si
    72    57    28    72
Selective dynamics
Direct
  0.9936280698688422  0.0631463787089298  0.0604675275095119   T   T   T
  0.3270291780614670  0.0631406229850489  0.0605358880481587   T   T   T
  0.6602274222843849  0.0631627051694350  0.0605220864575134   T   T   T
  0.9936418021379834  0.3131533637713006  0.0604669677299132   T   T   T
  0.3269759343952894  0.3131094920016902  0.0605441837792669   T   T   T
  0.6602852006565281  0.3131158026133345  0.0605277152660873   T   T   T
  0.1598677743211236  0.1860732379454964  0.1393872380307715   T   T   T
  0.4931668367208784  0.1863296682785040  0.1396296536048399   T   T   T
  0.8265813200594699  0.1860327804384742  0.1393465303001606   T   T   T
  0.1598202936768930  0.4362240503741845  0.1394247993475791   T   T   T
  0.4932251397896031  0.4361346311157901  0.1394753919273731   T   T   T
  0.8265837497445616  0.4362358444381024  0.1394128368801066   T   T   T
  0.3270827052139484  0.0614861870758768  0.1667465310285588   T   T   T
  0.6593499181241226  0.0614915455597697  0.1667109001463628   T   T   T
  0.9933496140232805  0.0607530843997304  0.1664802932567102   T   T   T
  0.3262586738069428  0.3113673703995944  0.1668047253469192   T   T   T
  0.6600950577813607  0.3113687994487416  0.1666994505096172   T   T   T
  0.9931565502168381  0.3112256633217493  0.1665326081897179   T   T   T
  0.1597688962991776  0.1871690491857687  0.1917264477676340   T   T   T
  0.4933101269214206  0.1900027999336538  0.1927971368339516   T   T   T
  0.8272244832056503  0.1869483299078456  0.1916144638159766   T   T   T
  0.1594569474928809  0.4383814075651724  0.1919934687563235   T   T   T
  0.4930894361114427  0.4380146610426090  0.1920494233254394   T   T   T
  0.8266402980738674  0.4383623218455278  0.1919572313423524   T   T   T
  0.1600007879310550  0.1862718079151234  0.0858331998698475   T   T   T
  0.4932691275738151  0.1863263830792043  0.0859570787948638   T   T   T
  0.8265993537999134  0.1862736607559944  0.0858076347836083   T   T   T
  0.1599919292423604  0.4362655626992735  0.0858458779289531   T   T   T
  0.4932699569044321  0.4362791427426991  0.0858738653993616   T   T   T
  0.8266338029345579  0.4362794191684027  0.0858437864822534   T   T   T
  0.3265672923497338  0.0611637568710941  0.1130911912678294   T   T   T
  0.6597509246678427  0.0611643078667786  0.1130842636654247   T   T   T
  0.9932367448815828  0.0610675933772697  0.1130008332675089   T   T   T
  0.3265857560625037  0.3111273941302945  0.1131331779701432   T   T   T
  0.6599542143616492  0.3111473890628709  0.1130928077624888   T   T   T
  0.9932729374851477  0.3111297833389100  0.1130029468712736   T   T   T
  0.9936714533036497  0.5631431760599747  0.0604897330193108   T   T   T
  0.3269890145906306  0.5631278238639863  0.0605078994886823   T   T   T
  0.6603203749482635  0.5631239193181923  0.0605077552387700   T   T   T
  0.9936463712327759  0.8131651022677527  0.0605000161992839   T   T   T
  0.3269870590367143  0.8131256010245883  0.0604974128528908   T   T   T
  0.6602908303277840  0.8131300587858494  0.0604942756179856   T   T   T
  0.1598072237606149  0.6862413816722192  0.1394219658465639   T   T   T
  0.4930997379229748  0.6861883053006689  0.1394323173015359   T   T   T
  0.8263792386951084  0.6862271155010436  0.1394266207184128   T   T   T
  0.1602055883093656  0.9361700004033613  0.1394289705461808   T   T   T
  0.4932346244453912  0.9361391176499329  0.1394327293233927   T   T   T
  0.8262509624762243  0.9362226308754935  0.1394298164084029   T   T   T
  0.3263937519828768  0.5613441513450462  0.1666324675759610   T   T   T
  0.6596003746260122  0.5613141434894919  0.1666401691507088   T   T   T
  0.9929710543391829  0.5614852185218278  0.1666009662555246   T   T   T
  0.3264652572058186  0.8112676273976663  0.1666453583507749   T   T   T
  0.6597461950825391  0.8112652584315410  0.1666316567331442   T   T   T
  0.9930922120992552  0.8113186900784823  0.1666309032183655   T   T   T
  0.1598595059081071  0.6881152679423154  0.1920088844576854   T   T   T
  0.4931827260467488  0.6881121621234614  0.1920266454068486   T   T   T
  0.8265159816710038  0.6881074208943755  0.1919999057879860   T   T   T
  0.1599635199833815  0.9380653910589996  0.1920135001894213   T   T   T
  0.4932834875375521  0.9380453235970868  0.1920369796067865   T   T   T
  0.8265394894205790  0.9380801770062649  0.1919924216037680   T   T   T
  0.1599638274777609  0.6862758653665750  0.0858477482873949   T   T   T
  0.4933094544611988  0.6862331118089506  0.0858524821346545   T   T   T
  0.8266356402989341  0.6862732885533955  0.0858477136456883   T   T   T
  0.1600283409167455  0.9362885920395695  0.0858476929966841   T   T   T
  0.4932735525620219  0.9362745807530972  0.0858529351459769   T   T   T
  0.8265619418905260  0.9363016497841078  0.0858448299576767   T   T   T
  0.3265240495231853  0.5611343736534095  0.1130637659546781   T   T   T
  0.6598406712965715  0.5611412425215927  0.1130606763430811   T   T   T
  0.9931759609384324  0.5611873345041258  0.1130402061260526   T   T   T
  0.3265924152740533  0.8111250245855443  0.1130444466590136   T   T   T
  0.6598568816276605  0.8111203785839592  0.1130422755735666   T   T   T
  0.9931955392433373  0.8112138218427282  0.1130560249854468   T   T   T
  0.0719425556775330  0.1783237551796797  0.0280184451057234   T   T   T
  0.4046292254831582  0.1782837611987221  0.0281771085934745   T   T   T
  0.7376957791138290  0.1782434231463973  0.0280527700052788   T   T   T
  0.0717176960282563  0.4283946319276861  0.0280377454548532   T   T   T
  0.4041523976656278  0.4282063361865632  0.0281160435892183   T   T   T
  0.7371767934666457  0.4282382694024643  0.0280875362286561   T   T   T
  0.3248075310178982  0.0263475721251025  0.0451423609211124   T   T   T
  0.6574142284478339  0.0263677177244927  0.0451322902240742   T   T   T
  0.9912145080409132  0.0264025062956578  0.0450657185402894   T   T   T
  0.3242705890270423  0.2762516591758732  0.0451683434935945   T   T   T
  0.6575115342820426  0.2763041671405647  0.0451436044021254   T   T   T
  0.9909410111864877  0.2764450240153550  0.0450575761899439   T   T   T
  0.8285797240521778  0.4019515209274618  0.2074016289138058   T   T   T
  0.8300342991831688  0.1503546305180190  0.2070388305565752   T   T   T
  0.1616064756503797  0.1507418793426222  0.2071869704767592   T   T   T
  0.4963310488186089  0.1525688184629729  0.2080439937534305   T   T   T
  0.1614381256940612  0.4015232641860972  0.2073633847070531   T   T   T
  0.4938168547750021  0.4013060084587422  0.2074658262612115   T   T   T
  0.0826629469455037  0.0532923803675419  0.2244139855781175   T   T   T
  0.4163844733881687  0.0528135381617000  0.2245398680717786   T   T   T
  0.7498690210734363  0.0529820297821374  0.2244770614276573   T   T   T
  0.0817020198361044  0.3012158976311089  0.2240609061234224   T   T   T
  0.3778781686928314  0.3106731513132168  0.2281121102942684   T   T   T
  0.7824567979541884  0.2956922062309041  0.2227552525717931   T   T   T
  0.5475609904287251  0.3059345555370659  0.2736453893150691   T   T   T
  0.4929654969858152  0.2380082744452783  0.2932353330917972   T   T   T
  0.5719242032590156  0.3194734186440426  0.3029499825502799   T   T   T
  0.3141938616281937  0.1936462068229705  0.3097459635370652   T   T   T
  0.4221550170981985  0.1296878809120900  0.3023536821080670   T   T   T
  0.6509516400352866  0.3663159526296579  0.3335774013671806   T   T   T
  0.4850664353151821  0.3779862021541739  0.3308749828902263   T   T   T
  0.5197603971580648  0.3953644675841009  0.2521424160727059   T   T   T
  0.5869879718850828  0.3227638570789255  0.2385395706863292   T   T   T
  0.0716166202497936  0.6783411945137863  0.0280718286385814   T   T   T
  0.4047067839305526  0.6782725571014673  0.0280902480586805   T   T   T
  0.7379401920759175  0.6782729155677508  0.0280905053440502   T   T   T
  0.0713858084926480  0.9283245280464020  0.0280665231307220   T   T   T
  0.4042726503348889  0.9282322227705201  0.0280920554210473   T   T   T
  0.7375880748164183  0.9283027228799158  0.0280828765760815   T   T   T
  0.3244697091836715  0.5263343397621203  0.0451185449095210   T   T   T
  0.6578500611717383  0.5263401117523377  0.0451145595021586   T   T   T
  0.9911305101595812  0.5263600475640517  0.0450969630105290   T   T   T
  0.3242957782334368  0.7763415139572053  0.0451050613157412   T   T   T
  0.6575288660390656  0.7763492589507782  0.0450990346107932   T   T   T
  0.9909175391235369  0.7763670616483801  0.0451094565811008   T   T   T
  0.8289882673275104  0.9013231969597385  0.2073858069225337   T   T   T
  0.8289644021629829  0.6513416125023838  0.2073941684357804   T   T   T
  0.1622359527931956  0.6513287243716918  0.2073988824937523   T   T   T
  0.4957142287752245  0.6513857092294725  0.2074264453018400   T   T   T
  0.1623476068986915  0.9013043412289433  0.2074072898717101   T   T   T
  0.4958749583709101  0.9012455430660938  0.2074221494730931   T   T   T
  0.0822446854359000  0.5541424414462036  0.2244093513651118   T   T   T
  0.4160059387152436  0.5544527390733186  0.2242824521801556   T   T   T
  0.7494074803700153  0.5540084010727510  0.2243501507802322   T   T   T
  0.0827669557152417  0.8033687927694382  0.2244373718005213   T   T   T
  0.4157794435319241  0.8036562893526854  0.2244887937233342   T   T   T
  0.7500109073877650  0.8031194201682705  0.2243873706817504   T   T   T
  0.1682484484442930  0.1654528031148943  0.0335999064251699   T   T   T
  0.5010558895698393  0.1657425219983118  0.0337650724028018   T   T   T
  0.8341918878499281  0.1654270003707317  0.0335660476361519   T   T   T
  0.1680289056707759  0.4156798148643563  0.0336511499136815   T   T   T
  0.5006297030981594  0.4155579912256838  0.0336670382935829   T   T   T
  0.8336508674107437  0.4154996038843046  0.0336185786723735   T   T   T
  0.3201007519361377  0.0410470384650959  0.2187414254906166   T   T   T
  0.6535717474157620  0.0411027706050882  0.2187259219826851   T   T   T
  0.9865860969965349  0.0411066455516389  0.2186349233267419   T   T   T
  0.2984736346113400  0.2905396650260788  0.2188284256351138   T   T   T
  0.6793021441958789  0.2914117056596939  0.2188204552562970   T   T   T
  0.9846482832033701  0.2886635936789119  0.2185296511843949   T   T   T
  0.5705973393754834  0.2795415321673567  0.2896562704120284   T   T   T
  0.3806499103048794  0.1783553731713986  0.2975539827752642   T   T   T
  0.5756985311551925  0.3778463968400539  0.3223503864070432   T   T   T
  0.5153979969524441  0.3398072998024951  0.2511034524799898   T   T   T
  0.1680073531018583  0.6656071009410072  0.0336396057333573   T   T   T
  0.5011195563264625  0.6655820260222048  0.0336522438295798   T   T   T
  0.8343685522622506  0.6656085493238489  0.0336567428524489   T   T   T
  0.1677391033926945  0.9156297882070868  0.0336559094512741   T   T   T
  0.5007327633672932  0.9155583411644831  0.0336426035997228   T   T   T
  0.8340001881998766  0.9154908666763615  0.0336210364067340   T   T   T
  0.3200143606092096  0.5410834081072751  0.2187060262309861   T   T   T
  0.6533352031568385  0.5411208379264640  0.2187029464995178   T   T   T
  0.9863904665528794  0.5409843432644879  0.2187215495085540   T   T   T
  0.3198515905606686  0.7909699399951239  0.2187329048985307   T   T   T
  0.6536255141993856  0.7910946055047150  0.2186965579687627   T   T   T
  0.9866406226129586  0.7910136008575543  0.2187057631814607   T   T   T
  0.4938788394933937  0.1217960639065225  0.0601325576356923   T   T   T
  0.8271864619448351  0.1217443631865633  0.0599916833155890   T   T   T
  0.1606322997382818  0.3717521471127559  0.0600350506660916   T   T   T
  0.4938703849560068  0.3717182653421463  0.0600659264214140   T   T   T
  0.8271738810363010  0.3717436215137888  0.0600265352211324   T   T   T
  0.1606584034921848  0.1217338456893733  0.0600207222256595   T   T   T
  0.9932262469131494  0.4985368259675386  0.1396157646382065   T   T   T
  0.3265427072746806  0.4984608530611417  0.1396386980261145   T   T   T
  0.6598631462071087  0.4984733803130424  0.1396398828836678   T   T   T
  0.9932925139636313  0.2483313203144403  0.1395251460326582   T   T   T
  0.3263516584354347  0.2484854105279366  0.1397445986838388   T   T   T
  0.6601053295528824  0.2483695601212171  0.1396429981979726   T   T   T
  0.1597616027077931  0.1227960912839497  0.1657076244836030   T   T   T
  0.4931220146944245  0.1240698742347906  0.1662015674449571   T   T   T
  0.8268240605357388  0.1225691697187413  0.1656017117914136   T   T   T
  0.1596445260207899  0.3734376185000029  0.1658532570069848   T   T   T
  0.4930043818061163  0.3731950221672407  0.1658828657008460   T   T   T
  0.8267527639146135  0.3734355383057897  0.1658239142122227   T   T   T
  0.3260890151502723  0.4967935582368163  0.1924128170066196   T   T   T
  0.6597443643888607  0.4967686330170007  0.1924243128562737   T   T   T
  0.9928879544338319  0.4969934359480377  0.1923813803712846   T   T   T
  0.3240014561281246  0.2473908041036869  0.1927806683410902   T   T   T
  0.9933263417415095  0.2455740001066460  0.1920140899503306   T   T   T
  0.6624698533104103  0.2464392394078727  0.1922615281029069   T   T   T
  0.9933471121771319  0.4982049430246795  0.0866390501929268   T   T   T
  0.3266367238633577  0.4982148147640572  0.0866635364653332   T   T   T
  0.6599545024584391  0.4982037995966391  0.0866623703933366   T   T   T
  0.9933434592179079  0.2481857006789311  0.0866099668084708   T   T   T
  0.3266372748929535  0.2482288785324526  0.0867090500032733   T   T   T
  0.6599814830196208  0.2482090997039349  0.0866806894395814   T   T   T
  0.1598295394320376  0.1234368546828302  0.1128273257257146   T   T   T
  0.4930863716965648  0.1235077252682315  0.1129771906623378   T   T   T
  0.8264758948115979  0.1234078822697681  0.1127917543774293   T   T   T
  0.1599077248422892  0.3734801754241776  0.1128602168573381   T   T   T
  0.4931631529073803  0.3734568123668134  0.1128907047084365   T   T   T
  0.8266074142994524  0.3734859728646982  0.1128524963223491   T   T   T
  0.4939238591121179  0.6217179257909357  0.0600427651215608   T   T   T
  0.8272536205319402  0.6217407255631279  0.0600404020505505   T   T   T
  0.1606206548384429  0.8717540569804472  0.0600408516265839   T   T   T
  0.4938943765222453  0.8717393605234053  0.0600406708125705   T   T   T
  0.8271993573104348  0.8717499780821636  0.0600352579197668   T   T   T
  0.1606299990390765  0.6217521342582852  0.0600337674750515   T   T   T
  0.9933241083304390  0.9981606093374666  0.1395339644176528   T   T   T
  0.3269554624059991  0.9985480789827236  0.1396740263814806   T   T   T
  0.6595125433450479  0.9985603945254239  0.1396672750495503   T   T   T
  0.9931448837126177  0.7484970723927099  0.1396288549037852   T   T   T
  0.3265282649307372  0.7484778959045942  0.1396309238627825   T   T   T
  0.6597875999908761  0.7484816931851258  0.1396245155737150   T   T   T
  0.1596807261796875  0.6233394668647371  0.1658317827835222   T   T   T
  0.4930090975703866  0.6233293172897910  0.1658500756122692   T   T   T
  0.8262848101715017  0.6233352774839656  0.1658309199676994   T   T   T
  0.1598312211087857  0.8732589090955422  0.1658412608429128   T   T   T
  0.4931293939564142  0.8732461419313042  0.1658576427918248   T   T   T
  0.8263711980167140  0.8732572622876866  0.1658345112481687   T   T   T
  0.3264706918764576  0.9966222395839420  0.1924689515029855   T   T   T
  0.6597426526305359  0.9966591579263948  0.1924490658058295   T   T   T
  0.9930957876004803  0.9965716716083656  0.1923608905368965   T   T   T
  0.3263813952890287  0.7466853626629478  0.1924377645274917   T   T   T
  0.9930356483425219  0.7466873050167615  0.1924149896513755   T   T   T
  0.6597060993377294  0.7466825562115789  0.1924197963875105   T   T   T
  0.9933154671584312  0.9981868014958712  0.0866149239217314   T   T   T
  0.3266893503857212  0.9982223668555182  0.0866805454281085   T   T   T
  0.6598863880954647  0.9982308938643750  0.0866690117729186   T   T   T
  0.9933259386622291  0.7482353802443046  0.0866572859463787   T   T   T
  0.3266970939079871  0.7481905616193797  0.0866404046517294   T   T   T
  0.6599866254647523  0.7481857896543707  0.0866387676497020   T   T   T
  0.1597996869239310  0.6234926081784625  0.1128586356786408   T   T   T
  0.4931052274649854  0.6234666721628708  0.1128653743694374   T   T   T
  0.8264215398753033  0.6234890627409811  0.1128574585988944   T   T   T
  0.1600120471509152  0.8734747771373533  0.1128521193621848   T   T   T
  0.4931858548903190  0.8734580143975673  0.1128547324351872   T   T   T
  0.8263515599965633  0.8734989683325262  0.1128584307271958   T   T   T
 
  0.00000000E+00  0.00000000E+00  0.00000000E+00
  0.00000000E+00  0.00000000E+00  0.00000000E+00
  0.00000000E+00  0.00000000E+00  0.00000000E+00
  0.00000000E+00  0.00000000E+00  0.00000000E+00
  0.00000000E+00  0.00000000E+00  0.00000000E+00
  0.00000000E+00  0.00000000E+00  0.00000000E+00
  0.00000000E+00  0.00000000E+00  0.00000000E+00
  0.00000000E+00  0.00000000E+00  0.00000000E+00
  0.00000000E+00  0.00000000E+00  0.00000000E+00
  0.00000000E+00  0.00000000E+00  0.00000000E+00
  0.00000000E+00  0.00000000E+00  0.00000000E+00
  0.00000000E+00  0.00000000E+00  0.00000000E+00
  0.00000000E+00  0.00000000E+00  0.00000000E+00
  0.00000000E+00  0.00000000E+00  0.00000000E+00
  0.00000000E+00  0.00000000E+00  0.00000000E+00
  0.00000000E+00  0.00000000E+00  0.00000000E+00
  0.00000000E+00  0.00000000E+00  0.00000000E+00
  0.00000000E+00  0.00000000E+00  0.00000000E+00
  0.00000000E+00  0.00000000E+00  0.00000000E+00
  0.00000000E+00  0.00000000E+00  0.00000000E+00
  0.00000000E+00  0.00000000E+00  0.00000000E+00
  0.00000000E+00  0.00000000E+00  0.00000000E+00
  0.00000000E+00  0.00000000E+00  0.00000000E+00
  0.00000000E+00  0.00000000E+00  0.00000000E+00
  0.00000000E+00  0.00000000E+00  0.00000000E+00
  0.00000000E+00  0.00000000E+00  0.00000000E+00
  0.00000000E+00  0.00000000E+00  0.00000000E+00
  0.00000000E+00  0.00000000E+00  0.00000000E+00
  0.00000000E+00  0.00000000E+00  0.00000000E+00
  0.00000000E+00  0.00000000E+00  0.00000000E+00
  0.00000000E+00  0.00000000E+00  0.00000000E+00
  0.00000000E+00  0.00000000E+00  0.00000000E+00
  0.00000000E+00  0.00000000E+00  0.00000000E+00
  0.00000000E+00  0.00000000E+00  0.00000000E+00
  0.00000000E+00  0.00000000E+00  0.00000000E+00
  0.00000000E+00  0.00000000E+00  0.00000000E+00
  0.00000000E+00  0.00000000E+00  0.00000000E+00
  0.00000000E+00  0.00000000E+00  0.00000000E+00
  0.00000000E+00  0.00000000E+00  0.00000000E+00
  0.00000000E+00  0.00000000E+00  0.00000000E+00
  0.00000000E+00  0.00000000E+00  0.00000000E+00
  0.00000000E+00  0.00000000E+00  0.00000000E+00
  0.00000000E+00  0.00000000E+00  0.00000000E+00
  0.00000000E+00  0.00000000E+00  0.00000000E+00
  0.00000000E+00  0.00000000E+00  0.00000000E+00
  0.00000000E+00  0.00000000E+00  0.00000000E+00
  0.00000000E+00  0.00000000E+00  0.00000000E+00
  0.00000000E+00  0.00000000E+00  0.00000000E+00
  0.00000000E+00  0.00000000E+00  0.00000000E+00
  0.00000000E+00  0.00000000E+00  0.00000000E+00
  0.00000000E+00  0.00000000E+00  0.00000000E+00
  0.00000000E+00  0.00000000E+00  0.00000000E+00
  0.00000000E+00  0.00000000E+00  0.00000000E+00
  0.00000000E+00  0.00000000E+00  0.00000000E+00
  0.00000000E+00  0.00000000E+00  0.00000000E+00
  0.00000000E+00  0.00000000E+00  0.00000000E+00
  0.00000000E+00  0.00000000E+00  0.00000000E+00
  0.00000000E+00  0.00000000E+00  0.00000000E+00
  0.00000000E+00  0.00000000E+00  0.00000000E+00
  0.00000000E+00  0.00000000E+00  0.00000000E+00
  0.00000000E+00  0.00000000E+00  0.00000000E+00
  0.00000000E+00  0.00000000E+00  0.00000000E+00
  0.00000000E+00  0.00000000E+00  0.00000000E+00
  0.00000000E+00  0.00000000E+00  0.00000000E+00
  0.00000000E+00  0.00000000E+00  0.00000000E+00
  0.00000000E+00  0.00000000E+00  0.00000000E+00
  0.00000000E+00  0.00000000E+00  0.00000000E+00
  0.00000000E+00  0.00000000E+00  0.00000000E+00
  0.00000000E+00  0.00000000E+00  0.00000000E+00
  0.00000000E+00  0.00000000E+00  0.00000000E+00
  0.00000000E+00  0.00000000E+00  0.00000000E+00
  0.00000000E+00  0.00000000E+00  0.00000000E+00
  0.00000000E+00  0.00000000E+00  0.00000000E+00
  0.00000000E+00  0.00000000E+00  0.00000000E+00
  0.00000000E+00  0.00000000E+00  0.00000000E+00
  0.00000000E+00  0.00000000E+00  0.00000000E+00
  0.00000000E+00  0.00000000E+00  0.00000000E+00
  0.00000000E+00  0.00000000E+00  0.00000000E+00
  0.00000000E+00  0.00000000E+00  0.00000000E+00
  0.00000000E+00  0.00000000E+00  0.00000000E+00
  0.00000000E+00  0.00000000E+00  0.00000000E+00
  0.00000000E+00  0.00000000E+00  0.00000000E+00
  0.00000000E+00  0.00000000E+00  0.00000000E+00
  0.00000000E+00  0.00000000E+00  0.00000000E+00
  0.00000000E+00  0.00000000E+00  0.00000000E+00
  0.00000000E+00  0.00000000E+00  0.00000000E+00
  0.00000000E+00  0.00000000E+00  0.00000000E+00
  0.00000000E+00  0.00000000E+00  0.00000000E+00
  0.00000000E+00  0.00000000E+00  0.00000000E+00
  0.00000000E+00  0.00000000E+00  0.00000000E+00
  0.00000000E+00  0.00000000E+00  0.00000000E+00
  0.00000000E+00  0.00000000E+00  0.00000000E+00
  0.00000000E+00  0.00000000E+00  0.00000000E+00
  0.00000000E+00  0.00000000E+00  0.00000000E+00
  0.00000000E+00  0.00000000E+00  0.00000000E+00
  0.00000000E+00  0.00000000E+00  0.00000000E+00
  0.00000000E+00  0.00000000E+00  0.00000000E+00
  0.00000000E+00  0.00000000E+00  0.00000000E+00
  0.00000000E+00  0.00000000E+00  0.00000000E+00
  0.00000000E+00  0.00000000E+00  0.00000000E+00
  0.00000000E+00  0.00000000E+00  0.00000000E+00
  0.00000000E+00  0.00000000E+00  0.00000000E+00
  0.00000000E+00  0.00000000E+00  0.00000000E+00
  0.00000000E+00  0.00000000E+00  0.00000000E+00
  0.00000000E+00  0.00000000E+00  0.00000000E+00
  0.00000000E+00  0.00000000E+00  0.00000000E+00
  0.00000000E+00  0.00000000E+00  0.00000000E+00
  0.00000000E+00  0.00000000E+00  0.00000000E+00
  0.00000000E+00  0.00000000E+00  0.00000000E+00
  0.00000000E+00  0.00000000E+00  0.00000000E+00
  0.00000000E+00  0.00000000E+00  0.00000000E+00
  0.00000000E+00  0.00000000E+00  0.00000000E+00
  0.00000000E+00  0.00000000E+00  0.00000000E+00
  0.00000000E+00  0.00000000E+00  0.00000000E+00
  0.00000000E+00  0.00000000E+00  0.00000000E+00
  0.00000000E+00  0.00000000E+00  0.00000000E+00
  0.00000000E+00  0.00000000E+00  0.00000000E+00
  0.00000000E+00  0.00000000E+00  0.00000000E+00
  0.00000000E+00  0.00000000E+00  0.00000000E+00
  0.00000000E+00  0.00000000E+00  0.00000000E+00
  0.00000000E+00  0.00000000E+00  0.00000000E+00
  0.00000000E+00  0.00000000E+00  0.00000000E+00
  0.00000000E+00  0.00000000E+00  0.00000000E+00
  0.00000000E+00  0.00000000E+00  0.00000000E+00
  0.00000000E+00  0.00000000E+00  0.00000000E+00
  0.00000000E+00  0.00000000E+00  0.00000000E+00
  0.00000000E+00  0.00000000E+00  0.00000000E+00
  0.00000000E+00  0.00000000E+00  0.00000000E+00
  0.00000000E+00  0.00000000E+00  0.00000000E+00
  0.00000000E+00  0.00000000E+00  0.00000000E+00
  0.00000000E+00  0.00000000E+00  0.00000000E+00
  0.00000000E+00  0.00000000E+00  0.00000000E+00
  0.00000000E+00  0.00000000E+00  0.00000000E+00
  0.00000000E+00  0.00000000E+00  0.00000000E+00
  0.00000000E+00  0.00000000E+00  0.00000000E+00
  0.00000000E+00  0.00000000E+00  0.00000000E+00
  0.00000000E+00  0.00000000E+00  0.00000000E+00
  0.00000000E+00  0.00000000E+00  0.00000000E+00
  0.00000000E+00  0.00000000E+00  0.00000000E+00
  0.00000000E+00  0.00000000E+00  0.00000000E+00
  0.00000000E+00  0.00000000E+00  0.00000000E+00
  0.00000000E+00  0.00000000E+00  0.00000000E+00
  0.00000000E+00  0.00000000E+00  0.00000000E+00
  0.00000000E+00  0.00000000E+00  0.00000000E+00
  0.00000000E+00  0.00000000E+00  0.00000000E+00
  0.00000000E+00  0.00000000E+00  0.00000000E+00
  0.00000000E+00  0.00000000E+00  0.00000000E+00
  0.00000000E+00  0.00000000E+00  0.00000000E+00
  0.00000000E+00  0.00000000E+00  0.00000000E+00
  0.00000000E+00  0.00000000E+00  0.00000000E+00
  0.00000000E+00  0.00000000E+00  0.00000000E+00
  0.00000000E+00  0.00000000E+00  0.00000000E+00
  0.00000000E+00  0.00000000E+00  0.00000000E+00
  0.00000000E+00  0.00000000E+00  0.00000000E+00
  0.00000000E+00  0.00000000E+00  0.00000000E+00
  0.00000000E+00  0.00000000E+00  0.00000000E+00
  0.00000000E+00  0.00000000E+00  0.00000000E+00
  0.00000000E+00  0.00000000E+00  0.00000000E+00
  0.00000000E+00  0.00000000E+00  0.00000000E+00
  0.00000000E+00  0.00000000E+00  0.00000000E+00
  0.00000000E+00  0.00000000E+00  0.00000000E+00
  0.00000000E+00  0.00000000E+00  0.00000000E+00
  0.00000000E+00  0.00000000E+00  0.00000000E+00
  0.00000000E+00  0.00000000E+00  0.00000000E+00
  0.00000000E+00  0.00000000E+00  0.00000000E+00
  0.00000000E+00  0.00000000E+00  0.00000000E+00
  0.00000000E+00  0.00000000E+00  0.00000000E+00
  0.00000000E+00  0.00000000E+00  0.00000000E+00
  0.00000000E+00  0.00000000E+00  0.00000000E+00
  0.00000000E+00  0.00000000E+00  0.00000000E+00
  0.00000000E+00  0.00000000E+00  0.00000000E+00
  0.00000000E+00  0.00000000E+00  0.00000000E+00
  0.00000000E+00  0.00000000E+00  0.00000000E+00
  0.00000000E+00  0.00000000E+00  0.00000000E+00
  0.00000000E+00  0.00000000E+00  0.00000000E+00
  0.00000000E+00  0.00000000E+00  0.00000000E+00
  0.00000000E+00  0.00000000E+00  0.00000000E+00
  0.00000000E+00  0.00000000E+00  0.00000000E+00
  0.00000000E+00  0.00000000E+00  0.00000000E+00
  0.00000000E+00  0.00000000E+00  0.00000000E+00
  0.00000000E+00  0.00000000E+00  0.00000000E+00
  0.00000000E+00  0.00000000E+00  0.00000000E+00
  0.00000000E+00  0.00000000E+00  0.00000000E+00
  0.00000000E+00  0.00000000E+00  0.00000000E+00
  0.00000000E+00  0.00000000E+00  0.00000000E+00
  0.00000000E+00  0.00000000E+00  0.00000000E+00
  0.00000000E+00  0.00000000E+00  0.00000000E+00
  0.00000000E+00  0.00000000E+00  0.00000000E+00
  0.00000000E+00  0.00000000E+00  0.00000000E+00
  0.00000000E+00  0.00000000E+00  0.00000000E+00
  0.00000000E+00  0.00000000E+00  0.00000000E+00
  0.00000000E+00  0.00000000E+00  0.00000000E+00
  0.00000000E+00  0.00000000E+00  0.00000000E+00
  0.00000000E+00  0.00000000E+00  0.00000000E+00
  0.00000000E+00  0.00000000E+00  0.00000000E+00
  0.00000000E+00  0.00000000E+00  0.00000000E+00
  0.00000000E+00  0.00000000E+00  0.00000000E+00
  0.00000000E+00  0.00000000E+00  0.00000000E+00
  0.00000000E+00  0.00000000E+00  0.00000000E+00
  0.00000000E+00  0.00000000E+00  0.00000000E+00
  0.00000000E+00  0.00000000E+00  0.00000000E+00
  0.00000000E+00  0.00000000E+00  0.00000000E+00
  0.00000000E+00  0.00000000E+00  0.00000000E+00
  0.00000000E+00  0.00000000E+00  0.00000000E+00
  0.00000000E+00  0.00000000E+00  0.00000000E+00
  0.00000000E+00  0.00000000E+00  0.00000000E+00
  0.00000000E+00  0.00000000E+00  0.00000000E+00
  0.00000000E+00  0.00000000E+00  0.00000000E+00
  0.00000000E+00  0.00000000E+00  0.00000000E+00
  0.00000000E+00  0.00000000E+00  0.00000000E+00
  0.00000000E+00  0.00000000E+00  0.00000000E+00
  0.00000000E+00  0.00000000E+00  0.00000000E+00
  0.00000000E+00  0.00000000E+00  0.00000000E+00
  0.00000000E+00  0.00000000E+00  0.00000000E+00
  0.00000000E+00  0.00000000E+00  0.00000000E+00
  0.00000000E+00  0.00000000E+00  0.00000000E+00
  0.00000000E+00  0.00000000E+00  0.00000000E+00
  0.00000000E+00  0.00000000E+00  0.00000000E+00
  0.00000000E+00  0.00000000E+00  0.00000000E+00
  0.00000000E+00  0.00000000E+00  0.00000000E+00
  0.00000000E+00  0.00000000E+00  0.00000000E+00
  0.00000000E+00  0.00000000E+00  0.00000000E+00
  0.00000000E+00  0.00000000E+00  0.00000000E+00
  0.00000000E+00  0.00000000E+00  0.00000000E+00
  0.00000000E+00  0.00000000E+00  0.00000000E+00
  0.00000000E+00  0.00000000E+00  0.00000000E+00
  0.00000000E+00  0.00000000E+00  0.00000000E+00
  0.00000000E+00  0.00000000E+00  0.00000000E+00
  0.00000000E+00  0.00000000E+00  0.00000000E+00
