C H O Si                                
   1.00000000000000     
     9.2874599999999994    0.0000000000000000    0.0000000000000000
     0.0000000000000000    8.7563099999999991    0.0000000000000000
     0.0000000000000000    0.0000000000000000   58.0000000000000000
   C    H    O    Si
    36    31    16    36
Selective dynamics
Direct
  0.9958027369441009  0.1300123258444132  0.0595596338020779   T   T   T
  0.3292812631273735  0.1300844516736271  0.0596290343723362   T   T   T
  0.6624792694874501  0.1301029847492357  0.0596502805357943   T   T   T
  0.9958790218247099  0.6302585472301911  0.0595692148255526   T   T   T
  0.3292442454415267  0.6298646683001552  0.0596176406242277   T   T   T
  0.6626013774327666  0.6298450811117841  0.0596498296622367   T   T   T
  0.1622705503867985  0.3753679098784055  0.1384607420625563   T   T   T
  0.4956045628977311  0.3756130640105257  0.1387428507460175   T   T   T
  0.8290531691009198  0.3753435914062406  0.1384664323493229   T   T   T
  0.1624987741166575  0.8756002896362303  0.1385235361680348   T   T   T
  0.4956342859349205  0.8753261726549342  0.1382758571338772   T   T   T
  0.8288475081796762  0.8754940831859677  0.1385652274396063   T   T   T
  0.3294225414215090  0.1264252336009235  0.1657130677283601   T   T   T
  0.6624351421397591  0.1263336260063692  0.1657511297173913   T   T   T
  0.9959246979312272  0.1251824023187912  0.1655529641898530   T   T   T
  0.3285552727413232  0.6257591264612353  0.1656475179115784   T   T   T
  0.6629683127649305  0.6255174728369697  0.1657106068053101   T   T   T
  0.9958791695538951  0.6257295892800121  0.1656054885381611   T   T   T
  0.1632689367921160  0.3789605687665800  0.1908432520301173   T   T   T
  0.4960181754443382  0.3835645325454688  0.1917290647706347   T   T   T
  0.8302551223799717  0.3787716161393348  0.1908295585121194   T   T   T
  0.1619719462370426  0.8802137665667437  0.1911017680749189   T   T   T
  0.4960968392603402  0.8900174828303964  0.1886711732218020   T   T   T
  0.8303500834194932  0.8800917341421886  0.1911360873331795   T   T   T
  0.1622831674553529  0.3755351129829316  0.0849560073069468   T   T   T
  0.4956490841844077  0.3755483011401833  0.0851185498000017   T   T   T
  0.8290990221348464  0.3755909596235135  0.0849729895787458   T   T   T
  0.1623747176110414  0.8756195196785508  0.0849993130518922   T   T   T
  0.4956369959513072  0.8755194972892439  0.0849228450970894   T   T   T
  0.8289536118106950  0.8756554108574877  0.0850044650682153   T   T   T
  0.3289588679039392  0.1253755911003119  0.1121673792776417   T   T   T
  0.6623054194376232  0.1254080630586501  0.1121856565872053   T   T   T
  0.9955244488564480  0.1252885678849231  0.1121059477044395   T   T   T
  0.3288387723362024  0.6250988557343755  0.1121389574111094   T   T   T
  0.6623744896932707  0.6251925162994225  0.1121564900445627   T   T   T
  0.9955414237945576  0.6255213535097862  0.1121105983217972   T   T   T
  0.0820499592818476  0.3578130970714400  0.0254407438303829   T   T   T
  0.4145014087427324  0.3579637969444702  0.0256622029919877   T   T   T
  0.7469261160678904  0.3574056627910765  0.0255804702443974   T   T   T
  0.0826177140696613  0.8581973044844317  0.0254629638395563   T   T   T
  0.4149206091537510  0.8574108902973573  0.0254826776876877   T   T   T
  0.7464517968953934  0.8574153460402102  0.0256433107296515   T   T   T
  0.3272551404416664  0.0577635439322886  0.0440913109194630   T   T   T
  0.6598834865549104  0.0578225221737637  0.0441104083478332   T   T   T
  0.9934132791223153  0.0577779053746165  0.0440141407748450   T   T   T
  0.3267001579803978  0.5576051106689447  0.0440757809964322   T   T   T
  0.6604161611556099  0.5575224674926511  0.0441131770588045   T   T   T
  0.9934981368223025  0.5580262044953911  0.0440234638207436   T   T   T
  0.8333471946900627  0.8085176267724518  0.2067218206147512   T   T   T
  0.8327907105693714  0.3066649821547163  0.2063919875210637   T   T   T
  0.1650721712632476  0.3074405422013000  0.2064682982722665   T   T   T
  0.4981380703982866  0.3105885063196001  0.2071980276900217   T   T   T
  0.1648247864856526  0.8079362368325687  0.2066195908745835   T   T   T
  0.0782856184539575  0.1079038146316067  0.2251330902359588   T   T   T
  0.4152351356137954  0.1052626481961030  0.2249996623997050   T   T   T
  0.7430013026159275  0.1056631436679919  0.2257070657262162   T   T   T
  0.0831297608147056  0.6083931264475078  0.2238976062927064   T   T   T
  0.3685467625268861  0.5718136929013232  0.2302596804978575   T   T   T
  0.7747317355797244  0.5998887801841267  0.2230846368881633   T   T   T
  0.4918307644036093  0.5423549282856659  0.2660210218655085   T   T   T
  0.4700236488703534  0.4567929555870370  0.3003947599482694   T   T   T
  0.5186166276286995  0.6258874018191666  0.3079650937009455   T   T   T
  0.2899802275372513  0.2728183636547146  0.2959309554701195   T   T   T
  0.4393118386271994  0.2160482716831855  0.2878261163840920   T   T   T
  0.6385701744359823  0.7699648457846278  0.3348958224499735   T   T   T
  0.5029352709278606  0.8623551582572384  0.3279514586730270   T   T   T
  0.5645673041445030  0.5383233405649673  0.2409807561816279   T   T   T
  0.1732015501922596  0.3393238266872277  0.0333503245470806   T   T   T
  0.5059386561671905  0.3405661089391828  0.0335546548783709   T   T   T
  0.8386212621150356  0.3398343012071890  0.0333840179276800   T   T   T
  0.1736225453280797  0.8397190603726701  0.0334147655676992   T   T   T
  0.5063417815480973  0.8389535267139446  0.0333255282674618   T   T   T
  0.8383020099858479  0.8398555581028569  0.0334068959721144   T   T   T
  0.3221352381557164  0.0881197015044783  0.2175868918711615   T   T   T
  0.6524230633289564  0.0885218198566607  0.2175523234345579   T   T   T
  0.9869275535251246  0.0905526556609544  0.2172227844866396   T   T   T
  0.3116352043883025  0.6046078992058624  0.2162175739482447   T   T   T
  0.6752343637463802  0.5920382558259170  0.2174087707043190   T   T   T
  0.9882758959708784  0.5875862341366660  0.2171491403955868   T   T   T
  0.5216644438275775  0.5497760326010868  0.2952945303058673   T   T   T
  0.3903661531396090  0.2652853186224786  0.3007106675171479   T   T   T
  0.5368632714052477  0.7590826137625867  0.3310798934848360   T   T   T
  0.4776156222064677  0.5086483578338227  0.2497655725450314   T   T   T
  0.4959728160403551  0.2475946138543686  0.0588287801093885   T   T   T
  0.8292231959670139  0.2475331255449302  0.0587138150716522   T   T   T
  0.1628062495948567  0.7474833494021023  0.0587369063392316   T   T   T
  0.4960629284949664  0.7472047311691806  0.0586918139666095   T   T   T
  0.8291674622602233  0.7475488918319997  0.0587378218571425   T   T   T
  0.1626643806597645  0.2473935358156930  0.0586968997630395   T   T   T
  0.9957080513180435  0.0006485072503187  0.1387571868363548   T   T   T
  0.3292713202630081  0.0009935341061519  0.1388559906710414   T   T   T
  0.6621003869823925  0.0009535578192838  0.1388710053118588   T   T   T
  0.9957091800120041  0.5009595753719113  0.1387456388561382   T   T   T
  0.3287701875701886  0.5008159750927200  0.1388424675269106   T   T   T
  0.6624801999062209  0.5006524419395592  0.1388256328551219   T   T   T
  0.1622402610693231  0.2501279484749689  0.1651149984851382   T   T   T
  0.4958685378920637  0.2518946930824394  0.1656612378072410   T   T   T
  0.8300297235255326  0.2498849136922981  0.1650870675328090   T   T   T
  0.1624952408843055  0.7508159587926153  0.1651781326835147   T   T   T
  0.4957517558190772  0.7485336196539679  0.1650603964103510   T   T   T
  0.8293948500849460  0.7505701557303460  0.1652196602530827   T   T   T
  0.3278780850120048  0.9973464755224032  0.1921694811088586   T   T   T
  0.6643031408026764  0.9972378706324351  0.1922336743353789   T   T   T
  0.9962074859943518  0.9982603795118908  0.1919055015986882   T   T   T
  0.3277050971172200  0.5012060586181651  0.1922483124174544   T   T   T
  0.9967865817850821  0.4960710027071711  0.1916683471551333   T   T   T
  0.6649941304341898  0.4982044245034149  0.1919915440101017   T   T   T
  0.9957134697161171  0.0002464749649326  0.0854207256802477   T   T   T
  0.3291051064142099  0.0002446990939324  0.0854625327258310   T   T   T
  0.6623406318906622  0.0002301230366359  0.0854752952626166   T   T   T
  0.9957451296197291  0.5003462423527986  0.0854149160668499   T   T   T
  0.3290031104260639  0.5000650152421734  0.0854632892744986   T   T   T
  0.6624668667858695  0.5000363267237705  0.0854842814349954   T   T   T
  0.1622602921185939  0.2507196789847185  0.1118022479293368   T   T   T
  0.4956693178091581  0.2508391646102581  0.1119943402603854   T   T   T
  0.8290745843370136  0.2507889180869889  0.1118035592774186   T   T   T
  0.1624744940378428  0.7508817286784482  0.1118414020623715   T   T   T
  0.4956327828171705  0.7502554710854550  0.1117022242969045   T   T   T
  0.8288812262289545  0.7509731369126627  0.1118523926711421   T   T   T
 
  0.00000000E+00  0.00000000E+00  0.00000000E+00
  0.00000000E+00  0.00000000E+00  0.00000000E+00
  0.00000000E+00  0.00000000E+00  0.00000000E+00
  0.00000000E+00  0.00000000E+00  0.00000000E+00
  0.00000000E+00  0.00000000E+00  0.00000000E+00
  0.00000000E+00  0.00000000E+00  0.00000000E+00
  0.00000000E+00  0.00000000E+00  0.00000000E+00
  0.00000000E+00  0.00000000E+00  0.00000000E+00
  0.00000000E+00  0.00000000E+00  0.00000000E+00
  0.00000000E+00  0.00000000E+00  0.00000000E+00
  0.00000000E+00  0.00000000E+00  0.00000000E+00
  0.00000000E+00  0.00000000E+00  0.00000000E+00
  0.00000000E+00  0.00000000E+00  0.00000000E+00
  0.00000000E+00  0.00000000E+00  0.00000000E+00
  0.00000000E+00  0.00000000E+00  0.00000000E+00
  0.00000000E+00  0.00000000E+00  0.00000000E+00
  0.00000000E+00  0.00000000E+00  0.00000000E+00
  0.00000000E+00  0.00000000E+00  0.00000000E+00
  0.00000000E+00  0.00000000E+00  0.00000000E+00
  0.00000000E+00  0.00000000E+00  0.00000000E+00
  0.00000000E+00  0.00000000E+00  0.00000000E+00
  0.00000000E+00  0.00000000E+00  0.00000000E+00
  0.00000000E+00  0.00000000E+00  0.00000000E+00
  0.00000000E+00  0.00000000E+00  0.00000000E+00
  0.00000000E+00  0.00000000E+00  0.00000000E+00
  0.00000000E+00  0.00000000E+00  0.00000000E+00
  0.00000000E+00  0.00000000E+00  0.00000000E+00
  0.00000000E+00  0.00000000E+00  0.00000000E+00
  0.00000000E+00  0.00000000E+00  0.00000000E+00
  0.00000000E+00  0.00000000E+00  0.00000000E+00
  0.00000000E+00  0.00000000E+00  0.00000000E+00
  0.00000000E+00  0.00000000E+00  0.00000000E+00
  0.00000000E+00  0.00000000E+00  0.00000000E+00
  0.00000000E+00  0.00000000E+00  0.00000000E+00
  0.00000000E+00  0.00000000E+00  0.00000000E+00
  0.00000000E+00  0.00000000E+00  0.00000000E+00
  0.00000000E+00  0.00000000E+00  0.00000000E+00
  0.00000000E+00  0.00000000E+00  0.00000000E+00
  0.00000000E+00  0.00000000E+00  0.00000000E+00
  0.00000000E+00  0.00000000E+00  0.00000000E+00
  0.00000000E+00  0.00000000E+00  0.00000000E+00
  0.00000000E+00  0.00000000E+00  0.00000000E+00
  0.00000000E+00  0.00000000E+00  0.00000000E+00
  0.00000000E+00  0.00000000E+00  0.00000000E+00
  0.00000000E+00  0.00000000E+00  0.00000000E+00
  0.00000000E+00  0.00000000E+00  0.00000000E+00
  0.00000000E+00  0.00000000E+00  0.00000000E+00
  0.00000000E+00  0.00000000E+00  0.00000000E+00
  0.00000000E+00  0.00000000E+00  0.00000000E+00
  0.00000000E+00  0.00000000E+00  0.00000000E+00
  0.00000000E+00  0.00000000E+00  0.00000000E+00
  0.00000000E+00  0.00000000E+00  0.00000000E+00
  0.00000000E+00  0.00000000E+00  0.00000000E+00
  0.00000000E+00  0.00000000E+00  0.00000000E+00
  0.00000000E+00  0.00000000E+00  0.00000000E+00
  0.00000000E+00  0.00000000E+00  0.00000000E+00
  0.00000000E+00  0.00000000E+00  0.00000000E+00
  0.00000000E+00  0.00000000E+00  0.00000000E+00
  0.00000000E+00  0.00000000E+00  0.00000000E+00
  0.00000000E+00  0.00000000E+00  0.00000000E+00
  0.00000000E+00  0.00000000E+00  0.00000000E+00
  0.00000000E+00  0.00000000E+00  0.00000000E+00
  0.00000000E+00  0.00000000E+00  0.00000000E+00
  0.00000000E+00  0.00000000E+00  0.00000000E+00
  0.00000000E+00  0.00000000E+00  0.00000000E+00
  0.00000000E+00  0.00000000E+00  0.00000000E+00
  0.00000000E+00  0.00000000E+00  0.00000000E+00
  0.00000000E+00  0.00000000E+00  0.00000000E+00
  0.00000000E+00  0.00000000E+00  0.00000000E+00
  0.00000000E+00  0.00000000E+00  0.00000000E+00
  0.00000000E+00  0.00000000E+00  0.00000000E+00
  0.00000000E+00  0.00000000E+00  0.00000000E+00
  0.00000000E+00  0.00000000E+00  0.00000000E+00
  0.00000000E+00  0.00000000E+00  0.00000000E+00
  0.00000000E+00  0.00000000E+00  0.00000000E+00
  0.00000000E+00  0.00000000E+00  0.00000000E+00
  0.00000000E+00  0.00000000E+00  0.00000000E+00
  0.00000000E+00  0.00000000E+00  0.00000000E+00
  0.00000000E+00  0.00000000E+00  0.00000000E+00
  0.00000000E+00  0.00000000E+00  0.00000000E+00
  0.00000000E+00  0.00000000E+00  0.00000000E+00
  0.00000000E+00  0.00000000E+00  0.00000000E+00
  0.00000000E+00  0.00000000E+00  0.00000000E+00
  0.00000000E+00  0.00000000E+00  0.00000000E+00
  0.00000000E+00  0.00000000E+00  0.00000000E+00
  0.00000000E+00  0.00000000E+00  0.00000000E+00
  0.00000000E+00  0.00000000E+00  0.00000000E+00
  0.00000000E+00  0.00000000E+00  0.00000000E+00
  0.00000000E+00  0.00000000E+00  0.00000000E+00
  0.00000000E+00  0.00000000E+00  0.00000000E+00
  0.00000000E+00  0.00000000E+00  0.00000000E+00
  0.00000000E+00  0.00000000E+00  0.00000000E+00
  0.00000000E+00  0.00000000E+00  0.00000000E+00
  0.00000000E+00  0.00000000E+00  0.00000000E+00
  0.00000000E+00  0.00000000E+00  0.00000000E+00
  0.00000000E+00  0.00000000E+00  0.00000000E+00
  0.00000000E+00  0.00000000E+00  0.00000000E+00
  0.00000000E+00  0.00000000E+00  0.00000000E+00
  0.00000000E+00  0.00000000E+00  0.00000000E+00
  0.00000000E+00  0.00000000E+00  0.00000000E+00
  0.00000000E+00  0.00000000E+00  0.00000000E+00
  0.00000000E+00  0.00000000E+00  0.00000000E+00
  0.00000000E+00  0.00000000E+00  0.00000000E+00
  0.00000000E+00  0.00000000E+00  0.00000000E+00
  0.00000000E+00  0.00000000E+00  0.00000000E+00
  0.00000000E+00  0.00000000E+00  0.00000000E+00
  0.00000000E+00  0.00000000E+00  0.00000000E+00
  0.00000000E+00  0.00000000E+00  0.00000000E+00
  0.00000000E+00  0.00000000E+00  0.00000000E+00
  0.00000000E+00  0.00000000E+00  0.00000000E+00
  0.00000000E+00  0.00000000E+00  0.00000000E+00
  0.00000000E+00  0.00000000E+00  0.00000000E+00
  0.00000000E+00  0.00000000E+00  0.00000000E+00
  0.00000000E+00  0.00000000E+00  0.00000000E+00
  0.00000000E+00  0.00000000E+00  0.00000000E+00
  0.00000000E+00  0.00000000E+00  0.00000000E+00
  0.00000000E+00  0.00000000E+00  0.00000000E+00
  0.00000000E+00  0.00000000E+00  0.00000000E+00
  0.00000000E+00  0.00000000E+00  0.00000000E+00
