C H O Si                                
   1.00000000000000     
     9.2874599999999994    0.0000000000000000    0.0000000000000000
     0.0000000000000000    8.7563099999999991    0.0000000000000000
     0.0000000000000000    0.0000000000000000   58.0000000000000000
   C    H    O    Si
    36    31    16    36
Selective dynamics
Direct
  0.9958049310482778  0.1300035344263888  0.0595626146043905   T   T   T
  0.3293263678434080  0.1300164827744833  0.0596370781442742   T   T   T
  0.6625238242899275  0.1300571497459934  0.0596547789463512   T   T   T
  0.9958697365839952  0.6302203723728375  0.0595697855865394   T   T   T
  0.3293027820812608  0.6297525131364294  0.0596231339182509   T   T   T
  0.6626644979423926  0.6297711991998319  0.0596516703321402   T   T   T
  0.1622346381712982  0.3754164436902057  0.1384515276647325   T   T   T
  0.4955055247716511  0.3756041026683231  0.1387428666643801   T   T   T
  0.8289969179115710  0.3754050367851437  0.1384650660964800   T   T   T
  0.1624894817496375  0.8756279150242761  0.1385218433428340   T   T   T
  0.4955615445241418  0.8753462018579575  0.1382672642124965   T   T   T
  0.8287956236859166  0.8755016541969101  0.1385565345693068   T   T   T
  0.3292530857880236  0.1264929893753129  0.1657071946420616   T   T   T
  0.6624722793258123  0.1263050835481125  0.1657466323740838   T   T   T
  0.9958954422770446  0.1252153228725532  0.1655493257198606   T   T   T
  0.3285071294142019  0.6258140488794249  0.1656523620896871   T   T   T
  0.6629941833083204  0.6255945641622964  0.1657163263902664   T   T   T
  0.9958458045539044  0.6257831335671467  0.1656005941850508   T   T   T
  0.1632969721251596  0.3788733418519941  0.1908311557441999   T   T   T
  0.4959997906398944  0.3836027624821098  0.1917223272762809   T   T   T
  0.8302962971708546  0.3786739619903026  0.1908132946933265   T   T   T
  0.1621162710175065  0.8801865460191545  0.1911051275351650   T   T   T
  0.4961179751911307  0.8901093985970082  0.1886419910699095   T   T   T
  0.8304139335336090  0.8800272564403081  0.1911206222399169   T   T   T
  0.1622982544309989  0.3755957456633514  0.0849609873260556   T   T   T
  0.4955543320137025  0.3755683116711185  0.0851248245705243   T   T   T
  0.8290471693020821  0.3756272121200550  0.0849737226717959   T   T   T
  0.1624012983548211  0.8756881550844321  0.0850013553447779   T   T   T
  0.4955643461023488  0.8755832497078868  0.0849248064852033   T   T   T
  0.8288998357263172  0.8757062270056118  0.0849994676603218   T   T   T
  0.3289244878432466  0.1254432854650407  0.1121699247335708   T   T   T
  0.6622880845159064  0.1254445187373440  0.1121860140700924   T   T   T
  0.9954580160207011  0.1253131355827614  0.1121055699808246   T   T   T
  0.3288517851462250  0.6251498025835559  0.1121344460531519   T   T   T
  0.6624011061906826  0.6252246949481233  0.1121604891723826   T   T   T
  0.9955002473197659  0.6255694803318881  0.1121073760352233   T   T   T
  0.0820826550520494  0.3577776494494316  0.0254596915411193   T   T   T
  0.4145413604981820  0.3579503881939618  0.0256778851007113   T   T   T
  0.7469356889353219  0.3573821131200922  0.0255918249006818   T   T   T
  0.0826830855421545  0.8581454294604635  0.0254904616141086   T   T   T
  0.4149453526663311  0.8573823055464200  0.0254945627184357   T   T   T
  0.7464608791183399  0.8574127120181901  0.0256550881197524   T   T   T
  0.3273185415405955  0.0577586499549875  0.0440854994672723   T   T   T
  0.6599454845187026  0.0578046780073323  0.0441058657940627   T   T   T
  0.9935168679691598  0.0578001689695657  0.0440101969179662   T   T   T
  0.3267716203302328  0.5576231847210268  0.0440643863966597   T   T   T
  0.6604626283249651  0.5575047506039902  0.0440985398350927   T   T   T
  0.9935759790165616  0.5580157339486723  0.0440204498869750   T   T   T
  0.8334726842921173  0.8086153105886077  0.2067178428063761   T   T   T
  0.8328530299438235  0.3067079638447534  0.2063911357961357   T   T   T
  0.1651276215660181  0.3074525770574525  0.2064691957675092   T   T   T
  0.4981791588595688  0.3106103419521012  0.2071876290111377   T   T   T
  0.1648943299695566  0.8079250675182973  0.2066236733230284   T   T   T
  0.0785085899121126  0.1079708854333282  0.2251072048814674   T   T   T
  0.4154251924914004  0.1054855098201128  0.2249821885721013   T   T   T
  0.7433065172500697  0.1057798334978065  0.2256992688575994   T   T   T
  0.0833777871792896  0.6083415849882314  0.2238661619580877   T   T   T
  0.3686052845297471  0.5718944117199553  0.2302688493006003   T   T   T
  0.7748782971252971  0.5998795711596683  0.2231035412731601   T   T   T
  0.4918475277769540  0.5422581433546310  0.2659769127658814   T   T   T
  0.4699183075511588  0.4569868802476191  0.3003915394960002   T   T   T
  0.5186295007429825  0.6259725957320063  0.3079643027635065   T   T   T
  0.2900019736011740  0.2728569837801716  0.2958724628959800   T   T   T
  0.4393885922453505  0.2164680481022976  0.2877625073608026   T   T   T
  0.6387255187985633  0.7699811822710959  0.3348877000802618   T   T   T
  0.5031047886838843  0.8625214492014884  0.3279861083265807   T   T   T
  0.5645899970742484  0.5382771262712134  0.2409553013214077   T   T   T
  0.1733365504515903  0.3392264838373854  0.0333502057976252   T   T   T
  0.5060368634830743  0.3406409117518184  0.0335688225627812   T   T   T
  0.8386751573597433  0.3398461814283659  0.0333908965487260   T   T   T
  0.1737794934922946  0.8396431571374015  0.0334237775094709   T   T   T
  0.5064599201502592  0.8389014519278994  0.0333235677354307   T   T   T
  0.8383738229424149  0.8398146048332258  0.0334052339464357   T   T   T
  0.3222786436282457  0.0883140393082944  0.2175879654083728   T   T   T
  0.6526836998971224  0.0885883952264454  0.2175487089208799   T   T   T
  0.9870150266108397  0.0903069994380263  0.2172369721980243   T   T   T
  0.3114954622105708  0.6043570140413695  0.2162273321024490   T   T   T
  0.6754143025713580  0.5917965501605390  0.2174189638033519   T   T   T
  0.9883768871437664  0.5877506790279697  0.2171347465725121   T   T   T
  0.5216681830286062  0.5498578829101359  0.2952956517103110   T   T   T
  0.3902503940576925  0.2646311183322114  0.3007124393830464   T   T   T
  0.5369171719468129  0.7592383635140960  0.3311172690984325   T   T   T
  0.4777190583870435  0.5083945050442973  0.2497364954378595   T   T   T
  0.4960056084889136  0.2477179193345638  0.0588526037789776   T   T   T
  0.8292055476695017  0.2475700154641057  0.0587314030378936   T   T   T
  0.1628349770493088  0.7475532240368283  0.0587589921184672   T   T   T
  0.4960476406505839  0.7472178217129902  0.0587113321730874   T   T   T
  0.8291508731797148  0.7476277593414447  0.0587548221469582   T   T   T
  0.1626582998760010  0.2474255210418832  0.0587224326018294   T   T   T
  0.9956540581041249  0.0005596636579070  0.1387511832181201   T   T   T
  0.3291528583456304  0.0008847431197696  0.1388538539397091   T   T   T
  0.6620702352552772  0.0008620359066325  0.1388698972782655   T   T   T
  0.9956549039423712  0.5009271880823484  0.1387450065779146   T   T   T
  0.3287054263398087  0.5007219836173890  0.1388462113682172   T   T   T
  0.6623989731314139  0.5006270122348638  0.1388410843982457   T   T   T
  0.1619806099263885  0.2501125204882623  0.1651304499041602   T   T   T
  0.4956223878025989  0.2517802145203643  0.1656473256377651   T   T   T
  0.8297438009681042  0.2497887041885645  0.1650992749756074   T   T   T
  0.1623483009912565  0.7506456567525914  0.1652019606315925   T   T   T
  0.4954836800321658  0.7485313763513320  0.1650671617393140   T   T   T
  0.8291542029104378  0.7504286300340306  0.1652318977271512   T   T   T
  0.3279258312422147  0.9974483403981618  0.1921724830500755   T   T   T
  0.6643385313148693  0.9972645832158130  0.1922272848348529   T   T   T
  0.9962348472062358  0.9982817749073526  0.1918823040700851   T   T   T
  0.3276526000003585  0.5012400393377786  0.1922567811901580   T   T   T
  0.9967239569998093  0.4961308263151268  0.1916385585142373   T   T   T
  0.6649052433546598  0.4982377644533018  0.1919926823105533   T   T   T
  0.9956417242952222  0.0002559123321879  0.0854180824324536   T   T   T
  0.3290595289801518  0.0002517316690606  0.0854592636249413   T   T   T
  0.6622731192919140  0.0002721728096501  0.0854716143830987   T   T   T
  0.9956936921279019  0.5003301358278106  0.0854122922197110   T   T   T
  0.3289603071939247  0.5000698147509650  0.0854644273236620   T   T   T
  0.6624504342111182  0.5000870641317667  0.0854834033986962   T   T   T
  0.1620644947052714  0.2507233871632490  0.1118146591614651   T   T   T
  0.4954659510681628  0.2507889043512713  0.1120017082011108   T   T   T
  0.8288421247415466  0.2507342110277198  0.1118220163376309   T   T   T
  0.1622975429122673  0.7508187358363118  0.1118564090417375   T   T   T
  0.4954439569793984  0.7502753064456292  0.1117069976365195   T   T   T
  0.8287072250560549  0.7508507810961444  0.1118681257756359   T   T   T
 
  0.00000000E+00  0.00000000E+00  0.00000000E+00
  0.00000000E+00  0.00000000E+00  0.00000000E+00
  0.00000000E+00  0.00000000E+00  0.00000000E+00
  0.00000000E+00  0.00000000E+00  0.00000000E+00
  0.00000000E+00  0.00000000E+00  0.00000000E+00
  0.00000000E+00  0.00000000E+00  0.00000000E+00
  0.00000000E+00  0.00000000E+00  0.00000000E+00
  0.00000000E+00  0.00000000E+00  0.00000000E+00
  0.00000000E+00  0.00000000E+00  0.00000000E+00
  0.00000000E+00  0.00000000E+00  0.00000000E+00
  0.00000000E+00  0.00000000E+00  0.00000000E+00
  0.00000000E+00  0.00000000E+00  0.00000000E+00
  0.00000000E+00  0.00000000E+00  0.00000000E+00
  0.00000000E+00  0.00000000E+00  0.00000000E+00
  0.00000000E+00  0.00000000E+00  0.00000000E+00
  0.00000000E+00  0.00000000E+00  0.00000000E+00
  0.00000000E+00  0.00000000E+00  0.00000000E+00
  0.00000000E+00  0.00000000E+00  0.00000000E+00
  0.00000000E+00  0.00000000E+00  0.00000000E+00
  0.00000000E+00  0.00000000E+00  0.00000000E+00
  0.00000000E+00  0.00000000E+00  0.00000000E+00
  0.00000000E+00  0.00000000E+00  0.00000000E+00
  0.00000000E+00  0.00000000E+00  0.00000000E+00
  0.00000000E+00  0.00000000E+00  0.00000000E+00
  0.00000000E+00  0.00000000E+00  0.00000000E+00
  0.00000000E+00  0.00000000E+00  0.00000000E+00
  0.00000000E+00  0.00000000E+00  0.00000000E+00
  0.00000000E+00  0.00000000E+00  0.00000000E+00
  0.00000000E+00  0.00000000E+00  0.00000000E+00
  0.00000000E+00  0.00000000E+00  0.00000000E+00
  0.00000000E+00  0.00000000E+00  0.00000000E+00
  0.00000000E+00  0.00000000E+00  0.00000000E+00
  0.00000000E+00  0.00000000E+00  0.00000000E+00
  0.00000000E+00  0.00000000E+00  0.00000000E+00
  0.00000000E+00  0.00000000E+00  0.00000000E+00
  0.00000000E+00  0.00000000E+00  0.00000000E+00
  0.00000000E+00  0.00000000E+00  0.00000000E+00
  0.00000000E+00  0.00000000E+00  0.00000000E+00
  0.00000000E+00  0.00000000E+00  0.00000000E+00
  0.00000000E+00  0.00000000E+00  0.00000000E+00
  0.00000000E+00  0.00000000E+00  0.00000000E+00
  0.00000000E+00  0.00000000E+00  0.00000000E+00
  0.00000000E+00  0.00000000E+00  0.00000000E+00
  0.00000000E+00  0.00000000E+00  0.00000000E+00
  0.00000000E+00  0.00000000E+00  0.00000000E+00
  0.00000000E+00  0.00000000E+00  0.00000000E+00
  0.00000000E+00  0.00000000E+00  0.00000000E+00
  0.00000000E+00  0.00000000E+00  0.00000000E+00
  0.00000000E+00  0.00000000E+00  0.00000000E+00
  0.00000000E+00  0.00000000E+00  0.00000000E+00
  0.00000000E+00  0.00000000E+00  0.00000000E+00
  0.00000000E+00  0.00000000E+00  0.00000000E+00
  0.00000000E+00  0.00000000E+00  0.00000000E+00
  0.00000000E+00  0.00000000E+00  0.00000000E+00
  0.00000000E+00  0.00000000E+00  0.00000000E+00
  0.00000000E+00  0.00000000E+00  0.00000000E+00
  0.00000000E+00  0.00000000E+00  0.00000000E+00
  0.00000000E+00  0.00000000E+00  0.00000000E+00
  0.00000000E+00  0.00000000E+00  0.00000000E+00
  0.00000000E+00  0.00000000E+00  0.00000000E+00
  0.00000000E+00  0.00000000E+00  0.00000000E+00
  0.00000000E+00  0.00000000E+00  0.00000000E+00
  0.00000000E+00  0.00000000E+00  0.00000000E+00
  0.00000000E+00  0.00000000E+00  0.00000000E+00
  0.00000000E+00  0.00000000E+00  0.00000000E+00
  0.00000000E+00  0.00000000E+00  0.00000000E+00
  0.00000000E+00  0.00000000E+00  0.00000000E+00
  0.00000000E+00  0.00000000E+00  0.00000000E+00
  0.00000000E+00  0.00000000E+00  0.00000000E+00
  0.00000000E+00  0.00000000E+00  0.00000000E+00
  0.00000000E+00  0.00000000E+00  0.00000000E+00
  0.00000000E+00  0.00000000E+00  0.00000000E+00
  0.00000000E+00  0.00000000E+00  0.00000000E+00
  0.00000000E+00  0.00000000E+00  0.00000000E+00
  0.00000000E+00  0.00000000E+00  0.00000000E+00
  0.00000000E+00  0.00000000E+00  0.00000000E+00
  0.00000000E+00  0.00000000E+00  0.00000000E+00
  0.00000000E+00  0.00000000E+00  0.00000000E+00
  0.00000000E+00  0.00000000E+00  0.00000000E+00
  0.00000000E+00  0.00000000E+00  0.00000000E+00
  0.00000000E+00  0.00000000E+00  0.00000000E+00
  0.00000000E+00  0.00000000E+00  0.00000000E+00
  0.00000000E+00  0.00000000E+00  0.00000000E+00
  0.00000000E+00  0.00000000E+00  0.00000000E+00
  0.00000000E+00  0.00000000E+00  0.00000000E+00
  0.00000000E+00  0.00000000E+00  0.00000000E+00
  0.00000000E+00  0.00000000E+00  0.00000000E+00
  0.00000000E+00  0.00000000E+00  0.00000000E+00
  0.00000000E+00  0.00000000E+00  0.00000000E+00
  0.00000000E+00  0.00000000E+00  0.00000000E+00
  0.00000000E+00  0.00000000E+00  0.00000000E+00
  0.00000000E+00  0.00000000E+00  0.00000000E+00
  0.00000000E+00  0.00000000E+00  0.00000000E+00
  0.00000000E+00  0.00000000E+00  0.00000000E+00
  0.00000000E+00  0.00000000E+00  0.00000000E+00
  0.00000000E+00  0.00000000E+00  0.00000000E+00
  0.00000000E+00  0.00000000E+00  0.00000000E+00
  0.00000000E+00  0.00000000E+00  0.00000000E+00
  0.00000000E+00  0.00000000E+00  0.00000000E+00
  0.00000000E+00  0.00000000E+00  0.00000000E+00
  0.00000000E+00  0.00000000E+00  0.00000000E+00
  0.00000000E+00  0.00000000E+00  0.00000000E+00
  0.00000000E+00  0.00000000E+00  0.00000000E+00
  0.00000000E+00  0.00000000E+00  0.00000000E+00
  0.00000000E+00  0.00000000E+00  0.00000000E+00
  0.00000000E+00  0.00000000E+00  0.00000000E+00
  0.00000000E+00  0.00000000E+00  0.00000000E+00
  0.00000000E+00  0.00000000E+00  0.00000000E+00
  0.00000000E+00  0.00000000E+00  0.00000000E+00
  0.00000000E+00  0.00000000E+00  0.00000000E+00
  0.00000000E+00  0.00000000E+00  0.00000000E+00
  0.00000000E+00  0.00000000E+00  0.00000000E+00
  0.00000000E+00  0.00000000E+00  0.00000000E+00
  0.00000000E+00  0.00000000E+00  0.00000000E+00
  0.00000000E+00  0.00000000E+00  0.00000000E+00
  0.00000000E+00  0.00000000E+00  0.00000000E+00
  0.00000000E+00  0.00000000E+00  0.00000000E+00
  0.00000000E+00  0.00000000E+00  0.00000000E+00
  0.00000000E+00  0.00000000E+00  0.00000000E+00
  0.00000000E+00  0.00000000E+00  0.00000000E+00
  0.00000000E+00  0.00000000E+00  0.00000000E+00
