C H O Si                                
   1.00000000000000     
     9.2874599999999994    0.0000000000000000    0.0000000000000000
     0.0000000000000000    8.7563099999999991    0.0000000000000000
     0.0000000000000000    0.0000000000000000   58.0000000000000000
   C    H    O    Si
    36    32    16    36
Selective dynamics
Direct
  0.9932614109516172  0.1258992924085958  0.0605994406344457   T   T   T
  0.3267233236963840  0.1258338530886941  0.0605598215015390   T   T   T
  0.6598864095802605  0.1257683723670212  0.0607388689918446   T   T   T
  0.9931908657815450  0.6259244398157534  0.0606033980144805   T   T   T
  0.3266849194816890  0.6258386830980549  0.0607196129071326   T   T   T
  0.6599299488711333  0.6257690256449731  0.0607427646518554   T   T   T
  0.1597248566806242  0.3718854043898047  0.1393620192382329   T   T   T
  0.4929748588706192  0.3708502253607543  0.1397394067174912   T   T   T
  0.8262246227207624  0.3716004897406749  0.1395351812572937   T   T   T
  0.1597193580298187  0.8716946540936167  0.1395147137470153   T   T   T
  0.4928886799221231  0.8710059141007224  0.1397362996009991   T   T   T
  0.8256381676531227  0.8713641193641692  0.1395605555704588   T   T   T
  0.3267527921455473  0.1227636290600498  0.1661576921164324   T   T   T
  0.6589541822986584  0.1221222933779439  0.1669941880950909   T   T   T
  0.9930292503787311  0.1208514718980873  0.1664701253776774   T   T   T
  0.3258405628558899  0.6221036100068705  0.1670367009235272   T   T   T
  0.6593787178897073  0.6207020240169852  0.1672295946591591   T   T   T
  0.9931906475217103  0.6222555627192173  0.1665099429326071   T   T   T
  0.1577148584855214  0.3744347946102289  0.1914673353642800   T   T   T
  0.4890961621716606  0.3719771583865215  0.1936744017329628   T   T   T
  0.8257063855805714  0.3735362598278937  0.1918150694077708   T   T   T
  0.1620643198531517  0.8777313393255476  0.1921990867371369   T   T   T
  0.4930928243993002  0.8782654156164653  0.1924443969319104   T   T   T
  0.8280657837805919  0.8749197257476620  0.1918342647609238   T   T   T
  0.1595386977134463  0.3717647282704089  0.0859081027650269   T   T   T
  0.4928667431793187  0.3717577478781809  0.0860290990314422   T   T   T
  0.8261454631231437  0.3717753833529247  0.0859908503718670   T   T   T
  0.1595903703344929  0.8717512536208674  0.0859656860556372   T   T   T
  0.4928928489978286  0.8717121395373461  0.0860708388789115   T   T   T
  0.8261165033815668  0.8718215028680639  0.0859965436530661   T   T   T
  0.3263119335725524  0.1215890459219218  0.1130092192235530   T   T   T
  0.6593843853640158  0.1213779749924681  0.1132919610620719   T   T   T
  0.9928374932205510  0.1215215777682108  0.1131011197648636   T   T   T
  0.3262509021472997  0.6213505986350687  0.1132698665038575   T   T   T
  0.6594796396343801  0.6212606377891019  0.1133018787511477   T   T   T
  0.9928207516789325  0.6217033073138872  0.1130786467601470   T   T   T
  0.0740007467104642  0.3569879607966480  0.0277210410745065   T   T   T
  0.4076552818497010  0.3564974238240321  0.0277852952151026   T   T   T
  0.7394252096859026  0.3565267436966958  0.0278694555069383   T   T   T
  0.0743781370968046  0.8568065585921418  0.0277860536830558   T   T   T
  0.4073822475936205  0.8566442833532975  0.0278930306284795   T   T   T
  0.7396936748715816  0.8566674360673592  0.0278500745168477   T   T   T
  0.3241814328051330  0.0533196998537804  0.0450546188641174   T   T   T
  0.6569446006279812  0.0526520125422424  0.0453010963486099   T   T   T
  0.9902439067526669  0.0530183577476529  0.0451349683464862   T   T   T
  0.3241323003202821  0.5527745798137180  0.0452711989408368   T   T   T
  0.6569515927268277  0.5526835290179007  0.0453023212473561   T   T   T
  0.9902595800929785  0.5531776723344083  0.0451242125421717   T   T   T
  0.8301008958265842  0.8025117789609669  0.2073343281917228   T   T   T
  0.8302232370851755  0.2994083629998337  0.2071375318963721   T   T   T
  0.1572930880762896  0.3017503520918349  0.2069278915606665   T   T   T
  0.1646007462020924  0.8034891992740310  0.2075117364432686   T   T   T
  0.4907281085373457  0.8057208652869816  0.2079632854479338   T   T   T
  0.0836827954716378  0.1119337413569922  0.2237432041725259   T   T   T
  0.3864452614123993  0.1998360104334014  0.2132366320613967   T   T   T
  0.7727595417385867  0.0901670357222020  0.2238918539314258   T   T   T
  0.0864749229755996  0.5997631771218525  0.2235495452552235   T   T   T
  0.3743344321479131  0.6139326074971934  0.2285426373829723   T   T   T
  0.7797134655424514  0.5918094879331995  0.2226163155602262   T   T   T
  0.5456509819644993  0.6088154195318263  0.2738060666133565   T   T   T
  0.4910466987352868  0.4736592772152379  0.2935827517266879   T   T   T
  0.5699942177219215  0.6373271259440108  0.3031298978174126   T   T   T
  0.3108365266697612  0.3805536972953942  0.3095899378052717   T   T   T
  0.4228358920858851  0.2553584155696892  0.3026386006275187   T   T   T
  0.6517110332088769  0.7334105840332643  0.3334136186386071   T   T   T
  0.4866039263559298  0.7618686469593425  0.3307459996005683   T   T   T
  0.5189332689024548  0.7859850532051650  0.2523864447716329   T   T   T
  0.5855555848642922  0.6404996809884600  0.2387364133150897   T   T   T
  0.1689698887622318  0.3320652411869162  0.0339266160482841   T   T   T
  0.5026489113587100  0.3323812158900825  0.0340691781416724   T   T   T
  0.8347014658005368  0.3322901157277730  0.0340333578661574   T   T   T
  0.1693094395703322  0.8320969117583745  0.0340330857777520   T   T   T
  0.5024746241155315  0.8323306216625356  0.0341285973135796   T   T   T
  0.8348787258753172  0.8323897831358421  0.0340326783480280   T   T   T
  0.3231007245732022  0.1083198463931652  0.2164866183873871   T   T   T
  0.6717054527856912  0.0764734653680165  0.2195039859811849   T   T   T
  0.9875585354659304  0.0815231902570311  0.2185579977009892   T   T   T
  0.2948073940953521  0.5835694400666037  0.2184366610685488   T   T   T
  0.6765610052594424  0.5806957133464138  0.2190759538818274   T   T   T
  0.9873473417576069  0.5800000917195210  0.2182901902486210   T   T   T
  0.5679267870959170  0.5568588666429224  0.2899772381052523   T   T   T
  0.3797847353417065  0.3515968961306722  0.2976830704205043   T   T   T
  0.5767351651459520  0.7564020183305968  0.3221452921963780   T   T   T
  0.5144691686609006  0.6747504871952182  0.2514720761168367   T   T   T
  0.4936194764213711  0.2432608314965096  0.0601253527386407   T   T   T
  0.8266987076573838  0.2430991060588142  0.0600828668920624   T   T   T
  0.1602466750925014  0.7429911293232311  0.0600761411171062   T   T   T
  0.4936351979173226  0.7430718233036858  0.0601631592736093   T   T   T
  0.8266871602541568  0.7431733870105089  0.0600868967326809   T   T   T
  0.1602786056823731  0.2431022970821325  0.0599939736384715   T   T   T
  0.9927501882100035  0.9955236750066644  0.1397422876111286   T   T   T
  0.3268377992736630  0.9967716014094110  0.1397174679650245   T   T   T
  0.6587998636340172  0.9967999030790767  0.1401254991625213   T   T   T
  0.9931552071914784  0.4963111341988465  0.1397320928919521   T   T   T
  0.3271107708370601  0.4964478432182921  0.1401215123413251   T   T   T
  0.6586371777554617  0.4961166288429963  0.1401528810034450   T   T   T
  0.1596757128324518  0.2451284721140164  0.1657788370244379   T   T   T
  0.4924708412581119  0.2506333332269753  0.1675113585456282   T   T   T
  0.8258789213701395  0.2446143476878175  0.1660132093380209   T   T   T
  0.1609006531701092  0.7462743452072279  0.1662208545366459   T   T   T
  0.4929258211094169  0.7454100556621682  0.1665373570184051   T   T   T
  0.8257005400151671  0.7446245669574002  0.1661134952001823   T   T   T
  0.3270481294025798  0.9989175208883652  0.1923995805706141   T   T   T
  0.6617030106490276  0.9938877760044174  0.1931465863747462   T   T   T
  0.9941034699260124  0.9921747674823375  0.1924024237507179   T   T   T
  0.3274639530325482  0.4884851640201470  0.1931182935754012   T   T   T
  0.9918454342210229  0.4910060488396280  0.1921022561133502   T   T   T
  0.6538540105833507  0.4838864781341671  0.1930909092904564   T   T   T
  0.9928949231298945  0.9958478126219310  0.0866568076913850   T   T   T
  0.3263427279094325  0.9959728237861393  0.0866315978216119   T   T   T
  0.6594436673604184  0.9959604510094285  0.0868136614527404   T   T   T
  0.9928650734797517  0.4958621548593579  0.0866459654185759   T   T   T
  0.3263486658015147  0.4958618578814608  0.0867891359185117   T   T   T
  0.6594180409596385  0.4958301379706377  0.0868113218611929   T   T   T
  0.1596822337087881  0.2464365778544869  0.1129154891079564   T   T   T
  0.4928677162957845  0.2468265595216482  0.1132110245168240   T   T   T
  0.8259516915312073  0.2464170069470098  0.1130183493727945   T   T   T
  0.1597372237875709  0.7463314079792939  0.1130223189420337   T   T   T
  0.4928794194468825  0.7462427430582339  0.1131503341541172   T   T   T
  0.8258115815548710  0.7464024750354186  0.1130278087057952   T   T   T
 
  0.00000000E+00  0.00000000E+00  0.00000000E+00
  0.00000000E+00  0.00000000E+00  0.00000000E+00
  0.00000000E+00  0.00000000E+00  0.00000000E+00
  0.00000000E+00  0.00000000E+00  0.00000000E+00
  0.00000000E+00  0.00000000E+00  0.00000000E+00
  0.00000000E+00  0.00000000E+00  0.00000000E+00
  0.00000000E+00  0.00000000E+00  0.00000000E+00
  0.00000000E+00  0.00000000E+00  0.00000000E+00
  0.00000000E+00  0.00000000E+00  0.00000000E+00
  0.00000000E+00  0.00000000E+00  0.00000000E+00
  0.00000000E+00  0.00000000E+00  0.00000000E+00
  0.00000000E+00  0.00000000E+00  0.00000000E+00
  0.00000000E+00  0.00000000E+00  0.00000000E+00
  0.00000000E+00  0.00000000E+00  0.00000000E+00
  0.00000000E+00  0.00000000E+00  0.00000000E+00
  0.00000000E+00  0.00000000E+00  0.00000000E+00
  0.00000000E+00  0.00000000E+00  0.00000000E+00
  0.00000000E+00  0.00000000E+00  0.00000000E+00
  0.00000000E+00  0.00000000E+00  0.00000000E+00
  0.00000000E+00  0.00000000E+00  0.00000000E+00
  0.00000000E+00  0.00000000E+00  0.00000000E+00
  0.00000000E+00  0.00000000E+00  0.00000000E+00
  0.00000000E+00  0.00000000E+00  0.00000000E+00
  0.00000000E+00  0.00000000E+00  0.00000000E+00
  0.00000000E+00  0.00000000E+00  0.00000000E+00
  0.00000000E+00  0.00000000E+00  0.00000000E+00
  0.00000000E+00  0.00000000E+00  0.00000000E+00
  0.00000000E+00  0.00000000E+00  0.00000000E+00
  0.00000000E+00  0.00000000E+00  0.00000000E+00
  0.00000000E+00  0.00000000E+00  0.00000000E+00
  0.00000000E+00  0.00000000E+00  0.00000000E+00
  0.00000000E+00  0.00000000E+00  0.00000000E+00
  0.00000000E+00  0.00000000E+00  0.00000000E+00
  0.00000000E+00  0.00000000E+00  0.00000000E+00
  0.00000000E+00  0.00000000E+00  0.00000000E+00
  0.00000000E+00  0.00000000E+00  0.00000000E+00
  0.00000000E+00  0.00000000E+00  0.00000000E+00
  0.00000000E+00  0.00000000E+00  0.00000000E+00
  0.00000000E+00  0.00000000E+00  0.00000000E+00
  0.00000000E+00  0.00000000E+00  0.00000000E+00
  0.00000000E+00  0.00000000E+00  0.00000000E+00
  0.00000000E+00  0.00000000E+00  0.00000000E+00
  0.00000000E+00  0.00000000E+00  0.00000000E+00
  0.00000000E+00  0.00000000E+00  0.00000000E+00
  0.00000000E+00  0.00000000E+00  0.00000000E+00
  0.00000000E+00  0.00000000E+00  0.00000000E+00
  0.00000000E+00  0.00000000E+00  0.00000000E+00
  0.00000000E+00  0.00000000E+00  0.00000000E+00
  0.00000000E+00  0.00000000E+00  0.00000000E+00
  0.00000000E+00  0.00000000E+00  0.00000000E+00
  0.00000000E+00  0.00000000E+00  0.00000000E+00
  0.00000000E+00  0.00000000E+00  0.00000000E+00
  0.00000000E+00  0.00000000E+00  0.00000000E+00
  0.00000000E+00  0.00000000E+00  0.00000000E+00
  0.00000000E+00  0.00000000E+00  0.00000000E+00
  0.00000000E+00  0.00000000E+00  0.00000000E+00
  0.00000000E+00  0.00000000E+00  0.00000000E+00
  0.00000000E+00  0.00000000E+00  0.00000000E+00
  0.00000000E+00  0.00000000E+00  0.00000000E+00
  0.00000000E+00  0.00000000E+00  0.00000000E+00
  0.00000000E+00  0.00000000E+00  0.00000000E+00
  0.00000000E+00  0.00000000E+00  0.00000000E+00
  0.00000000E+00  0.00000000E+00  0.00000000E+00
  0.00000000E+00  0.00000000E+00  0.00000000E+00
  0.00000000E+00  0.00000000E+00  0.00000000E+00
  0.00000000E+00  0.00000000E+00  0.00000000E+00
  0.00000000E+00  0.00000000E+00  0.00000000E+00
  0.00000000E+00  0.00000000E+00  0.00000000E+00
  0.00000000E+00  0.00000000E+00  0.00000000E+00
  0.00000000E+00  0.00000000E+00  0.00000000E+00
  0.00000000E+00  0.00000000E+00  0.00000000E+00
  0.00000000E+00  0.00000000E+00  0.00000000E+00
  0.00000000E+00  0.00000000E+00  0.00000000E+00
  0.00000000E+00  0.00000000E+00  0.00000000E+00
  0.00000000E+00  0.00000000E+00  0.00000000E+00
  0.00000000E+00  0.00000000E+00  0.00000000E+00
  0.00000000E+00  0.00000000E+00  0.00000000E+00
  0.00000000E+00  0.00000000E+00  0.00000000E+00
  0.00000000E+00  0.00000000E+00  0.00000000E+00
  0.00000000E+00  0.00000000E+00  0.00000000E+00
  0.00000000E+00  0.00000000E+00  0.00000000E+00
  0.00000000E+00  0.00000000E+00  0.00000000E+00
  0.00000000E+00  0.00000000E+00  0.00000000E+00
  0.00000000E+00  0.00000000E+00  0.00000000E+00
  0.00000000E+00  0.00000000E+00  0.00000000E+00
  0.00000000E+00  0.00000000E+00  0.00000000E+00
  0.00000000E+00  0.00000000E+00  0.00000000E+00
  0.00000000E+00  0.00000000E+00  0.00000000E+00
  0.00000000E+00  0.00000000E+00  0.00000000E+00
  0.00000000E+00  0.00000000E+00  0.00000000E+00
  0.00000000E+00  0.00000000E+00  0.00000000E+00
  0.00000000E+00  0.00000000E+00  0.00000000E+00
  0.00000000E+00  0.00000000E+00  0.00000000E+00
  0.00000000E+00  0.00000000E+00  0.00000000E+00
  0.00000000E+00  0.00000000E+00  0.00000000E+00
  0.00000000E+00  0.00000000E+00  0.00000000E+00
  0.00000000E+00  0.00000000E+00  0.00000000E+00
  0.00000000E+00  0.00000000E+00  0.00000000E+00
  0.00000000E+00  0.00000000E+00  0.00000000E+00
  0.00000000E+00  0.00000000E+00  0.00000000E+00
  0.00000000E+00  0.00000000E+00  0.00000000E+00
  0.00000000E+00  0.00000000E+00  0.00000000E+00
  0.00000000E+00  0.00000000E+00  0.00000000E+00
  0.00000000E+00  0.00000000E+00  0.00000000E+00
  0.00000000E+00  0.00000000E+00  0.00000000E+00
  0.00000000E+00  0.00000000E+00  0.00000000E+00
  0.00000000E+00  0.00000000E+00  0.00000000E+00
  0.00000000E+00  0.00000000E+00  0.00000000E+00
  0.00000000E+00  0.00000000E+00  0.00000000E+00
  0.00000000E+00  0.00000000E+00  0.00000000E+00
  0.00000000E+00  0.00000000E+00  0.00000000E+00
  0.00000000E+00  0.00000000E+00  0.00000000E+00
  0.00000000E+00  0.00000000E+00  0.00000000E+00
  0.00000000E+00  0.00000000E+00  0.00000000E+00
  0.00000000E+00  0.00000000E+00  0.00000000E+00
  0.00000000E+00  0.00000000E+00  0.00000000E+00
  0.00000000E+00  0.00000000E+00  0.00000000E+00
  0.00000000E+00  0.00000000E+00  0.00000000E+00
  0.00000000E+00  0.00000000E+00  0.00000000E+00
  0.00000000E+00  0.00000000E+00  0.00000000E+00
