C H O Si                                
   1.00000000000000     
     9.2874599999999994    0.0000000000000000    0.0000000000000000
     0.0000000000000000    8.7563099999999991    0.0000000000000000
     0.0000000000000000    0.0000000000000000   58.0000000000000000
   C    H    O    Si
    36    32    16    36
Selective dynamics
Direct
  0.9931102377047830  0.1258641975350724  0.0606109627184920   T   T   T
  0.3265639909218438  0.1257312621511272  0.0605677039186210   T   T   T
  0.6597127246865134  0.1257695701441754  0.0607367190159440   T   T   T
  0.9930141943085544  0.6258973782846268  0.0606104581410562   T   T   T
  0.3265226186032193  0.6258378149837219  0.0607195344517993   T   T   T
  0.6597451941368744  0.6257959454683584  0.0607462839495131   T   T   T
  0.1598373965829502  0.3718175906386829  0.1393561964052735   T   T   T
  0.4931434722100861  0.3707783863887416  0.1397142109290399   T   T   T
  0.8263525627839561  0.3714522601589367  0.1395349581605302   T   T   T
  0.1598719483896317  0.8716009545391409  0.1395094551958865   T   T   T
  0.4930533780759527  0.8709436662579709  0.1397389590950400   T   T   T
  0.8257088640415938  0.8712415844107351  0.1395511136411361   T   T   T
  0.3268815523961331  0.1228929447884363  0.1661451535219899   T   T   T
  0.6591554923859799  0.1222005903352027  0.1669545777945843   T   T   T
  0.9932643660565118  0.1209377180601012  0.1664372430687996   T   T   T
  0.3259521433666240  0.6221637226906187  0.1670125397214047   T   T   T
  0.6595742562423356  0.6204617666553083  0.1671974203388314   T   T   T
  0.9933619954255480  0.6224667679712362  0.1664870611218573   T   T   T
  0.1578498544940293  0.3747072419231143  0.1914662946123733   T   T   T
  0.4891826967156104  0.3718049891719294  0.1936777131435199   T   T   T
  0.8260216197431094  0.3736029393096243  0.1918016156898474   T   T   T
  0.1621309620552895  0.8776344129269874  0.1921804655265984   T   T   T
  0.4932238334240565  0.8783772883450005  0.1924559767658041   T   T   T
  0.8280958560431426  0.8750457026920427  0.1918339924648955   T   T   T
  0.1595690484089017  0.3719377797298490  0.0859257465796419   T   T   T
  0.4929073528275327  0.3718223904038765  0.0860582536171841   T   T   T
  0.8261460631108635  0.3718602935466992  0.0860167526013337   T   T   T
  0.1595923851717176  0.8718389824045520  0.0859986213347949   T   T   T
  0.4929410418692144  0.8718042659996610  0.0861066658844866   T   T   T
  0.8261203849083315  0.8719330115631716  0.0860267301051046   T   T   T
  0.3264199607305578  0.1213584792051742  0.1130156285639960   T   T   T
  0.6594624415364049  0.1213548220233934  0.1132908611267856   T   T   T
  0.9929105743304294  0.1214165695651271  0.1131176457082217   T   T   T
  0.3263852399380584  0.6213101180153719  0.1132674492274792   T   T   T
  0.6595812824655928  0.6212005986378081  0.1133086331906186   T   T   T
  0.9928321890289766  0.6215874345136306  0.1130951595913542   T   T   T
  0.0739106479552732  0.3569384391176453  0.0276699592794095   T   T   T
  0.4074003514538649  0.3564240719153583  0.0277288256973958   T   T   T
  0.7394547359588612  0.3564685363741737  0.0278248762289557   T   T   T
  0.0740924977972988  0.8567930303307646  0.0277263639139712   T   T   T
  0.4071124853614280  0.8566085603457557  0.0278359312405104   T   T   T
  0.7397046239847926  0.8566036959512792  0.0277999184897140   T   T   T
  0.3242082372090270  0.0532661598767474  0.0450339988962207   T   T   T
  0.6569238441537784  0.0525748096427699  0.0452814205004036   T   T   T
  0.9902580809527677  0.0529388315691202  0.0451250626459288   T   T   T
  0.3241540004302779  0.5527305547923204  0.0452510054601455   T   T   T
  0.6569360385383656  0.5526412786350464  0.0452858064073167   T   T   T
  0.9902806319043578  0.5531157564678216  0.0451092212969114   T   T   T
  0.8301763487386707  0.8026088915386961  0.2073500392136174   T   T   T
  0.8304168629571907  0.2994885119160078  0.2071452306182827   T   T   T
  0.1571884291196246  0.3018857233015288  0.2069305985070888   T   T   T
  0.1646916148457238  0.8034661947851082  0.2075210392949746   T   T   T
  0.4905932025850856  0.8058690317302436  0.2079957057909972   T   T   T
  0.0834486179576204  0.1114652867502545  0.2237561446018760   T   T   T
  0.3861163560978143  0.1995843237066952  0.2132234737366898   T   T   T
  0.7723380838560713  0.0900503623931625  0.2239551136705770   T   T   T
  0.0861768453413037  0.5994888701220707  0.2235677753964254   T   T   T
  0.3747240845530483  0.6139204521032792  0.2286117803507088   T   T   T
  0.7798442522017661  0.5915765726927068  0.2225875953656680   T   T   T
  0.5456435133318860  0.6090395135261749  0.2737594747553377   T   T   T
  0.4911737524987255  0.4735437171920866  0.2935997650765435   T   T   T
  0.5702192078019220  0.6375670307699941  0.3031654298127031   T   T   T
  0.3109239540046138  0.3809105405594136  0.3095836404048188   T   T   T
  0.4230038833161907  0.2555603609301805  0.3026133420684373   T   T   T
  0.6517799694131492  0.7332983693094779  0.3334156867419815   T   T   T
  0.4863852527122472  0.7617091723607433  0.3307590230703555   T   T   T
  0.5190714190640754  0.7864175584705272  0.2523998293277426   T   T   T
  0.5854499481434343  0.6405327336827445  0.2387070908390879   T   T   T
  0.1686775081653807  0.3320893746405312  0.0339759039882493   T   T   T
  0.5022219737869219  0.3323123125669480  0.0340844661272466   T   T   T
  0.8345426653104230  0.3321919239915352  0.0340704581632742   T   T   T
  0.1688211055570187  0.8320577352968008  0.0340571074639044   T   T   T
  0.5019890237466096  0.8323161673285394  0.0341552893206314   T   T   T
  0.8346961801720320  0.8322331598813335  0.0340702358710557   T   T   T
  0.3228322540505499  0.1079976141075137  0.2164774156129996   T   T   T
  0.6711726317554926  0.0768797113956244  0.2195247114034348   T   T   T
  0.9872192812228594  0.0810614887830981  0.2185714640675722   T   T   T
  0.2953549340483499  0.5836072009791957  0.2184625375865663   T   T   T
  0.6764286454248062  0.5812812888399692  0.2190602280791254   T   T   T
  0.9869363728098279  0.5801931457895871  0.2182634460906628   T   T   T
  0.5685584968186376  0.5567658344107483  0.2899773027645042   T   T   T
  0.3803096159006758  0.3522034446902166  0.2977035249971794   T   T   T
  0.5766241261083181  0.7558329551863732  0.3221431950591604   T   T   T
  0.5144298173481905  0.6751111402972154  0.2514999161581651   T   T   T
  0.4933483257030604  0.2433884866669641  0.0601367039778636   T   T   T
  0.8264830956645727  0.2432293071928067  0.0601049647908447   T   T   T
  0.1599958081807207  0.7431804610935310  0.0600943633319230   T   T   T
  0.4933502844174846  0.7432400480997924  0.0601855562643818   T   T   T
  0.8264572307397104  0.7433267945081019  0.0601099477708432   T   T   T
  0.1600742343183040  0.2432519170106410  0.0600195744272168   T   T   T
  0.9928124653390548  0.9952752083051156  0.1397251415075816   T   T   T
  0.3268996167274675  0.9966122637481392  0.1397195870515021   T   T   T
  0.6589539078778329  0.9966271885475809  0.1401001444122786   T   T   T
  0.9931867295558148  0.4960961255779796  0.1397262266717429   T   T   T
  0.3272450072227214  0.4962842955078549  0.1401000372576788   T   T   T
  0.6588228738189105  0.4958486351406824  0.1401222974502628   T   T   T
  0.1597908931876136  0.2452988533224886  0.1657752055513668   T   T   T
  0.4926073437669563  0.2506767013570554  0.1674782102257859   T   T   T
  0.8260428951966184  0.2446238329300601  0.1660016504306743   T   T   T
  0.1609526041212915  0.7462653599177966  0.1662093359399842   T   T   T
  0.4930850463067383  0.7454181493245822  0.1665449132586987   T   T   T
  0.8257645103358310  0.7446851252792904  0.1661168965694866   T   T   T
  0.3270369671606508  0.9989105362968816  0.1923810142218945   T   T   T
  0.6617135692998142  0.9942973260179783  0.1931611748098245   T   T   T
  0.9941369430532214  0.9923215413180090  0.1923849665242953   T   T   T
  0.3276558191281464  0.4886996816716574  0.1931100260548987   T   T   T
  0.9919757212476379  0.4914168960830283  0.1920809647751540   T   T   T
  0.6539540894304090  0.4838262025143885  0.1930701445426225   T   T   T
  0.9928900799181836  0.9958274438042979  0.0866685062038555   T   T   T
  0.3263690811420343  0.9958549213900106  0.0866382876021087   T   T   T
  0.6594540610078798  0.9959643283755761  0.0868133373542398   T   T   T
  0.9928275276185716  0.4958614534531772  0.0866521093222603   T   T   T
  0.3264052943403532  0.4958323288939658  0.0867873473903052   T   T   T
  0.6594244896886283  0.4958322505820058  0.0868137456411745   T   T   T
  0.1598596618770214  0.2463095628367363  0.1129182200170965   T   T   T
  0.4928965383884634  0.2466538179077962  0.1132101135593537   T   T   T
  0.8260497765069981  0.2462715408629163  0.1130362651364605   T   T   T
  0.1598267233520002  0.7461540281159933  0.1130381168895167   T   T   T
  0.4929802796345666  0.7461862212401792  0.1131713974232853   T   T   T
  0.8258475598714987  0.7462668652876585  0.1130398369645862   T   T   T
