C H O Si                                
   1.00000000000000     
     9.2874599999999994    0.0000000000000000    0.0000000000000000
     0.0000000000000000   17.5126199999999983    0.0000000000000000
     0.0000000000000000    0.0000000000000000   58.0000000000000000
   C    H    O    Si
    72    57    28    72
Selective dynamics
Direct
  0.9929352401056546  0.0630371502754912  0.0604903824097561   T   T   T
  0.3263050308471840  0.0630968911646895  0.0605810722519448   T   T   T
  0.6595470327808807  0.0631110886961672  0.0605582118938045   T   T   T
  0.9927487121727565  0.3131067314904930  0.0604926281705608   T   T   T
  0.3260692073126343  0.3130613163432409  0.0605859748721903   T   T   T
  0.6594108162976071  0.3130859449412930  0.0605478120034656   T   T   T
  0.1601926455046843  0.1857428131403946  0.1393971583749811   T   T   T
  0.4934644672442222  0.1860102259636453  0.1396347331601527   T   T   T
  0.8268378970554385  0.1857114329494384  0.1393211225513169   T   T   T
  0.1600812361755945  0.4358211169290718  0.1394324484419200   T   T   T
  0.4934205259987450  0.4357383912694581  0.1394652674158358   T   T   T
  0.8268141043666006  0.4358326619362328  0.1394194839178062   T   T   T
  0.3276702376417777  0.0611040277657353  0.1666749745757628   T   T   T
  0.6599937800696501  0.0610577238924308  0.1666278825882923   T   T   T
  0.9941007134165576  0.0603912162183787  0.1664013138983354   T   T   T
  0.3269323086396863  0.3109089822586586  0.1667407704776942   T   T   T
  0.6608381599037082  0.3109601455558319  0.1666182085092040   T   T   T
  0.9938871343614455  0.3108390463551322  0.1664544375122249   T   T   T
  0.1611615779542009  0.1872430192407966  0.1917355775377090   T   T   T
  0.4944432930588337  0.1898005055390855  0.1927012405305804   T   T   T
  0.8283930739869974  0.1867027005517602  0.1914842921194071   T   T   T
  0.1602865812873040  0.4383079188046179  0.1919282243681596   T   T   T
  0.4938343705836445  0.4379055814440146  0.1919714809723905   T   T   T
  0.8274035185501948  0.4383930308397262  0.1918770199567339   T   T   T
  0.1595984823247428  0.1859398406327338  0.0858925705010241   T   T   T
  0.4929141525873164  0.1859328757801016  0.0860239204090010   T   T   T
  0.8262291942264581  0.1859194322053662  0.0858492286360519   T   T   T
  0.1596077324410094  0.4359178919990574  0.0859176287986375   T   T   T
  0.4928973550376103  0.4358955415393733  0.0859444167623122   T   T   T
  0.8262029054777690  0.4359223575119879  0.0859045668750545   T   T   T
  0.3264507788014910  0.0608372456522634  0.1130943845804734   T   T   T
  0.6596791111115380  0.0608261867280643  0.1130777589200750   T   T   T
  0.9931012616527360  0.0607330140621977  0.1129984284422441   T   T   T
  0.3263752141973615  0.3107806136752416  0.1131306272678032   T   T   T
  0.6598171447352543  0.3107944233052056  0.1130809938060313   T   T   T
  0.9931063520739947  0.3107843232327172  0.1130028055401564   T   T   T
  0.9929317785945926  0.5630289319671187  0.0605288537071534   T   T   T
  0.3262387468000603  0.5630439530220928  0.0605432338887561   T   T   T
  0.6596272411586521  0.5630486805523872  0.0605380676119768   T   T   T
  0.9927481454599262  0.8130905033793974  0.0605242015409202   T   T   T
  0.3260732552089476  0.8130651831790121  0.0605264006716795   T   T   T
  0.6594264140902706  0.8130870311999613  0.0605206036944771   T   T   T
  0.1600964484449049  0.6858362971934031  0.1394242439091541   T   T   T
  0.4933477259609143  0.6858353183016586  0.1394253648144509   T   T   T
  0.8266489435839307  0.6858286233878997  0.1394207469276799   T   T   T
  0.1604493115782874  0.9358003299629432  0.1394336172913558   T   T   T
  0.4933738326675634  0.9357571666176735  0.1394308799919259   T   T   T
  0.8265448475961907  0.9358386194993705  0.1394261409449732   T   T   T
  0.3269757013294836  0.5609408863300426  0.1665568487349306   T   T   T
  0.6601418701371784  0.5609479696652898  0.1665508907078116   T   T   T
  0.9936318003963773  0.5610827918881180  0.1665130969766799   T   T   T
  0.3270192879205177  0.8108873255121686  0.1665605620475890   T   T   T
  0.6603416782045044  0.8109182063810201  0.1665508664736145   T   T   T
  0.9936897750818160  0.8109358059121093  0.1665443113214493   T   T   T
  0.1606315745505038  0.6880725425740400  0.1919420688797228   T   T   T
  0.4939502633591051  0.6880982637588359  0.1919624086748641   T   T   T
  0.8271798173864234  0.6880783808639039  0.1919308822319802   T   T   T
  0.1608393426337515  0.9380283504132464  0.1919462454644164   T   T   T
  0.4940425445361621  0.9379870947288396  0.1919687543410268   T   T   T
  0.8272727305798668  0.9379910718818411  0.1919162393431640   T   T   T
  0.1595917140318428  0.6859262274503488  0.0859085446179626   T   T   T
  0.4929170690388968  0.6858920444221411  0.0859162536345359   T   T   T
  0.8262178934852298  0.6859309756236902  0.0859068950482201   T   T   T
  0.1596536423923606  0.9359330651054107  0.0859094890249465   T   T   T
  0.4928977409918837  0.9359051915291099  0.0859278702970479   T   T   T
  0.8261785068965984  0.9359438266690914  0.0859060980459247   T   T   T
  0.3263524514284185  0.5607801299416955  0.1130575244864914   T   T   T
  0.6597085203793489  0.5607650848578019  0.1130561524946864   T   T   T
  0.9930331740799845  0.5608063496468974  0.1130382656158043   T   T   T
  0.3264644349020596  0.8107651517808988  0.1130380646519126   T   T   T
  0.6597595536400451  0.8107674634147307  0.1130401432431635   T   T   T
  0.9930853415248733  0.8108512104634118  0.1130525752617568   T   T   T
  0.0768667328099699  0.1770916309109143  0.0267745114869619   T   T   T
  0.4093169649904260  0.1771385704298929  0.0269394394195577   T   T   T
  0.7426436948490311  0.1770597368044907  0.0268087427320174   T   T   T
  0.0766845762560310  0.4271597464608557  0.0267903414387369   T   T   T
  0.4089737172844488  0.4270408862302913  0.0268766607520861   T   T   T
  0.7420476938095845  0.4270593213194717  0.0268443617723038   T   T   T
  0.3241233949624018  0.0269167339486756  0.0450540735227269   T   T   T
  0.6566433100395930  0.0269140104676521  0.0450368324957895   T   T   T
  0.9905489105784053  0.0269266907123176  0.0449508998306825   T   T   T
  0.3235421180312770  0.2768167368174841  0.0450732618698189   T   T   T
  0.6567695703697513  0.2768855636859086  0.0450248602431574   T   T   T
  0.9902162663957624  0.2770061068246745  0.0449496550899342   T   T   T
  0.8292982723292849  0.4026186861663715  0.2074701269527176   T   T   T
  0.8308288170798653  0.1507315981752872  0.2070540372032952   T   T   T
  0.1623133666033764  0.1512764452865185  0.2073102218322664   T   T   T
  0.4972909114978344  0.1530919136149995  0.2081159205539959   T   T   T
  0.1623571744686904  0.4020928124074835  0.2074434363952146   T   T   T
  0.4944143863076892  0.4018194542382959  0.2075203940897936   T   T   T
  0.0774542672789401  0.0519423176751613  0.2256504490996172   T   T   T
  0.4117109981748315  0.0514843859354105  0.2257974152754940   T   T   T
  0.7449663436793508  0.0517755000750441  0.2257107666939502   T   T   T
  0.0761096483058970  0.3008042168977377  0.2252703284511157   T   T   T
  0.3768915744432199  0.3098073392531445  0.2290202030047387   T   T   T
  0.7816528661643912  0.2948816397935515  0.2232141809454889   T   T   T
  0.5456860874684922  0.3049853677758332  0.2742583913424352   T   T   T
  0.4920924304967340  0.2373165989708017  0.2935095641503872   T   T   T
  0.5717613727321359  0.3197061414715708  0.3032473782585796   T   T   T
  0.3144840649371152  0.1941846804912362  0.3097261864167836   T   T   T
  0.4223707627368158  0.1300878032913758  0.3023039845751792   T   T   T
  0.6509938261953422  0.3661051240742800  0.3334535960569425   T   T   T
  0.4849688599341668  0.3776554122357717  0.3307504319313515   T   T   T
  0.5156350309104515  0.3954601964230853  0.2523277345561376   T   T   T
  0.5842629944910589  0.3240019608145217  0.2390709812400812   T   T   T
  0.0764568342015542  0.6771451434166591  0.0268324283309529   T   T   T
  0.4095510167257925  0.6770947053294102  0.0268550266060957   T   T   T
  0.7427541033467946  0.6770877162168656  0.0268559338468424   T   T   T
  0.0761968545303270  0.9271169043629359  0.0268138654935432   T   T   T
  0.4090351723683942  0.9270577244872568  0.0268495188525026   T   T   T
  0.7423933594151851  0.9271158814916719  0.0268372745837941   T   T   T
  0.3237655523112740  0.5268630189570803  0.0450192146265696   T   T   T
  0.6571434053610735  0.5268675039831894  0.0450135164476025   T   T   T
  0.9904197270770269  0.5268772267925583  0.0449950892345682   T   T   T
  0.3235779659968238  0.7769048059926006  0.0449963788898626   T   T   T
  0.6567926602231060  0.7769295655106323  0.0449903307307097   T   T   T
  0.9901744773657135  0.7769298980599117  0.0449934681188129   T   T   T
  0.8297147060900111  0.9018930895361721  0.2074621215660569   T   T   T
  0.8296736740011071  0.6519394526345634  0.2074674519813487   T   T   T
  0.1629089825162832  0.6519200246867392  0.2074762934717290   T   T   T
  0.4964505506409506  0.6520025093996568  0.2075032919064726   T   T   T
  0.1630261689297367  0.9018835027743781  0.2074838837739851   T   T   T
  0.4965373788564648  0.9018153523181289  0.2074963726873991   T   T   T
  0.0768353202578988  0.5529128339317468  0.2256607558091378   T   T   T
  0.4109437464890022  0.5534732426330308  0.2254917817875763   T   T   T
  0.7441755298109620  0.5528441306059525  0.2255791767128612   T   T   T
  0.0776496338879428  0.8020884798271846  0.2256728777327447   T   T   T
  0.4104923603249687  0.8023343242713792  0.2257435286633595   T   T   T
  0.7454409995256074  0.8018871640284615  0.2256211728901890   T   T   T
  0.1694161827024279  0.1672727991563351  0.0342053851133923   T   T   T
  0.5021188204248929  0.1676472137017100  0.0343326327893342   T   T   T
  0.8354507089142570  0.1672801099587651  0.0341678155447988   T   T   T
  0.1691861199365682  0.4174210027357241  0.0342427318611646   T   T   T
  0.5017946215583122  0.4174610213170112  0.0342529895791937   T   T   T
  0.8348611887611657  0.4174983653992521  0.0342199736990411   T   T   T
  0.3189999248905524  0.0423175418230649  0.2183474746122907   T   T   T
  0.6522210294650915  0.0424174578063469  0.2182908662800001   T   T   T
  0.9849977298000167  0.0425239454839633  0.2181478814491049   T   T   T
  0.3006893734337270  0.2929678401853598  0.2183295531172865   T   T   T
  0.6797619252762462  0.2921857074159793  0.2183482847315225   T   T   T
  0.9827522887405332  0.2907438605785925  0.2179936975651394   T   T   T
  0.5702258485783998  0.2792315904807193  0.2898977193223004   T   T   T
  0.3810631664274272  0.1788663527545537  0.2975549316325574   T   T   T
  0.5755353924976219  0.3769327855573749  0.3222023266705771   T   T   T
  0.5094789759003187  0.3400114747129921  0.2507794006025458   T   T   T
  0.1691252260056673  0.6673688734112306  0.0342323801638465   T   T   T
  0.5023052926011620  0.6673711016980814  0.0342318340965891   T   T   T
  0.8355133275959735  0.6674049195398184  0.0342332777320560   T   T   T
  0.1688409077296409  0.9174690564531167  0.0342326867720145   T   T   T
  0.5018328445232427  0.9175079766776112  0.0342356369167686   T   T   T
  0.8351397249676971  0.9175416954660047  0.0342340584873315   T   T   T
  0.3183449764896654  0.5424258325703092  0.2182471275497526   T   T   T
  0.6515938926247621  0.5425018500629807  0.2182266895043453   T   T   T
  0.9845039263851653  0.5426721043588287  0.2182241086112316   T   T   T
  0.3181387822178706  0.7924904723462001  0.2182616701706239   T   T   T
  0.6524980034450164  0.7926416338486888  0.2182478460821855   T   T   T
  0.9850281188288578  0.7925078906767673  0.2182390316590295   T   T   T
  0.4930362893272960  0.1218121687323958  0.0598253452137797   T   T   T
  0.8263752943669153  0.1217143473290363  0.0596984986832603   T   T   T
  0.1595802098652244  0.3717530759687586  0.0597555273552206   T   T   T
  0.4928410402019071  0.3717543970937341  0.0597664552093851   T   T   T
  0.8261479757904437  0.3717897970827024  0.0597299513162787   T   T   T
  0.1597684206494479  0.1217054047191009  0.0597374083148948   T   T   T
  0.9934068809178709  0.4983797876673079  0.1396699121740131   T   T   T
  0.3267075162395323  0.4983018901212583  0.1396961066947222   T   T   T
  0.6600090364233903  0.4983093553482623  0.1396898343886852   T   T   T
  0.9935127927026240  0.2482105227797083  0.1395803778933339   T   T   T
  0.3266454805838407  0.2483532857578673  0.1398075909873457   T   T   T
  0.6602645662670427  0.2482662973460769  0.1396991095671916   T   T   T
  0.1605384269182961  0.1226596020528972  0.1659423802021679   T   T   T
  0.4937765826412409  0.1238432332462804  0.1664217853929688   T   T   T
  0.8274288114413294  0.1222856778291211  0.1657710830287112   T   T   T
  0.1603362704065884  0.3731723315320396  0.1660737352883280   T   T   T
  0.4935921722129631  0.3729417760054112  0.1660887535085865   T   T   T
  0.8273810745583494  0.3732274610366728  0.1660461450052496   T   T   T
  0.3268585010538275  0.4968805184609844  0.1927094196621148   T   T   T
  0.6605005938980978  0.4968810563320182  0.1927039435035257   T   T   T
  0.9937721301899783  0.4971258188598284  0.1926828771587719   T   T   T
  0.3254630931860975  0.2475782572242469  0.1931729612701781   T   T   T
  0.9944129042771586  0.2456243479044402  0.1922871838834847   T   T   T
  0.6637209213276416  0.2463914782482908  0.1925722788184964   T   T   T
  0.9929311666708937  0.4980710140093276  0.0864038132306474   T   T   T
  0.3262914249575474  0.4980853462047505  0.0864202596575040   T   T   T
  0.6595870433927187  0.4980817874616411  0.0864175345935118   T   T   T
  0.9929165286551184  0.2480763292200761  0.0863584754388469   T   T   T
  0.3262455339839199  0.2480791925171758  0.0864665953888507   T   T   T
  0.6596019564730811  0.2480839972434080  0.0864239478738194   T   T   T
  0.1597695381173951  0.1232682589784182  0.1127456539251240   T   T   T
  0.4930824775704987  0.1233385588368952  0.1128991052439915   T   T   T
  0.8264308153593218  0.1232320138546889  0.1126891930752084   T   T   T
  0.1597698790339659  0.3733027761217924  0.1127800295083339   T   T   T
  0.4930682394322853  0.3732607298949942  0.1128067412097569   T   T   T
  0.8264732418215955  0.3733085099010096  0.1127642190927393   T   T   T
  0.4930811649021326  0.6217230021699817  0.0597482483233717   T   T   T
  0.8264112106427439  0.6217347832293244  0.0597479613590644   T   T   T
  0.1595728559314049  0.8717558504653093  0.0597421530775926   T   T   T
  0.4928404642691214  0.8717761852912772  0.0597431381322876   T   T   T
  0.8261643504960016  0.8717881218233851  0.0597368506433900   T   T   T
  0.1597295064816293  0.6217177685089583  0.0597536091282373   T   T   T
  0.9935381617663368  0.9980514471507099  0.1395959694472878   T   T   T
  0.3271090522968142  0.9984029052972163  0.1397435413908024   T   T   T
  0.6597070323575355  0.9983355948642455  0.1397162584384994   T   T   T
  0.9933594452484612  0.7483147642326280  0.1396821087520149   T   T   T
  0.3267027573292743  0.7483256340830780  0.1396838313168904   T   T   T
  0.6599776044855380  0.7483228608462770  0.1396807480105733   T   T   T
  0.1602279066718773  0.6231484516708099  0.1660486488213828   T   T   T
  0.4935299841960377  0.6231603498893918  0.1660627596273471   T   T   T
  0.8268325278588943  0.6231352242361077  0.1660467609143536   T   T   T
  0.1603528423723774  0.8730296671499721  0.1660593015693536   T   T   T
  0.4936323803577941  0.8730277634869676  0.1660723273111633   T   T   T
  0.8269063687045681  0.8730189862804755  0.1660421318822601   T   T   T
  0.3273400738326200  0.9967019234483094  0.1928097321480750   T   T   T
  0.6605915909565451  0.9966785507251316  0.1927630915350433   T   T   T
  0.9939058652411583  0.9966128862453874  0.1926550187897873   T   T   T
  0.3271280807536098  0.7467798857689960  0.1927392717676625   T   T   T
  0.9937765399796814  0.7467865390863678  0.1927170966779720   T   T   T
  0.6605167504712044  0.7468260373982893  0.1927327930235231   T   T   T
  0.9929531133128341  0.9980462363626874  0.0863695464686465   T   T   T
  0.3263445262729802  0.9980844310089808  0.0864440722274640   T   T   T
  0.6595517322477912  0.9980997004323034  0.0864281653460086   T   T   T
  0.9929199525364772  0.7480978185044191  0.0864052370185563   T   T   T
  0.3262849532673896  0.7480676417165312  0.0864064444180076   T   T   T
  0.6595592721075805  0.7480834650741682  0.0864009347883429   T   T   T
  0.1597172777870126  0.6233071726374757  0.1127774651221124   T   T   T
  0.4930419926803425  0.6232908793207034  0.1127850999364214   T   T   T
  0.8263740777498166  0.6233024686042893  0.1127772902919667   T   T   T
  0.1599115736033679  0.8732879794471977  0.1127771043702912   T   T   T
  0.4931031017784407  0.8732535817923802  0.1127808943521344   T   T   T
  0.8263494148687680  0.8732955062143587  0.1127747226377777   T   T   T
 
  0.00000000E+00  0.00000000E+00  0.00000000E+00
  0.00000000E+00  0.00000000E+00  0.00000000E+00
  0.00000000E+00  0.00000000E+00  0.00000000E+00
  0.00000000E+00  0.00000000E+00  0.00000000E+00
  0.00000000E+00  0.00000000E+00  0.00000000E+00
  0.00000000E+00  0.00000000E+00  0.00000000E+00
  0.00000000E+00  0.00000000E+00  0.00000000E+00
  0.00000000E+00  0.00000000E+00  0.00000000E+00
  0.00000000E+00  0.00000000E+00  0.00000000E+00
  0.00000000E+00  0.00000000E+00  0.00000000E+00
  0.00000000E+00  0.00000000E+00  0.00000000E+00
  0.00000000E+00  0.00000000E+00  0.00000000E+00
  0.00000000E+00  0.00000000E+00  0.00000000E+00
  0.00000000E+00  0.00000000E+00  0.00000000E+00
  0.00000000E+00  0.00000000E+00  0.00000000E+00
  0.00000000E+00  0.00000000E+00  0.00000000E+00
  0.00000000E+00  0.00000000E+00  0.00000000E+00
  0.00000000E+00  0.00000000E+00  0.00000000E+00
  0.00000000E+00  0.00000000E+00  0.00000000E+00
  0.00000000E+00  0.00000000E+00  0.00000000E+00
  0.00000000E+00  0.00000000E+00  0.00000000E+00
  0.00000000E+00  0.00000000E+00  0.00000000E+00
  0.00000000E+00  0.00000000E+00  0.00000000E+00
  0.00000000E+00  0.00000000E+00  0.00000000E+00
  0.00000000E+00  0.00000000E+00  0.00000000E+00
  0.00000000E+00  0.00000000E+00  0.00000000E+00
  0.00000000E+00  0.00000000E+00  0.00000000E+00
  0.00000000E+00  0.00000000E+00  0.00000000E+00
  0.00000000E+00  0.00000000E+00  0.00000000E+00
  0.00000000E+00  0.00000000E+00  0.00000000E+00
  0.00000000E+00  0.00000000E+00  0.00000000E+00
  0.00000000E+00  0.00000000E+00  0.00000000E+00
  0.00000000E+00  0.00000000E+00  0.00000000E+00
  0.00000000E+00  0.00000000E+00  0.00000000E+00
  0.00000000E+00  0.00000000E+00  0.00000000E+00
  0.00000000E+00  0.00000000E+00  0.00000000E+00
  0.00000000E+00  0.00000000E+00  0.00000000E+00
  0.00000000E+00  0.00000000E+00  0.00000000E+00
  0.00000000E+00  0.00000000E+00  0.00000000E+00
  0.00000000E+00  0.00000000E+00  0.00000000E+00
  0.00000000E+00  0.00000000E+00  0.00000000E+00
  0.00000000E+00  0.00000000E+00  0.00000000E+00
  0.00000000E+00  0.00000000E+00  0.00000000E+00
  0.00000000E+00  0.00000000E+00  0.00000000E+00
  0.00000000E+00  0.00000000E+00  0.00000000E+00
  0.00000000E+00  0.00000000E+00  0.00000000E+00
  0.00000000E+00  0.00000000E+00  0.00000000E+00
  0.00000000E+00  0.00000000E+00  0.00000000E+00
  0.00000000E+00  0.00000000E+00  0.00000000E+00
  0.00000000E+00  0.00000000E+00  0.00000000E+00
  0.00000000E+00  0.00000000E+00  0.00000000E+00
  0.00000000E+00  0.00000000E+00  0.00000000E+00
  0.00000000E+00  0.00000000E+00  0.00000000E+00
  0.00000000E+00  0.00000000E+00  0.00000000E+00
  0.00000000E+00  0.00000000E+00  0.00000000E+00
  0.00000000E+00  0.00000000E+00  0.00000000E+00
  0.00000000E+00  0.00000000E+00  0.00000000E+00
  0.00000000E+00  0.00000000E+00  0.00000000E+00
  0.00000000E+00  0.00000000E+00  0.00000000E+00
  0.00000000E+00  0.00000000E+00  0.00000000E+00
  0.00000000E+00  0.00000000E+00  0.00000000E+00
  0.00000000E+00  0.00000000E+00  0.00000000E+00
  0.00000000E+00  0.00000000E+00  0.00000000E+00
  0.00000000E+00  0.00000000E+00  0.00000000E+00
  0.00000000E+00  0.00000000E+00  0.00000000E+00
  0.00000000E+00  0.00000000E+00  0.00000000E+00
  0.00000000E+00  0.00000000E+00  0.00000000E+00
  0.00000000E+00  0.00000000E+00  0.00000000E+00
  0.00000000E+00  0.00000000E+00  0.00000000E+00
  0.00000000E+00  0.00000000E+00  0.00000000E+00
  0.00000000E+00  0.00000000E+00  0.00000000E+00
  0.00000000E+00  0.00000000E+00  0.00000000E+00
  0.00000000E+00  0.00000000E+00  0.00000000E+00
  0.00000000E+00  0.00000000E+00  0.00000000E+00
  0.00000000E+00  0.00000000E+00  0.00000000E+00
  0.00000000E+00  0.00000000E+00  0.00000000E+00
  0.00000000E+00  0.00000000E+00  0.00000000E+00
  0.00000000E+00  0.00000000E+00  0.00000000E+00
  0.00000000E+00  0.00000000E+00  0.00000000E+00
  0.00000000E+00  0.00000000E+00  0.00000000E+00
  0.00000000E+00  0.00000000E+00  0.00000000E+00
  0.00000000E+00  0.00000000E+00  0.00000000E+00
  0.00000000E+00  0.00000000E+00  0.00000000E+00
  0.00000000E+00  0.00000000E+00  0.00000000E+00
  0.00000000E+00  0.00000000E+00  0.00000000E+00
  0.00000000E+00  0.00000000E+00  0.00000000E+00
  0.00000000E+00  0.00000000E+00  0.00000000E+00
  0.00000000E+00  0.00000000E+00  0.00000000E+00
  0.00000000E+00  0.00000000E+00  0.00000000E+00
  0.00000000E+00  0.00000000E+00  0.00000000E+00
  0.00000000E+00  0.00000000E+00  0.00000000E+00
  0.00000000E+00  0.00000000E+00  0.00000000E+00
  0.00000000E+00  0.00000000E+00  0.00000000E+00
  0.00000000E+00  0.00000000E+00  0.00000000E+00
  0.00000000E+00  0.00000000E+00  0.00000000E+00
  0.00000000E+00  0.00000000E+00  0.00000000E+00
  0.00000000E+00  0.00000000E+00  0.00000000E+00
  0.00000000E+00  0.00000000E+00  0.00000000E+00
  0.00000000E+00  0.00000000E+00  0.00000000E+00
  0.00000000E+00  0.00000000E+00  0.00000000E+00
  0.00000000E+00  0.00000000E+00  0.00000000E+00
  0.00000000E+00  0.00000000E+00  0.00000000E+00
  0.00000000E+00  0.00000000E+00  0.00000000E+00
  0.00000000E+00  0.00000000E+00  0.00000000E+00
  0.00000000E+00  0.00000000E+00  0.00000000E+00
  0.00000000E+00  0.00000000E+00  0.00000000E+00
  0.00000000E+00  0.00000000E+00  0.00000000E+00
  0.00000000E+00  0.00000000E+00  0.00000000E+00
  0.00000000E+00  0.00000000E+00  0.00000000E+00
  0.00000000E+00  0.00000000E+00  0.00000000E+00
  0.00000000E+00  0.00000000E+00  0.00000000E+00
  0.00000000E+00  0.00000000E+00  0.00000000E+00
  0.00000000E+00  0.00000000E+00  0.00000000E+00
  0.00000000E+00  0.00000000E+00  0.00000000E+00
  0.00000000E+00  0.00000000E+00  0.00000000E+00
  0.00000000E+00  0.00000000E+00  0.00000000E+00
  0.00000000E+00  0.00000000E+00  0.00000000E+00
  0.00000000E+00  0.00000000E+00  0.00000000E+00
  0.00000000E+00  0.00000000E+00  0.00000000E+00
  0.00000000E+00  0.00000000E+00  0.00000000E+00
  0.00000000E+00  0.00000000E+00  0.00000000E+00
  0.00000000E+00  0.00000000E+00  0.00000000E+00
  0.00000000E+00  0.00000000E+00  0.00000000E+00
  0.00000000E+00  0.00000000E+00  0.00000000E+00
  0.00000000E+00  0.00000000E+00  0.00000000E+00
  0.00000000E+00  0.00000000E+00  0.00000000E+00
  0.00000000E+00  0.00000000E+00  0.00000000E+00
  0.00000000E+00  0.00000000E+00  0.00000000E+00
  0.00000000E+00  0.00000000E+00  0.00000000E+00
  0.00000000E+00  0.00000000E+00  0.00000000E+00
  0.00000000E+00  0.00000000E+00  0.00000000E+00
  0.00000000E+00  0.00000000E+00  0.00000000E+00
  0.00000000E+00  0.00000000E+00  0.00000000E+00
  0.00000000E+00  0.00000000E+00  0.00000000E+00
  0.00000000E+00  0.00000000E+00  0.00000000E+00
  0.00000000E+00  0.00000000E+00  0.00000000E+00
  0.00000000E+00  0.00000000E+00  0.00000000E+00
  0.00000000E+00  0.00000000E+00  0.00000000E+00
  0.00000000E+00  0.00000000E+00  0.00000000E+00
  0.00000000E+00  0.00000000E+00  0.00000000E+00
  0.00000000E+00  0.00000000E+00  0.00000000E+00
  0.00000000E+00  0.00000000E+00  0.00000000E+00
  0.00000000E+00  0.00000000E+00  0.00000000E+00
  0.00000000E+00  0.00000000E+00  0.00000000E+00
  0.00000000E+00  0.00000000E+00  0.00000000E+00
  0.00000000E+00  0.00000000E+00  0.00000000E+00
  0.00000000E+00  0.00000000E+00  0.00000000E+00
  0.00000000E+00  0.00000000E+00  0.00000000E+00
  0.00000000E+00  0.00000000E+00  0.00000000E+00
  0.00000000E+00  0.00000000E+00  0.00000000E+00
  0.00000000E+00  0.00000000E+00  0.00000000E+00
  0.00000000E+00  0.00000000E+00  0.00000000E+00
  0.00000000E+00  0.00000000E+00  0.00000000E+00
  0.00000000E+00  0.00000000E+00  0.00000000E+00
  0.00000000E+00  0.00000000E+00  0.00000000E+00
  0.00000000E+00  0.00000000E+00  0.00000000E+00
  0.00000000E+00  0.00000000E+00  0.00000000E+00
  0.00000000E+00  0.00000000E+00  0.00000000E+00
  0.00000000E+00  0.00000000E+00  0.00000000E+00
  0.00000000E+00  0.00000000E+00  0.00000000E+00
  0.00000000E+00  0.00000000E+00  0.00000000E+00
  0.00000000E+00  0.00000000E+00  0.00000000E+00
  0.00000000E+00  0.00000000E+00  0.00000000E+00
  0.00000000E+00  0.00000000E+00  0.00000000E+00
  0.00000000E+00  0.00000000E+00  0.00000000E+00
  0.00000000E+00  0.00000000E+00  0.00000000E+00
  0.00000000E+00  0.00000000E+00  0.00000000E+00
  0.00000000E+00  0.00000000E+00  0.00000000E+00
  0.00000000E+00  0.00000000E+00  0.00000000E+00
  0.00000000E+00  0.00000000E+00  0.00000000E+00
  0.00000000E+00  0.00000000E+00  0.00000000E+00
  0.00000000E+00  0.00000000E+00  0.00000000E+00
  0.00000000E+00  0.00000000E+00  0.00000000E+00
  0.00000000E+00  0.00000000E+00  0.00000000E+00
  0.00000000E+00  0.00000000E+00  0.00000000E+00
  0.00000000E+00  0.00000000E+00  0.00000000E+00
  0.00000000E+00  0.00000000E+00  0.00000000E+00
  0.00000000E+00  0.00000000E+00  0.00000000E+00
  0.00000000E+00  0.00000000E+00  0.00000000E+00
  0.00000000E+00  0.00000000E+00  0.00000000E+00
  0.00000000E+00  0.00000000E+00  0.00000000E+00
  0.00000000E+00  0.00000000E+00  0.00000000E+00
  0.00000000E+00  0.00000000E+00  0.00000000E+00
  0.00000000E+00  0.00000000E+00  0.00000000E+00
  0.00000000E+00  0.00000000E+00  0.00000000E+00
  0.00000000E+00  0.00000000E+00  0.00000000E+00
  0.00000000E+00  0.00000000E+00  0.00000000E+00
  0.00000000E+00  0.00000000E+00  0.00000000E+00
  0.00000000E+00  0.00000000E+00  0.00000000E+00
  0.00000000E+00  0.00000000E+00  0.00000000E+00
  0.00000000E+00  0.00000000E+00  0.00000000E+00
  0.00000000E+00  0.00000000E+00  0.00000000E+00
  0.00000000E+00  0.00000000E+00  0.00000000E+00
  0.00000000E+00  0.00000000E+00  0.00000000E+00
  0.00000000E+00  0.00000000E+00  0.00000000E+00
  0.00000000E+00  0.00000000E+00  0.00000000E+00
  0.00000000E+00  0.00000000E+00  0.00000000E+00
  0.00000000E+00  0.00000000E+00  0.00000000E+00
  0.00000000E+00  0.00000000E+00  0.00000000E+00
  0.00000000E+00  0.00000000E+00  0.00000000E+00
  0.00000000E+00  0.00000000E+00  0.00000000E+00
  0.00000000E+00  0.00000000E+00  0.00000000E+00
  0.00000000E+00  0.00000000E+00  0.00000000E+00
  0.00000000E+00  0.00000000E+00  0.00000000E+00
  0.00000000E+00  0.00000000E+00  0.00000000E+00
  0.00000000E+00  0.00000000E+00  0.00000000E+00
  0.00000000E+00  0.00000000E+00  0.00000000E+00
  0.00000000E+00  0.00000000E+00  0.00000000E+00
  0.00000000E+00  0.00000000E+00  0.00000000E+00
  0.00000000E+00  0.00000000E+00  0.00000000E+00
  0.00000000E+00  0.00000000E+00  0.00000000E+00
  0.00000000E+00  0.00000000E+00  0.00000000E+00
  0.00000000E+00  0.00000000E+00  0.00000000E+00
  0.00000000E+00  0.00000000E+00  0.00000000E+00
  0.00000000E+00  0.00000000E+00  0.00000000E+00
  0.00000000E+00  0.00000000E+00  0.00000000E+00
  0.00000000E+00  0.00000000E+00  0.00000000E+00
  0.00000000E+00  0.00000000E+00  0.00000000E+00
  0.00000000E+00  0.00000000E+00  0.00000000E+00
  0.00000000E+00  0.00000000E+00  0.00000000E+00
  0.00000000E+00  0.00000000E+00  0.00000000E+00
  0.00000000E+00  0.00000000E+00  0.00000000E+00
  0.00000000E+00  0.00000000E+00  0.00000000E+00
  0.00000000E+00  0.00000000E+00  0.00000000E+00
  0.00000000E+00  0.00000000E+00  0.00000000E+00
  0.00000000E+00  0.00000000E+00  0.00000000E+00
  0.00000000E+00  0.00000000E+00  0.00000000E+00
  0.00000000E+00  0.00000000E+00  0.00000000E+00
  0.00000000E+00  0.00000000E+00  0.00000000E+00
