C H O Si                                
   1.00000000000000     
     9.2874599999999994    0.0000000000000000    0.0000000000000000
     0.0000000000000000   17.5126199999999983    0.0000000000000000
     0.0000000000000000    0.0000000000000000   58.0000000000000000
   C    H    O    Si
    72    57    28    72
Selective dynamics
Direct
  0.9928712372667060  0.0630455115979188  0.0604989482135573   T   T   T
  0.3262335860968966  0.0630932554115344  0.0605929226351851   T   T   T
  0.6594187413997599  0.0630994191651972  0.0605712822894559   T   T   T
  0.9926428285889271  0.3131045339144168  0.0605060548808840   T   T   T
  0.3260077155018211  0.3130466163262133  0.0606012883162441   T   T   T
  0.6592816105803334  0.3130605927076022  0.0605627393862971   T   T   T
  0.1601620477548458  0.1857180602241587  0.1393973908191797   T   T   T
  0.4934461822734785  0.1859338970515269  0.1396383022845988   T   T   T
  0.8268892605728381  0.1856805956106840  0.1393165133353399   T   T   T
  0.1600617090571622  0.4357982965056645  0.1394305297101594   T   T   T
  0.4934361926704975  0.4357133805173373  0.1394805697814393   T   T   T
  0.8268053237506860  0.4358036529755958  0.1394173045548586   T   T   T
  0.3276489013338181  0.0610699153328860  0.1666882195124271   T   T   T
  0.6599126283209957  0.0610221966161908  0.1666322408411365   T   T   T
  0.9939894923565935  0.0604397308629699  0.1664066059850938   T   T   T
  0.3269587091866775  0.3109105868457518  0.1667358351619807   T   T   T
  0.6607673346572338  0.3109428375748879  0.1666322851633654   T   T   T
  0.9937757487386295  0.3108047072534695  0.1664620224021981   T   T   T
  0.1609368984389394  0.1872466713861790  0.1917347672938762   T   T   T
  0.4943842768044550  0.1898155256974143  0.1926938901866393   T   T   T
  0.8284202052629027  0.1867078273729746  0.1914773973905401   T   T   T
  0.1601646688450451  0.4382677958181264  0.1919123676862683   T   T   T
  0.4937553605556523  0.4379171690377915  0.1919644884730083   T   T   T
  0.8273717589668972  0.4383809763223122  0.1918725271078340   T   T   T
  0.1595779438141206  0.1858614050694956  0.0859064541539432   T   T   T
  0.4928998290916274  0.1859143804384465  0.0860220873594331   T   T   T
  0.8262824816943521  0.1858688460853208  0.0858678162212110   T   T   T
  0.1595897300948713  0.4358736675445393  0.0859311763257087   T   T   T
  0.4928935655149495  0.4358492242892494  0.0859512128439634   T   T   T
  0.8262341083018091  0.4358713626829543  0.0859205205546893   T   T   T
  0.3264075794183160  0.0608466507694188  0.1130818924773372   T   T   T
  0.6596405035229537  0.0608382991557864  0.1130662758899443   T   T   T
  0.9930513359014431  0.0608262700014963  0.1129835849699691   T   T   T
  0.3263422130210312  0.3107720687111388  0.1131026418869302   T   T   T
  0.6597557428028820  0.3108214032752887  0.1130613508593460   T   T   T
  0.9930604067506216  0.3108314164888997  0.1129906138652843   T   T   T
  0.9928634934640826  0.5630392978767478  0.0605345657981958   T   T   T
  0.3262083441216937  0.5630445485281859  0.0605553364871024   T   T   T
  0.6595281813735909  0.5630412092455263  0.0605518375006880   T   T   T
  0.9926271923999870  0.8130957942367845  0.0605350196473485   T   T   T
  0.3260065115037867  0.8130485374589378  0.0605422799606249   T   T   T
  0.6592761639813288  0.8130754372036234  0.0605351692914929   T   T   T
  0.1600937667695324  0.6858279742682191  0.1394216681799461   T   T   T
  0.4933374836309651  0.6858079009162937  0.1394268803038512   T   T   T
  0.8266510969263042  0.6858091686539934  0.1394244493746849   T   T   T
  0.1603923481931571  0.9358285905991748  0.1394311012394487   T   T   T
  0.4934005244279818  0.9357435219339949  0.1394337817067212   T   T   T
  0.8265324747242894  0.9358312051582077  0.1394276560643613   T   T   T
  0.3269207255438304  0.5609273046366162  0.1665574204780854   T   T   T
  0.6600318032295485  0.5609045332901708  0.1665496949829057   T   T   T
  0.9935179815984495  0.5610538707883275  0.1665086663370737   T   T   T
  0.3269375873627816  0.8108441944387794  0.1665642284307400   T   T   T
  0.6602241777441648  0.8108525455971339  0.1665517791332381   T   T   T
  0.9936079449187465  0.8108815329110611  0.1665458849289952   T   T   T
  0.1604799233125239  0.6880746226640042  0.1919396676976725   T   T   T
  0.4938651182723984  0.6881143937752024  0.1919573286024836   T   T   T
  0.8271207587968279  0.6880649292515861  0.1919250282445628   T   T   T
  0.1606715482437452  0.9380132111338065  0.1919394121238697   T   T   T
  0.4939299421324536  0.9380032794507449  0.1919606062707992   T   T   T
  0.8272166350029642  0.9379778191836015  0.1919099247061702   T   T   T
  0.1595711053274887  0.6858621223872898  0.0859219222356360   T   T   T
  0.4929328815566941  0.6858419346804461  0.0859248173008298   T   T   T
  0.8262408434360922  0.6858616445495221  0.0859216498841356   T   T   T
  0.1596371534344589  0.9358551789754327  0.0859219000022423   T   T   T
  0.4929077961301304  0.9358675434659889  0.0859324770246143   T   T   T
  0.8262007210598032  0.9358794962628084  0.0859198633630484   T   T   T
  0.3263264180743384  0.5608099302763151  0.1130470768958423   T   T   T
  0.6596279840154234  0.5608181174627570  0.1130431404057534   T   T   T
  0.9929864603469026  0.5608395306849846  0.1130246378489169   T   T   T
  0.3264017430451870  0.8108049100300622  0.1130311822300660   T   T   T
  0.6597140637008500  0.8108052823544472  0.1130260090268599   T   T   T
  0.9931026232406872  0.8108346633953999  0.1130416849374900   T   T   T
  0.0768154073739833  0.1770591415348338  0.0267976594918193   T   T   T
  0.4092620614442180  0.1771048878943742  0.0269632654011189   T   T   T
  0.7425757449253318  0.1770260304502233  0.0268314781048093   T   T   T
  0.0765989127950950  0.4271359298044360  0.0268103529427657   T   T   T
  0.4088899035715934  0.4270176315585934  0.0268958563530659   T   T   T
  0.7419624379184273  0.4270437806547767  0.0268600598492599   T   T   T
  0.3241396578355831  0.0269185568878250  0.0450526769999186   T   T   T
  0.6566368327658509  0.0269118004298760  0.0450351208437017   T   T   T
  0.9905536050086642  0.0269229408030454  0.0449474084875385   T   T   T
  0.3235271853758467  0.2768252279422674  0.0450722795098744   T   T   T
  0.6567498882657841  0.2768940789434018  0.0450218349722236   T   T   T
  0.9901958176857204  0.2770176837090846  0.0449465919599906   T   T   T
  0.8292933016631888  0.4026255048378285  0.2074758420291879   T   T   T
  0.8308241468695120  0.1507395348167602  0.2070579273650014   T   T   T
  0.1623186429255360  0.1512755646662190  0.2073149922235604   T   T   T
  0.4973370662098960  0.1531126491374067  0.2081219576146720   T   T   T
  0.1623735244630972  0.4021113554062112  0.2074526813748262   T   T   T
  0.4944279133334585  0.4018268483740264  0.2075271306247149   T   T   T
  0.0774861850819797  0.0519786962075457  0.2256582621760663   T   T   T
  0.4117757244353680  0.0515214455071958  0.2258073539890361   T   T   T
  0.7450164247027794  0.0518123145582759  0.2257204375991911   T   T   T
  0.0761140969321066  0.3008130213103414  0.2252776904199370   T   T   T
  0.3768974915768181  0.3098543216069060  0.2290349412126400   T   T   T
  0.7816666243042124  0.2948518284594069  0.2231934847350373   T   T   T
  0.5458524581320759  0.3049362280441092  0.2742712391026727   T   T   T
  0.4923474452499732  0.2373826137507338  0.2935042902003656   T   T   T
  0.5718026843912221  0.3196259795686540  0.3032238374023307   T   T   T
  0.3145992591167352  0.1942199639129858  0.3097275640092432   T   T   T
  0.4223532561896367  0.1301590166582265  0.3023015608950538   T   T   T
  0.6509315487814374  0.3660940420349498  0.3334593091620424   T   T   T
  0.4849450180671726  0.3775849844044720  0.3307485611686789   T   T   T
  0.5158223316378693  0.3954758130293240  0.2523162137845466   T   T   T
  0.5843887308203283  0.3239552694505371  0.2390481360364256   T   T   T
  0.0763985808432621  0.6771144642276846  0.0268550802452326   T   T   T
  0.4094773205823214  0.6770630793664596  0.0268781236689207   T   T   T
  0.7426946868842740  0.6770556525051066  0.0268788219871582   T   T   T
  0.0761126264618307  0.9270929456466434  0.0268332008307742   T   T   T
  0.4089464375977139  0.9270351881358581  0.0268681415434340   T   T   T
  0.7423127000365354  0.9270934649214542  0.0268552534448559   T   T   T
  0.3237675967097859  0.5268634961624074  0.0450177087018240   T   T   T
  0.6571452748158464  0.5268682983359283  0.0450126009997146   T   T   T
  0.9904216031589141  0.5268759077262977  0.0449938750602078   T   T   T
  0.3235593400609046  0.7769146364569375  0.0449954036349977   T   T   T
  0.6567754041784072  0.7769348066681392  0.0449887035728305   T   T   T
  0.9901626897988950  0.7769368766447995  0.0449918382631169   T   T   T
  0.8297247226964443  0.9019038891874742  0.2074687240376121   T   T   T
  0.8296904461299195  0.6519404495607832  0.2074711882899625   T   T   T
  0.1629222413977897  0.6519212869066842  0.2074810544152677   T   T   T
  0.4964656537350657  0.6520096765404161  0.2075070267159616   T   T   T
  0.1630682993920959  0.9018988639702177  0.2074898322603151   T   T   T
  0.4965607154538405  0.9018374242296978  0.2074994926450972   T   T   T
  0.0768534183728398  0.5529596196096811  0.2256705960026933   T   T   T
  0.4110023055873061  0.5535179156497730  0.2255021271514382   T   T   T
  0.7442165888466524  0.5528856898498256  0.2255902004891699   T   T   T
  0.0776945659823467  0.8021219400084989  0.2256831297282897   T   T   T
  0.4105226477210187  0.8023798133244766  0.2257580523601966   T   T   T
  0.7455016039099586  0.8019179047155138  0.2256311847498115   T   T   T
  0.1695528588359569  0.1672889940417490  0.0341901453606658   T   T   T
  0.5022710195587159  0.1677089630622768  0.0343131200765213   T   T   T
  0.8356292432472940  0.1673456098377971  0.0341472780216637   T   T   T
  0.1693195867813637  0.4174793644153795  0.0342230681932824   T   T   T
  0.5019306428993674  0.4175399525040409  0.0342281156511814   T   T   T
  0.8349720984650043  0.4175816517082520  0.0341933849701187   T   T   T
  0.3191708371464519  0.0423130834894515  0.2183471735799230   T   T   T
  0.6524305559483721  0.0424050161713172  0.2182839200538274   T   T   T
  0.9852043705449955  0.0424657870585504  0.2181226117154973   T   T   T
  0.3009801089045502  0.2929460388610952  0.2183205396966416   T   T   T
  0.6796481490856424  0.2922802621923173  0.2183845431049852   T   T   T
  0.9830685485724530  0.2907085609720755  0.2179279904283310   T   T   T
  0.5700851934036794  0.2792956799841811  0.2898976202486165   T   T   T
  0.3811128419823658  0.1789402637844123  0.2975402662374973   T   T   T
  0.5755300696402869  0.3770056653388523  0.3222120393120058   T   T   T
  0.5095153900524333  0.3399988482414399  0.2507921989473424   T   T   T
  0.1692665470831589  0.6674143203529292  0.0342176272058030   T   T   T
  0.5024656177111511  0.6674328846490557  0.0342098035840809   T   T   T
  0.8356699504179139  0.6674833569669492  0.0342122987587650   T   T   T
  0.1689807410539474  0.9175393653085541  0.0342097524096418   T   T   T
  0.5019646667041251  0.9175735347427445  0.0342135694399415   T   T   T
  0.8352687469940354  0.9176282361685124  0.0342118405382785   T   T   T
  0.3185188698975149  0.5424516725708458  0.2182386423695159   T   T   T
  0.6517667732767185  0.5425147185078240  0.2182132095994630   T   T   T
  0.9847134505891315  0.5426285437023852  0.2182039395273165   T   T   T
  0.3183605418123031  0.7924724256494093  0.2182405704828413   T   T   T
  0.6527189366479091  0.7926712300595739  0.2182380760871812   T   T   T
  0.9852233281333979  0.7924969490320933  0.2182233567142030   T   T   T
  0.4929507616751881  0.1218148865308132  0.0598110028655177   T   T   T
  0.8262918786502316  0.1217293951756687  0.0596830396274226   T   T   T
  0.1595467226995890  0.3717518476125609  0.0597436615888724   T   T   T
  0.4927619339675278  0.3717553472119930  0.0597495942204294   T   T   T
  0.8260554882328917  0.3717846044160329  0.0597151450908390   T   T   T
  0.1596866163192476  0.1217160342896754  0.0597265706686723   T   T   T
  0.9934794556412844  0.4984009155806130  0.1396702018326716   T   T   T
  0.3267657022659712  0.4983457484909173  0.1396926055653094   T   T   T
  0.6601002290944330  0.4983401369474628  0.1396869425465252   T   T   T
  0.9935680243531003  0.2482419548960665  0.1395851994466404   T   T   T
  0.3266595659151305  0.2483912020317828  0.1398074530104782   T   T   T
  0.6603625797316550  0.2482881787422714  0.1396862215860294   T   T   T
  0.1605343328958829  0.1226629196501328  0.1659345969746750   T   T   T
  0.4937516390469039  0.1238417018951906  0.1664202344542020   T   T   T
  0.8274893538038187  0.1222539706613980  0.1657625925517039   T   T   T
  0.1602948020449884  0.3731875758194803  0.1660591929069078   T   T   T
  0.4935813037674085  0.3729388263522181  0.1660819023141726   T   T   T
  0.8273714414574161  0.3732503883932670  0.1660405192619953   T   T   T
  0.3268557912643723  0.4968234210558363  0.1927106262652791   T   T   T
  0.6605369484329072  0.4968249122918459  0.1927009828811194   T   T   T
  0.9937941291454923  0.4970671282534179  0.1926778970006352   T   T   T
  0.3253978135256482  0.2475646075129271  0.1931778622506699   T   T   T
  0.9944682430578525  0.2455343298825388  0.1922857633733789   T   T   T
  0.6637855255020939  0.2463619555065653  0.1925827957359834   T   T   T
  0.9929960568748539  0.4980550367125515  0.0864190885263381   T   T   T
  0.3263186369702986  0.4980445369736375  0.0864380266111589   T   T   T
  0.6596255243287887  0.4980440659125276  0.0864344430081025   T   T   T
  0.9929816882026703  0.2480468548863671  0.0863836526767269   T   T   T
  0.3262752642968395  0.2480468522901178  0.0864819220774380   T   T   T
  0.6596560425865842  0.2480365497452054  0.0864393565365556   T   T   T
  0.1596791192345306  0.1233215477598376  0.1127499972410431   T   T   T
  0.4929630006740812  0.1233705599045207  0.1129065894322429   T   T   T
  0.8263582173778623  0.1232811586516347  0.1126972980979023   T   T   T
  0.1596854078373643  0.3733349810334705  0.1127839725654556   T   T   T
  0.4929644935468854  0.3733067123995279  0.1128071439549956   T   T   T
  0.8264017460602595  0.3733394414481655  0.1127684136324898   T   T   T
  0.4929957583999374  0.6217168943791017  0.0597391198731375   T   T   T
  0.8263107918049954  0.6217347399869388  0.0597357031226866   T   T   T
  0.1595196814011682  0.8717454005930425  0.0597275655108653   T   T   T
  0.4927668867499154  0.8717744896511863  0.0597337357670342   T   T   T
  0.8260621538099444  0.8717832006719841  0.0597231808036563   T   T   T
  0.1596704355326022  0.6217232614406414  0.0597380549830320   T   T   T
  0.9936003711971479  0.9980931262566979  0.1395939908865405   T   T   T
  0.3271801068117459  0.9984186078110704  0.1397372263693795   T   T   T
  0.6597445810274044  0.9983869645717971  0.1397193466526753   T   T   T
  0.9934479635885975  0.7483209950330996  0.1396820003429259   T   T   T
  0.3267855316671563  0.7483473707889454  0.1396810151264692   T   T   T
  0.6600731423894530  0.7483303501551585  0.1396785511716164   T   T   T
  0.1602259692106854  0.6231708637248035  0.1660430249989744   T   T   T
  0.4934934188814757  0.6231666198879414  0.1660563371464329   T   T   T
  0.8267890536796266  0.6231417671060947  0.1660416020805421   T   T   T
  0.1603643872766857  0.8730507766933021  0.1660506240191252   T   T   T
  0.4935979348153824  0.8730397670039542  0.1660640471703275   T   T   T
  0.8268837119511877  0.8730226955591899  0.1660377649098983   T   T   T
  0.3273082842265231  0.9966677948527858  0.1928097076481681   T   T   T
  0.6606175454494295  0.9966436723716577  0.1927634011878402   T   T   T
  0.9939193442679973  0.9965414591382741  0.1926450481636169   T   T   T
  0.3271335343141837  0.7467439325014644  0.1927395634883851   T   T   T
  0.9937830310917630  0.7467287354203130  0.1927154757338458   T   T   T
  0.6605318220359341  0.7467938996533147  0.1927386954988057   T   T   T
  0.9930197265369579  0.9980204551256801  0.0863811613734636   T   T   T
  0.3263760089343421  0.9980452569257494  0.0864560940931493   T   T   T
  0.6595719804090578  0.9980434018817285  0.0864452052736844   T   T   T
  0.9929534021181220  0.7480614079309662  0.0864211130447768   T   T   T
  0.3263268469001266  0.7480257250945679  0.0864202387638832   T   T   T
  0.6596226395528875  0.7480408247025094  0.0864158433628412   T   T   T
  0.1596029150736935  0.6233512852130094  0.1127817123636231   T   T   T
  0.4929230706635953  0.6233345420182387  0.1127865132231196   T   T   T
  0.8262574809493700  0.6233472727547390  0.1127799640532753   T   T   T
  0.1598299025828055  0.8733283966003913  0.1127809657905850   T   T   T
  0.4930168725770996  0.8732944928468416  0.1127805438379776   T   T   T
  0.8262846804453072  0.8733297197479233  0.1127765773899785   T   T   T
 
  0.00000000E+00  0.00000000E+00  0.00000000E+00
  0.00000000E+00  0.00000000E+00  0.00000000E+00
  0.00000000E+00  0.00000000E+00  0.00000000E+00
  0.00000000E+00  0.00000000E+00  0.00000000E+00
  0.00000000E+00  0.00000000E+00  0.00000000E+00
  0.00000000E+00  0.00000000E+00  0.00000000E+00
  0.00000000E+00  0.00000000E+00  0.00000000E+00
  0.00000000E+00  0.00000000E+00  0.00000000E+00
  0.00000000E+00  0.00000000E+00  0.00000000E+00
  0.00000000E+00  0.00000000E+00  0.00000000E+00
  0.00000000E+00  0.00000000E+00  0.00000000E+00
  0.00000000E+00  0.00000000E+00  0.00000000E+00
  0.00000000E+00  0.00000000E+00  0.00000000E+00
  0.00000000E+00  0.00000000E+00  0.00000000E+00
  0.00000000E+00  0.00000000E+00  0.00000000E+00
  0.00000000E+00  0.00000000E+00  0.00000000E+00
  0.00000000E+00  0.00000000E+00  0.00000000E+00
  0.00000000E+00  0.00000000E+00  0.00000000E+00
  0.00000000E+00  0.00000000E+00  0.00000000E+00
  0.00000000E+00  0.00000000E+00  0.00000000E+00
  0.00000000E+00  0.00000000E+00  0.00000000E+00
  0.00000000E+00  0.00000000E+00  0.00000000E+00
  0.00000000E+00  0.00000000E+00  0.00000000E+00
  0.00000000E+00  0.00000000E+00  0.00000000E+00
  0.00000000E+00  0.00000000E+00  0.00000000E+00
  0.00000000E+00  0.00000000E+00  0.00000000E+00
  0.00000000E+00  0.00000000E+00  0.00000000E+00
  0.00000000E+00  0.00000000E+00  0.00000000E+00
  0.00000000E+00  0.00000000E+00  0.00000000E+00
  0.00000000E+00  0.00000000E+00  0.00000000E+00
  0.00000000E+00  0.00000000E+00  0.00000000E+00
  0.00000000E+00  0.00000000E+00  0.00000000E+00
  0.00000000E+00  0.00000000E+00  0.00000000E+00
  0.00000000E+00  0.00000000E+00  0.00000000E+00
  0.00000000E+00  0.00000000E+00  0.00000000E+00
  0.00000000E+00  0.00000000E+00  0.00000000E+00
  0.00000000E+00  0.00000000E+00  0.00000000E+00
  0.00000000E+00  0.00000000E+00  0.00000000E+00
  0.00000000E+00  0.00000000E+00  0.00000000E+00
  0.00000000E+00  0.00000000E+00  0.00000000E+00
  0.00000000E+00  0.00000000E+00  0.00000000E+00
  0.00000000E+00  0.00000000E+00  0.00000000E+00
  0.00000000E+00  0.00000000E+00  0.00000000E+00
  0.00000000E+00  0.00000000E+00  0.00000000E+00
  0.00000000E+00  0.00000000E+00  0.00000000E+00
  0.00000000E+00  0.00000000E+00  0.00000000E+00
  0.00000000E+00  0.00000000E+00  0.00000000E+00
  0.00000000E+00  0.00000000E+00  0.00000000E+00
  0.00000000E+00  0.00000000E+00  0.00000000E+00
  0.00000000E+00  0.00000000E+00  0.00000000E+00
  0.00000000E+00  0.00000000E+00  0.00000000E+00
  0.00000000E+00  0.00000000E+00  0.00000000E+00
  0.00000000E+00  0.00000000E+00  0.00000000E+00
  0.00000000E+00  0.00000000E+00  0.00000000E+00
  0.00000000E+00  0.00000000E+00  0.00000000E+00
  0.00000000E+00  0.00000000E+00  0.00000000E+00
  0.00000000E+00  0.00000000E+00  0.00000000E+00
  0.00000000E+00  0.00000000E+00  0.00000000E+00
  0.00000000E+00  0.00000000E+00  0.00000000E+00
  0.00000000E+00  0.00000000E+00  0.00000000E+00
  0.00000000E+00  0.00000000E+00  0.00000000E+00
  0.00000000E+00  0.00000000E+00  0.00000000E+00
  0.00000000E+00  0.00000000E+00  0.00000000E+00
  0.00000000E+00  0.00000000E+00  0.00000000E+00
  0.00000000E+00  0.00000000E+00  0.00000000E+00
  0.00000000E+00  0.00000000E+00  0.00000000E+00
  0.00000000E+00  0.00000000E+00  0.00000000E+00
  0.00000000E+00  0.00000000E+00  0.00000000E+00
  0.00000000E+00  0.00000000E+00  0.00000000E+00
  0.00000000E+00  0.00000000E+00  0.00000000E+00
  0.00000000E+00  0.00000000E+00  0.00000000E+00
  0.00000000E+00  0.00000000E+00  0.00000000E+00
  0.00000000E+00  0.00000000E+00  0.00000000E+00
  0.00000000E+00  0.00000000E+00  0.00000000E+00
  0.00000000E+00  0.00000000E+00  0.00000000E+00
  0.00000000E+00  0.00000000E+00  0.00000000E+00
  0.00000000E+00  0.00000000E+00  0.00000000E+00
  0.00000000E+00  0.00000000E+00  0.00000000E+00
  0.00000000E+00  0.00000000E+00  0.00000000E+00
  0.00000000E+00  0.00000000E+00  0.00000000E+00
  0.00000000E+00  0.00000000E+00  0.00000000E+00
  0.00000000E+00  0.00000000E+00  0.00000000E+00
  0.00000000E+00  0.00000000E+00  0.00000000E+00
  0.00000000E+00  0.00000000E+00  0.00000000E+00
  0.00000000E+00  0.00000000E+00  0.00000000E+00
  0.00000000E+00  0.00000000E+00  0.00000000E+00
  0.00000000E+00  0.00000000E+00  0.00000000E+00
  0.00000000E+00  0.00000000E+00  0.00000000E+00
  0.00000000E+00  0.00000000E+00  0.00000000E+00
  0.00000000E+00  0.00000000E+00  0.00000000E+00
  0.00000000E+00  0.00000000E+00  0.00000000E+00
  0.00000000E+00  0.00000000E+00  0.00000000E+00
  0.00000000E+00  0.00000000E+00  0.00000000E+00
  0.00000000E+00  0.00000000E+00  0.00000000E+00
  0.00000000E+00  0.00000000E+00  0.00000000E+00
  0.00000000E+00  0.00000000E+00  0.00000000E+00
  0.00000000E+00  0.00000000E+00  0.00000000E+00
  0.00000000E+00  0.00000000E+00  0.00000000E+00
  0.00000000E+00  0.00000000E+00  0.00000000E+00
  0.00000000E+00  0.00000000E+00  0.00000000E+00
  0.00000000E+00  0.00000000E+00  0.00000000E+00
  0.00000000E+00  0.00000000E+00  0.00000000E+00
  0.00000000E+00  0.00000000E+00  0.00000000E+00
  0.00000000E+00  0.00000000E+00  0.00000000E+00
  0.00000000E+00  0.00000000E+00  0.00000000E+00
  0.00000000E+00  0.00000000E+00  0.00000000E+00
  0.00000000E+00  0.00000000E+00  0.00000000E+00
  0.00000000E+00  0.00000000E+00  0.00000000E+00
  0.00000000E+00  0.00000000E+00  0.00000000E+00
  0.00000000E+00  0.00000000E+00  0.00000000E+00
  0.00000000E+00  0.00000000E+00  0.00000000E+00
  0.00000000E+00  0.00000000E+00  0.00000000E+00
  0.00000000E+00  0.00000000E+00  0.00000000E+00
  0.00000000E+00  0.00000000E+00  0.00000000E+00
  0.00000000E+00  0.00000000E+00  0.00000000E+00
  0.00000000E+00  0.00000000E+00  0.00000000E+00
  0.00000000E+00  0.00000000E+00  0.00000000E+00
  0.00000000E+00  0.00000000E+00  0.00000000E+00
  0.00000000E+00  0.00000000E+00  0.00000000E+00
  0.00000000E+00  0.00000000E+00  0.00000000E+00
  0.00000000E+00  0.00000000E+00  0.00000000E+00
  0.00000000E+00  0.00000000E+00  0.00000000E+00
  0.00000000E+00  0.00000000E+00  0.00000000E+00
  0.00000000E+00  0.00000000E+00  0.00000000E+00
  0.00000000E+00  0.00000000E+00  0.00000000E+00
  0.00000000E+00  0.00000000E+00  0.00000000E+00
  0.00000000E+00  0.00000000E+00  0.00000000E+00
  0.00000000E+00  0.00000000E+00  0.00000000E+00
  0.00000000E+00  0.00000000E+00  0.00000000E+00
  0.00000000E+00  0.00000000E+00  0.00000000E+00
  0.00000000E+00  0.00000000E+00  0.00000000E+00
  0.00000000E+00  0.00000000E+00  0.00000000E+00
  0.00000000E+00  0.00000000E+00  0.00000000E+00
  0.00000000E+00  0.00000000E+00  0.00000000E+00
  0.00000000E+00  0.00000000E+00  0.00000000E+00
  0.00000000E+00  0.00000000E+00  0.00000000E+00
  0.00000000E+00  0.00000000E+00  0.00000000E+00
  0.00000000E+00  0.00000000E+00  0.00000000E+00
  0.00000000E+00  0.00000000E+00  0.00000000E+00
  0.00000000E+00  0.00000000E+00  0.00000000E+00
  0.00000000E+00  0.00000000E+00  0.00000000E+00
  0.00000000E+00  0.00000000E+00  0.00000000E+00
  0.00000000E+00  0.00000000E+00  0.00000000E+00
  0.00000000E+00  0.00000000E+00  0.00000000E+00
  0.00000000E+00  0.00000000E+00  0.00000000E+00
  0.00000000E+00  0.00000000E+00  0.00000000E+00
  0.00000000E+00  0.00000000E+00  0.00000000E+00
  0.00000000E+00  0.00000000E+00  0.00000000E+00
  0.00000000E+00  0.00000000E+00  0.00000000E+00
  0.00000000E+00  0.00000000E+00  0.00000000E+00
  0.00000000E+00  0.00000000E+00  0.00000000E+00
  0.00000000E+00  0.00000000E+00  0.00000000E+00
  0.00000000E+00  0.00000000E+00  0.00000000E+00
  0.00000000E+00  0.00000000E+00  0.00000000E+00
  0.00000000E+00  0.00000000E+00  0.00000000E+00
  0.00000000E+00  0.00000000E+00  0.00000000E+00
  0.00000000E+00  0.00000000E+00  0.00000000E+00
  0.00000000E+00  0.00000000E+00  0.00000000E+00
  0.00000000E+00  0.00000000E+00  0.00000000E+00
  0.00000000E+00  0.00000000E+00  0.00000000E+00
  0.00000000E+00  0.00000000E+00  0.00000000E+00
  0.00000000E+00  0.00000000E+00  0.00000000E+00
  0.00000000E+00  0.00000000E+00  0.00000000E+00
  0.00000000E+00  0.00000000E+00  0.00000000E+00
  0.00000000E+00  0.00000000E+00  0.00000000E+00
  0.00000000E+00  0.00000000E+00  0.00000000E+00
  0.00000000E+00  0.00000000E+00  0.00000000E+00
  0.00000000E+00  0.00000000E+00  0.00000000E+00
  0.00000000E+00  0.00000000E+00  0.00000000E+00
  0.00000000E+00  0.00000000E+00  0.00000000E+00
  0.00000000E+00  0.00000000E+00  0.00000000E+00
  0.00000000E+00  0.00000000E+00  0.00000000E+00
  0.00000000E+00  0.00000000E+00  0.00000000E+00
  0.00000000E+00  0.00000000E+00  0.00000000E+00
  0.00000000E+00  0.00000000E+00  0.00000000E+00
  0.00000000E+00  0.00000000E+00  0.00000000E+00
  0.00000000E+00  0.00000000E+00  0.00000000E+00
  0.00000000E+00  0.00000000E+00  0.00000000E+00
  0.00000000E+00  0.00000000E+00  0.00000000E+00
  0.00000000E+00  0.00000000E+00  0.00000000E+00
  0.00000000E+00  0.00000000E+00  0.00000000E+00
  0.00000000E+00  0.00000000E+00  0.00000000E+00
  0.00000000E+00  0.00000000E+00  0.00000000E+00
  0.00000000E+00  0.00000000E+00  0.00000000E+00
  0.00000000E+00  0.00000000E+00  0.00000000E+00
  0.00000000E+00  0.00000000E+00  0.00000000E+00
  0.00000000E+00  0.00000000E+00  0.00000000E+00
  0.00000000E+00  0.00000000E+00  0.00000000E+00
  0.00000000E+00  0.00000000E+00  0.00000000E+00
  0.00000000E+00  0.00000000E+00  0.00000000E+00
  0.00000000E+00  0.00000000E+00  0.00000000E+00
  0.00000000E+00  0.00000000E+00  0.00000000E+00
  0.00000000E+00  0.00000000E+00  0.00000000E+00
  0.00000000E+00  0.00000000E+00  0.00000000E+00
  0.00000000E+00  0.00000000E+00  0.00000000E+00
  0.00000000E+00  0.00000000E+00  0.00000000E+00
  0.00000000E+00  0.00000000E+00  0.00000000E+00
  0.00000000E+00  0.00000000E+00  0.00000000E+00
  0.00000000E+00  0.00000000E+00  0.00000000E+00
  0.00000000E+00  0.00000000E+00  0.00000000E+00
  0.00000000E+00  0.00000000E+00  0.00000000E+00
  0.00000000E+00  0.00000000E+00  0.00000000E+00
  0.00000000E+00  0.00000000E+00  0.00000000E+00
  0.00000000E+00  0.00000000E+00  0.00000000E+00
  0.00000000E+00  0.00000000E+00  0.00000000E+00
  0.00000000E+00  0.00000000E+00  0.00000000E+00
  0.00000000E+00  0.00000000E+00  0.00000000E+00
  0.00000000E+00  0.00000000E+00  0.00000000E+00
  0.00000000E+00  0.00000000E+00  0.00000000E+00
  0.00000000E+00  0.00000000E+00  0.00000000E+00
  0.00000000E+00  0.00000000E+00  0.00000000E+00
  0.00000000E+00  0.00000000E+00  0.00000000E+00
  0.00000000E+00  0.00000000E+00  0.00000000E+00
  0.00000000E+00  0.00000000E+00  0.00000000E+00
  0.00000000E+00  0.00000000E+00  0.00000000E+00
  0.00000000E+00  0.00000000E+00  0.00000000E+00
  0.00000000E+00  0.00000000E+00  0.00000000E+00
  0.00000000E+00  0.00000000E+00  0.00000000E+00
  0.00000000E+00  0.00000000E+00  0.00000000E+00
  0.00000000E+00  0.00000000E+00  0.00000000E+00
  0.00000000E+00  0.00000000E+00  0.00000000E+00
  0.00000000E+00  0.00000000E+00  0.00000000E+00
  0.00000000E+00  0.00000000E+00  0.00000000E+00
  0.00000000E+00  0.00000000E+00  0.00000000E+00
  0.00000000E+00  0.00000000E+00  0.00000000E+00
  0.00000000E+00  0.00000000E+00  0.00000000E+00
  0.00000000E+00  0.00000000E+00  0.00000000E+00
  0.00000000E+00  0.00000000E+00  0.00000000E+00
  0.00000000E+00  0.00000000E+00  0.00000000E+00
