C H O Si
1.0
  9.287460000000   0.000000000000   0.000000000000
  0.000000000000   8.756300000000   0.000000000000
  0.000000000000   0.000000000000  90.000000000000
C H O Si
 36  33  16  36
Selective dynamics
Direct
  0.001144704573   0.135712059220   0.423277732184  T T T
  0.001122250133   0.635816488586   0.423288468872  T T T
  0.334548013699   0.135811921177   0.423338695606  T T T
  0.334477541628   0.635716106097   0.423343374873  T T T
  0.667594516068   0.135739727484   0.423352174049  T T T
  0.667632521952   0.635631123576   0.423345401434  T T T
  0.167732609218   0.381554164674   0.439663696703  T T T
  0.167776687478   0.881573145565   0.439684780304  T T T
  0.501046360208   0.381581605042   0.439774575196  T T T
  0.500999053843   0.881533462618   0.439725688113  T T T
  0.834384627182   0.381478093937   0.439647539213  T T T
  0.834307453719   0.881525677559   0.439669627669  T T T
  0.000951659947   0.131196265514   0.457123548631  T T T
  0.000944877954   0.631445916897   0.457134577969  T T T
  0.334417925839   0.131372462526   0.457200797052  T T T
  0.334358998882   0.631269171145   0.457212980650  T T T
  0.667419238699   0.131363665201   0.457214183147  T T T
  0.667513583502   0.631341234677   0.457191998692  T T T
  0.167580925560   0.381187270100   0.474140110899  T T T
  0.167856779254   0.881354001971   0.474183246932  T T T
  0.500826297991   0.381556618743   0.474335761634  T T T
  0.500863537996   0.881018887834   0.474230099319  T T T
  0.834170859303   0.381074599763   0.474104982369  T T T
  0.833961609664   0.881402021499   0.474168612219  T T T
  0.001015345049   0.130877473313   0.491529553240  T T T
  0.000978663198   0.631436713810   0.491581587285  T T T
  0.334765911689   0.132176481897   0.491747757974  T T T
  0.333958393175   0.631466817261   0.491782231080  T T T
  0.666766654997   0.131749879888   0.491784248971  T T T
  0.667794247595   0.631678191458   0.491721067135  T T T
  0.167275630511   0.383659027941   0.507876361478  T T T
  0.166791298816   0.886078252856   0.508027426766  T T T
  0.501021288314   0.389570883454   0.508600154044  T T T
  0.500335209705   0.884992606548   0.508055859423  T T T
  0.835062074402   0.382804861169   0.507740941932  T T T
  0.834393101019   0.885704796142   0.507961049753  T T T
  0.003668192397   0.063541707695   0.413252514720  T T T
  0.003603828934   0.563673763333   0.413261917704  T T T
  0.337318072912   0.063543268928   0.413322678791  T T T
  0.337076815940   0.563350245192   0.413332464354  T T T
  0.669589405748   0.063357306250   0.413341041241  T T T
  0.669866450253   0.563283323225   0.413333275567  T T T
  0.168529993424   0.311722668807   0.517910547637  T T T
  0.168426320575   0.813427683225   0.518009782986  T T T
  0.503912379883   0.315653453077   0.518502856271  T T T
  0.499983018684   0.812025549858   0.518022513692  T T T
  0.838195723986   0.311119486430   0.517792873655  T T T
  0.837755702570   0.814264181985   0.518008557867  T T T
  0.084829471219   0.112397829887   0.529494252308  T T T
  0.085019572067   0.607396952281   0.529236964373  T T T
  0.420641243901   0.117521992219   0.529164038924  T T T
  0.381917831187   0.633118758741   0.531376387648  T T T
  0.755435152392   0.111156029884   0.529355324036  T T T
  0.793708076563   0.597020057449   0.527912406955  T T T
  0.254322161627   0.359031692649   0.401685641723  T T T
  0.254357492157   0.858916220730   0.401698792276  T T T
  0.587205408913   0.359052679697   0.401752459995  T T T
  0.587101062104   0.858790565332   0.401707201448  T T T
  0.919562431829   0.358833676828   0.401618731576  T T T
  0.919536303311   0.858970556175   0.401643927290  T T T
  0.549182373567   0.620193281409   0.559005671323  T T T
  0.493003430890   0.477007970227   0.571241426260  T T T
  0.571161151223   0.635751291819   0.577947517042  T T T
  0.311627817620   0.385854211677   0.582783346949  T T T
  0.417785400956   0.253927831954   0.578610228774  T T T
  0.644455454371   0.738671125273   0.598381268424  T T T
  0.479206338085   0.762660340550   0.595697353803  T T T
  0.538368344698   0.809084756068   0.545511548832  T T T
  0.600305767343   0.658555090788   0.536964021025  T T T
  0.160247472939   0.345142119544   0.406356130280  T T T
  0.160308247637   0.845242927232   0.406380788561  T T T
  0.493280239074   0.345903502581   0.406475986832  T T T
  0.493153875237   0.845364178167   0.406418601502  T T T
  0.825792192450   0.344765278364   0.406343409282  T T T
  0.825755988068   0.844927613085   0.406367823309  T T T
 -0.009109676383   0.094810203339   0.524922012634  T T T
 -0.010222226160   0.590683026754   0.524811499145  T T T
  0.325871318254   0.092586289558   0.525130334922  T T T
  0.304372164023   0.593902684687   0.525077801908  T T T
  0.659713893705   0.089262034859   0.525333576207  T T T
  0.690261041945   0.593100986465   0.525170557016  T T T
  0.568586333673   0.560352164230   0.569133661350  T T T
  0.379470956408   0.351894866808   0.575068309299  T T T
  0.572811509220   0.756264543525   0.590530004230  T T T
  0.528660034116   0.698242400268   0.545067255629  T T T
  0.167747816361   0.253084226222   0.422812653460  T T T
  0.167768737799   0.753093157894   0.422832284483  T T T
  0.500966263148   0.253244218324   0.422903091856  T T T
  0.500946252467   0.753114836680   0.422867869866  T T T
  0.834223555382   0.252901024153   0.422810825090  T T T
  0.834169220695   0.752944899401   0.422829482390  T T T
  0.001035345011   0.005645178590   0.439961223115  T T T
  0.001034206874   0.505741275184   0.439963921890  T T T
  0.334381641689   0.005770618368   0.440019072810  T T T
  0.334333044030   0.505752742662   0.440031770724  T T T
  0.667555073106   0.005717324014   0.440030120992  T T T
  0.667657121244   0.505649204202   0.440020046311  T T T
  0.167627494157   0.256225058170   0.456951636223  T T T
  0.167799063368   0.756325027021   0.456982722753  T T T
  0.500873170001   0.256366225716   0.457077021409  T T T
  0.500872092897   0.756218049621   0.457008195471  T T T
  0.834263735205   0.256092730464   0.456928006336  T T T
  0.834174551094   0.756322643963   0.456968098696  T T T
  0.000983693525   0.005800194153   0.474219357914  T T T
  0.000928602192   0.506003467741   0.474206934201  T T T
  0.334553958837   0.006398222391   0.474325942802  T T T
  0.334025731100   0.506223286303   0.474354203392  T T T
  0.667094544224   0.006195315428   0.474333313990  T T T
  0.667632084666   0.506002801275   0.474284997683  T T T
  0.167380956625   0.255039680038   0.491171675822  T T T
  0.167411180618   0.756065178507   0.491283762997  T T T
  0.500787589440   0.257414470406   0.491529452444  T T T
  0.500504975914   0.755263267782   0.491289039659  T T T
  0.834477342258   0.254157227288   0.491085906897  T T T
  0.834597407238   0.755940052836   0.491239040417  T T T
  0.000358090561   0.003546900742   0.508356357553  T T T
  0.000984904568   0.500762298865   0.508120390326  T T T
  0.333327792388   0.003040506564   0.508457645947  T T T
  0.331290061892   0.504366055257   0.508689744206  T T T
  0.667386466443   0.002094555747   0.508478703812  T T T
  0.670645070018   0.501913815375   0.508271995645  T T T
