C H O Si                                
   1.00000000000000     
     9.2874599999999994    0.0000000000000000    0.0000000000000000
     0.0000000000000000    8.7562999999999995    0.0000000000000000
     0.0000000000000000    0.0000000000000000   58.0000000000000000
   C    H    O    Si
    36    24    12    36
Selective dynamics
Direct
  0.0027371209555513  0.1354034978731556  0.4341865279367947   T   T   T
  0.0027371209555513  0.6354034978731558  0.4341865279367947   T   T   T
  0.3360704542885530  0.1354034978731556  0.4341865279367947   T   T   T
  0.3360704542885530  0.6354034978731558  0.4341865279367947   T   T   T
  0.6694037876225494  0.1354034978731556  0.4341865279367947   T   T   T
  0.6694037876225494  0.6354034978731558  0.4341865279367947   T   T   T
  0.1690085364803058  0.3804625767188307  0.4596631692677826   T   T   T
  0.1690085364803058  0.8804625767188378  0.4596631692677826   T   T   T
  0.5023418698143023  0.3804625767188307  0.4596631692677826   T   T   T
  0.5023418698143023  0.8804625767188378  0.4596631692677826   T   T   T
  0.8356752031473040  0.3804625767188307  0.4596631692677826   T   T   T
  0.8356752031473040  0.8804625767188378  0.4596631692677826   T   T   T
  0.0022180233446482  0.1303483672728590  0.4867876670383636   T   T   T
  0.0022180233446482  0.6303483672728590  0.4867876670383636   T   T   T
  0.3355513566776499  0.1303483672728590  0.4867876670383636   T   T   T
  0.3355513566776499  0.6303483672728590  0.4867876670383636   T   T   T
  0.6688846900116537  0.1303483672728590  0.4867876670383636   T   T   T
  0.6688846900116537  0.6303483672728590  0.4867876670383636   T   T   T
  0.1688847785426495  0.3803485360818541  0.5132123329616363   T   T   T
  0.1688847785426495  0.8803485360818543  0.5132123329616363   T   T   T
  0.5022181118766532  0.3803485360818541  0.5132123329616363   T   T   T
  0.5022181118766532  0.8803485360818543  0.5132123329616363   T   T   T
  0.8355514452096550  0.3803485360818541  0.5132123329616363   T   T   T
  0.8355514452096550  0.8803485360818543  0.5132123329616363   T   T   T
  0.0023417812823046  0.1304624079098354  0.5403368307322175   T   T   T
  0.0023417812823046  0.6304624079098425  0.5403368307322175   T   T   T
  0.3356751146152994  0.1304624079098354  0.5403368307322175   T   T   T
  0.3356751146152994  0.6304624079098425  0.5403368307322175   T   T   T
  0.6690084479493028  0.1304624079098354  0.5403368307322175   T   T   T
  0.6690084479493028  0.6304624079098425  0.5403368307322175   T   T   T
  0.1694038761535525  0.3854036666821510  0.5658134720632054   T   T   T
  0.1694038761535525  0.8854036666821510  0.5658134720632054   T   T   T
  0.5027372094875489  0.3854036666821510  0.5658134720632054   T   T   T
  0.5027372094875489  0.8854036666821510  0.5658134720632054   T   T   T
  0.8360705428205506  0.3854036666821510  0.5658134720632054   T   T   T
  0.8360705428205506  0.8854036666821510  0.5658134720632054   T   T   T
  0.0048876556020340  0.0633724894329917  0.4186082695390994   T   T   T
  0.0048876556020340  0.5633724894329918  0.4186082695390994   T   T   T
  0.3382209889360376  0.0633724894329917  0.4186082695390994   T   T   T
  0.3382209889360376  0.5633724894329918  0.4186082695390994   T   T   T
  0.6715543222690393  0.0633724894329917  0.4186082695390994   T   T   T
  0.6715543222690393  0.5633724894329918  0.4186082695390994   T   T   T
  0.1715545741460369  0.3133726582419941  0.5813917304609004   T   T   T
  0.1715545741460369  0.8133726582419941  0.5813917304609004   T   T   T
  0.5048879074800333  0.3133726582419941  0.5813917304609004   T   T   T
  0.5048879074800333  0.8133726582419941  0.5813917304609004   T   T   T
  0.8382212408130351  0.3133726582419941  0.5813917304609004   T   T   T
  0.8382212408130351  0.8133726582419941  0.5813917304609004   T   T   T
  0.0802793930862616  0.1111533982686767  0.6007030194914837   T   T   T
  0.0802793930862616  0.6111533982686767  0.6007030194914837   T   T   T
  0.4136127264192633  0.1111533982686767  0.6007030194914837   T   T   T
  0.4136127264192633  0.6111533982686767  0.6007030194914837   T   T   T
  0.7469460597522580  0.1111533982686767  0.6007030194914837   T   T   T
  0.7469460597522580  0.6111533982686767  0.6007030194914837   T   T   T
  0.2469460292002632  0.3611536427056735  0.3992969805085160   T   T   T
  0.2469460292002632  0.8611536427056735  0.3992969805085160   T   T   T
  0.5802793625332580  0.3611536427056735  0.3992969805085160   T   T   T
  0.5802793625332580  0.8611536427056735  0.3992969805085160   T   T   T
  0.9136126958662597  0.3611536427056735  0.3992969805085160   T   T   T
  0.9136126958662597  0.8611536427056735  0.3992969805085160   T   T   T
  0.1591073654903195  0.3491087085367333  0.4083594704277226   T   T   T
  0.1591073654903195  0.8491087085367331  0.4083594704277226   T   T   T
  0.4924406988243161  0.3491087085367333  0.4083594704277226   T   T   T
  0.4924406988243161  0.8491087085367331  0.4083594704277226   T   T   T
  0.8257740321573176  0.3491087085367333  0.4083594704277226   T   T   T
  0.8257740321573176  0.8491087085367331  0.4083594704277226   T   T   T
  0.9924406789573207  0.0991085397277308  0.5916405295722775   T   T   T
  0.9924406789573207  0.5991085397277308  0.5916405295722775   T   T   T
  0.3257740122913175  0.0991085397277308  0.5916405295722775   T   T   T
  0.3257740122913175  0.5991085397277308  0.5916405295722775   T   T   T
  0.6591073456243189  0.0991085397277308  0.5916405295722775   T   T   T
  0.6591073456243189  0.5991085397277308  0.5916405295722775   T   T   T
  0.1694520081747412  0.2536345355276293  0.4331526261223201   T   T   T
  0.1694520081747412  0.7536345355276221  0.4331526261223201   T   T   T
  0.5027853415087377  0.2536345355276293  0.4331526261223201   T   T   T
  0.5027853415087377  0.7536345355276221  0.4331526261223201   T   T   T
  0.8361186748417394  0.2536345355276293  0.4331526261223201   T   T   T
  0.8361186748417394  0.7536345355276221  0.4331526261223201   T   T   T
  0.0023566393410964  0.0061867891013315  0.4599905389445372   T   T   T
  0.0023566393410964  0.5061867891013314  0.4599905389445372   T   T   T
  0.3356899726740983  0.0061867891013315  0.4599905389445372   T   T   T
  0.3356899726740983  0.5061867891013314  0.4599905389445372   T   T   T
  0.6690233060080948  0.0061867891013315  0.4599905389445372   T   T   T
  0.6690233060080948  0.5061867891013314  0.4599905389445372   T   T   T
  0.1689299237200528  0.2562684297928072  0.4864958762869347   T   T   T
  0.1689299237200528  0.7562684297928072  0.4864958762869347   T   T   T
  0.5022632570540494  0.2562684297928072  0.4864958762869347   T   T   T
  0.5022632570540494  0.7562684297928072  0.4864958762869347   T   T   T
  0.8355965903870511  0.2562684297928072  0.4864958762869347   T   T   T
  0.8355965903870511  0.7562684297928072  0.4864958762869347   T   T   T
  0.0022631685220515  0.0062682609828100  0.5135041237130654   T   T   T
  0.0022631685220515  0.5062682609828101  0.5135041237130654   T   T   T
  0.3355965018550534  0.0062682609828100  0.5135041237130654   T   T   T
  0.3355965018550534  0.5062682609828101  0.5135041237130654   T   T   T
  0.6689298351890499  0.0062682609828100  0.5135041237130654   T   T   T
  0.6689298351890499  0.5062682609828101  0.5135041237130654   T   T   T
  0.1690233945390976  0.2561869579113285  0.5400094610554627   T   T   T
  0.1690233945390976  0.7561869579113285  0.5400094610554627   T   T   T
  0.5023567278730943  0.2561869579113285  0.5400094610554627   T   T   T
  0.5023567278730943  0.7561869579113285  0.5400094610554627   T   T   T
  0.8356900612060960  0.2561869579113285  0.5400094610554627   T   T   T
  0.8356900612060960  0.7561869579113285  0.5400094610554627   T   T   T
  0.0027852529767400  0.0036343667176250  0.5668473738776796   T   T   T
  0.0027852529767400  0.5036343667176321  0.5668473738776796   T   T   T
  0.3361185863097416  0.0036343667176250  0.5668473738776796   T   T   T
  0.3361185863097416  0.5036343667176321  0.5668473738776796   T   T   T
  0.6694519196437382  0.0036343667176250  0.5668473738776796   T   T   T
  0.6694519196437382  0.5036343667176321  0.5668473738776796   T   T   T
 
  0.00000000E+00  0.00000000E+00  0.00000000E+00
  0.00000000E+00  0.00000000E+00  0.00000000E+00
  0.00000000E+00  0.00000000E+00  0.00000000E+00
  0.00000000E+00  0.00000000E+00  0.00000000E+00
  0.00000000E+00  0.00000000E+00  0.00000000E+00
  0.00000000E+00  0.00000000E+00  0.00000000E+00
  0.00000000E+00  0.00000000E+00  0.00000000E+00
  0.00000000E+00  0.00000000E+00  0.00000000E+00
  0.00000000E+00  0.00000000E+00  0.00000000E+00
  0.00000000E+00  0.00000000E+00  0.00000000E+00
  0.00000000E+00  0.00000000E+00  0.00000000E+00
  0.00000000E+00  0.00000000E+00  0.00000000E+00
  0.00000000E+00  0.00000000E+00  0.00000000E+00
  0.00000000E+00  0.00000000E+00  0.00000000E+00
  0.00000000E+00  0.00000000E+00  0.00000000E+00
  0.00000000E+00  0.00000000E+00  0.00000000E+00
  0.00000000E+00  0.00000000E+00  0.00000000E+00
  0.00000000E+00  0.00000000E+00  0.00000000E+00
  0.00000000E+00  0.00000000E+00  0.00000000E+00
  0.00000000E+00  0.00000000E+00  0.00000000E+00
  0.00000000E+00  0.00000000E+00  0.00000000E+00
  0.00000000E+00  0.00000000E+00  0.00000000E+00
  0.00000000E+00  0.00000000E+00  0.00000000E+00
  0.00000000E+00  0.00000000E+00  0.00000000E+00
  0.00000000E+00  0.00000000E+00  0.00000000E+00
  0.00000000E+00  0.00000000E+00  0.00000000E+00
  0.00000000E+00  0.00000000E+00  0.00000000E+00
  0.00000000E+00  0.00000000E+00  0.00000000E+00
  0.00000000E+00  0.00000000E+00  0.00000000E+00
  0.00000000E+00  0.00000000E+00  0.00000000E+00
  0.00000000E+00  0.00000000E+00  0.00000000E+00
  0.00000000E+00  0.00000000E+00  0.00000000E+00
  0.00000000E+00  0.00000000E+00  0.00000000E+00
  0.00000000E+00  0.00000000E+00  0.00000000E+00
  0.00000000E+00  0.00000000E+00  0.00000000E+00
  0.00000000E+00  0.00000000E+00  0.00000000E+00
  0.00000000E+00  0.00000000E+00  0.00000000E+00
  0.00000000E+00  0.00000000E+00  0.00000000E+00
  0.00000000E+00  0.00000000E+00  0.00000000E+00
  0.00000000E+00  0.00000000E+00  0.00000000E+00
  0.00000000E+00  0.00000000E+00  0.00000000E+00
  0.00000000E+00  0.00000000E+00  0.00000000E+00
  0.00000000E+00  0.00000000E+00  0.00000000E+00
  0.00000000E+00  0.00000000E+00  0.00000000E+00
  0.00000000E+00  0.00000000E+00  0.00000000E+00
  0.00000000E+00  0.00000000E+00  0.00000000E+00
  0.00000000E+00  0.00000000E+00  0.00000000E+00
  0.00000000E+00  0.00000000E+00  0.00000000E+00
  0.00000000E+00  0.00000000E+00  0.00000000E+00
  0.00000000E+00  0.00000000E+00  0.00000000E+00
  0.00000000E+00  0.00000000E+00  0.00000000E+00
  0.00000000E+00  0.00000000E+00  0.00000000E+00
  0.00000000E+00  0.00000000E+00  0.00000000E+00
  0.00000000E+00  0.00000000E+00  0.00000000E+00
  0.00000000E+00  0.00000000E+00  0.00000000E+00
  0.00000000E+00  0.00000000E+00  0.00000000E+00
  0.00000000E+00  0.00000000E+00  0.00000000E+00
  0.00000000E+00  0.00000000E+00  0.00000000E+00
  0.00000000E+00  0.00000000E+00  0.00000000E+00
  0.00000000E+00  0.00000000E+00  0.00000000E+00
  0.00000000E+00  0.00000000E+00  0.00000000E+00
  0.00000000E+00  0.00000000E+00  0.00000000E+00
  0.00000000E+00  0.00000000E+00  0.00000000E+00
  0.00000000E+00  0.00000000E+00  0.00000000E+00
  0.00000000E+00  0.00000000E+00  0.00000000E+00
  0.00000000E+00  0.00000000E+00  0.00000000E+00
  0.00000000E+00  0.00000000E+00  0.00000000E+00
  0.00000000E+00  0.00000000E+00  0.00000000E+00
  0.00000000E+00  0.00000000E+00  0.00000000E+00
  0.00000000E+00  0.00000000E+00  0.00000000E+00
  0.00000000E+00  0.00000000E+00  0.00000000E+00
  0.00000000E+00  0.00000000E+00  0.00000000E+00
  0.00000000E+00  0.00000000E+00  0.00000000E+00
  0.00000000E+00  0.00000000E+00  0.00000000E+00
  0.00000000E+00  0.00000000E+00  0.00000000E+00
  0.00000000E+00  0.00000000E+00  0.00000000E+00
  0.00000000E+00  0.00000000E+00  0.00000000E+00
  0.00000000E+00  0.00000000E+00  0.00000000E+00
  0.00000000E+00  0.00000000E+00  0.00000000E+00
  0.00000000E+00  0.00000000E+00  0.00000000E+00
  0.00000000E+00  0.00000000E+00  0.00000000E+00
  0.00000000E+00  0.00000000E+00  0.00000000E+00
  0.00000000E+00  0.00000000E+00  0.00000000E+00
  0.00000000E+00  0.00000000E+00  0.00000000E+00
  0.00000000E+00  0.00000000E+00  0.00000000E+00
  0.00000000E+00  0.00000000E+00  0.00000000E+00
  0.00000000E+00  0.00000000E+00  0.00000000E+00
  0.00000000E+00  0.00000000E+00  0.00000000E+00
  0.00000000E+00  0.00000000E+00  0.00000000E+00
  0.00000000E+00  0.00000000E+00  0.00000000E+00
  0.00000000E+00  0.00000000E+00  0.00000000E+00
  0.00000000E+00  0.00000000E+00  0.00000000E+00
  0.00000000E+00  0.00000000E+00  0.00000000E+00
  0.00000000E+00  0.00000000E+00  0.00000000E+00
  0.00000000E+00  0.00000000E+00  0.00000000E+00
  0.00000000E+00  0.00000000E+00  0.00000000E+00
  0.00000000E+00  0.00000000E+00  0.00000000E+00
  0.00000000E+00  0.00000000E+00  0.00000000E+00
  0.00000000E+00  0.00000000E+00  0.00000000E+00
  0.00000000E+00  0.00000000E+00  0.00000000E+00
  0.00000000E+00  0.00000000E+00  0.00000000E+00
  0.00000000E+00  0.00000000E+00  0.00000000E+00
  0.00000000E+00  0.00000000E+00  0.00000000E+00
  0.00000000E+00  0.00000000E+00  0.00000000E+00
  0.00000000E+00  0.00000000E+00  0.00000000E+00
  0.00000000E+00  0.00000000E+00  0.00000000E+00
  0.00000000E+00  0.00000000E+00  0.00000000E+00
  0.00000000E+00  0.00000000E+00  0.00000000E+00
