C H O Si                                
   1.00000000000000     
     9.2874599999999994    0.0000000000000000    0.0000000000000000
     0.0000000000000000    8.7562999999999995    0.0000000000000000
     0.0000000000000000    0.0000000000000000   58.0000000000000000
   C    H    O    Si
    36    24    12    36
Selective dynamics
Direct
  0.0023741116122757  0.1356241228580447  0.4342271029473179   T   T   T
  0.0023741116122757  0.6356241228580448  0.4342271029473179   T   T   T
  0.3357074449452775  0.1356241228580447  0.4342271029473179   T   T   T
  0.3357074449452775  0.6356241228580448  0.4342271029473179   T   T   T
  0.6690407782792739  0.1356241228580447  0.4342271029473179   T   T   T
  0.6690407782792739  0.6356241228580448  0.4342271029473179   T   T   T
  0.1686671684282656  0.3808584319409502  0.4596730252254142   T   T   T
  0.1686671684282656  0.8808584319409573  0.4596730252254142   T   T   T
  0.5020005017622623  0.3808584319409502  0.4596730252254142   T   T   T
  0.5020005017622623  0.8808584319409573  0.4596730252254142   T   T   T
  0.8353338350952640  0.3808584319409502  0.4596730252254142   T   T   T
  0.8353338350952640  0.8808584319409573  0.4596730252254142   T   T   T
  0.0018178102601361  0.1306212588805504  0.4867930738847880   T   T   T
  0.0018178102601361  0.6306212588805503  0.4867930738847880   T   T   T
  0.3351511435931377  0.1306212588805504  0.4867930738847880   T   T   T
  0.3351511435931377  0.6306212588805503  0.4867930738847880   T   T   T
  0.6684844769271415  0.1306212588805504  0.4867930738847880   T   T   T
  0.6684844769271415  0.6306212588805503  0.4867930738847880   T   T   T
  0.1684845654581373  0.3806214276895455  0.5132069261152122   T   T   T
  0.1684845654581373  0.8806214276895455  0.5132069261152122   T   T   T
  0.5018178987921410  0.3806214276895455  0.5132069261152122   T   T   T
  0.5018178987921410  0.8806214276895455  0.5132069261152122   T   T   T
  0.8351512321251428  0.3806214276895455  0.5132069261152122   T   T   T
  0.8351512321251428  0.8806214276895455  0.5132069261152122   T   T   T
  0.0020004132302644  0.1308582631319551  0.5403269747745856   T   T   T
  0.0020004132302644  0.6308582631319620  0.5403269747745856   T   T   T
  0.3353337465632591  0.1308582631319551  0.5403269747745856   T   T   T
  0.3353337465632591  0.6308582631319620  0.5403269747745856   T   T   T
  0.6686670798972628  0.1308582631319551  0.5403269747745856   T   T   T
  0.6686670798972628  0.6308582631319620  0.5403269747745856   T   T   T
  0.1690408668102770  0.3856242916670400  0.5657728970526820   T   T   T
  0.1690408668102770  0.8856242916670400  0.5657728970526820   T   T   T
  0.5023742001442734  0.3856242916670400  0.5657728970526820   T   T   T
  0.5023742001442734  0.8856242916670400  0.5657728970526820   T   T   T
  0.8357075334772751  0.3856242916670400  0.5657728970526820   T   T   T
  0.8357075334772751  0.8856242916670400  0.5657728970526820   T   T   T
  0.0043712705082434  0.0633693523551022  0.4186812642362671   T   T   T
  0.0043712705082434  0.5633693523551021  0.4186812642362671   T   T   T
  0.3377046038422471  0.0633693523551022  0.4186812642362671   T   T   T
  0.3377046038422471  0.5633693523551021  0.4186812642362671   T   T   T
  0.6710379371752490  0.0633693523551022  0.4186812642362671   T   T   T
  0.6710379371752490  0.5633693523551021  0.4186812642362671   T   T   T
  0.1710381890522462  0.3133695211641046  0.5813187357637331   T   T   T
  0.1710381890522462  0.8133695211641044  0.5813187357637331   T   T   T
  0.5043715223862429  0.3133695211641046  0.5813187357637331   T   T   T
  0.5043715223862429  0.8133695211641044  0.5813187357637331   T   T   T
  0.8377048557192447  0.3133695211641046  0.5813187357637331   T   T   T
  0.8377048557192447  0.8133695211641044  0.5813187357637331   T   T   T
  0.0829048453332774  0.1122418426997005  0.6001397042142961   T   T   T
  0.0829048453332774  0.6122418426997008  0.6001397042142961   T   T   T
  0.4162381786662791  0.1122418426997005  0.6001397042142961   T   T   T
  0.4162381786662791  0.6122418426997008  0.6001397042142961   T   T   T
  0.7495715119992736  0.1122418426997005  0.6001397042142961   T   T   T
  0.7495715119992736  0.6122418426997008  0.6001397042142961   T   T   T
  0.2495714814472790  0.3622420871366973  0.3998602957857040   T   T   T
  0.2495714814472790  0.8622420871366977  0.3998602957857040   T   T   T
  0.5829048147802736  0.3622420871366973  0.3998602957857040   T   T   T
  0.5829048147802736  0.8622420871366977  0.3998602957857040   T   T   T
  0.9162381481132753  0.3622420871366973  0.3998602957857040   T   T   T
  0.9162381481132753  0.8622420871366977  0.3998602957857040   T   T   T
  0.1593495306399270  0.3473100011923566  0.4081989480307071   T   T   T
  0.1593495306399270  0.8473100011923564  0.4081989480307071   T   T   T
  0.4926828639739235  0.3473100011923566  0.4081989480307071   T   T   T
  0.4926828639739235  0.8473100011923564  0.4081989480307071   T   T   T
  0.8260161973069254  0.3473100011923566  0.4081989480307071   T   T   T
  0.8260161973069254  0.8473100011923564  0.4081989480307071   T   T   T
  0.9926828441069285  0.0973098323833543  0.5918010519692928   T   T   T
  0.9926828441069285  0.5973098323833541  0.5918010519692928   T   T   T
  0.3260161774409248  0.0973098323833543  0.5918010519692928   T   T   T
  0.3260161774409248  0.5973098323833541  0.5918010519692928   T   T   T
  0.6593495107739268  0.0973098323833543  0.5918010519692928   T   T   T
  0.6593495107739268  0.5973098323833541  0.5918010519692928   T   T   T
  0.1690123739703331  0.2534845697202038  0.4332960504195253   T   T   T
  0.1690123739703331  0.7534845697202037  0.4332960504195253   T   T   T
  0.5023457073043295  0.2534845697202038  0.4332960504195253   T   T   T
  0.5023457073043295  0.7534845697202037  0.4332960504195253   T   T   T
  0.8356790406373312  0.2534845697202038  0.4332960504195253   T   T   T
  0.8356790406373312  0.7534845697202037  0.4332960504195253   T   T   T
  0.0019840222538123  0.0061520762605750  0.4600669361828187   T   T   T
  0.0019840222538123  0.5061520762605752  0.4600669361828187   T   T   T
  0.3353173555868140  0.0061520762605750  0.4600669361828187   T   T   T
  0.3353173555868140  0.5061520762605752  0.4600669361828187   T   T   T
  0.6686506889208107  0.0061520762605750  0.4600669361828187   T   T   T
  0.6686506889208107  0.5061520762605752  0.4600669361828187   T   T   T
  0.1684955331887402  0.2562771366175171  0.4865178452132198   T   T   T
  0.1684955331887402  0.7562771366175171  0.4865178452132198   T   T   T
  0.5018288665227365  0.2562771366175171  0.4865178452132198   T   T   T
  0.5018288665227365  0.7562771366175171  0.4865178452132198   T   T   T
  0.8351621998557383  0.2562771366175171  0.4865178452132198   T   T   T
  0.8351621998557383  0.7562771366175171  0.4865178452132198   T   T   T
  0.0018287779907390  0.0062769678075200  0.5134821547867801   T   T   T
  0.0018287779907390  0.5062769678075200  0.5134821547867801   T   T   T
  0.3351621113237407  0.0062769678075200  0.5134821547867801   T   T   T
  0.3351621113237407  0.5062769678075200  0.5134821547867801   T   T   T
  0.6684954446577370  0.0062769678075200  0.5134821547867801   T   T   T
  0.6684954446577370  0.5062769678075200  0.5134821547867801   T   T   T
  0.1686507774518136  0.2561522450705719  0.5399330638171815   T   T   T
  0.1686507774518136  0.7561522450705723  0.5399330638171815   T   T   T
  0.5019841107858102  0.2561522450705719  0.5399330638171815   T   T   T
  0.5019841107858102  0.7561522450705723  0.5399330638171815   T   T   T
  0.8353174441188119  0.2561522450705719  0.5399330638171815   T   T   T
  0.8353174441188119  0.7561522450705723  0.5399330638171815   T   T   T
  0.0023456187723319  0.0034844009102066  0.5667039495804747   T   T   T
  0.0023456187723319  0.5034844009102066  0.5667039495804747   T   T   T
  0.3356789521053336  0.0034844009102066  0.5667039495804747   T   T   T
  0.3356789521053336  0.5034844009102066  0.5667039495804747   T   T   T
  0.6690122854393300  0.0034844009102066  0.5667039495804747   T   T   T
  0.6690122854393300  0.5034844009102066  0.5667039495804747   T   T   T
 
  0.00000000E+00  0.00000000E+00  0.00000000E+00
  0.00000000E+00  0.00000000E+00  0.00000000E+00
  0.00000000E+00  0.00000000E+00  0.00000000E+00
  0.00000000E+00  0.00000000E+00  0.00000000E+00
  0.00000000E+00  0.00000000E+00  0.00000000E+00
  0.00000000E+00  0.00000000E+00  0.00000000E+00
  0.00000000E+00  0.00000000E+00  0.00000000E+00
  0.00000000E+00  0.00000000E+00  0.00000000E+00
  0.00000000E+00  0.00000000E+00  0.00000000E+00
  0.00000000E+00  0.00000000E+00  0.00000000E+00
  0.00000000E+00  0.00000000E+00  0.00000000E+00
  0.00000000E+00  0.00000000E+00  0.00000000E+00
  0.00000000E+00  0.00000000E+00  0.00000000E+00
  0.00000000E+00  0.00000000E+00  0.00000000E+00
  0.00000000E+00  0.00000000E+00  0.00000000E+00
  0.00000000E+00  0.00000000E+00  0.00000000E+00
  0.00000000E+00  0.00000000E+00  0.00000000E+00
  0.00000000E+00  0.00000000E+00  0.00000000E+00
  0.00000000E+00  0.00000000E+00  0.00000000E+00
  0.00000000E+00  0.00000000E+00  0.00000000E+00
  0.00000000E+00  0.00000000E+00  0.00000000E+00
  0.00000000E+00  0.00000000E+00  0.00000000E+00
  0.00000000E+00  0.00000000E+00  0.00000000E+00
  0.00000000E+00  0.00000000E+00  0.00000000E+00
  0.00000000E+00  0.00000000E+00  0.00000000E+00
  0.00000000E+00  0.00000000E+00  0.00000000E+00
  0.00000000E+00  0.00000000E+00  0.00000000E+00
  0.00000000E+00  0.00000000E+00  0.00000000E+00
  0.00000000E+00  0.00000000E+00  0.00000000E+00
  0.00000000E+00  0.00000000E+00  0.00000000E+00
  0.00000000E+00  0.00000000E+00  0.00000000E+00
  0.00000000E+00  0.00000000E+00  0.00000000E+00
  0.00000000E+00  0.00000000E+00  0.00000000E+00
  0.00000000E+00  0.00000000E+00  0.00000000E+00
  0.00000000E+00  0.00000000E+00  0.00000000E+00
  0.00000000E+00  0.00000000E+00  0.00000000E+00
  0.00000000E+00  0.00000000E+00  0.00000000E+00
  0.00000000E+00  0.00000000E+00  0.00000000E+00
  0.00000000E+00  0.00000000E+00  0.00000000E+00
  0.00000000E+00  0.00000000E+00  0.00000000E+00
  0.00000000E+00  0.00000000E+00  0.00000000E+00
  0.00000000E+00  0.00000000E+00  0.00000000E+00
  0.00000000E+00  0.00000000E+00  0.00000000E+00
  0.00000000E+00  0.00000000E+00  0.00000000E+00
  0.00000000E+00  0.00000000E+00  0.00000000E+00
  0.00000000E+00  0.00000000E+00  0.00000000E+00
  0.00000000E+00  0.00000000E+00  0.00000000E+00
  0.00000000E+00  0.00000000E+00  0.00000000E+00
  0.00000000E+00  0.00000000E+00  0.00000000E+00
  0.00000000E+00  0.00000000E+00  0.00000000E+00
  0.00000000E+00  0.00000000E+00  0.00000000E+00
  0.00000000E+00  0.00000000E+00  0.00000000E+00
  0.00000000E+00  0.00000000E+00  0.00000000E+00
  0.00000000E+00  0.00000000E+00  0.00000000E+00
  0.00000000E+00  0.00000000E+00  0.00000000E+00
  0.00000000E+00  0.00000000E+00  0.00000000E+00
  0.00000000E+00  0.00000000E+00  0.00000000E+00
  0.00000000E+00  0.00000000E+00  0.00000000E+00
  0.00000000E+00  0.00000000E+00  0.00000000E+00
  0.00000000E+00  0.00000000E+00  0.00000000E+00
  0.00000000E+00  0.00000000E+00  0.00000000E+00
  0.00000000E+00  0.00000000E+00  0.00000000E+00
  0.00000000E+00  0.00000000E+00  0.00000000E+00
  0.00000000E+00  0.00000000E+00  0.00000000E+00
  0.00000000E+00  0.00000000E+00  0.00000000E+00
  0.00000000E+00  0.00000000E+00  0.00000000E+00
  0.00000000E+00  0.00000000E+00  0.00000000E+00
  0.00000000E+00  0.00000000E+00  0.00000000E+00
  0.00000000E+00  0.00000000E+00  0.00000000E+00
  0.00000000E+00  0.00000000E+00  0.00000000E+00
  0.00000000E+00  0.00000000E+00  0.00000000E+00
  0.00000000E+00  0.00000000E+00  0.00000000E+00
  0.00000000E+00  0.00000000E+00  0.00000000E+00
  0.00000000E+00  0.00000000E+00  0.00000000E+00
  0.00000000E+00  0.00000000E+00  0.00000000E+00
  0.00000000E+00  0.00000000E+00  0.00000000E+00
  0.00000000E+00  0.00000000E+00  0.00000000E+00
  0.00000000E+00  0.00000000E+00  0.00000000E+00
  0.00000000E+00  0.00000000E+00  0.00000000E+00
  0.00000000E+00  0.00000000E+00  0.00000000E+00
  0.00000000E+00  0.00000000E+00  0.00000000E+00
  0.00000000E+00  0.00000000E+00  0.00000000E+00
  0.00000000E+00  0.00000000E+00  0.00000000E+00
  0.00000000E+00  0.00000000E+00  0.00000000E+00
  0.00000000E+00  0.00000000E+00  0.00000000E+00
  0.00000000E+00  0.00000000E+00  0.00000000E+00
  0.00000000E+00  0.00000000E+00  0.00000000E+00
  0.00000000E+00  0.00000000E+00  0.00000000E+00
  0.00000000E+00  0.00000000E+00  0.00000000E+00
  0.00000000E+00  0.00000000E+00  0.00000000E+00
  0.00000000E+00  0.00000000E+00  0.00000000E+00
  0.00000000E+00  0.00000000E+00  0.00000000E+00
  0.00000000E+00  0.00000000E+00  0.00000000E+00
  0.00000000E+00  0.00000000E+00  0.00000000E+00
  0.00000000E+00  0.00000000E+00  0.00000000E+00
  0.00000000E+00  0.00000000E+00  0.00000000E+00
  0.00000000E+00  0.00000000E+00  0.00000000E+00
  0.00000000E+00  0.00000000E+00  0.00000000E+00
  0.00000000E+00  0.00000000E+00  0.00000000E+00
  0.00000000E+00  0.00000000E+00  0.00000000E+00
  0.00000000E+00  0.00000000E+00  0.00000000E+00
  0.00000000E+00  0.00000000E+00  0.00000000E+00
  0.00000000E+00  0.00000000E+00  0.00000000E+00
  0.00000000E+00  0.00000000E+00  0.00000000E+00
  0.00000000E+00  0.00000000E+00  0.00000000E+00
  0.00000000E+00  0.00000000E+00  0.00000000E+00
  0.00000000E+00  0.00000000E+00  0.00000000E+00
  0.00000000E+00  0.00000000E+00  0.00000000E+00
