C H O Si                                
   1.00000000000000     
     9.2874599999999994    0.0000000000000000    0.0000000000000000
     0.0000000000000000    8.7563099999999991    0.0000000000000000
     0.0000000000000000    0.0000000000000000   58.0000000000000000
   C    H    O    Si
    36    33    16    36
Selective dynamics
Direct
  0.9954919667758412  0.1293792823586351  0.0595455135920869   T   T   T
  0.3288430320198004  0.1293129882397288  0.0596096764854122   T   T   T
  0.6622150366851661  0.1296038373493167  0.0595862103633004   T   T   T
  0.9955643514294352  0.6295669226429406  0.0596062780779410   T   T   T
  0.3290117826228759  0.6291177948883534  0.0595555419034089   T   T   T
  0.6625308491375899  0.6291232246631182  0.0596142375357882   T   T   T
  0.1625789119000161  0.3751202600889159  0.1385701430829504   T   T   T
  0.4955768553288996  0.3754536803412461  0.1386649151364820   T   T   T
  0.8287290762618649  0.3749333787635122  0.1385221129592668   T   T   T
  0.1624271433734137  0.8755597023223917  0.1385514332348404   T   T   T
  0.4956557012196533  0.8766909483581617  0.1380340066155203   T   T   T
  0.8291328158632981  0.8755562852324710  0.1386048997130521   T   T   T
  0.3301048134632263  0.1263603458735824  0.1656486233760724   T   T   T
  0.6618463539567047  0.1257160216435531  0.1656492291471593   T   T   T
  0.9962441821081615  0.1255887951706315  0.1656016361946103   T   T   T
  0.3285533402812738  0.6262219007253395  0.1654204938334758   T   T   T
  0.6633412230172353  0.6260036343176377  0.1656310428761635   T   T   T
  0.9959466510802997  0.6259490059707205  0.1658297358779681   T   T   T
  0.1651953375595953  0.3807350593085908  0.1911888777709129   T   T   T
  0.4972947438787802  0.3834489930785392  0.1915463173271892   T   T   T
  0.8308487698757168  0.3788071990544392  0.1908873165430148   T   T   T
  0.1611734604858331  0.8802887744085759  0.1912327862558583   T   T   T
  0.4954768174271968  0.8960398635250445  0.1872448939772231   T   T   T
  0.8305658526471518  0.8807392789112068  0.1912625662897769   T   T   T
  0.1620960014750015  0.3750371462795520  0.0849602413613361   T   T   T
  0.4953845248875742  0.3749081039023190  0.0850593122389805   T   T   T
  0.8289407054309080  0.3750177044776793  0.0849643486323141   T   T   T
  0.1620982990858576  0.8749294295315749  0.0849832056891365   T   T   T
  0.4954171555456865  0.8751441415819758  0.0848670921923336   T   T   T
  0.8287578915649944  0.8750693237782448  0.0850132407681707   T   T   T
  0.3287020252817504  0.1252866725758409  0.1121167966158965   T   T   T
  0.6623625942147334  0.1252318152958412  0.1121164839670298   T   T   T
  0.9954589264844420  0.1250678122899944  0.1121158720120780   T   T   T
  0.3287559886182064  0.6246928312282903  0.1120518380380810   T   T   T
  0.6623689500120874  0.6247972607945275  0.1121218999072755   T   T   T
  0.9953796919590875  0.6249054267665695  0.1121950735237765   T   T   T
  0.0860508938170963  0.3543824104300697  0.0246149379789179   T   T   T
  0.4171518822417541  0.3539029685647668  0.0248036693533937   T   T   T
  0.7518296664932820  0.3542085799998776  0.0246095797496824   T   T   T
  0.0863101288624632  0.8543441984567676  0.0246053768782073   T   T   T
  0.4195466268221916  0.8545873417188093  0.0246041033499308   T   T   T
  0.7510342610769464  0.8539333910673045  0.0247642891031654   T   T   T
  0.3264397360952784  0.0570949963949888  0.0440516266444035   T   T   T
  0.6597259252422562  0.0574087750482496  0.0440266090984243   T   T   T
  0.9929189340283716  0.0570670986806278  0.0439998260554088   T   T   T
  0.3260800672585981  0.5570890335289347  0.0439825171461901   T   T   T
  0.6603632661924321  0.5570429965757304  0.0440386663879724   T   T   T
  0.9928258335904356  0.5570466710630578  0.0440815012454896   T   T   T
  0.8340535161216182  0.8099838155461494  0.2069372030822306   T   T   T
  0.8322666396104609  0.3073391659554718  0.2065247430091657   T   T   T
  0.1671553959681443  0.3094216718468644  0.2068357682405549   T   T   T
  0.4989305477499295  0.3113542869940505  0.2071030497796575   T   T   T
  0.1642248030842339  0.8083732228821811  0.2068105932700222   T   T   T
  0.5441248901742711  0.9237417682657311  0.2608215719859878   T   T   T
  0.0696543685013765  0.0998974025554992  0.2269689612366739   T   T   T
  0.4155346818482652  0.1035173640268663  0.2255594391892932   T   T   T
  0.7292601333894450  0.0983557565250033  0.2277774120809896   T   T   T
  0.0713286406873904  0.6074753474920057  0.2261342274932896   T   T   T
  0.3736710329982121  0.5800365507948561  0.2298828704213556   T   T   T
  0.7732721959065453  0.6031723920532338  0.2230944891944591   T   T   T
  0.4857922627900291  0.5441810838268329  0.2662839354032218   T   T   T
  0.4714134581434916  0.4534226291896670  0.3000827314196148   T   T   T
  0.5182116731151554  0.6239434825335769  0.3074341435684395   T   T   T
  0.2924485127935244  0.2721590836188116  0.2970927269294358   T   T   T
  0.4402076693956727  0.2104819404723589  0.2889670025700961   T   T   T
  0.6372747184156266  0.7692296658074198  0.3348706008631837   T   T   T
  0.5017166060795416  0.8598816469628681  0.3273545802104584   T   T   T
  0.5037244569260764  0.8738071702082421  0.2691290463521361   T   T   T
  0.5639666231872884  0.5426502415817521  0.2417770813646764   T   T   T
  0.1743537772095380  0.3402012944147398  0.0334884863438847   T   T   T
  0.5059238053504894  0.3414152368910346  0.0336271119713487   T   T   T
  0.8400769590003878  0.3411662285667659  0.0335363912772487   T   T   T
  0.1745612151925903  0.8400406145889044  0.0334795457012829   T   T   T
  0.5080231052073533  0.8394442646854119  0.0333988059123971   T   T   T
  0.8396584043847185  0.8410567770034670  0.0336013352832395   T   T   T
  0.3234193074835330  0.0887421896348351  0.2176958240143171   T   T   T
  0.6466905155406187  0.0900561142033111  0.2174437667195789   T   T   T
  0.9871632377934524  0.0994099191775281  0.2165802310882272   T   T   T
  0.3229027924142871  0.6143016763175235  0.2151866960521234   T   T   T
  0.6746448786754549  0.5967784350398800  0.2169148166268713   T   T   T
  0.9835278976863889  0.5884104967717895  0.2173120583605458   T   T   T
  0.5206451138736065  0.5476589374097230  0.2947927356111784   T   T   T
  0.3937474123204758  0.2666421889508415  0.3014355908834211   T   T   T
  0.5365615952247131  0.7569826547725876  0.3304957525668041   T   T   T
  0.4737214211177447  0.5153637815749260  0.2496979447620702   T   T   T
  0.4953832503807046  0.2471277876255467  0.0585938138267808   T   T   T
  0.8288963472264028  0.2472290015590397  0.0585228112869919   T   T   T
  0.1624060241130174  0.7469704787106888  0.0585355126653931   T   T   T
  0.4957768941612647  0.7465246110163684  0.0584546459225773   T   T   T
  0.8289072881706242  0.7471655955514436  0.0585888772051709   T   T   T
  0.1621898923412027  0.2469604050581386  0.0585316864880719   T   T   T
  0.9958692763409729  0.0008409074593800  0.1387585002499828   T   T   T
  0.3284605519229180  0.0010550707803567  0.1387640853362127   T   T   T
  0.6628656534468306  0.0008470443926160  0.1387522241697607   T   T   T
  0.9956207445354726  0.5010385383779500  0.1389174646177499   T   T   T
  0.3287360806009227  0.5005304462414243  0.1387115960288598   T   T   T
  0.6625065250924077  0.5004600981383468  0.1387669425992271   T   T   T
  0.1616672207743389  0.2513673627465491  0.1654463405723745   T   T   T
  0.4960455346597604  0.2523156118098936  0.1656524022212001   T   T   T
  0.8307385839100676  0.2501851337529811  0.1652669483994607   T   T   T
  0.1621996680931143  0.7510510914696890  0.1652478906740851   T   T   T
  0.4955520536081635  0.7468951957243218  0.1646276678994619   T   T   T
  0.8294302719564557  0.7510640456156019  0.1653148357520705   T   T   T
  0.3253678431365606  0.9989605493660326  0.1925546791597499   T   T   T
  0.6657870350150827  0.9988074216472342  0.1925989577692672   T   T   T
  0.9961755857428115  0.0003705354783976  0.1921560300464904   T   T   T
  0.3303441395740231  0.5029278831591306  0.1922006196636947   T   T   T
  0.9974519969260019  0.4965754705137231  0.1920955554409770   T   T   T
  0.6656254813786830  0.4988443317307529  0.1920470178395612   T   T   T
  0.9954317578655215  0.0000163688601282  0.0853339555957328   T   T   T
  0.3286111980198596  0.9998462612029040  0.0853445295584932   T   T   T
  0.6622001453963104  0.0000095233649450  0.0853255365350880   T   T   T
  0.9954818225670559  0.5000550523940219  0.0853764768415003   T   T   T
  0.3287313801741193  0.4996579352435528  0.0853176074114487   T   T   T
  0.6623310619112375  0.4995903705812154  0.0853645491234943   T   T   T
  0.1618280728820454  0.2506983109991028  0.1117763494762991   T   T   T
  0.4954370430240856  0.2505651801527324  0.1118898248402608   T   T   T
  0.8290323401215143  0.2506559318993710  0.1117415603722130   T   T   T
  0.1621973243697017  0.7506567937907439  0.1117945721838046   T   T   T
  0.4953930514928343  0.7493676356002936  0.1114730111030463   T   T   T
  0.8287121517897564  0.7507567507784517  0.1118347324977965   T   T   T
 
  0.00000000E+00  0.00000000E+00  0.00000000E+00
  0.00000000E+00  0.00000000E+00  0.00000000E+00
  0.00000000E+00  0.00000000E+00  0.00000000E+00
  0.00000000E+00  0.00000000E+00  0.00000000E+00
  0.00000000E+00  0.00000000E+00  0.00000000E+00
  0.00000000E+00  0.00000000E+00  0.00000000E+00
  0.00000000E+00  0.00000000E+00  0.00000000E+00
  0.00000000E+00  0.00000000E+00  0.00000000E+00
  0.00000000E+00  0.00000000E+00  0.00000000E+00
  0.00000000E+00  0.00000000E+00  0.00000000E+00
  0.00000000E+00  0.00000000E+00  0.00000000E+00
  0.00000000E+00  0.00000000E+00  0.00000000E+00
  0.00000000E+00  0.00000000E+00  0.00000000E+00
  0.00000000E+00  0.00000000E+00  0.00000000E+00
  0.00000000E+00  0.00000000E+00  0.00000000E+00
  0.00000000E+00  0.00000000E+00  0.00000000E+00
  0.00000000E+00  0.00000000E+00  0.00000000E+00
  0.00000000E+00  0.00000000E+00  0.00000000E+00
  0.00000000E+00  0.00000000E+00  0.00000000E+00
  0.00000000E+00  0.00000000E+00  0.00000000E+00
  0.00000000E+00  0.00000000E+00  0.00000000E+00
  0.00000000E+00  0.00000000E+00  0.00000000E+00
  0.00000000E+00  0.00000000E+00  0.00000000E+00
  0.00000000E+00  0.00000000E+00  0.00000000E+00
  0.00000000E+00  0.00000000E+00  0.00000000E+00
  0.00000000E+00  0.00000000E+00  0.00000000E+00
  0.00000000E+00  0.00000000E+00  0.00000000E+00
  0.00000000E+00  0.00000000E+00  0.00000000E+00
  0.00000000E+00  0.00000000E+00  0.00000000E+00
  0.00000000E+00  0.00000000E+00  0.00000000E+00
  0.00000000E+00  0.00000000E+00  0.00000000E+00
  0.00000000E+00  0.00000000E+00  0.00000000E+00
  0.00000000E+00  0.00000000E+00  0.00000000E+00
  0.00000000E+00  0.00000000E+00  0.00000000E+00
  0.00000000E+00  0.00000000E+00  0.00000000E+00
  0.00000000E+00  0.00000000E+00  0.00000000E+00
  0.00000000E+00  0.00000000E+00  0.00000000E+00
  0.00000000E+00  0.00000000E+00  0.00000000E+00
  0.00000000E+00  0.00000000E+00  0.00000000E+00
  0.00000000E+00  0.00000000E+00  0.00000000E+00
  0.00000000E+00  0.00000000E+00  0.00000000E+00
  0.00000000E+00  0.00000000E+00  0.00000000E+00
  0.00000000E+00  0.00000000E+00  0.00000000E+00
  0.00000000E+00  0.00000000E+00  0.00000000E+00
  0.00000000E+00  0.00000000E+00  0.00000000E+00
  0.00000000E+00  0.00000000E+00  0.00000000E+00
  0.00000000E+00  0.00000000E+00  0.00000000E+00
  0.00000000E+00  0.00000000E+00  0.00000000E+00
  0.00000000E+00  0.00000000E+00  0.00000000E+00
  0.00000000E+00  0.00000000E+00  0.00000000E+00
  0.00000000E+00  0.00000000E+00  0.00000000E+00
  0.00000000E+00  0.00000000E+00  0.00000000E+00
  0.00000000E+00  0.00000000E+00  0.00000000E+00
  0.00000000E+00  0.00000000E+00  0.00000000E+00
  0.00000000E+00  0.00000000E+00  0.00000000E+00
  0.00000000E+00  0.00000000E+00  0.00000000E+00
  0.00000000E+00  0.00000000E+00  0.00000000E+00
  0.00000000E+00  0.00000000E+00  0.00000000E+00
  0.00000000E+00  0.00000000E+00  0.00000000E+00
  0.00000000E+00  0.00000000E+00  0.00000000E+00
  0.00000000E+00  0.00000000E+00  0.00000000E+00
  0.00000000E+00  0.00000000E+00  0.00000000E+00
  0.00000000E+00  0.00000000E+00  0.00000000E+00
  0.00000000E+00  0.00000000E+00  0.00000000E+00
  0.00000000E+00  0.00000000E+00  0.00000000E+00
  0.00000000E+00  0.00000000E+00  0.00000000E+00
  0.00000000E+00  0.00000000E+00  0.00000000E+00
  0.00000000E+00  0.00000000E+00  0.00000000E+00
  0.00000000E+00  0.00000000E+00  0.00000000E+00
  0.00000000E+00  0.00000000E+00  0.00000000E+00
  0.00000000E+00  0.00000000E+00  0.00000000E+00
  0.00000000E+00  0.00000000E+00  0.00000000E+00
  0.00000000E+00  0.00000000E+00  0.00000000E+00
  0.00000000E+00  0.00000000E+00  0.00000000E+00
  0.00000000E+00  0.00000000E+00  0.00000000E+00
  0.00000000E+00  0.00000000E+00  0.00000000E+00
  0.00000000E+00  0.00000000E+00  0.00000000E+00
  0.00000000E+00  0.00000000E+00  0.00000000E+00
  0.00000000E+00  0.00000000E+00  0.00000000E+00
  0.00000000E+00  0.00000000E+00  0.00000000E+00
  0.00000000E+00  0.00000000E+00  0.00000000E+00
  0.00000000E+00  0.00000000E+00  0.00000000E+00
  0.00000000E+00  0.00000000E+00  0.00000000E+00
  0.00000000E+00  0.00000000E+00  0.00000000E+00
  0.00000000E+00  0.00000000E+00  0.00000000E+00
  0.00000000E+00  0.00000000E+00  0.00000000E+00
  0.00000000E+00  0.00000000E+00  0.00000000E+00
  0.00000000E+00  0.00000000E+00  0.00000000E+00
  0.00000000E+00  0.00000000E+00  0.00000000E+00
  0.00000000E+00  0.00000000E+00  0.00000000E+00
  0.00000000E+00  0.00000000E+00  0.00000000E+00
  0.00000000E+00  0.00000000E+00  0.00000000E+00
  0.00000000E+00  0.00000000E+00  0.00000000E+00
  0.00000000E+00  0.00000000E+00  0.00000000E+00
  0.00000000E+00  0.00000000E+00  0.00000000E+00
  0.00000000E+00  0.00000000E+00  0.00000000E+00
  0.00000000E+00  0.00000000E+00  0.00000000E+00
  0.00000000E+00  0.00000000E+00  0.00000000E+00
  0.00000000E+00  0.00000000E+00  0.00000000E+00
  0.00000000E+00  0.00000000E+00  0.00000000E+00
  0.00000000E+00  0.00000000E+00  0.00000000E+00
  0.00000000E+00  0.00000000E+00  0.00000000E+00
  0.00000000E+00  0.00000000E+00  0.00000000E+00
  0.00000000E+00  0.00000000E+00  0.00000000E+00
  0.00000000E+00  0.00000000E+00  0.00000000E+00
  0.00000000E+00  0.00000000E+00  0.00000000E+00
  0.00000000E+00  0.00000000E+00  0.00000000E+00
  0.00000000E+00  0.00000000E+00  0.00000000E+00
  0.00000000E+00  0.00000000E+00  0.00000000E+00
  0.00000000E+00  0.00000000E+00  0.00000000E+00
  0.00000000E+00  0.00000000E+00  0.00000000E+00
  0.00000000E+00  0.00000000E+00  0.00000000E+00
  0.00000000E+00  0.00000000E+00  0.00000000E+00
  0.00000000E+00  0.00000000E+00  0.00000000E+00
  0.00000000E+00  0.00000000E+00  0.00000000E+00
  0.00000000E+00  0.00000000E+00  0.00000000E+00
  0.00000000E+00  0.00000000E+00  0.00000000E+00
  0.00000000E+00  0.00000000E+00  0.00000000E+00
  0.00000000E+00  0.00000000E+00  0.00000000E+00
  0.00000000E+00  0.00000000E+00  0.00000000E+00
  0.00000000E+00  0.00000000E+00  0.00000000E+00
