C H O Si                                
   1.00000000000000     
     9.2874599999999994    0.0000000000000000    0.0000000000000000
     0.0000000000000000    8.7563099999999991    0.0000000000000000
     0.0000000000000000    0.0000000000000000   58.0000000000000000
   C    H    O    Si
    36    33    16    36
Selective dynamics
Direct
  0.9953518807065513  0.1293489483947563  0.0595594212473635   T   T   T
  0.3286896332911602  0.1292918138164761  0.0596231121858572   T   T   T
  0.6620241657775091  0.1296851533773252  0.0595922136189137   T   T   T
  0.9955086083197182  0.6296575791078204  0.0596094752730298   T   T   T
  0.3289439900264365  0.6292227052584428  0.0595544088119783   T   T   T
  0.6622798324071504  0.6290953002080723  0.0596272063025924   T   T   T
  0.1624745942091114  0.3751884755147898  0.1385899579309587   T   T   T
  0.4956764357240521  0.3752892049339038  0.1386726061141016   T   T   T
  0.8287912686672348  0.3749320723191469  0.1385356175378779   T   T   T
  0.1624493133133593  0.8754282995239534  0.1385607664269173   T   T   T
  0.4955904024521913  0.8768719723107590  0.1380379823947189   T   T   T
  0.8290761574182809  0.8754997223275389  0.1386005481333249   T   T   T
  0.3298084427997970  0.1264455860430611  0.1656317854103162   T   T   T
  0.6615961094751125  0.1257482667873404  0.1656431206660141   T   T   T
  0.9961217994571940  0.1254802128277831  0.1655933891612226   T   T   T
  0.3284356685741642  0.6260941935509582  0.1654399722443934   T   T   T
  0.6630417701068337  0.6261066337386072  0.1656532642949244   T   T   T
  0.9957660394463486  0.6258140064282190  0.1658300182801922   T   T   T
  0.1653069754909735  0.3808391760629323  0.1911708363890353   T   T   T
  0.4973997840130783  0.3833729624588898  0.1915063644929413   T   T   T
  0.8307604690208351  0.3788432764276325  0.1908740180374190   T   T   T
  0.1611653470980158  0.8803473034562269  0.1912460986754007   T   T   T
  0.4952314706414670  0.8962123885321821  0.1872706625900457   T   T   T
  0.8303494031732934  0.8808622887660784  0.1912857755180987   T   T   T
  0.1619120900652679  0.3749996659917009  0.0849456236335166   T   T   T
  0.4954102457571314  0.3748549839613275  0.0850357726356510   T   T   T
  0.8289094585510238  0.3750150476755471  0.0849469399802153   T   T   T
  0.1619310666331865  0.8748859801815920  0.0849452390119786   T   T   T
  0.4953331262862942  0.8751065900016489  0.0848501695459160   T   T   T
  0.8286726138869712  0.8750628355553447  0.0850036714848825   T   T   T
  0.3285875963776881  0.1252967773264774  0.1121378535431541   T   T   T
  0.6621487829703722  0.1252527540072412  0.1121372718049515   T   T   T
  0.9953506191717020  0.1250628185518244  0.1121351252708213   T   T   T
  0.3286301645246930  0.6247672471219563  0.1120713100864122   T   T   T
  0.6621514089427182  0.6247981436514631  0.1121351023088528   T   T   T
  0.9953129195302838  0.6249744803922929  0.1122158361741653   T   T   T
  0.0861595394513353  0.3543024377535854  0.0246293558490740   T   T   T
  0.4172476274484290  0.3538955426767439  0.0247968260651581   T   T   T
  0.7519235597651043  0.3541987553871627  0.0246071119921001   T   T   T
  0.0864594100310957  0.8542636900216987  0.0246185486572853   T   T   T
  0.4197007950929391  0.8545211079352258  0.0246176817152309   T   T   T
  0.7511575143028020  0.8539117287549642  0.0247613895534107   T   T   T
  0.3264437931222290  0.0571240652050449  0.0440537555586147   T   T   T
  0.6597495416482293  0.0574804388658323  0.0440328989538290   T   T   T
  0.9929242297417079  0.0571033577142568  0.0439991706456391   T   T   T
  0.3260172131891858  0.5571171048425970  0.0439846154900021   T   T   T
  0.6603768504351264  0.5571419824490161  0.0440429568925948   T   T   T
  0.9928244915707394  0.5570311997722777  0.0440906081556404   T   T   T
  0.8341967657782982  0.8098828047017735  0.2069327203719242   T   T   T
  0.8322909251772075  0.3073087125317947  0.2065338423359696   T   T   T
  0.1672306185894116  0.3094917142297092  0.2068395703760862   T   T   T
  0.4990311944656156  0.3113531573126559  0.2070891300975496   T   T   T
  0.1642522742478632  0.8083684868726582  0.2068091223004220   T   T   T
  0.5440629762431336  0.9237697700077641  0.2608086928278293   T   T   T
  0.0697307961872863  0.1000423897101008  0.2269792419129360   T   T   T
  0.4155473730051826  0.1035250738668907  0.2255825139642023   T   T   T
  0.7294306884317796  0.0983429659444235  0.2277808783352638   T   T   T
  0.0715211924458631  0.6074954465740616  0.2261398087498198   T   T   T
  0.3738211776007081  0.5799595955029131  0.2298644273563797   T   T   T
  0.7733345447298676  0.6032615490822140  0.2230989693600023   T   T   T
  0.4858321678045569  0.5439843056387770  0.2662905205533500   T   T   T
  0.4713913059072747  0.4534400441391520  0.3000852277263334   T   T   T
  0.5181400085558846  0.6239270922095927  0.3074358189451135   T   T   T
  0.2925719862853855  0.2721409660767269  0.2970640445574714   T   T   T
  0.4401783033559024  0.2105598026271402  0.2889365517831962   T   T   T
  0.6373660548615961  0.7692831346217147  0.3348790611689999   T   T   T
  0.5017849021747586  0.8599276228520836  0.3273651296130692   T   T   T
  0.5037084903727467  0.8738144620953745  0.2691191735318501   T   T   T
  0.5640080096786266  0.5426199024786362  0.2417891081358155   T   T   T
  0.1745966650248941  0.3400338595587060  0.0334688765284451   T   T   T
  0.5059442536191264  0.3412600019073418  0.0336365115084609   T   T   T
  0.8401370594745425  0.3410350244149015  0.0335424764464719   T   T   T
  0.1747268163446699  0.8397657058607426  0.0334698796334617   T   T   T
  0.5082342198366803  0.8391716950489950  0.0333923476793391   T   T   T
  0.8397310338562177  0.8409077033418957  0.0336086662751944   T   T   T
  0.3233321625204652  0.0888388064928636  0.2177221186108567   T   T   T
  0.6466755118200148  0.0899883139036426  0.2174808956506980   T   T   T
  0.9873151197870828  0.0996322531744925  0.2165729857736057   T   T   T
  0.3229271970285847  0.6142021732177833  0.2151767776537398   T   T   T
  0.6748269865769337  0.5969308264783751  0.2168960285352123   T   T   T
  0.9838989259671265  0.5879905583530256  0.2173126730530127   T   T   T
  0.5206146852109664  0.5476536173217973  0.2947793281037540   T   T   T
  0.3938251899656041  0.2667521407402174  0.3013978900637442   T   T   T
  0.5366639224504629  0.7570658788864213  0.3305072727748045   T   T   T
  0.4736179952649763  0.5153820054879537  0.2496723317110568   T   T   T
  0.4953631674972951  0.2471510046993768  0.0585940515231625   T   T   T
  0.8289274759148364  0.2472137545755708  0.0585137257140289   T   T   T
  0.1624603349790520  0.7469941234026907  0.0585252291567380   T   T   T
  0.4958327376310006  0.7464916081204717  0.0584468688330007   T   T   T
  0.8288631933308415  0.7471864666661646  0.0585991480269467   T   T   T
  0.1621925890380819  0.2470187935433194  0.0585138122971111   T   T   T
  0.9959165930728032  0.0008382239272500  0.1387635635064955   T   T   T
  0.3285523618320490  0.0010721870130455  0.1387571037222431   T   T   T
  0.6628355990691006  0.0008807172408314  0.1387490678156126   T   T   T
  0.9956189041273992  0.5010097944489722  0.1389252808790581   T   T   T
  0.3288500377192182  0.5006398943279610  0.1387181778709378   T   T   T
  0.6625109505374268  0.5004597078427578  0.1387746392243090   T   T   T
  0.1616471891136973  0.2513306682222067  0.1654343862122624   T   T   T
  0.4960038804809243  0.2522032526365333  0.1656462977175734   T   T   T
  0.8307181644412798  0.2501149887889140  0.1652521924150906   T   T   T
  0.1621968626534263  0.7510275888943712  0.1652643043349696   T   T   T
  0.4955398942327962  0.7469365383351572  0.1646196361772673   T   T   T
  0.8294156189048507  0.7512093252388772  0.1653170323848611   T   T   T
  0.3252807136963373  0.9991298558326307  0.1925694938462063   T   T   T
  0.6656687641925185  0.9988049603479854  0.1926005406791329   T   T   T
  0.9962124502834633  0.0003669678174047  0.1921398995875999   T   T   T
  0.3305776021431334  0.5029286481307484  0.1922049975736666   T   T   T
  0.9976039063161605  0.4965520027421372  0.1921119053025258   T   T   T
  0.6657471777169772  0.4989313417585587  0.1920629417225098   T   T   T
  0.9954382831994104  0.0000054696722707  0.0853399562054743   T   T   T
  0.3286224510392812 -0.0001804232237404  0.0853377729384738   T   T   T
  0.6621680166888481  0.0000299505653016  0.0853205943769399   T   T   T
  0.9955018593753296  0.5001070844154175  0.0853549085509377   T   T   T
  0.3287172880906779  0.4996979974729138  0.0853081560146792   T   T   T
  0.6622953140866522  0.4995639415763768  0.0853588620655338   T   T   T
  0.1617613245283846  0.2507289141580999  0.1117802763129307   T   T   T
  0.4954820244983450  0.2505565731184478  0.1118781231559092   T   T   T
  0.8290703565554619  0.2506088898164169  0.1117299339839022   T   T   T
  0.1621940914139400  0.7507159763693284  0.1117828709478415   T   T   T
  0.4954078356350122  0.7495186326973383  0.1114906231230005   T   T   T
  0.8287258679745189  0.7507992767768610  0.1118152333698130   T   T   T
 
  0.00000000E+00  0.00000000E+00  0.00000000E+00
  0.00000000E+00  0.00000000E+00  0.00000000E+00
  0.00000000E+00  0.00000000E+00  0.00000000E+00
  0.00000000E+00  0.00000000E+00  0.00000000E+00
  0.00000000E+00  0.00000000E+00  0.00000000E+00
  0.00000000E+00  0.00000000E+00  0.00000000E+00
  0.00000000E+00  0.00000000E+00  0.00000000E+00
  0.00000000E+00  0.00000000E+00  0.00000000E+00
  0.00000000E+00  0.00000000E+00  0.00000000E+00
  0.00000000E+00  0.00000000E+00  0.00000000E+00
  0.00000000E+00  0.00000000E+00  0.00000000E+00
  0.00000000E+00  0.00000000E+00  0.00000000E+00
  0.00000000E+00  0.00000000E+00  0.00000000E+00
  0.00000000E+00  0.00000000E+00  0.00000000E+00
  0.00000000E+00  0.00000000E+00  0.00000000E+00
  0.00000000E+00  0.00000000E+00  0.00000000E+00
  0.00000000E+00  0.00000000E+00  0.00000000E+00
  0.00000000E+00  0.00000000E+00  0.00000000E+00
  0.00000000E+00  0.00000000E+00  0.00000000E+00
  0.00000000E+00  0.00000000E+00  0.00000000E+00
  0.00000000E+00  0.00000000E+00  0.00000000E+00
  0.00000000E+00  0.00000000E+00  0.00000000E+00
  0.00000000E+00  0.00000000E+00  0.00000000E+00
  0.00000000E+00  0.00000000E+00  0.00000000E+00
  0.00000000E+00  0.00000000E+00  0.00000000E+00
  0.00000000E+00  0.00000000E+00  0.00000000E+00
  0.00000000E+00  0.00000000E+00  0.00000000E+00
  0.00000000E+00  0.00000000E+00  0.00000000E+00
  0.00000000E+00  0.00000000E+00  0.00000000E+00
  0.00000000E+00  0.00000000E+00  0.00000000E+00
  0.00000000E+00  0.00000000E+00  0.00000000E+00
  0.00000000E+00  0.00000000E+00  0.00000000E+00
  0.00000000E+00  0.00000000E+00  0.00000000E+00
  0.00000000E+00  0.00000000E+00  0.00000000E+00
  0.00000000E+00  0.00000000E+00  0.00000000E+00
  0.00000000E+00  0.00000000E+00  0.00000000E+00
  0.00000000E+00  0.00000000E+00  0.00000000E+00
  0.00000000E+00  0.00000000E+00  0.00000000E+00
  0.00000000E+00  0.00000000E+00  0.00000000E+00
  0.00000000E+00  0.00000000E+00  0.00000000E+00
  0.00000000E+00  0.00000000E+00  0.00000000E+00
  0.00000000E+00  0.00000000E+00  0.00000000E+00
  0.00000000E+00  0.00000000E+00  0.00000000E+00
  0.00000000E+00  0.00000000E+00  0.00000000E+00
  0.00000000E+00  0.00000000E+00  0.00000000E+00
  0.00000000E+00  0.00000000E+00  0.00000000E+00
  0.00000000E+00  0.00000000E+00  0.00000000E+00
  0.00000000E+00  0.00000000E+00  0.00000000E+00
  0.00000000E+00  0.00000000E+00  0.00000000E+00
  0.00000000E+00  0.00000000E+00  0.00000000E+00
  0.00000000E+00  0.00000000E+00  0.00000000E+00
  0.00000000E+00  0.00000000E+00  0.00000000E+00
  0.00000000E+00  0.00000000E+00  0.00000000E+00
  0.00000000E+00  0.00000000E+00  0.00000000E+00
  0.00000000E+00  0.00000000E+00  0.00000000E+00
  0.00000000E+00  0.00000000E+00  0.00000000E+00
  0.00000000E+00  0.00000000E+00  0.00000000E+00
  0.00000000E+00  0.00000000E+00  0.00000000E+00
  0.00000000E+00  0.00000000E+00  0.00000000E+00
  0.00000000E+00  0.00000000E+00  0.00000000E+00
  0.00000000E+00  0.00000000E+00  0.00000000E+00
  0.00000000E+00  0.00000000E+00  0.00000000E+00
  0.00000000E+00  0.00000000E+00  0.00000000E+00
  0.00000000E+00  0.00000000E+00  0.00000000E+00
  0.00000000E+00  0.00000000E+00  0.00000000E+00
  0.00000000E+00  0.00000000E+00  0.00000000E+00
  0.00000000E+00  0.00000000E+00  0.00000000E+00
  0.00000000E+00  0.00000000E+00  0.00000000E+00
  0.00000000E+00  0.00000000E+00  0.00000000E+00
  0.00000000E+00  0.00000000E+00  0.00000000E+00
  0.00000000E+00  0.00000000E+00  0.00000000E+00
  0.00000000E+00  0.00000000E+00  0.00000000E+00
  0.00000000E+00  0.00000000E+00  0.00000000E+00
  0.00000000E+00  0.00000000E+00  0.00000000E+00
  0.00000000E+00  0.00000000E+00  0.00000000E+00
  0.00000000E+00  0.00000000E+00  0.00000000E+00
  0.00000000E+00  0.00000000E+00  0.00000000E+00
  0.00000000E+00  0.00000000E+00  0.00000000E+00
  0.00000000E+00  0.00000000E+00  0.00000000E+00
  0.00000000E+00  0.00000000E+00  0.00000000E+00
  0.00000000E+00  0.00000000E+00  0.00000000E+00
  0.00000000E+00  0.00000000E+00  0.00000000E+00
  0.00000000E+00  0.00000000E+00  0.00000000E+00
  0.00000000E+00  0.00000000E+00  0.00000000E+00
  0.00000000E+00  0.00000000E+00  0.00000000E+00
  0.00000000E+00  0.00000000E+00  0.00000000E+00
  0.00000000E+00  0.00000000E+00  0.00000000E+00
  0.00000000E+00  0.00000000E+00  0.00000000E+00
  0.00000000E+00  0.00000000E+00  0.00000000E+00
  0.00000000E+00  0.00000000E+00  0.00000000E+00
  0.00000000E+00  0.00000000E+00  0.00000000E+00
  0.00000000E+00  0.00000000E+00  0.00000000E+00
  0.00000000E+00  0.00000000E+00  0.00000000E+00
  0.00000000E+00  0.00000000E+00  0.00000000E+00
  0.00000000E+00  0.00000000E+00  0.00000000E+00
  0.00000000E+00  0.00000000E+00  0.00000000E+00
  0.00000000E+00  0.00000000E+00  0.00000000E+00
  0.00000000E+00  0.00000000E+00  0.00000000E+00
  0.00000000E+00  0.00000000E+00  0.00000000E+00
  0.00000000E+00  0.00000000E+00  0.00000000E+00
  0.00000000E+00  0.00000000E+00  0.00000000E+00
  0.00000000E+00  0.00000000E+00  0.00000000E+00
  0.00000000E+00  0.00000000E+00  0.00000000E+00
  0.00000000E+00  0.00000000E+00  0.00000000E+00
  0.00000000E+00  0.00000000E+00  0.00000000E+00
  0.00000000E+00  0.00000000E+00  0.00000000E+00
  0.00000000E+00  0.00000000E+00  0.00000000E+00
  0.00000000E+00  0.00000000E+00  0.00000000E+00
  0.00000000E+00  0.00000000E+00  0.00000000E+00
  0.00000000E+00  0.00000000E+00  0.00000000E+00
  0.00000000E+00  0.00000000E+00  0.00000000E+00
  0.00000000E+00  0.00000000E+00  0.00000000E+00
  0.00000000E+00  0.00000000E+00  0.00000000E+00
  0.00000000E+00  0.00000000E+00  0.00000000E+00
  0.00000000E+00  0.00000000E+00  0.00000000E+00
  0.00000000E+00  0.00000000E+00  0.00000000E+00
  0.00000000E+00  0.00000000E+00  0.00000000E+00
  0.00000000E+00  0.00000000E+00  0.00000000E+00
  0.00000000E+00  0.00000000E+00  0.00000000E+00
  0.00000000E+00  0.00000000E+00  0.00000000E+00
  0.00000000E+00  0.00000000E+00  0.00000000E+00
