C H O Si                                
   1.00000000000000     
     9.2874599999999994    0.0000000000000000    0.0000000000000000
     0.0000000000000000    8.7563099999999991    0.0000000000000000
     0.0000000000000000    0.0000000000000000   58.0000000000000000
   C    H    O    Si
    36    33    16    36
Selective dynamics
Direct
  0.9964077846292186  0.1309138378361997  0.0593854881403851   T   T   T
  0.3299473685931236  0.1311443603981584  0.0594656910123912   T   T   T
  0.6630026928293726  0.1309642849874217  0.0595604191652243   T   T   T
  0.9963576736483801  0.6312366761176967  0.0594225293839975   T   T   T
  0.3296675153104994  0.6307163685805542  0.0594871149471960   T   T   T
  0.6629373710452497  0.6307176150645564  0.0595165591198091   T   T   T
  0.1613532417479666  0.3768117041684712  0.1381677149350511   T   T   T
  0.4947452700130697  0.3769688300340127  0.1386983275265273   T   T   T
  0.8281274177687271  0.3768376330887167  0.1382718797789061   T   T   T
  0.1617004770202288  0.8767955407684525  0.1383187473029184   T   T   T
  0.4947704850057382  0.8745423992801984  0.1384268704542102   T   T   T
  0.8276722262050766  0.8768079380350146  0.1383725685056468   T   T   T
  0.3277265658956923  0.1268734594411219  0.1656746879769076   T   T   T
  0.6610512037368722  0.1272547570121462  0.1658327686970305   T   T   T
  0.9941860058865334  0.1262852718534999  0.1652228100406170   T   T   T
  0.3274752200692286  0.6270226635961184  0.1656864208318389   T   T   T
  0.6615523192050881  0.6270566426336709  0.1656902446530095   T   T   T
  0.9944393507450108  0.6271166999088260  0.1653042300665971   T   T   T
  0.1601703552559939  0.3781066963150291  0.1901378823912047   T   T   T
  0.4937841807803129  0.3849720166514518  0.1917684561739611   T   T   T
  0.8282010663799459  0.3794714222470167  0.1904575554422988   T   T   T
  0.1613555811515034  0.8808736489458998  0.1906966933810510   T   T   T
  0.4947058728329550  0.8772753418269249  0.1914447027800049   T   T   T
  0.8280063027429138  0.8812622458546665  0.1908560193299055   T   T   T
  0.1621079153803220  0.3769836095421498  0.0847314172933638   T   T   T
  0.4954393981425094  0.3771147711909850  0.0850081310869179   T   T   T
  0.8287870204274987  0.3770503843164564  0.0847846264500351   T   T   T
  0.1622885582171245  0.8772243643272757  0.0847966341410625   T   T   T
  0.4953495861916946  0.8769512612340444  0.0847749497410389   T   T   T
  0.8285828237914873  0.8772638031415996  0.0848639516779973   T   T   T
  0.3284284772114867  0.1264241157553901  0.1120559709377154   T   T   T
  0.6613172980801637  0.1264410028590293  0.1121385325360649   T   T   T
  0.9949568286395553  0.1266667729631494  0.1118957791460756   T   T   T
  0.3283359005522505  0.6265299313701307  0.1120520481912806   T   T   T
  0.6615183819519255  0.6264879874736716  0.1120719794763963   T   T   T
  0.9949009259574597  0.6270386831215606  0.1118934593052856   T   T   T
  0.0745820827545506  0.3642399094442572  0.0272514730237350   T   T   T
  0.4085474001793050  0.3645904259520404  0.0274640766772177   T   T   T
  0.7406017812729256  0.3639959598637361  0.0273844712901884   T   T   T
  0.0756662022122105  0.8648698888608547  0.0273115704493484   T   T   T
  0.4077066917477853  0.8633618886262849  0.0272954959597702   T   T   T
  0.7399649164178451  0.8637135640028281  0.0274406771992121   T   T   T
  0.3284521927617338  0.0577472186503987  0.0440568753149188   T   T   T
  0.6604404662746275  0.0575250658514984  0.0441593154180163   T   T   T
  0.9938900402441025  0.0575813299314679  0.0439799674285279   T   T   T
  0.3275580298134356  0.5571583536582498  0.0440945523923713   T   T   T
  0.6611327254777694  0.5570681988667630  0.0441366747898798   T   T   T
  0.9939995605798110  0.5582860970072049  0.0439581775718418   T   T   T
  0.8305033113381443  0.8068043056593516  0.2061309172620540   T   T   T
  0.8312277902349469  0.3064397889752338  0.2058936267814551   T   T   T
  0.1626156241455527  0.3054240095081676  0.2056040885779807   T   T   T
  0.4958204126417943  0.3101380162901219  0.2070221422216919   T   T   T
  0.1625214139679991  0.8065462650962807  0.2059877650590326   T   T   T
  0.5367589957896605  0.9303548438297243  0.2615243098790750   T   T   T
  0.0914086231556401  0.1125685786216586  0.2218799789457176   T   T   T
  0.4189429286864593  0.1041739790985256  0.2232401103585407   T   T   T
  0.7571607501278328  0.1186404703682636  0.2214351916732980   T   T   T
  0.0958818779047091  0.5976056894753945  0.2217808684154225   T   T   T
  0.3683147739746818  0.5643493004131570  0.2299828168555288   T   T   T
  0.7831526112191588  0.5903811050657223  0.2221901502710527   T   T   T
  0.5099001842668003  0.5419955206296743  0.2661530724635949   T   T   T
  0.4735579029503510  0.4562639433987585  0.3009029131665594   T   T   T
  0.5218057265839879  0.6233375285116151  0.3093771405625408   T   T   T
  0.2901091135258222  0.2739036651423113  0.2964997539571431   T   T   T
  0.4395575265560028  0.2168155157088771  0.2886083657608711   T   T   T
  0.6386155998072076  0.7729693993988073  0.3350116813670651   T   T   T
  0.5026881171231331  0.8627748550286554  0.3274725003781289   T   T   T
  0.5082738582553823  0.8828260142692671  0.2712837215834448   T   T   T
  0.5717336139756262  0.5333541336448427  0.2401574046779147   T   T   T
  0.1706901609940651  0.3364371736044895  0.0326893949128294   T   T   T
  0.5046114883659303  0.3368219225075614  0.0329347822058481   T   T   T
  0.8368931974296007  0.3363730945709538  0.0327610883063294   T   T   T
  0.1716482972472485  0.8368745479645686  0.0327814696322648   T   T   T
  0.5039485203346037  0.8355954641905076  0.0326893182954846   T   T   T
  0.8363730282449832  0.8364434890313027  0.0328103736351377   T   T   T
  0.3213839914712796  0.0880031231729775  0.2173824508172747   T   T   T
  0.6584693128779172  0.0889058771709052  0.2176467605931265   T   T   T
  0.9926508329432355  0.0875641107327875  0.2173458186411904   T   T   T
  0.2970350030257375  0.5863243490607455  0.2176656108495000   T   T   T
  0.6802753987597100  0.5822798580387030  0.2183733091764475   T   T   T
  0.9938525035196767  0.5828365296553907  0.2172629239473888   T   T   T
  0.5303327496705801  0.5477623959275547  0.2967272408772867   T   T   T
  0.3905007682802936  0.2678257958335558  0.3013205795007297   T   T   T
  0.5363703625580009  0.7611113648356356  0.3316636801539268   T   T   T
  0.4907186323584223  0.5019475540350642  0.2505170858971136   T   T   T
  0.4967984457703534  0.2483152384107466  0.0592262272072615   T   T   T
  0.8298767362622229  0.2478676581062883  0.0590669655837425   T   T   T
  0.1633773612931637  0.7481420784499803  0.0590792373610657   T   T   T
  0.4965063774877198  0.7479190951689080  0.0590870916194155   T   T   T
  0.8296757177383770  0.7481686083898134  0.0591254500325790   T   T   T
  0.1633721119550146  0.2479335121379339  0.0589930852127506   T   T   T
  0.9947336527318604  0.0008486943484608  0.1385442226608746   T   T   T
  0.3296636777224667  0.0008647091150030  0.1388772174842746   T   T   T
  0.6598864914925152  0.0009938391285696  0.1389913767134114   T   T   T
  0.9947994004367152  0.5012589124220852  0.1385238349717403   T   T   T
  0.3282086915939791  0.5018887996255230  0.1388799012600197   T   T   T
  0.6614381465931392  0.5018282208748089  0.1388790392574188   T   T   T
  0.1617949155229553  0.2488101589247088  0.1645204828424237   T   T   T
  0.4942990661330905  0.2511712507467432  0.1654356503914531   T   T   T
  0.8271354853955832  0.2492543506872491  0.1646764570317803   T   T   T
  0.1617785977140326  0.7508743857019605  0.1648510048317829   T   T   T
  0.4946265364072095  0.7543004345361057  0.1663415826202458   T   T   T
  0.8275619557625550  0.7511849949793148  0.1649412253880856   T   T   T
  0.3336531878311489  0.9909614564002865  0.1914809393798433   T   T   T
  0.6549684981361434  0.9914433971879306  0.1917369882669150   T   T   T
  0.9947931289437346  0.9972407076212980  0.1910799100149557   T   T   T
  0.3241807641779504  0.5000382416578986  0.1917205928102348   T   T   T
  0.9946651096683826  0.4956831548024334  0.1908115234352576   T   T   T
  0.6627786576995097  0.4992177934378976  0.1915723596981991   T   T   T
  0.9955217777860801  0.0010035164676133  0.0855521140854837   T   T   T
  0.3291621856582638  0.0011324326129829  0.0856373300947332   T   T   T
  0.6618787952576686  0.0010512501307574  0.0857283977282042   T   T   T
  0.9955546633414458  0.5009927411057640  0.0855427483598109   T   T   T
  0.3288772955600743  0.5010820779690019  0.0856838753004076   T   T   T
  0.6621400987857780  0.5010692063900398  0.0857014747601235   T   T   T
  0.1619809942561691  0.2510890802685777  0.1118152453938299   T   T   T
  0.4949016277835331  0.2513637696757062  0.1121523963996537   T   T   T
  0.8279208758130540  0.2510957878963516  0.1118780833147188   T   T   T
  0.1621005803930009  0.7514504397004520  0.1118874298966196   T   T   T
  0.4949907802810338  0.7515959482588569  0.1120282914403399   T   T   T
  0.8277884562875731  0.7513483747419811  0.1119383282763225   T   T   T
 
  0.00000000E+00  0.00000000E+00  0.00000000E+00
  0.00000000E+00  0.00000000E+00  0.00000000E+00
  0.00000000E+00  0.00000000E+00  0.00000000E+00
  0.00000000E+00  0.00000000E+00  0.00000000E+00
  0.00000000E+00  0.00000000E+00  0.00000000E+00
  0.00000000E+00  0.00000000E+00  0.00000000E+00
  0.00000000E+00  0.00000000E+00  0.00000000E+00
  0.00000000E+00  0.00000000E+00  0.00000000E+00
  0.00000000E+00  0.00000000E+00  0.00000000E+00
  0.00000000E+00  0.00000000E+00  0.00000000E+00
  0.00000000E+00  0.00000000E+00  0.00000000E+00
  0.00000000E+00  0.00000000E+00  0.00000000E+00
  0.00000000E+00  0.00000000E+00  0.00000000E+00
  0.00000000E+00  0.00000000E+00  0.00000000E+00
  0.00000000E+00  0.00000000E+00  0.00000000E+00
  0.00000000E+00  0.00000000E+00  0.00000000E+00
  0.00000000E+00  0.00000000E+00  0.00000000E+00
  0.00000000E+00  0.00000000E+00  0.00000000E+00
  0.00000000E+00  0.00000000E+00  0.00000000E+00
  0.00000000E+00  0.00000000E+00  0.00000000E+00
  0.00000000E+00  0.00000000E+00  0.00000000E+00
  0.00000000E+00  0.00000000E+00  0.00000000E+00
  0.00000000E+00  0.00000000E+00  0.00000000E+00
  0.00000000E+00  0.00000000E+00  0.00000000E+00
  0.00000000E+00  0.00000000E+00  0.00000000E+00
  0.00000000E+00  0.00000000E+00  0.00000000E+00
  0.00000000E+00  0.00000000E+00  0.00000000E+00
  0.00000000E+00  0.00000000E+00  0.00000000E+00
  0.00000000E+00  0.00000000E+00  0.00000000E+00
  0.00000000E+00  0.00000000E+00  0.00000000E+00
  0.00000000E+00  0.00000000E+00  0.00000000E+00
  0.00000000E+00  0.00000000E+00  0.00000000E+00
  0.00000000E+00  0.00000000E+00  0.00000000E+00
  0.00000000E+00  0.00000000E+00  0.00000000E+00
  0.00000000E+00  0.00000000E+00  0.00000000E+00
  0.00000000E+00  0.00000000E+00  0.00000000E+00
  0.00000000E+00  0.00000000E+00  0.00000000E+00
  0.00000000E+00  0.00000000E+00  0.00000000E+00
  0.00000000E+00  0.00000000E+00  0.00000000E+00
  0.00000000E+00  0.00000000E+00  0.00000000E+00
  0.00000000E+00  0.00000000E+00  0.00000000E+00
  0.00000000E+00  0.00000000E+00  0.00000000E+00
  0.00000000E+00  0.00000000E+00  0.00000000E+00
  0.00000000E+00  0.00000000E+00  0.00000000E+00
  0.00000000E+00  0.00000000E+00  0.00000000E+00
  0.00000000E+00  0.00000000E+00  0.00000000E+00
  0.00000000E+00  0.00000000E+00  0.00000000E+00
  0.00000000E+00  0.00000000E+00  0.00000000E+00
  0.00000000E+00  0.00000000E+00  0.00000000E+00
  0.00000000E+00  0.00000000E+00  0.00000000E+00
  0.00000000E+00  0.00000000E+00  0.00000000E+00
  0.00000000E+00  0.00000000E+00  0.00000000E+00
  0.00000000E+00  0.00000000E+00  0.00000000E+00
  0.00000000E+00  0.00000000E+00  0.00000000E+00
  0.00000000E+00  0.00000000E+00  0.00000000E+00
  0.00000000E+00  0.00000000E+00  0.00000000E+00
  0.00000000E+00  0.00000000E+00  0.00000000E+00
  0.00000000E+00  0.00000000E+00  0.00000000E+00
  0.00000000E+00  0.00000000E+00  0.00000000E+00
  0.00000000E+00  0.00000000E+00  0.00000000E+00
  0.00000000E+00  0.00000000E+00  0.00000000E+00
  0.00000000E+00  0.00000000E+00  0.00000000E+00
  0.00000000E+00  0.00000000E+00  0.00000000E+00
  0.00000000E+00  0.00000000E+00  0.00000000E+00
  0.00000000E+00  0.00000000E+00  0.00000000E+00
  0.00000000E+00  0.00000000E+00  0.00000000E+00
  0.00000000E+00  0.00000000E+00  0.00000000E+00
  0.00000000E+00  0.00000000E+00  0.00000000E+00
  0.00000000E+00  0.00000000E+00  0.00000000E+00
  0.00000000E+00  0.00000000E+00  0.00000000E+00
  0.00000000E+00  0.00000000E+00  0.00000000E+00
  0.00000000E+00  0.00000000E+00  0.00000000E+00
  0.00000000E+00  0.00000000E+00  0.00000000E+00
  0.00000000E+00  0.00000000E+00  0.00000000E+00
  0.00000000E+00  0.00000000E+00  0.00000000E+00
  0.00000000E+00  0.00000000E+00  0.00000000E+00
  0.00000000E+00  0.00000000E+00  0.00000000E+00
  0.00000000E+00  0.00000000E+00  0.00000000E+00
  0.00000000E+00  0.00000000E+00  0.00000000E+00
  0.00000000E+00  0.00000000E+00  0.00000000E+00
  0.00000000E+00  0.00000000E+00  0.00000000E+00
  0.00000000E+00  0.00000000E+00  0.00000000E+00
  0.00000000E+00  0.00000000E+00  0.00000000E+00
  0.00000000E+00  0.00000000E+00  0.00000000E+00
  0.00000000E+00  0.00000000E+00  0.00000000E+00
  0.00000000E+00  0.00000000E+00  0.00000000E+00
  0.00000000E+00  0.00000000E+00  0.00000000E+00
  0.00000000E+00  0.00000000E+00  0.00000000E+00
  0.00000000E+00  0.00000000E+00  0.00000000E+00
  0.00000000E+00  0.00000000E+00  0.00000000E+00
  0.00000000E+00  0.00000000E+00  0.00000000E+00
  0.00000000E+00  0.00000000E+00  0.00000000E+00
  0.00000000E+00  0.00000000E+00  0.00000000E+00
  0.00000000E+00  0.00000000E+00  0.00000000E+00
  0.00000000E+00  0.00000000E+00  0.00000000E+00
  0.00000000E+00  0.00000000E+00  0.00000000E+00
  0.00000000E+00  0.00000000E+00  0.00000000E+00
  0.00000000E+00  0.00000000E+00  0.00000000E+00
  0.00000000E+00  0.00000000E+00  0.00000000E+00
  0.00000000E+00  0.00000000E+00  0.00000000E+00
  0.00000000E+00  0.00000000E+00  0.00000000E+00
  0.00000000E+00  0.00000000E+00  0.00000000E+00
  0.00000000E+00  0.00000000E+00  0.00000000E+00
  0.00000000E+00  0.00000000E+00  0.00000000E+00
  0.00000000E+00  0.00000000E+00  0.00000000E+00
  0.00000000E+00  0.00000000E+00  0.00000000E+00
  0.00000000E+00  0.00000000E+00  0.00000000E+00
  0.00000000E+00  0.00000000E+00  0.00000000E+00
  0.00000000E+00  0.00000000E+00  0.00000000E+00
  0.00000000E+00  0.00000000E+00  0.00000000E+00
  0.00000000E+00  0.00000000E+00  0.00000000E+00
  0.00000000E+00  0.00000000E+00  0.00000000E+00
  0.00000000E+00  0.00000000E+00  0.00000000E+00
  0.00000000E+00  0.00000000E+00  0.00000000E+00
  0.00000000E+00  0.00000000E+00  0.00000000E+00
  0.00000000E+00  0.00000000E+00  0.00000000E+00
  0.00000000E+00  0.00000000E+00  0.00000000E+00
  0.00000000E+00  0.00000000E+00  0.00000000E+00
  0.00000000E+00  0.00000000E+00  0.00000000E+00
  0.00000000E+00  0.00000000E+00  0.00000000E+00
  0.00000000E+00  0.00000000E+00  0.00000000E+00
