C H O Si                                
   1.00000000000000     
    18.5749199999999988    0.0000000000000000    0.0000000000000000
     0.0000000000000000   17.5126199999999983    0.0000000000000000
     0.0000000000000000    0.0000000000000000   58.0000000000000000
   C    H    O    Si
   144   105    52   144
Selective dynamics
Direct
  0.4964457839551115  0.0630109916592192  0.0605105274663773   T   T   T
  0.1630553518275424  0.0629967919952349  0.0604741540650219   T   T   T
  0.3297903164526230  0.0630163869681455  0.0604861274411761   T   T   T
  0.4963250122336633  0.3130693165325854  0.0604695959522202   T   T   T
  0.1629607797721794  0.3131235512990857  0.0604318053522118   T   T   T
  0.3296709873704803  0.3131270813322110  0.0604351091923163   T   T   T
  0.0797516213829757  0.1857065835299436  0.1394018738945089   T   T   T
  0.2464052767056692  0.1857221895023485  0.1394346236373582   T   T   T
  0.4130647312044115  0.1857216975439893  0.1394696143166752   T   T   T
  0.0797301511585155  0.4357455226442627  0.1394270487565038   T   T   T
  0.2463949714414970  0.4357412108464904  0.1394434475879515   T   T   T
  0.4130482612531168  0.4357390620977499  0.1394621907285181   T   T   T
  0.1632694723447852  0.0608536612154309  0.1666089173673538   T   T   T
  0.3299241058745765  0.0608578053328473  0.1666291205381796   T   T   T
  0.4965149980179960  0.0607192249168687  0.1666171729320919   T   T   T
  0.1632594999398120  0.3108522643638423  0.1665981235668186   T   T   T
  0.3299381587797571  0.3108732442221065  0.1666144200176282   T   T   T
  0.4965753174199963  0.3108961887659556  0.1666399404860072   T   T   T
  0.0802828684577440  0.1881449697044624  0.1920157077147140   T   T   T
  0.2468438866302633  0.1880724898510984  0.1920118955960212   T   T   T
  0.4133968813381763  0.1879666294023200  0.1920353891083482   T   T   T
  0.0801760423819285  0.4379041625698733  0.1920303612390552   T   T   T
  0.2468823863422607  0.4380078932721720  0.1920229373440321   T   T   T
  0.4135052706877820  0.4380463301544245  0.1920230361214108   T   T   T
  0.0795480538418926  0.1859195113158721  0.0858141314731417   T   T   T
  0.2462266743081249  0.1858634270892930  0.0858519784399472   T   T   T
  0.4128852093908925  0.1858850079408640  0.0858733161676959   T   T   T
  0.0795761576108134  0.4358688174982394  0.0858499331301982   T   T   T
  0.2462521144717766  0.4358173340866165  0.0858855548599761   T   T   T
  0.4129292863253658  0.4358146964968882  0.0858892827518015   T   T   T
  0.1629421002566560  0.0607100723134012  0.1130079054324402   T   T   T
  0.3296335824408929  0.0607344899805765  0.1130311130216886   T   T   T
  0.4962845534164891  0.0607039033730962  0.1130535685983070   T   T   T
  0.1628948733069753  0.3107200897693037  0.1130105658408766   T   T   T
  0.3295796560428106  0.3107190911354718  0.1130238594916066   T   T   T
  0.4962427031410873  0.3106951578185908  0.1130507522509271   T   T   T
  0.4964988747874440  0.5629133122949548  0.0605176086747860   T   T   T
  0.1630940930890510  0.5630062472050226  0.0605011732218231   T   T   T
  0.3298279396193530  0.5629994845305343  0.0605075941499700   T   T   T
  0.4963721535278723  0.8130642043419174  0.0604785766737384   T   T   T
  0.1629770197433787  0.8130275007948505  0.0604469052404718   T   T   T
  0.3296900584850195  0.8130851201511700  0.0604449625404947   T   T   T
  0.0797396525160394  0.6857604370670916  0.1394385879476751   T   T   T
  0.2464005733631344  0.6857288340279295  0.1394541603375045   T   T   T
  0.4130770509538423  0.6857591479829103  0.1394605731808062   T   T   T
  0.0798073827772851  0.9355831093542284  0.1394011440275859   T   T   T
  0.2463989989106750  0.9357343372342859  0.1394450926333138   T   T   T
  0.4130298084841206  0.9356845101366240  0.1394556761473884   T   T   T
  0.1632368380085881  0.5608209864540608  0.1666273948349433   T   T   T
  0.3299446879730266  0.5608850636330068  0.1666310507122241   T   T   T
  0.4965767846356021  0.5609539786175908  0.1666308879109560   T   T   T
  0.1632968065258521  0.8108309904014344  0.1666115740699836   T   T   T
  0.3299574456617388  0.8108743119115299  0.1666177187916081   T   T   T
  0.4966292030393881  0.8109169561281763  0.1666501086207741   T   T   T
  0.0802791664190179  0.6880813271385677  0.1920172590352326   T   T   T
  0.2469053361071075  0.6880600059136567  0.1920366862213847   T   T   T
  0.4135580271427053  0.6880553165633965  0.1920246858033828   T   T   T
  0.0803200985670556  0.9380172282126800  0.1919949116921804   T   T   T
  0.2469120566829486  0.9380200436128445  0.1920280106749950   T   T   T
  0.4135544693287665  0.9380355766943231  0.1920327909100135   T   T   T
  0.0795371430115438  0.6858856448801220  0.0858409081705862   T   T   T
  0.2462448668519872  0.6858305660268690  0.0858697126911834   T   T   T
  0.4129297590226891  0.6858686423217063  0.0858701678675252   T   T   T
  0.0795796029772430  0.9358079296407776  0.0858277480168399   T   T   T
  0.2462607510165647  0.9358031593753355  0.0858726863080722   T   T   T
  0.4129351256752135  0.9358212686036897  0.0858746975991137   T   T   T
  0.1629252586174737  0.5607534591539854  0.1130358921401864   T   T   T
  0.3296240975992392  0.5607474544280209  0.1130433231500567   T   T   T
  0.4962963506408004  0.5607297956542930  0.1130532448518879   T   T   T
  0.1629251864199100  0.8106772600239025  0.1130111630085946   T   T   T
  0.3295800055990168  0.8107104428243302  0.1130224277392594   T   T   T
  0.4962867702311154  0.8107445940911701  0.1130542635041453   T   T   T
  0.9963554846164617  0.0630430555748285  0.0604244919947331   T   T   T
  0.6631802458678561  0.0630275959445361  0.0605760976686542   T   T   T
  0.8296239558610718  0.0631446086612785  0.0604905172834612   T   T   T
  0.9962765141496321  0.3131905388298366  0.0603717005487684   T   T   T
  0.6630373036859513  0.3128914863926667  0.0605872228157608   T   T   T
  0.8296771748593603  0.3130454261471776  0.0604956148370463   T   T   T
  0.5797036263645577  0.1856901585966689  0.1394735447358715   T   T   T
  0.7463747914670842  0.1858627626112467  0.1396509376265285   T   T   T
  0.9130756016968762  0.1856137441368326  0.1392953377026669   T   T   T
  0.5797047998526222  0.4357455224197097  0.1394907645733953   T   T   T
  0.7463953870086161  0.4356841501510652  0.1394899409018553   T   T   T
  0.9130605076137397  0.4357571051854455  0.1394227599293398   T   T   T
  0.6634130440734858  0.0610944663052735  0.1667663365662388   T   T   T
  0.8296947555976083  0.0609310812560282  0.1666529005435341   T   T   T
  0.9968005910915071  0.0605159378405115  0.1664621436091144   T   T   T
  0.6631549142315528  0.3108915232106834  0.1667976410036780   T   T   T
  0.8300408522083537  0.3108932865487404  0.1666487428596978   T   T   T
  0.9966293760131031  0.3108443269635495  0.1664740133710234   T   T   T
  0.5799275468528692  0.1874978018219232  0.1918948103065973   T   T   T
  0.7468414435131004  0.1895433289798393  0.1926964163872578   T   T   T
  0.9138848477863103  0.1867761252382130  0.1914735028845423   T   T   T
  0.5801446101393568  0.4384029780903806  0.1920397105626833   T   T   T
  0.7468827529274301  0.4379476274411175  0.1920386148935456   T   T   T
  0.9135900276451809  0.4383829403578186  0.1919382305759376   T   T   T
  0.5795762808812811  0.1858259835540533  0.0859015510441397   T   T   T
  0.7462807863866262  0.1858604151814999  0.0860290764658370   T   T   T
  0.9129013170237040  0.1858955372842238  0.0857838259954963   T   T   T
  0.5796180119493097  0.4357688470555932  0.0859157654484309   T   T   T
  0.7462525176906042  0.4357483969530142  0.0859276277096936   T   T   T
  0.9128845198793455  0.4358412508359475  0.0858648929270655   T   T   T
  0.6629486352383179  0.0607458473135731  0.1131164179499553   T   T   T
  0.8295878713111208  0.0607197493231556  0.1130504944252126   T   T   T
  0.9963048929190074  0.0606692647624909  0.1129677345466703   T   T   T
  0.6628723059937273  0.3106876612650089  0.1131441624650466   T   T   T
  0.8295944134369317  0.3107377880873159  0.1130580472851187   T   T   T
  0.9962486559615664  0.3107369976403677  0.1129520738348640   T   T   T
  0.9963643820127502  0.5630302943029512  0.0604738747979219   T   T   T
  0.6631302226369226  0.5628927006369300  0.0605334010322435   T   T   T
  0.8297514145204120  0.5629748037045181  0.0605109438685778   T   T   T
  0.9962688999906975  0.8131016116268422  0.0604286265177078   T   T   T
  0.6630073788706885  0.8130455315650021  0.0604962218985623   T   T   T
  0.8296307387807038  0.8130937122234287  0.0604559751082361   T   T   T
  0.5797488702406828  0.6857572465325328  0.1394781049038367   T   T   T
  0.7463825120295460  0.6858040199550531  0.1394640106511241   T   T   T
  0.9130451074019563  0.6857425537517647  0.1394533590287962   T   T   T
  0.5797757798388443  0.9358368122708699  0.1395227685825237   T   T   T
  0.7463327873206586  0.9356983867643474  0.1394792805384479   T   T   T
  0.9129741719461862  0.9357636099197478  0.1394512987478313   T   T   T
  0.6633047573996309  0.5609247859047105  0.1666297486326564   T   T   T
  0.8298808015363591  0.5609116412786322  0.1666063746793253   T   T   T
  0.9966818420838347  0.5609167654747557  0.1665947845729039   T   T   T
  0.6632390929265665  0.8109036359990418  0.1666661928213871   T   T   T
  0.8299563737199976  0.8108861117867894  0.1666276508891168   T   T   T
  0.9966231967508038  0.8108787476369748  0.1666071482756749   T   T   T
  0.5802790340901698  0.6880796348532959  0.1920558318496974   T   T   T
  0.7469313422203453  0.6880948230278440  0.1920316002650807   T   T   T
  0.9135804703453662  0.6880491164882464  0.1920156883700173   T   T   T
  0.5803078981804817  0.9381576439097772  0.1920869503221993   T   T   T
  0.7469467115003462  0.9380401597817697  0.1920724292236971   T   T   T
  0.9136251527626350  0.9380706712770547  0.1920019573384584   T   T   T
  0.5796133299209282  0.6858334685604590  0.0858859929809591   T   T   T
  0.7462248374356910  0.6858365279807777  0.0858931620973903   T   T   T
  0.9128425977923259  0.6858933327097493  0.0858618761381897   T   T   T
  0.5796313850249015  0.9358552927975184  0.0859151161114298   T   T   T
  0.7462501370659230  0.9357764075130084  0.0859115126840974   T   T   T
  0.9128571440270116  0.9358872320518542  0.0858569360406240   T   T   T
  0.6629415908276888  0.5607168060100942  0.1130683073023838   T   T   T
  0.8295810648026142  0.5607449917685091  0.1130442039756758   T   T   T
  0.9962634634261164  0.5607559683207722  0.1130233500165956   T   T   T
  0.6628823406866383  0.8107389351070909  0.1130610802382224   T   T   T
  0.8295452620723643  0.8107403657662996  0.1130340792487532   T   T   T
  0.9961973684075466  0.8107374769323097  0.1130171978971523   T   T   T
  0.0402317662010701  0.1769271899817702  0.0261979931558276   T   T   T
  0.2065297612867469  0.1768310558144620  0.0263021818863073   T   T   T
  0.3732083629703909  0.1767974897124391  0.0263103755760008   T   T   T
  0.0398265280231588  0.4269103362975677  0.0261900362231266   T   T   T
  0.2059070072454000  0.4267398694672779  0.0263004727956318   T   T   T
  0.3725909003321786  0.4266856821392896  0.0263109005963512   T   T   T
  0.1616124974456964  0.0268922853395873  0.0449218449643300   T   T   T
  0.3283052594728939  0.0268981783919488  0.0449315323268777   T   T   T
  0.4949866266668926  0.0269153534038253  0.0449555957938476   T   T   T
  0.1615985830890423  0.2768981697616166  0.0449034911098981   T   T   T
  0.3282838233617678  0.2768735112176920  0.0449115990092228   T   T   T
  0.4949875219557126  0.2768586460735237  0.0449321709870286   T   T   T
  0.4145677755870935  0.4017525999541533  0.2075418413988063   T   T   T
  0.4144345404994142  0.1517143440137102  0.2075646839876657   T   T   T
  0.0810676373538078  0.1517957962601892  0.2075224797070512   T   T   T
  0.2478637091017659  0.1518290867486987  0.2075437576754374   T   T   T
  0.0812235487812950  0.4015118749299491  0.2075337593178917   T   T   T
  0.2478930827659664  0.4016921270620803  0.2075323163494845   T   T   T
  0.0390855436791189  0.0506081029458564  0.2260041421752440   T   T   T
  0.2055198518650636  0.0508197306104228  0.2260976964592319   T   T   T
  0.3723311362484771  0.0508154495704076  0.2260593310824295   T   T   T
  0.0315626229261323  0.3010202426212353  0.2270684792347221   T   T   T
  0.2055584533857103  0.3008977513358273  0.2260800398551741   T   T   T
  0.3723816562403184  0.3006438779633597  0.2260859708500381   T   T   T
  0.0401762487237409  0.6768929370122998  0.0262635495950866   T   T   T
  0.2067542638836973  0.6768149694413856  0.0263073346051217   T   T   T
  0.3733938468610733  0.6767999792091578  0.0263220385267395   T   T   T
  0.0397419944042721  0.9267474365780882  0.0262297643045987   T   T   T
  0.2059699000717315  0.9266366447500138  0.0262914039930151   T   T   T
  0.3729596668965661  0.9267146912815610  0.0262820886162917   T   T   T
  0.1616218235219776  0.5268684669475292  0.0449527370173211   T   T   T
  0.3283118616842695  0.5268826555584650  0.0449561035261976   T   T   T
  0.4949550388368525  0.5268545867719061  0.0449510906857908   T   T   T
  0.1616203166664021  0.7768086592279723  0.0449096612108694   T   T   T
  0.3283031567726119  0.7768326582781203  0.0449193676626620   T   T   T
  0.4949960817192948  0.7768631345101183  0.0449372787481992   T   T   T
  0.4145261477879549  0.9016911394055293  0.2075419100600528   T   T   T
  0.4145632111660610  0.6517501577352621  0.2075444696767768   T   T   T
  0.0812464575823873  0.6517596709295246  0.2075261443385891   T   T   T
  0.2479334884750675  0.6518088552640904  0.2075607132787154   T   T   T
  0.0812201742610157  0.9017073341867835  0.2075037435715672   T   T   T
  0.2479043897156113  0.9017194331243743  0.2075413047075256   T   T   T
  0.0387793941918877  0.5513563414054130  0.2260597221705483   T   T   T
  0.2054574790818958  0.5512322107859190  0.2260595593006785   T   T   T
  0.3722106639011482  0.5511811258315011  0.2260453833221982   T   T   T
  0.0387920016405329  0.8009622387182176  0.2260924211465571   T   T   T
  0.2052623636353118  0.8010793544974890  0.2261543908919668   T   T   T
  0.3725479656457771  0.8007271414962958  0.2260134308674755   T   T   T
  0.5406300739695052  0.1769376723208947  0.0262581643838560   T   T   T
  0.7059874311497298  0.1768874999498998  0.0264738482874446   T   T   T
  0.8727312249077216  0.1768128804843307  0.0262712122939929   T   T   T
  0.5405602689714837  0.4268822992867968  0.0262511588628909   T   T   T
  0.7058700082057761  0.4266016803197969  0.0263995727545242   T   T   T
  0.8719624241242740  0.4265825146258869  0.0263364898706156   T   T   T
  0.6617934858100575  0.0268571846253157  0.0450400105373975   T   T   T
  0.8279679134953751  0.0269855877859776  0.0449607910560453   T   T   T
  0.9949290547790062  0.0269454459044931  0.0448773668189643   T   T   T
  0.6616415355534064  0.2766650253079933  0.0450561534767286   T   T   T
  0.8281818102444177  0.2768389628961150  0.0449606564808540   T   T   T
  0.9948909511851550  0.2770136337958387  0.0448307632148841   T   T   T
  0.9143687124481559  0.4024247527169403  0.2074993324426979   T   T   T
  0.9150537150840383  0.1507768869901544  0.2070428839844543   T   T   T
  0.5807989343961945  0.1514507596013933  0.2074660327752190   T   T   T
  0.7481001820052945  0.1527371670249652  0.2081014085326002   T   T   T
  0.5810538456093853  0.4020470363104859  0.2075314327521899   T   T   T
  0.7470865420924571  0.4017245611451725  0.2075633469385292   T   T   T
  0.5384849748248154  0.0510515913174994  0.2261995286830979   T   T   T
  0.7059983410628708  0.0502235466384311  0.2262255683123085   T   T   T
  0.8725246758010774  0.0505733746252752  0.2260967369133642   T   T   T
  0.5417269434958180  0.3006659052564252  0.2249859829160860   T   T   T
  0.6886865744418086  0.3094799806606945  0.2291928044849331   T   T   T
  0.8898658526142036  0.2950245917375763  0.2232911655051894   T   T   T
  0.7714567119545572  0.3054915299002006  0.2742955150968193   T   T   T
  0.7450286601816704  0.2371826075065206  0.2934234498084195   T   T   T
  0.7854056438504716  0.3192533829587691  0.3032255448972724   T   T   T
  0.6567700979390475  0.1941644545237406  0.3097350427810337   T   T   T
  0.7107475613193014  0.1300005635418937  0.3023088491865184   T   T   T
  0.8256492867107078  0.3657325947418104  0.3334862761487413   T   T   T
  0.7426499785847062  0.3775057803980017  0.3308285140983681   T   T   T
  0.7560391574640133  0.3964620975120720  0.2524966766299194   T   T   T
  0.7913073313746012  0.3252827061408833  0.2393134797513984   T   T   T
  0.5404643565170790  0.6769525497687137  0.0262850229691917   T   T   T
  0.7066785602680332  0.6768716490915933  0.0263443413056025   T   T   T
  0.8729277836426791  0.6767881033362870  0.0263391489367206   T   T   T
  0.5399329039803539  0.9268418120341104  0.0262958734598698   T   T   T
  0.7059207237925124  0.9267487767973259  0.0263357213889961   T   T   T
  0.8723909630351069  0.9267328573690520  0.0263056999435988   T   T   T
  0.6616351410312110  0.5267913179290412  0.0449754060271557   T   T   T
  0.8282483761736511  0.5268628415374146  0.0449557244250606   T   T   T
  0.9948649101893490  0.5268925892929106  0.0449261743886815   T   T   T
  0.6615677596272128  0.7768564304734916  0.0449528788518993   T   T   T
  0.8282049933722760  0.7768539055825937  0.0449296158090960   T   T   T
  0.9948542172545172  0.7768586047611554  0.0448990621696804   T   T   T
  0.9147217115602992  0.9018191683531317  0.2075333703056359   T   T   T
  0.9146570555239036  0.6518080398730822  0.2075442994530882   T   T   T
  0.5812314783163359  0.6517726541375369  0.2075688170506072   T   T   T
  0.7480390816121092  0.6519037631322627  0.2075685974307560   T   T   T
  0.5812211391329591  0.9018575089660631  0.2076069581983245   T   T   T
  0.7480042303832724  0.9018021016026800  0.2076011058308144   T   T   T
  0.5382724423308878  0.5515398606006467  0.2261074808206175   T   T   T
  0.7056466611572226  0.5525921746192111  0.2258837260092481   T   T   T
  0.8720236288370404  0.5517793403126114  0.2260001113309522   T   T   T
  0.5388141567054291  0.8009145165083453  0.2261017829092507   T   T   T
  0.7053749743776488  0.8010559107127782  0.2261752662650595   T   T   T
  0.8725383695410194  0.8007615145187992  0.2260263168701622   T   T   T
  0.0856208450006439  0.1673770344863353  0.0341584062500881   T   T   T
  0.2520951654764040  0.1674484141441848  0.0341879084951983   T   T   T
  0.4187445583702285  0.1675647186034177  0.0342273891486257   T   T   T
  0.0852314245432337  0.4181123441223396  0.0342263876286361   T   T   T
  0.2515083967119625  0.4183004450504414  0.0342719777960638   T   T   T
  0.4181816605507284  0.4182306858280087  0.0342815716757377   T   T   T
  0.1595160207511976  0.0429108934210608  0.2182741095662516   T   T   T
  0.3262207701518586  0.0428444030331984  0.2182978485544522   T   T   T
  0.4926233047291652  0.0428753958434259  0.2183200046011730   T   T   T
  0.1595449282451017  0.2929760047870777  0.2182732384402874   T   T   T
  0.3263482537053045  0.2929019239180866  0.2182735082176142   T   T   T
  0.4937402139827376  0.2924200996524803  0.2183272268315294   T   T   T
  0.0856302906943455  0.6672642768950752  0.0341795286152657   T   T   T
  0.2522609107768675  0.6673168736762769  0.0342050513944261   T   T   T
  0.4189295000997457  0.6673518587743938  0.0342186734861852   T   T   T
  0.0852262358010525  0.9177013507637105  0.0341901111910027   T   T   T
  0.2515574158401505  0.9180719286488672  0.0342532384838341   T   T   T
  0.4184948097982317  0.9178414211146155  0.0342384067180591   T   T   T
  0.1594428164960200  0.5428585514631417  0.2182842941098101   T   T   T
  0.3261366921469023  0.5428630308427834  0.2182965613091633   T   T   T
  0.4923536681993440  0.5428853129566155  0.2183172338007979   T   T   T
  0.1593807295333527  0.7929443609674488  0.2182848876024672   T   T   T
  0.3263886601433829  0.7929279737144006  0.2182696049112198   T   T   T
  0.4928016492122446  0.7928922754037996  0.2182982173186427   T   T   T
  0.5859726808894723  0.1670842416138172  0.0342169280098169   T   T   T
  0.7515836026492105  0.1688206030402911  0.0344869027869817   T   T   T
  0.9183463883547903  0.1674545822267752  0.0341280640982602   T   T   T
  0.5858822862941816  0.4171462411474555  0.0342289973232015   T   T   T
  0.7515579373043197  0.4175702976800541  0.0342584819897736   T   T   T
  0.9177111820866297  0.4182273922097741  0.0342374620980672   T   T   T
  0.6599182270201354  0.0429103181323481  0.2183934615858709   T   T   T
  0.8264560455519812  0.0430017563987131  0.2182778026869185   T   T   T
  0.9930760029008798  0.0432862018733802  0.2181247541007191   T   T   T
  0.6506934120252397  0.2932412972001520  0.2183347165625879   T   T   T
  0.8388683090210867  0.2921761020849829  0.2183816979665808   T   T   T
  0.9884656831168561  0.2921309730068830  0.2178565344330083   T   T   T
  0.7840341022844687  0.2792639334355678  0.2898119395976887   T   T   T
  0.6900466172511827  0.1787762266208536  0.2975557335039102   T   T   T
  0.7878442405637650  0.3763816804463547  0.3222550903368200   T   T   T
  0.7534059751302796  0.3409814237046259  0.2508648565180796   T   T   T
  0.5858536137170162  0.6671834429211037  0.0342218819907369   T   T   T
  0.7522047609186828  0.6673601387412119  0.0342380029414889   T   T   T
  0.9185157789046174  0.6675611651968090  0.0342239716990448   T   T   T
  0.5853947365534854  0.9177238697377219  0.0342650257217659   T   T   T
  0.7515447237176562  0.9179681583561867  0.0342563853273367   T   T   T
  0.9180112684065359  0.9182051099353360  0.0342559407321523   T   T   T
  0.6595527916076886  0.5428104601634876  0.2183168746954137   T   T   T
  0.8260399620457781  0.5429225524745853  0.2182523295121903   T   T   T
  0.9927918642062352  0.5429469338315299  0.2182689680621876   T   T   T
  0.6594594586511893  0.7928874545500101  0.2183260963822582   T   T   T
  0.8263902974936864  0.7929087109651590  0.2182795317700727   T   T   T
  0.9928022792307949  0.7929186663333040  0.2182727661591476   T   T   T
  0.2464965202471194  0.1217155527417019  0.0595982477366519   T   T   T
  0.4131902342861929  0.1217541068326193  0.0596209137344413   T   T   T
  0.0797276823447264  0.3719203138495840  0.0595578673530029   T   T   T
  0.2463723159927987  0.3719308466949418  0.0595764730245774   T   T   T
  0.4130734602369290  0.3718990052524571  0.0595887870799598   T   T   T
  0.0798200570570033  0.1217175796140100  0.0595701722083109   T   T   T
  0.4963714170692988  0.4985032875280840  0.1397557121856964   T   T   T
  0.1630735423312306  0.4985070831885745  0.1397334624045525   T   T   T
  0.3297317044164410  0.4984965836938844  0.1397447030763517   T   T   T
  0.4963839432589597  0.2484857679560124  0.1397589528784902   T   T   T
  0.1630842615382780  0.2484731525862439  0.1397093175110289   T   T   T
  0.3297443919736718  0.2484788624103890  0.1397350765488161   T   T   T
  0.0799700904242303  0.1231003762328142  0.1660865972619554   T   T   T
  0.2466045486242841  0.1231944574098361  0.1661457788703219   T   T   T
  0.4132439939583830  0.1231311175342678  0.1661641293746875   T   T   T
  0.0799988322747587  0.3731883834190547  0.1661116409716343   T   T   T
  0.2466098944694638  0.3731836785605458  0.1661396800736451   T   T   T
  0.4132585955073093  0.3731732627324029  0.1661580199862887   T   T   T
  0.1635305296589373  0.4967340327517044  0.1929050036209787   T   T   T
  0.3301788804625527  0.4967834052477565  0.1929063701989843   T   T   T
  0.4967176366339461  0.4969357811104482  0.1929030410800432   T   T   T
  0.1635827790486986  0.2469328636066796  0.1929070117419961   T   T   T
  0.4967148080884172  0.2466192665452896  0.1928887662424361   T   T   T
  0.3301744116777883  0.2467750610353353  0.1928881937440229   T   T   T
  0.4963076719126062  0.4980954556743707  0.0863632152253537   T   T   T
  0.1629641798409899  0.4981658818025346  0.0863414804960288   T   T   T
  0.3296303529393347  0.4981440139760482  0.0863514378401260   T   T   T
  0.4962490242090067  0.2481723191817617  0.0863372018830306   T   T   T
  0.1629341535784337  0.2482140024532698  0.0862907623507456   T   T   T
  0.3295684333243286  0.2482227725662842  0.0863093473669210   T   T   T
  0.0796255236066654  0.1234381516880791  0.1126805695003076   T   T   T
  0.2462956151811644  0.1234666255727495  0.1127266116388513   T   T   T
  0.4129570265186913  0.1234701681420010  0.1127537646216927   T   T   T
  0.0795962566833021  0.3734803835156655  0.1127106733020038   T   T   T
  0.2462532654747710  0.3734449272331010  0.1127439214859402   T   T   T
  0.4129242293612286  0.3734410800979356  0.1127551092482631   T   T   T
  0.2465453261472378  0.6216698480421614  0.0596252940202723   T   T   T
  0.4132493716187680  0.6216734940790312  0.0596371122584920   T   T   T
  0.0797392008235232  0.8717600233493716  0.0595677823140120   T   T   T
  0.2463880371894615  0.8718524174828268  0.0595767129141338   T   T   T
  0.4131189742695383  0.8718082173291581  0.0595979544628134   T   T   T
  0.0798235301528505  0.6216610095674335  0.0596102513150421   T   T   T
  0.4963300295720753  0.9984271192204537  0.1397524006810778   T   T   T
  0.1630688648843075  0.9984535410888049  0.1397137083053848   T   T   T
  0.3297264760522365  0.9984769671442396  0.1397412339203883   T   T   T
  0.4964161459594112  0.7485152057450174  0.1397577217787356   T   T   T
  0.1630827931691123  0.7484908050246757  0.1397265554464697   T   T   T
  0.3297484157015451  0.7484928409480279  0.1397343806553136   T   T   T
  0.0799756713577945  0.6232327771792765  0.1661373912300622   T   T   T
  0.2465930868747499  0.6231846864187446  0.1661613290802224   T   T   T
  0.4132518101892415  0.6232105469138114  0.1661523450286492   T   T   T
  0.0799890410373240  0.8731323143750068  0.1661288159031030   T   T   T
  0.2466135183809679  0.8731736958705005  0.1661484194578367   T   T   T
  0.4132690538778677  0.8731866344994169  0.1661633337656724   T   T   T
  0.1635845726981387  0.9967657278241512  0.1928880119154110   T   T   T
  0.3302164577016924  0.9967751302226407  0.1929041732672979   T   T   T
  0.4968438195213496  0.9967977973657555  0.1929294519097488   T   T   T
  0.1635683767114144  0.7468005632227191  0.1928983424014582   T   T   T
  0.4968490581962013  0.7467967669144641  0.1929166919460457   T   T   T
  0.3302327323216784  0.7467772273511158  0.1928851975742467   T   T   T
  0.4962942388698653  0.9981439695219100  0.0863572057068097   T   T   T
  0.1629689264193569  0.9981241488702096  0.0863146000214774   T   T   T
  0.3296252774213828  0.9981519403061030  0.0863329921959722   T   T   T
  0.4962867918347589  0.7481796889950768  0.0863405887943394   T   T   T
  0.1629400042668219  0.7481570627466682  0.0863091955888758   T   T   T
  0.3295833684561482  0.7481888200717365  0.0863170378715391   T   T   T
  0.0795879896094825  0.6235007794004283  0.1127276117025497   T   T   T
  0.2462754044818447  0.6234774332749000  0.1127466012852194   T   T   T
  0.4129605288055083  0.6234884933411919  0.1127525441855261   T   T   T
  0.0795897556708463  0.8733835689815331  0.1127069495328138   T   T   T
  0.2462525461125710  0.8734433671999907  0.1127381930146714   T   T   T
  0.4129148390300927  0.8734270988610363  0.1127503069797775   T   T   T
  0.7464160557726206  0.1220063307849193  0.0597172630140552   T   T   T
  0.9130611214472472  0.1217491519626497  0.0595420661601475   T   T   T
  0.5798537369809921  0.3716083264248867  0.0596657345225477   T   T   T
  0.7463581432252754  0.3716897794389989  0.0596469412126061   T   T   T
  0.9129414360301364  0.3719245915131455  0.0595635408020024   T   T   T
  0.5799116022033395  0.1216204015185884  0.0596681638838034   T   T   T
  0.9964244832103122  0.4985175791702264  0.1397125527296230   T   T   T
  0.6630382387997513  0.4984684391010710  0.1397633915344288   T   T   T
  0.8296938948102133  0.4984828273532871  0.1397318010827925   T   T   T
  0.9963908856963170  0.2483869861623086  0.1395836564681981   T   T   T
  0.6629538160010001  0.2484980735531982  0.1398730744514333   T   T   T
  0.8297594226744444  0.2483865052876771  0.1397172316860462   T   T   T
  0.5797869608411134  0.1230079925241676  0.1661428507044658   T   T   T
  0.7465287217247568  0.1238563263401270  0.1664770300366349   T   T   T
  0.9133772597804157  0.1223999106139687  0.1658042334250768   T   T   T
  0.5798167898695930  0.3733213788918719  0.1662171255458767   T   T   T
  0.7464742691201948  0.3730493949294423  0.1661635403384878   T   T   T
  0.9133476507828845  0.3733422825035871  0.1661018403648764   T   T   T
  0.6634369859076100  0.4969862265251043  0.1928940417764657   T   T   T
  0.8302448116984035  0.4969555841196845  0.1928539306004105   T   T   T
  0.9969534860683106  0.4969444942141468  0.1928714518738389   T   T   T
  0.6623997398481368  0.2474446890955892  0.1932846004617616   T   T   T
  0.9966720727184462  0.2460677162309497  0.1924592292549867   T   T   T
  0.8314060598637814  0.2462997872975666  0.1926804584533396   T   T   T
  0.9962503942186949  0.4981712906008878  0.0863218453274807   T   T   T
  0.6629792991214425  0.4980781284422626  0.0863804535972313   T   T   T
  0.8295876267275029  0.4981214387735453  0.0863504748663993   T   T   T
  0.9962349087771010  0.2482606125272419  0.0862302763691419   T   T   T
  0.6629338591227817  0.2481153246792702  0.0864418846730715   T   T   T
  0.8295932081168587  0.2481814147217435  0.0863452571761126   T   T   T
  0.5795901281762716  0.1234492083686156  0.1127779779215371   T   T   T
  0.7462731624211747  0.1234549932381822  0.1128804788618920   T   T   T
  0.9129518086676485  0.1233850988529892  0.1126232499511232   T   T   T