C H O Si                                
   1.00000000000000     
    18.5749199999999988    0.0000000000000000    0.0000000000000000
     0.0000000000000000   17.5126199999999983    0.0000000000000000
     0.0000000000000000    0.0000000000000000   58.0000000000000000
   C    H    O    Si
   144   105    52   144
Selective dynamics
Direct
  0.4964089577143377  0.0630354821677985  0.0605029934330541   T   T   T
  0.1630298309975419  0.0629984436221313  0.0604706939377746   T   T   T
  0.3297210921235500  0.0630179066673368  0.0604748016267790   T   T   T
  0.4963148188539919  0.3130593213270095  0.0604654015448555   T   T   T
  0.1629437299562077  0.3131072329645189  0.0604331720062098   T   T   T
  0.3296019090101024  0.3131155431491168  0.0604330572163026   T   T   T
  0.0797190997247398  0.1857262266719075  0.1393823551935430   T   T   T
  0.2463994608089695  0.1857469265939379  0.1394305921347899   T   T   T
  0.4130655305701160  0.1857467559519382  0.1394646630390036   T   T   T
  0.0797230093317366  0.4357535832188830  0.1394156628081493   T   T   T
  0.2463843019011070  0.4357560509158782  0.1394388545048978   T   T   T
  0.4130453032851751  0.4357611429440341  0.1394516390971174   T   T   T
  0.1632601240393037  0.0608389458414191  0.1666207829689688   T   T   T
  0.3299098809849788  0.0608349941169401  0.1666376209387404   T   T   T
  0.4964935321705975  0.0607026327677806  0.1666311334818606   T   T   T
  0.1632571547057330  0.3108424933139643  0.1666014023611035   T   T   T
  0.3299204250399270  0.3108420570384637  0.1666254224311434   T   T   T
  0.4965683447405299  0.3108715763867745  0.1666454027963696   T   T   T
  0.0802180531075442  0.1881011973376799  0.1920213061084338   T   T   T
  0.2467942463381933  0.1880509228771030  0.1920189989598716   T   T   T
  0.4134117026486579  0.1879246535405562  0.1920441001945479   T   T   T
  0.0801288751814052  0.4378949085007931  0.1920368202984934   T   T   T
  0.2468487099904095  0.4379944440205033  0.1920243810139863   T   T   T
  0.4134977415975541  0.4380131561207228  0.1920270365415777   T   T   T
  0.0795234526641903  0.1858955137058301  0.0858024594971538   T   T   T
  0.2461900470976321  0.1858591366643680  0.0858385671065250   T   T   T
  0.4128641859743559  0.1858539271247210  0.0858713822610889   T   T   T
  0.0795346361851978  0.4358383633779255  0.0858455930164758   T   T   T
  0.2462153755503882  0.4357951303216916  0.0858794513353634   T   T   T
  0.4129029335984136  0.4357860544486050  0.0858857809099549   T   T   T
  0.1629335537153584  0.0607241156800607  0.1130078913770879   T   T   T
  0.3296131375389612  0.0607140196868683  0.1130339696358698   T   T   T
  0.4962584864961288  0.0606928776177436  0.1130547379567561   T   T   T
  0.1628535384058191  0.3107127066855069  0.1130060525187508   T   T   T
  0.3295332429007575  0.3107035075105105  0.1130245736650010   T   T   T
  0.4961948688588622  0.3106754355680917  0.1130476824450592   T   T   T
  0.4964832537518347  0.5629362327058951  0.0605069199927694   T   T   T
  0.1630553947544661  0.5629839910824106  0.0604968966125078   T   T   T
  0.3297719839994104  0.5629818286471614  0.0605026294847902   T   T   T
  0.4963458089025259  0.8130394693440072  0.0604717039794225   T   T   T
  0.1629843202132102  0.8130009829697326  0.0604436754522281   T   T   T
  0.3296403573900639  0.8130691584980202  0.0604433713266360   T   T   T
  0.0797279063193137  0.6858022762765520  0.1394275373952866   T   T   T
  0.2464080504066239  0.6857593646088112  0.1394501807262294   T   T   T
  0.4130855011552142  0.6857987173796126  0.1394535759712103   T   T   T
  0.0797975878019368  0.9355973891576972  0.1393925844469695   T   T   T
  0.2463766462756694  0.9357512241174257  0.1394423877518186   T   T   T
  0.4130065948962601  0.9357020013652967  0.1394484349082986   T   T   T
  0.1632461387788354  0.5608344909072449  0.1666396974657518   T   T   T
  0.3299113257055216  0.5608507645938211  0.1666408875453635   T   T   T
  0.4965657778491412  0.5609171687548863  0.1666393328095060   T   T   T
  0.1632865901300850  0.8108085732572576  0.1666273512416513   T   T   T
  0.3299389288923078  0.8108388901496456  0.1666250376945973   T   T   T
  0.4966026889813844  0.8108777524001295  0.1666581718997655   T   T   T
  0.0802058075712710  0.6880518318426735  0.1920191279018118   T   T   T
  0.2468623775619279  0.6880390713918292  0.1920398241953151   T   T   T
  0.4135408012446296  0.6879766612579667  0.1920270757195905   T   T   T
  0.0802644302243371  0.9379971022518526  0.1919965310778092   T   T   T
  0.2468919346221295  0.9379976495442180  0.1920299613348751   T   T   T
  0.4135472542963765  0.9380078542963340  0.1920408808451456   T   T   T
  0.0795084104037820  0.6858589025333587  0.0858374624087447   T   T   T
  0.2462068406546964  0.6858340641136585  0.0858592636568358   T   T   T
  0.4129003382093317  0.6858530632781101  0.0858695696074969   T   T   T
  0.0795415267951842  0.9357936143878138  0.0858343415422022   T   T   T
  0.2462340020829253  0.9357957757176320  0.0858641982960302   T   T   T
  0.4129093405013737  0.9357841572702856  0.0858797634498341   T   T   T
  0.1628933827949776  0.5607472727048126  0.1130299332006467   T   T   T
  0.3295896554933693  0.5607426293561039  0.1130428360902080   T   T   T
  0.4962677684061347  0.5607117599259122  0.1130532528274445   T   T   T
  0.1628744287189819  0.8107027815741142  0.1130088755013392   T   T   T
  0.3295326360979667  0.8106933933116577  0.1130243110878349   T   T   T
  0.4962476720052855  0.8107262394135173  0.1130524940605896   T   T   T
  0.9963352595354060  0.0630778120528322  0.0604248128643997   T   T   T
  0.6631868054675228  0.0629959293600596  0.0605830966849726   T   T   T
  0.8295620036635011  0.0631186577449256  0.0605043699967922   T   T   T
  0.9962583530450896  0.3132342918590266  0.0603586742144991   T   T   T
  0.6630212479471866  0.3128505935249948  0.0605821396464801   T   T   T
  0.8296114916833264  0.3130248444676751  0.0604884050549045   T   T   T
  0.5796796818823570  0.1857079885863015  0.1394678345270418   T   T   T
  0.7463465897894437  0.1858196129188709  0.1396384603010212   T   T   T
  0.9130440939428306  0.1856289331883318  0.1392778327934075   T   T   T
  0.5796846704787819  0.4357856944146384  0.1394890282361294   T   T   T
  0.7463616356462096  0.4356767596122872  0.1394925189018578   T   T   T
  0.9130289085288770  0.4357907951824396  0.1394107149870970   T   T   T
  0.6633793641971524  0.0611361780481890  0.1667668138496291   T   T   T
  0.8296641635143572  0.0608944798245545  0.1666531953138414   T   T   T
  0.9967610184434682  0.0605245057647500  0.1664711162913109   T   T   T
  0.6631265460404954  0.3108746809065625  0.1668007883879031   T   T   T
  0.8299803139065107  0.3108408846407752  0.1666453393928689   T   T   T
  0.9965937360971194  0.3108310170673174  0.1664666691906689   T   T   T
  0.5799177384264871  0.1874858735530482  0.1919051842732007   T   T   T
  0.7468146982900157  0.1895623242725299  0.1927081394609065   T   T   T
  0.9138354501923381  0.1867473686742665  0.1914643151524381   T   T   T
  0.5800851793527190  0.4384239188801062  0.1920522587705362   T   T   T
  0.7468426100562381  0.4379349712348348  0.1920384081329152   T   T   T
  0.9135788493517785  0.4383498522415251  0.1919440064248923   T   T   T
  0.5795607051448305  0.1858038915400957  0.0858957998933294   T   T   T
  0.7462292737798080  0.1858654168805057  0.0860151450411530   T   T   T
  0.9128872120357386  0.1858563465730310  0.0857805086319971   T   T   T
  0.5795798147461970  0.4357393733636608  0.0859090265586260   T   T   T
  0.7462268810104822  0.4357405592537444  0.0859126915806658   T   T   T
  0.9128627120055893  0.4358172835113817  0.0858600149513354   T   T   T
  0.6629497510526476  0.0607361118599995  0.1131141231990424   T   T   T
  0.8295522017633851  0.0606945476641474  0.1130484303143743   T   T   T
  0.9962696747827997  0.0606818878365343  0.1129665739157116   T   T   T
  0.6628500331364087  0.3106719154032790  0.1131376318586582   T   T   T
  0.8295203754387424  0.3107019717591504  0.1130519213738224   T   T   T
  0.9961947286358854  0.3107833108501196  0.1129505491701129   T   T   T
  0.9963069541176400  0.5630142461025641  0.0604704073106457   T   T   T
  0.6631220581192326  0.5628567150240498  0.0605282333467974   T   T   T
  0.8296776848532904  0.5629324796134801  0.0605087493588648   T   T   T
  0.9962175616150414  0.8131197792097301  0.0604182154311580   T   T   T
  0.6629800764463168  0.8130207598112991  0.0604899679919288   T   T   T
  0.8295711087379555  0.8130796051712755  0.0604537805369241   T   T   T
  0.5797491702772343  0.6857892769703675  0.1394720040632721   T   T   T
  0.7463744765779440  0.6858484820806088  0.1394610994964479   T   T   T
  0.9130492748282757  0.6857752982307791  0.1394456255347850   T   T   T
  0.5797405086607851  0.9358482727650783  0.1395112397352444   T   T   T
  0.7462921578379338  0.9356822202913661  0.1394893825445988   T   T   T
  0.9129471961320729  0.9357771736864359  0.1394446298839694   T   T   T
  0.6632905773364292  0.5609118390417531  0.1666398804948369   T   T   T
  0.8298448092148821  0.5608913510667441  0.1666052050961535   T   T   T
  0.9966402035356547  0.5608958171090856  0.1666042568210207   T   T   T
  0.6632314160756135  0.8108992139726449  0.1666729462412917   T   T   T
  0.8299341349921232  0.8108568990601300  0.1666358793782118   T   T   T
  0.9966113131999638  0.8108494498885034  0.1666265395483499   T   T   T
  0.5802112835097911  0.6880484235741119  0.1920579811205893   T   T   T
  0.7468799102375432  0.6880819836449978  0.1920386574004168   T   T   T
  0.9135652394669090  0.6879869143021194  0.1920164013321929   T   T   T
  0.5802342402524883  0.9381525593171902  0.1920985025982485   T   T   T
  0.7469353378188915  0.9380408160490320  0.1920809841572605   T   T   T
  0.9135986216916578  0.9380121347749371  0.1920086125618451   T   T   T
  0.5795776313877546  0.6858178760215863  0.0858822018394596   T   T   T
  0.7462043254748797  0.6858297651094402  0.0858812070444039   T   T   T
  0.9128382688431548  0.6858619155274163  0.0858592733549843   T   T   T
  0.5796125314987582  0.9358208715564337  0.0859127418133693   T   T   T
  0.7462326676786569  0.9357717890094641  0.0859009829066173   T   T   T
  0.9128580026889698  0.9358454128777541  0.0858555795356653   T   T   T
  0.6629393010735962  0.5606896900951016  0.1130680898707200   T   T   T
  0.8295374659383574  0.5607191624980984  0.1130386786678948   T   T   T
  0.9962131875515253  0.5607526085908792  0.1130183802810333   T   T   T
  0.6628565099019814  0.8106983974378218  0.1130568026315115   T   T   T
  0.8294911330045156  0.8107177295519665  0.1130328713058573   T   T   T
  0.9961251102954232  0.8107273473248634  0.1130151163916518   T   T   T
  0.0402920996667254  0.1768956199286027  0.0262062902314819   T   T   T
  0.2065824354883808  0.1767955337636675  0.0263119163821016   T   T   T
  0.3732574921820456  0.1767639331102210  0.0263170844835861   T   T   T
  0.0398625798491342  0.4268790396831694  0.0261962202119329   T   T   T
  0.2059215773689729  0.4267175131861949  0.0262969397718636   T   T   T
  0.3725888976566771  0.4266657888443308  0.0263048425640570   T   T   T
  0.1615760248172793  0.0269127156298970  0.0449140391206454   T   T   T
  0.3282706637072161  0.0269104070702577  0.0449228110227714   T   T   T
  0.4949523751739021  0.0269332518435250  0.0449494553377751   T   T   T
  0.1615816407518870  0.2768920064164195  0.0448980871590132   T   T   T
  0.3282702837078799  0.2768594270930632  0.0449063270918076   T   T   T
  0.4949701753429593  0.2768689447015233  0.0449292292007665   T   T   T
  0.4145586969690864  0.4017255347094715  0.2075456621668282   T   T   T
  0.4144334706240876  0.1516907737603613  0.2075716246295469   T   T   T
  0.0810752498442837  0.1517691217558332  0.2075228048485447   T   T   T
  0.2478646881734398  0.1518253102764482  0.2075449541730510   T   T   T
  0.0812133986258661  0.4014825211992038  0.2075385480327638   T   T   T
  0.2478872713538053  0.4016708428814726  0.2075338911262795   T   T   T
  0.0391214530299729  0.0506401913588686  0.2260150336909265   T   T   T
  0.2055883201484582  0.0508475526357182  0.2261096179358981   T   T   T
  0.3723907788736978  0.0508411880434064  0.2260678394852883   T   T   T
  0.0315405337149088  0.3010136297188377  0.2270544162478824   T   T   T
  0.2055879141225504  0.3009346913182389  0.2260990402500139   T   T   T
  0.3724595667025484  0.3006712903398345  0.2260961401891005   T   T   T
  0.0402469633297774  0.6768497065456347  0.0262782298524486   T   T   T
  0.2068071213074002  0.6767781149126380  0.0263156680961816   T   T   T
  0.3734647674052597  0.6767602345018789  0.0263335197551415   T   T   T
  0.0397690295042273  0.9267119339446045  0.0262368579393799   T   T   T
  0.2059824683571835  0.9266169500703991  0.0262860844069246   T   T   T
  0.3729786705368756  0.9266805751355821  0.0262856132105722   T   T   T
  0.1615824774104658  0.5268898569378977  0.0449465412473576   T   T   T
  0.3282702960658625  0.5269005615633683  0.0449474244454219   T   T   T
  0.4949108993421500  0.5268875776201254  0.0449450895897310   T   T   T
  0.1615986275810318  0.7768223276307032  0.0449079917779823   T   T   T
  0.3282860810646004  0.7768270009144801  0.0449153521466881   T   T   T
  0.4949704463999500  0.7768678741127940  0.0449305156521188   T   T   T
  0.4145202641621944  0.9016582268109542  0.2075425325576206   T   T   T
  0.4145612571659685  0.6517279026796153  0.2075499318743219   T   T   T
  0.0812360356339948  0.6517308105289494  0.2075298411902127   T   T   T
  0.2479247661040272  0.6517935712589965  0.2075640799681279   T   T   T
  0.0812138959488473  0.9016678113164307  0.2075098396550774   T   T   T
  0.2478973172141667  0.9016945833225694  0.2075449555706151   T   T   T
  0.0388348911164140  0.5514026365471558  0.2260727498427833   T   T   T
  0.2055254757967080  0.5512847202901606  0.2260760333073442   T   T   T
  0.3722712154976646  0.5512290861265986  0.2260621579450685   T   T   T
  0.0388590693750767  0.8010020989362918  0.2261091524837970   T   T   T
  0.2053180576419453  0.8011264362183799  0.2261743556047485   T   T   T
  0.3726014009858791  0.8007505117171448  0.2260201925895158   T   T   T
  0.5407283705197502  0.1769001284455113  0.0262700705082213   T   T   T
  0.7060295286757304  0.1768613693022408  0.0264736594919102   T   T   T
  0.8727579803523253  0.1767888134822540  0.0262715744596465   T   T   T
  0.5406308276376287  0.4268358417710190  0.0262642914287853   T   T   T
  0.7059020278968360  0.4265848853208260  0.0263958179234228   T   T   T
  0.8719815819297659  0.4265664754463734  0.0263318712350911   T   T   T
  0.6617460903549155  0.0268646781758342  0.0450347393564435   T   T   T
  0.8279424176379542  0.0269827142219200  0.0449520518878478   T   T   T
  0.9948943607280317  0.0269576394154852  0.0448712878852774   T   T   T
  0.6616146150585485  0.2766793033603936  0.0450463664646137   T   T   T
  0.8281616783589505  0.2768429744074556  0.0449546416371689   T   T   T
  0.9948713908951710  0.2770041082332166  0.0448286951835258   T   T   T
  0.9143573522020959  0.4023923847118493  0.2075056725671517   T   T   T
  0.9150595904052289  0.1507715914862799  0.2070472951686838   T   T   T
  0.5808000650189618  0.1514421210373474  0.2074761243443511   T   T   T
  0.7480980554064440  0.1527009838792975  0.2081045724540919   T   T   T
  0.5810491952577624  0.4020139564521613  0.2075312323866933   T   T   T
  0.7470780486978846  0.4017025008870089  0.2075703547551835   T   T   T
  0.5385469544704706  0.0510961620711997  0.2262196899290792   T   T   T
  0.7060486307143882  0.0502594167720135  0.2262413095585915   T   T   T
  0.8725804903603955  0.0505951611106658  0.2261076905867554   T   T   T
  0.5417719133553944  0.3006939098673058  0.2250028602231295   T   T   T
  0.6887147289832071  0.3094607885050498  0.2291829134316340   T   T   T
  0.8898678149226076  0.2950421377693977  0.2232998048558106   T   T   T
  0.7715067469887100  0.3055300551148237  0.2742906773930996   T   T   T
  0.7450705438121312  0.2371909369414392  0.2934190576032280   T   T   T
  0.7854371478438401  0.3192355944053915  0.3032180725744900   T   T   T
  0.6568378581507647  0.1942297264547892  0.3097247294060282   T   T   T
  0.7107460130282991  0.1300586686055022  0.3022963291118882   T   T   T
  0.8256525005116493  0.3657380142341155  0.3335001439711362   T   T   T
  0.7426023198432568  0.3774509386189599  0.3308281931953438   T   T   T
  0.7560987023680453  0.3964756818162094  0.2524968929184130   T   T   T
  0.7912682594707894  0.3252406666062576  0.2393211547833263   T   T   T
  0.5405491964146739  0.6769185258846743  0.0262927319763655   T   T   T
  0.7067517354399517  0.6768330339913944  0.0263544506028728   T   T   T
  0.8729576348373074  0.6767604222476056  0.0263415609961590   T   T   T
  0.5399838433474149  0.9268010181037740  0.0263042771997207   T   T   T
  0.7059339074233724  0.9267281755353223  0.0263321338516550   T   T   T
  0.8724005177367944  0.9267148009180169  0.0263008769254562   T   T   T
  0.6615930489497484  0.5268135046318644  0.0449640996456738   T   T   T
  0.8282147417171777  0.5268873028201384  0.0449484232803633   T   T   T
  0.9948362687546287  0.5269061429905605  0.0449191596144700   T   T   T
  0.6615496539417902  0.7768703317772755  0.0449479547762906   T   T   T
  0.8281876557531963  0.7768494848582614  0.0449241843913726   T   T   T
  0.9948431147149960  0.7768569100914249  0.0448965720731316   T   T   T
  0.9147205415844236  0.9017926273540386  0.2075389277480353   T   T   T
  0.9146489114681715  0.6517862650460023  0.2075505524798023   T   T   T
  0.5812205996658826  0.6517412694726695  0.2075721906545900   T   T   T
  0.7480339655686322  0.6518991085925023  0.2075683467600842   T   T   T
  0.5812132802734621  0.9018362641107645  0.2076068800959678   T   T   T
  0.7479944244274521  0.9017909616268730  0.2076048233768746   T   T   T
  0.5383318280897196  0.5515789548798320  0.2261173051052936   T   T   T
  0.7057072592314513  0.5526369454348561  0.2258983561244526   T   T   T
  0.8720807149118490  0.5518247943071057  0.2260140335208534   T   T   T
  0.5388876931165286  0.8009497183945737  0.2261155992215564   T   T   T
  0.7054247782509354  0.8011025438054046  0.2261952570861415   T   T   T
  0.8725879099381503  0.8007803429099588  0.2260315381500564   T   T   T
  0.0857320580567876  0.1673070218018792  0.0341610313900283   T   T   T
  0.2522196336521078  0.1674296820048198  0.0341864941368684   T   T   T
  0.4188695306136923  0.1675582414271422  0.0342236809339874   T   T   T
  0.0853195286483669  0.4181603321181919  0.0342267306249629   T   T   T
  0.2515881136720014  0.4184150903755207  0.0342632492653395   T   T   T
  0.4182664146528714  0.4183361368262306  0.0342701367577626   T   T   T
  0.1596280441275069  0.0429217523928360  0.2182875473994687   T   T   T
  0.3263430174339257  0.0428610051231978  0.2183122172439990   T   T   T
  0.4927857148092103  0.0428486532422309  0.2183235081411085   T   T   T
  0.1596340629567876  0.2929678730393063  0.2182857756132995   T   T   T
  0.3264779241575396  0.2928947335902420  0.2182784979370332   T   T   T
  0.4938068038840833  0.2924917953713591  0.2183583141688404   T   T   T
  0.0857632856992910  0.6671854429625769  0.0341810884237781   T   T   T
  0.2524001523962480  0.6672739561012859  0.0342097298792647   T   T   T
  0.4190526617733182  0.6673236978336099  0.0342191123358892   T   T   T
  0.0853492194718131  0.9177093227931065  0.0341862549102614   T   T   T
  0.2516472602680187  0.9181601038026351  0.0342439787329476   T   T   T
  0.4186106900606869  0.9178856681816451  0.0342261338945372   T   T   T
  0.1595787415661382  0.5428839253703619  0.2182978648011699   T   T   T
  0.3262774418155353  0.5428748220991153  0.2183062769909546   T   T   T
  0.4924825919646263  0.5428350999218341  0.2183172945371479   T   T   T
  0.1595187358525948  0.7929358756816997  0.2182872092135118   T   T   T
  0.3265228678485388  0.7929153987944395  0.2182672106114009   T   T   T
  0.4929223188762451  0.7929012830221480  0.2183077561903436   T   T   T
  0.5860628040834238  0.1669753454079466  0.0342298057041878   T   T   T
  0.7516754900263806  0.1690075747540620  0.0344919703096356   T   T   T
  0.9184381811137203  0.1674430755533008  0.0341288596959289   T   T   T
  0.5859879637315600  0.4170534953373056  0.0342349214450893   T   T   T
  0.7516513284353310  0.4175803691727782  0.0342552120824816   T   T   T
  0.9177719545991068  0.4183119791714157  0.0342280474256958   T   T   T
  0.6600657680121618  0.0428849808457156  0.2183899824772371   T   T   T
  0.8265988709583914  0.0429876196944464  0.2182816144176184   T   T   T
  0.9932399047578534  0.0432825145705936  0.2181130531368065   T   T   T
  0.6508449813782277  0.2932027707204140  0.2183349960124675   T   T   T
  0.8388689310972792  0.2921677995452677  0.2183917481581809   T   T   T
  0.9884757447419148  0.2921572915080531  0.2178321455619597   T   T   T
  0.7839924335196807  0.2792543885510550  0.2897769330530403   T   T   T
  0.6900882546387268  0.1788444484024144  0.2975647931879941   T   T   T
  0.7878435992446045  0.3764276676358519  0.3222568863130075   T   T   T
  0.7535086684391498  0.3410012057277657  0.2508718550268052   T   T   T
  0.5859593644978951  0.6670843828943558  0.0342364151504054   T   T   T
  0.7523293060000665  0.6673273472190726  0.0342430613297116   T   T   T
  0.9186519838214956  0.6675777025270808  0.0342142630325382   T   T   T
  0.5855159691074268  0.9177123654411176  0.0342635612311449   T   T   T
  0.7516540096655316  0.9180411762165059  0.0342374322008136   T   T   T
  0.9180905512595915  0.9183019213869135  0.0342426460285450   T   T   T
  0.6596722983147011  0.5428171591449908  0.2183306681161936   T   T   T
  0.8261800366534087  0.5429428589540011  0.2182633268591139   T   T   T
  0.9929275673323199  0.5429554271313392  0.2182840286510910   T   T   T
  0.6596098295053441  0.7928717030807352  0.2183255305250160   T   T   T
  0.8265097788870569  0.7929082575609382  0.2182820291569006   T   T   T
  0.9929349766529086  0.7929271457376822  0.2182829558188014   T   T   T
  0.2464519209114610  0.1217441430997986  0.0595824611408342   T   T   T
  0.4131373167560186  0.1217849930712553  0.0596045833858655   T   T   T
  0.0797061813487649  0.3719416037036506  0.0595461518883350   T   T   T
  0.2463273638154348  0.3719446489260207  0.0595642810753728   T   T   T
  0.4130207428604987  0.3719120100935405  0.0595740310360247   T   T   T
  0.0797944674429578  0.1217290980102584  0.0595672012271667   T   T   T
  0.4963686705711698  0.4985237568480196  0.1397698383983645   T   T   T
  0.1630755031131388  0.4985188621945759  0.1397385027507683   T   T   T
  0.3297307125753794  0.4985108349182793  0.1397502122635514   T   T   T
  0.4963911750482258  0.2484962721648310  0.1397656810560358   T   T   T
  0.1630810021048023  0.2484768834563607  0.1397087830482027   T   T   T
  0.3297397292114850  0.2484890459709619  0.1397356125650093   T   T   T
  0.0799450896523595  0.1231199087978571  0.1660732720571160   T   T   T
  0.2465809468092101  0.1232119964660134  0.1661406977180996   T   T   T
  0.4132233896549543  0.1231621028445706  0.1661610820324581   T   T   T
  0.0799773583266271  0.3732186061559229  0.1661038812339464   T   T   T
  0.2465854022000019  0.3732054480882236  0.1661360372363549   T   T   T
  0.4132191349347940  0.3732136625894130  0.1661532534512049   T   T   T
  0.1635128842637870  0.4967362391452304  0.1929143288747041   T   T   T
  0.3301800850911537  0.4967984937067973  0.1929122323545240   T   T   T
  0.4967171473725513  0.4969466838366961  0.1929120484989860   T   T   T
  0.1635716836753943  0.2469739802387803  0.1929207022553767   T   T   T
  0.4967308437891454  0.2466345618170880  0.1929029969267728   T   T   T
  0.3301831864884034  0.2467779474764490  0.1928905055102025   T   T   T
  0.4963112863036997  0.4980835663725137  0.0863601461878392   T   T   T
  0.1629473002682406  0.4981220172891856  0.0863374906869026   T   T   T
  0.3296256193089412  0.4981165206309391  0.0863480377046518   T   T   T
  0.4962389718751418  0.2481528155236399  0.0863378610660946   T   T   T
  0.1629010594648752  0.2482008716376348  0.0862882438918996   T   T   T
  0.3295651839220649  0.2481990601721694  0.0863031542994981   T   T   T
  0.0795756430414261  0.1234591738805289  0.1126782802870441   T   T   T
  0.2462660573686276  0.1234930022250070  0.1127260011939786   T   T   T
  0.4129278089214577  0.1235040870001495  0.1127572392321383   T   T   T
  0.0795398134077938  0.3734858253354905  0.1127061324125280   T   T   T
  0.2461905021938095  0.3734651678395149  0.1127397723099891   T   T   T
  0.4128516756391674  0.3734706367695794  0.1127513553935847   T   T   T
  0.2465062711755718  0.6216832976846147  0.0596143819916414   T   T   T
  0.4132215829817266  0.6216826787440581  0.0596145678346612   T   T   T
  0.0797027291748905  0.8717941099384980  0.0595531534265299   T   T   T
  0.2463415079440283  0.8718532839606553  0.0595686046825697   T   T   T
  0.4130524571581223  0.8718379571078930  0.0595809458789799   T   T   T
  0.0797983198079564  0.6216776530026967  0.0595922484010736   T   T   T
  0.4963253710745252  0.9984556729664700  0.1397656983356848   T   T   T
  0.1630674494805909  0.9984791844405730  0.1397186162584038   T   T   T
  0.3297325522440814  0.9985007793535200  0.1397480934117416   T   T   T
  0.4964135154739411  0.7485346837944227  0.1397667316755913   T   T   T
  0.1630824766456136  0.7485023443360006  0.1397288540325307   T   T   T
  0.3297368782794138  0.7485034553150767  0.1397404750810228   T   T   T
  0.0799329784795873  0.6232517649930049  0.1661309959707428   T   T   T
  0.2465691722006679  0.6232141367745473  0.1661583921682273   T   T   T
  0.4132321861964300  0.6232103855368690  0.1661473516910106   T   T   T
  0.0799648407151485  0.8731452984261734  0.1661213168148550   T   T   T
  0.2465919588418684  0.8732004701970653  0.1661437760015967   T   T   T
  0.4132314555029646  0.8732101693472017  0.1661578211323474   T   T   T
  0.1635835153425954  0.9967961044454651  0.1929061188581059   T   T   T
  0.3302237581817652  0.9967843383533610  0.1929145548272368   T   T   T
  0.4968507808680336  0.9968262903964877  0.1929319672735557   T   T   T
  0.1635553074182882  0.7468376567846956  0.1929135210516453   T   T   T
  0.4968626545261086  0.7467956643278719  0.1929163072612410   T   T   T
  0.3302305161670013  0.7467888511691604  0.1928908102472641   T   T   T
  0.4962992183133939  0.9981274094143968  0.0863502051865245   T   T   T
  0.1629422433944260  0.9980923537523222  0.0863091747745558   T   T   T
  0.3296365312208440  0.9981275989473518  0.0863302357099454   T   T   T
  0.4962851816886119  0.7481631227671773  0.0863364122783406   T   T   T
  0.1629061788738837  0.7481347154351337  0.0863027015334738   T   T   T
  0.3295794470937044  0.7481625858211881  0.0863107821018156   T   T   T
  0.0795500669405878  0.6235321022998456  0.1127297539773179   T   T   T
  0.2462453112636817  0.6235099482892135  0.1127475619929355   T   T   T
  0.4129173703628573  0.6235093884589719  0.1127539530455320   T   T   T
  0.0795305526371048  0.8733828644669899  0.1127003559399904   T   T   T
  0.2461942709490725  0.8734769945724721  0.1127396431087784   T   T   T
  0.4128545366388454  0.8734528195105852  0.1127523939860545   T   T   T
  0.7463985982934271  0.1220544564071067  0.0597083081987269   T   T   T
  0.9130154598578799  0.1217721031409032  0.0595289010378583   T   T   T
  0.5798439875415188  0.3716147016492510  0.0596589648708202   T   T   T
  0.7463129661056656  0.3717049797085087  0.0596410250271917   T   T   T
  0.9129014150049115  0.3719581799103448  0.0595441078336055   T   T   T
  0.5799166736120611  0.1216254769572142  0.0596607416576455   T   T   T
  0.9964268971140909  0.4985180173080262  0.1397200233904707   T   T   T
  0.6630297057155899  0.4984788615352533  0.1397733380684213   T   T   T
  0.8296963157900011  0.4984927650754548  0.1397348768648570   T   T   T
  0.9964030445276619  0.2483718649985674  0.1395864840812092   T   T   T
  0.6629331483123565  0.2484923486756441  0.1398729509209431   T   T   T
  0.8297469149224941  0.2483766856961116  0.1397144384947644   T   T   T
  0.5797680035889243  0.1230162833489076  0.1661318790959795   T   T   T
  0.7465197652243348  0.1238364242490083  0.1664767241218689   T   T   T
  0.9133704516028108  0.1223858615656508  0.1658027566595479   T   T   T
  0.5798050980780066  0.3733447044914053  0.1662134008161681   T   T   T
  0.7464486857088030  0.3730516077093720  0.1661658462449741   T   T   T
  0.9133195952517490  0.3733333172419908  0.1660930101917313   T   T   T
  0.6634359078507128  0.4969915068318615  0.1929013503277232   T   T   T
  0.8302540954425425  0.4969533999591072  0.1928633707714604   T   T   T
  0.9969452366712611  0.4969468894817295  0.1928834676347375   T   T   T
  0.6623954857249782  0.2474312449797561  0.1932818122514381   T   T   T
  0.9966806611264909  0.2460554210343216  0.1924538818197102   T   T   T
  0.8313693648430005  0.2462952433759864  0.1926905658884539   T   T   T
  0.9962364469984772  0.4981535899624179  0.0863194379756758   T   T   T
  0.6629713766891306  0.4980508914826361  0.0863763582209680   T   T   T
  0.8295841292062944  0.4981010412712600  0.0863501746196086   T   T   T
  0.9962319312748937  0.2482600438501186  0.0862273869476902   T   T   T
  0.6629250657373941  0.2480983271267346  0.0864348586214320   T   T   T
  0.8295861708804506  0.2481614762273976  0.0863428172198095   T   T   T
  0.5795624345018543  0.1234773198778366  0.1127751053573618   T   T   T
  0.7462434958707207  0.1234760013892189  0.1128765191243318   T   T   T
  0.9129121893809667  0.1234128448057228  0.1126182485205610   T   T   T