C H O Si                                
   1.00000000000000     
     9.2874599999999994    0.0000000000000000    0.0000000000000000
     0.0000000000000000    8.7562999999999995    0.0000000000000000
     0.0000000000000000    0.0000000000000000   58.0000000000000000
   C    H    O    Si
    36    33    16    36
Selective dynamics
Direct
  0.0006849533021734  0.1351835609625248  0.3755240908220918   T   T   T
  0.0006577794203493  0.6353256559192173  0.3755387319535474   T   T   T
  0.3340638822321979  0.1352123929955144  0.3756304268074558   T   T   T
  0.3340358265917572  0.6351148744024101  0.3756418681158150   T   T   T
  0.6671821489704958  0.1351282032862634  0.3756315504208539   T   T   T
  0.6671973051911201  0.6350653833132869  0.3756279954119233   T   T   T
  0.1676696764973064  0.3815361685778337  0.4009455694042406   T   T   T
  0.1677267773919417  0.8815339428826564  0.4009706164390239   T   T   T
  0.5009830102700307  0.3815095387780023  0.4010956074571106   T   T   T
  0.5009615564999803  0.8814454048551772  0.4010236969977527   T   T   T
  0.8343352934214939  0.3814715998168925  0.4009115870796666   T   T   T
  0.8342736873915756  0.8814768560429878  0.4009504530289665   T   T   T
  0.0010680743330161  0.1311511076914338  0.4280757516390173   T   T   T
  0.0010862786076706  0.6313523201944090  0.4280882023882044   T   T   T
  0.3345649883415660  0.1313021290196753  0.4281995602438136   T   T   T
  0.3345212952828320  0.6312132027743258  0.4282245279840806   T   T   T
  0.6675543077217150  0.1312773117010238  0.4281863988901481   T   T   T
  0.6676291783363709  0.6312296340917872  0.4281807036902254   T   T   T
  0.1677691071911175  0.3811749573452834  0.4544633158315540   T   T   T
  0.1680488039104009  0.8813308724005754  0.4545330397542185   T   T   T
  0.5010533333775067  0.3815982313531499  0.4547500034016541   T   T   T
  0.5011254454471477  0.8810271811786082  0.4546121141025792   T   T   T
  0.8343756364841943  0.3811441986247950  0.4544143099288946   T   T   T
  0.8342111973661561  0.8813209278474645  0.4544987492224707   T   T   T
  0.0011097927707048  0.1307998257153000  0.4814996029209925   T   T   T
  0.0011351782343686  0.6314364781142260  0.4815857913984460   T   T   T
  0.3349772466185983  0.1319570263690269  0.4817982369992246   T   T   T
  0.3342289542114389  0.6316128002834077  0.4818750896045932   T   T   T
  0.6670532745400671  0.1318853842420072  0.4817832966515894   T   T   T
  0.6679881508044353  0.6317959712543501  0.4817628707551074   T   T   T
  0.1672953925418609  0.3832256153306600  0.5067698945165832   T   T   T
  0.1669891660148232  0.8856617341955710  0.5070742028959977   T   T   T
  0.5009859304109652  0.3891008353110473  0.5078944523115450   T   T   T
  0.5005973726696062  0.8850182331873043  0.5071886745219728   T   T   T
  0.8349870892024071  0.3828910729820704  0.5066810480623322   T   T   T
  0.8342680963873216  0.8855634198640233  0.5070205831771103   T   T   T
  0.0035415541434882  0.0620225322406471  0.3600925463892188   T   T   T
  0.0034630477815838  0.5621462568025221  0.3601081061804782   T   T   T
  0.3370051032616932  0.0619229842649631  0.3602154352872234   T   T   T
  0.3368049704997995  0.5617157204341284  0.3602384683575104   T   T   T
  0.6694914793154151  0.0618636781779625  0.3602107236598058   T   T   T
  0.6697452598990855  0.5618071271508307  0.3602078118104867   T   T   T
  0.1692452319789489  0.3106585686501883  0.5222602407350256   T   T   T
  0.1689073322871458  0.8122293866663804  0.5224704351191384   T   T   T
  0.5043557089636241  0.3146180126290389  0.5231812331023923   T   T   T
  0.5016014278816020  0.8119187060928119  0.5226367596240640   T   T   T
  0.8378517061645515  0.3101799904999771  0.5221522711549488   T   T   T
  0.8365422203106767  0.8129302017011295  0.5224837562134692   T   T   T
  0.0884767975777583  0.1187839112471642  0.5392859351069156   T   T   T
  0.0900551038139804  0.6114093352460893  0.5389762767989422   T   T   T
  0.4216436617367726  0.1191282544916702  0.5394074119336333   T   T   T
  0.3827272826854508  0.6356225449797184  0.5428034585681317   T   T   T
  0.7572519292815206  0.1174445234655916  0.5392988139758799   T   T   T
  0.7900891225883361  0.6005461066796363  0.5378394434123632   T   T   T
  0.2568805085276575  0.3674369016460819  0.3433729620209098   T   T   T
  0.2570426548050285  0.8673752044500286  0.3434011602686096   T   T   T
  0.5895371827899900  0.3676106342122769  0.3434451175940239   T   T   T
  0.5894430631071342  0.8674679100183657  0.3433945527781200   T   T   T
  0.9214014942915789  0.3682563480925902  0.3432359652574009   T   T   T
  0.9213241529201155  0.8683862651110081  0.3432657859521582   T   T   T
  0.5459504236036100  0.6172515585141802  0.5871755148260863   T   T   T
  0.4889112332346875  0.4773351009657422  0.6062797762460952   T   T   T
  0.5675687420325588  0.6394567026983403  0.6164871477747035   T   T   T
  0.3083898785462594  0.3824657840682572  0.6222721792207657   T   T   T
  0.4232244172573425  0.2587488467702588  0.6159809339196465   T   T   T
  0.6463305750959604  0.7352522789625532  0.6469439178243560   T   T   T
  0.4819810302602279  0.7668961588334849  0.6435998339289287   T   T   T
  0.5316475109476515  0.8041307750275798  0.5670634785095494   T   T   T
  0.5941803403054776  0.6581111645239690  0.5529614973679330   T   T   T
  0.1606153769399843  0.3406003714935000  0.3488640630656141   T   T   T
  0.1607403750052394  0.8406802785841895  0.3488919969754810   T   T   T
  0.4933822624485833  0.3409662689433675  0.3490077056933844   T   T   T
  0.4933147392209983  0.8406037795392666  0.3489450892056990   T   T   T
  0.8257217811982742  0.3402736769439286  0.3488384591232586   T   T   T
  0.8256524482596336  0.8404227791814114  0.3488726852704501   T   T   T
  0.9926411817522874  0.0917301825168632  0.5336331358644322   T   T   T
  0.9924505678295612  0.5877459418798677  0.5334709755151237   T   T   T
  0.3260012454537226  0.0908071596742718  0.5338259497689830   T   T   T
  0.3043103558086824  0.5898562324619356  0.5338526708383615   T   T   T
  0.6608563391283200  0.0911160030507519  0.5337934405265341   T   T   T
  0.6869645299065203  0.5913552390815803  0.5338743902855445   T   T   T
  0.5663671580847059  0.5605634712009306  0.6030643798926560   T   T   T
  0.3784754858764337  0.3530112076800440  0.6105147946529509   T   T   T
  0.5733904084015536  0.7590424719385038  0.6353481773979860   T   T   T
  0.5217407220173598  0.6937280708306133  0.5653470209827534   T   T   T
  0.1672003238530476  0.2523304150349888  0.3751689573008583   T   T   T
  0.1672454619057643  0.7523376536385623  0.3751908228712963   T   T   T
  0.5004095360276386  0.2523775498992106  0.3752913817117041   T   T   T
  0.5003979347605102  0.7522468515307872  0.3752462436121484   T   T   T
  0.8336559422088589  0.2521626936795061  0.3751547812335148   T   T   T
  0.8336003657715503  0.7522244323981743  0.3751825200226517   T   T   T
  0.0009779629460829  0.0053176569224566  0.4016772141828731   T   T   T
  0.0009814227277708  0.5054116120197281  0.4016802094884073   T   T   T
  0.3343930666244493  0.0054281492405215  0.4017767278843430   T   T   T
  0.3343327194110737  0.5053921193221819  0.4018008853437544   T   T   T
  0.6675272726735644  0.0053532677236623  0.4017678109553359   T   T   T
  0.6675979180497522  0.5053129542239335  0.4017657910626989   T   T   T
  0.1677882044849295  0.2557328922690201  0.4279152748382080   T   T   T
  0.1679251838900888  0.7558307786202579  0.4279630935459632   T   T   T
  0.5010413874969200  0.2559315267675338  0.4280970189270281   T   T   T
  0.5010430436500966  0.7557560571250918  0.4280053832475835   T   T   T
  0.8343574265172701  0.2556532344395963  0.4278768870792087   T   T   T
  0.8342963638746577  0.7557641718080258  0.4279363305196611   T   T   T
  0.0011502428767644  0.0053963525352248  0.4546084450170532   T   T   T
  0.0011035064433486  0.5057053688020346  0.4546036475890530   T   T   T
  0.3347938246181733  0.0059674345719928  0.4547684568622452   T   T   T
  0.3342134914027783  0.5059236678440283  0.4548239891883419   T   T   T
  0.6673888302923536  0.0059261835398118  0.4547591474034405   T   T   T
  0.6678474447447187  0.5057661577988949  0.4547299953591670   T   T   T
  0.1676288884432313  0.2545525133835150  0.4807578738113554   T   T   T
  0.1676372897324665  0.7557126626146271  0.4809508100568962   T   T   T
  0.5009951180337893  0.2570999518280316  0.4813053833841689   T   T   T
  0.5008800352106008  0.7552769793759694  0.4810233870108491   T   T   T
  0.8345880000453476  0.2541459738412428  0.4806692628717089   T   T   T
  0.8347000236362370  0.7557360320854319  0.4809070184476223   T   T   T
  0.0003919713896059  0.0028275487817158  0.5073673544555867   T   T   T
  0.0009675275045421  0.5003372718801755  0.5070581210942658   T   T   T
  0.3335040948501067  0.0025455814324887  0.5075337639200738   T   T   T
  0.3314263156472150  0.5036990014777494  0.5078348655689149   T   T   T
  0.6673385397297963  0.0024289060011069  0.5075267998397802   T   T   T
  0.6702418506395301  0.5018895159190936  0.5072942522281695   T   T   T
 
  0.00000000E+00  0.00000000E+00  0.00000000E+00
  0.00000000E+00  0.00000000E+00  0.00000000E+00
  0.00000000E+00  0.00000000E+00  0.00000000E+00
  0.00000000E+00  0.00000000E+00  0.00000000E+00
  0.00000000E+00  0.00000000E+00  0.00000000E+00
  0.00000000E+00  0.00000000E+00  0.00000000E+00
  0.00000000E+00  0.00000000E+00  0.00000000E+00
  0.00000000E+00  0.00000000E+00  0.00000000E+00
  0.00000000E+00  0.00000000E+00  0.00000000E+00
  0.00000000E+00  0.00000000E+00  0.00000000E+00
  0.00000000E+00  0.00000000E+00  0.00000000E+00
  0.00000000E+00  0.00000000E+00  0.00000000E+00
  0.00000000E+00  0.00000000E+00  0.00000000E+00
  0.00000000E+00  0.00000000E+00  0.00000000E+00
  0.00000000E+00  0.00000000E+00  0.00000000E+00
  0.00000000E+00  0.00000000E+00  0.00000000E+00
  0.00000000E+00  0.00000000E+00  0.00000000E+00
  0.00000000E+00  0.00000000E+00  0.00000000E+00
  0.00000000E+00  0.00000000E+00  0.00000000E+00
  0.00000000E+00  0.00000000E+00  0.00000000E+00
  0.00000000E+00  0.00000000E+00  0.00000000E+00
  0.00000000E+00  0.00000000E+00  0.00000000E+00
  0.00000000E+00  0.00000000E+00  0.00000000E+00
  0.00000000E+00  0.00000000E+00  0.00000000E+00
  0.00000000E+00  0.00000000E+00  0.00000000E+00
  0.00000000E+00  0.00000000E+00  0.00000000E+00
  0.00000000E+00  0.00000000E+00  0.00000000E+00
  0.00000000E+00  0.00000000E+00  0.00000000E+00
  0.00000000E+00  0.00000000E+00  0.00000000E+00
  0.00000000E+00  0.00000000E+00  0.00000000E+00
  0.00000000E+00  0.00000000E+00  0.00000000E+00
  0.00000000E+00  0.00000000E+00  0.00000000E+00
  0.00000000E+00  0.00000000E+00  0.00000000E+00
  0.00000000E+00  0.00000000E+00  0.00000000E+00
  0.00000000E+00  0.00000000E+00  0.00000000E+00
  0.00000000E+00  0.00000000E+00  0.00000000E+00
  0.00000000E+00  0.00000000E+00  0.00000000E+00
  0.00000000E+00  0.00000000E+00  0.00000000E+00
  0.00000000E+00  0.00000000E+00  0.00000000E+00
  0.00000000E+00  0.00000000E+00  0.00000000E+00
  0.00000000E+00  0.00000000E+00  0.00000000E+00
  0.00000000E+00  0.00000000E+00  0.00000000E+00
  0.00000000E+00  0.00000000E+00  0.00000000E+00
  0.00000000E+00  0.00000000E+00  0.00000000E+00
  0.00000000E+00  0.00000000E+00  0.00000000E+00
  0.00000000E+00  0.00000000E+00  0.00000000E+00
  0.00000000E+00  0.00000000E+00  0.00000000E+00
  0.00000000E+00  0.00000000E+00  0.00000000E+00
  0.00000000E+00  0.00000000E+00  0.00000000E+00
  0.00000000E+00  0.00000000E+00  0.00000000E+00
  0.00000000E+00  0.00000000E+00  0.00000000E+00
  0.00000000E+00  0.00000000E+00  0.00000000E+00
  0.00000000E+00  0.00000000E+00  0.00000000E+00
  0.00000000E+00  0.00000000E+00  0.00000000E+00
  0.00000000E+00  0.00000000E+00  0.00000000E+00
  0.00000000E+00  0.00000000E+00  0.00000000E+00
  0.00000000E+00  0.00000000E+00  0.00000000E+00
  0.00000000E+00  0.00000000E+00  0.00000000E+00
  0.00000000E+00  0.00000000E+00  0.00000000E+00
  0.00000000E+00  0.00000000E+00  0.00000000E+00
  0.00000000E+00  0.00000000E+00  0.00000000E+00
  0.00000000E+00  0.00000000E+00  0.00000000E+00
  0.00000000E+00  0.00000000E+00  0.00000000E+00
  0.00000000E+00  0.00000000E+00  0.00000000E+00
  0.00000000E+00  0.00000000E+00  0.00000000E+00
  0.00000000E+00  0.00000000E+00  0.00000000E+00
  0.00000000E+00  0.00000000E+00  0.00000000E+00
  0.00000000E+00  0.00000000E+00  0.00000000E+00
  0.00000000E+00  0.00000000E+00  0.00000000E+00
  0.00000000E+00  0.00000000E+00  0.00000000E+00
  0.00000000E+00  0.00000000E+00  0.00000000E+00
  0.00000000E+00  0.00000000E+00  0.00000000E+00
  0.00000000E+00  0.00000000E+00  0.00000000E+00
  0.00000000E+00  0.00000000E+00  0.00000000E+00
  0.00000000E+00  0.00000000E+00  0.00000000E+00
  0.00000000E+00  0.00000000E+00  0.00000000E+00
  0.00000000E+00  0.00000000E+00  0.00000000E+00
  0.00000000E+00  0.00000000E+00  0.00000000E+00
  0.00000000E+00  0.00000000E+00  0.00000000E+00
  0.00000000E+00  0.00000000E+00  0.00000000E+00
  0.00000000E+00  0.00000000E+00  0.00000000E+00
  0.00000000E+00  0.00000000E+00  0.00000000E+00
  0.00000000E+00  0.00000000E+00  0.00000000E+00
  0.00000000E+00  0.00000000E+00  0.00000000E+00
  0.00000000E+00  0.00000000E+00  0.00000000E+00
  0.00000000E+00  0.00000000E+00  0.00000000E+00
  0.00000000E+00  0.00000000E+00  0.00000000E+00
  0.00000000E+00  0.00000000E+00  0.00000000E+00
  0.00000000E+00  0.00000000E+00  0.00000000E+00
  0.00000000E+00  0.00000000E+00  0.00000000E+00
  0.00000000E+00  0.00000000E+00  0.00000000E+00
  0.00000000E+00  0.00000000E+00  0.00000000E+00
  0.00000000E+00  0.00000000E+00  0.00000000E+00
  0.00000000E+00  0.00000000E+00  0.00000000E+00
  0.00000000E+00  0.00000000E+00  0.00000000E+00
  0.00000000E+00  0.00000000E+00  0.00000000E+00
  0.00000000E+00  0.00000000E+00  0.00000000E+00
  0.00000000E+00  0.00000000E+00  0.00000000E+00
  0.00000000E+00  0.00000000E+00  0.00000000E+00
  0.00000000E+00  0.00000000E+00  0.00000000E+00
  0.00000000E+00  0.00000000E+00  0.00000000E+00
  0.00000000E+00  0.00000000E+00  0.00000000E+00
  0.00000000E+00  0.00000000E+00  0.00000000E+00
  0.00000000E+00  0.00000000E+00  0.00000000E+00
  0.00000000E+00  0.00000000E+00  0.00000000E+00
  0.00000000E+00  0.00000000E+00  0.00000000E+00
  0.00000000E+00  0.00000000E+00  0.00000000E+00
  0.00000000E+00  0.00000000E+00  0.00000000E+00
  0.00000000E+00  0.00000000E+00  0.00000000E+00
  0.00000000E+00  0.00000000E+00  0.00000000E+00
  0.00000000E+00  0.00000000E+00  0.00000000E+00
  0.00000000E+00  0.00000000E+00  0.00000000E+00
  0.00000000E+00  0.00000000E+00  0.00000000E+00
  0.00000000E+00  0.00000000E+00  0.00000000E+00
  0.00000000E+00  0.00000000E+00  0.00000000E+00
  0.00000000E+00  0.00000000E+00  0.00000000E+00
  0.00000000E+00  0.00000000E+00  0.00000000E+00
  0.00000000E+00  0.00000000E+00  0.00000000E+00
  0.00000000E+00  0.00000000E+00  0.00000000E+00
  0.00000000E+00  0.00000000E+00  0.00000000E+00
  0.00000000E+00  0.00000000E+00  0.00000000E+00
