C H O Si                                
   1.00000000000000     
     9.2874599999999994    0.0000000000000000    0.0000000000000000
     0.0000000000000000    8.7562999999999995    0.0000000000000000
     0.0000000000000000    0.0000000000000000   58.0000000000000000
   C    H    O    Si
    36    33    16    36
Selective dynamics
Direct
  0.0006880022288748  0.1351831663440219  0.3755222580473774   T   T   T
  0.0006583002754861  0.6353262993220928  0.3755367907551205   T   T   T
  0.3340651935620288  0.1352102672958907  0.3756280631798898   T   T   T
  0.3340360761201526  0.6351143586208489  0.3756398460568604   T   T   T
  0.6671881629321303  0.1351227106594483  0.3756288773367676   T   T   T
  0.6671988449027634  0.6350589389353792  0.3756258507409281   T   T   T
  0.1676717336428094  0.3815438090312811  0.4009445885102461   T   T   T
  0.1677263297414446  0.8815399810412282  0.4009695105291584   T   T   T
  0.5009855877087748  0.3815104712254757  0.4010945541195930   T   T   T
  0.5009602065918045  0.8814458616869014  0.4010224620306660   T   T   T
  0.8343380276012797  0.3814743710408376  0.4009097724086890   T   T   T
  0.8342770551433468  0.8814822512923622  0.4009496770831408   T   T   T
  0.0010688885163595  0.1311530468095570  0.4280751519690779   T   T   T
  0.0010860194624693  0.6313555121241522  0.4280877515771332   T   T   T
  0.3345590447751623  0.1313056507743249  0.4281993891983214   T   T   T
  0.3345261364058787  0.6312145045778188  0.4282244432174594   T   T   T
  0.6675555100410167  0.1312822151078266  0.4281859955958563   T   T   T
  0.6676284054309567  0.6312316837955254  0.4281804667523214   T   T   T
  0.1677710877473607  0.3811772067230210  0.4544632753060149   T   T   T
  0.1680512003252094  0.8813352782874468  0.4545330657537788   T   T   T
  0.5010557598246331  0.3816024189301483  0.4547497700604020   T   T   T
  0.5011267722411944  0.8810297102616245  0.4546121224312067   T   T   T
  0.8343771099013952  0.3811482441387277  0.4544138746845892   T   T   T
  0.8342115690328671  0.8813235831982879  0.4544985226747261   T   T   T
  0.0011112239456470  0.1307997744048948  0.4815004213649102   T   T   T
  0.0011380761509000  0.6314374795307669  0.4815866996495892   T   T   T
  0.3349778942610244  0.1319566095413046  0.4817989980386349   T   T   T
  0.3342289901906279  0.6316159152766132  0.4818756826883751   T   T   T
  0.6670567299245675  0.1318947492157359  0.4817838201278667   T   T   T
  0.6679897562773683  0.6317976730555205  0.4817635952525031   T   T   T
  0.1672976276675969  0.3832193880998181  0.5067715646702250   T   T   T
  0.1669934937086731  0.8856534929261458  0.5070763563557985   T   T   T
  0.5009901644040715  0.3890963865377561  0.5078961910923184   T   T   T
  0.5005964911990500  0.8850145858511078  0.5071900036556030   T   T   T
  0.8349870913122395  0.3828856076621048  0.5066823131230184   T   T   T
  0.8342683626846921  0.8855571595816153  0.5070225482457035   T   T   T
  0.0035413286355942  0.0620232001485476  0.3600932436982653   T   T   T
  0.0034629707309250  0.5621473226044036  0.3601089085735195   T   T   T
  0.3370043700640744  0.0619252907506045  0.3602164083340373   T   T   T
  0.3368047658333377  0.5617175496933325  0.3602392483536814   T   T   T
  0.6694910774444987  0.0618673046023029  0.3602119225687109   T   T   T
  0.6697449048800439  0.5618101430654507  0.3602087070144770   T   T   T
  0.1692453786887799  0.3106600580833306  0.5222601015223358   T   T   T
  0.1689082026542253  0.8122332119990648  0.5224698342161589   T   T   T
  0.5043558340704045  0.3146227042039109  0.5231801155821967   T   T   T
  0.5016021072931874  0.8119214167288702  0.5226362993905009   T   T   T
  0.8378523774243883  0.3101803718423910  0.5221518716805207   T   T   T
  0.8365417808967562  0.8129329638189161  0.5224831950341566   T   T   T
  0.0884812500339677  0.1187825535612867  0.5392875063180300   T   T   T
  0.0900457311157368  0.6114105918844609  0.5389766189859343   T   T   T
  0.4216480808558820  0.1191256122184010  0.5394088122537990   T   T   T
  0.3827304542680314  0.6356272934063527  0.5428045685373419   T   T   T
  0.7572543537279982  0.1174429619600587  0.5392999435358601   T   T   T
  0.7900699701614233  0.6005450233114888  0.5378387653653437   T   T   T
  0.2568813900085006  0.3674331265712719  0.3433717380438544   T   T   T
  0.2570454263729214  0.8673717985301744  0.3433999023949061   T   T   T
  0.5895402081176628  0.3676073432421136  0.3434436483621194   T   T   T
  0.5894445568592313  0.8674643008699761  0.3433932628143945   T   T   T
  0.9214055857834239  0.3682519514383646  0.3432345473558897   T   T   T
  0.9213268089563612  0.8683811686849936  0.3432644530500771   T   T   T
  0.5459433972307183  0.6172527434589359  0.5871743259429307   T   T   T
  0.4889179413355536  0.4773349359329219  0.6062790211893545   T   T   T
  0.5675707365090358  0.6394523364383228  0.6164862976011755   T   T   T
  0.3083588550847252  0.3824919649397241  0.6222807522323567   T   T   T
  0.4232854744861053  0.2586368929539535  0.6159886627406770   T   T   T
  0.6463810142565313  0.7352250456854712  0.6469520870386555   T   T   T
  0.4818869114607689  0.7668885748667711  0.6436073120375280   T   T   T
  0.5316395307425936  0.8041375457944183  0.5670632236839018   T   T   T
  0.5941789636331850  0.6581200517830998  0.5529607187621103   T   T   T
  0.1606077845560495  0.3406001408139166  0.3488624297628118   T   T   T
  0.1607299302708457  0.8406791767395475  0.3488907630156064   T   T   T
  0.4933723952582114  0.3409651788221995  0.3490065395947901   T   T   T
  0.4933051100459790  0.8406043928464177  0.3489435670859523   T   T   T
  0.8257122356893988  0.3402723562250161  0.3488371579882482   T   T   T
  0.8256443987667232  0.8404231562064908  0.3488712752072510   T   T   T
  0.9926302467638810  0.0917314949649498  0.5336344321483458   T   T   T
  0.9924544688187127  0.5877493650043575  0.5334732370765044   T   T   T
  0.3259916912765353  0.0908069577745220  0.5338269134321409   T   T   T
  0.3043046470540305  0.5898548821906778  0.5338526985342043   T   T   T
  0.6608473256860820  0.0911162341294351  0.5337944809809598   T   T   T
  0.6869865905304752  0.5913625668154332  0.5338772776451434   T   T   T
  0.5663718628560628  0.5605476053841374  0.6030669143001826   T   T   T
  0.3784618214179843  0.3531258528359117  0.6104987849324107   T   T   T
  0.5734238225884968  0.7590557513343897  0.6353281036218204   T   T   T
  0.5217259020156894  0.6937358071067256  0.5653474640129366   T   T   T
  0.1671990801863612  0.2523285977023171  0.3751718615860777   T   T   T
  0.1672469302294950  0.7523360536760813  0.3751934968132657   T   T   T
  0.5004069427835740  0.2523791252851769  0.3752940966801463   T   T   T
  0.5003992238681205  0.7522469686717065  0.3752495676561965   T   T   T
  0.8336565499995380  0.2521630129847680  0.3751579322349711   T   T   T
  0.8336030959239354  0.7522216897957026  0.3751851944377328   T   T   T
  0.0009768175142720  0.0053130643839569  0.4016783163784541   T   T   T
  0.0009828258634600  0.5054066694929753  0.4016814714861959   T   T   T
  0.3343939764178315  0.0054225828051028  0.4017778722445157   T   T   T
  0.3343283386190294  0.5053909285653679  0.4018022606799899   T   T   T
  0.6675295194447191  0.0053494948157922  0.4017689741766453   T   T   T
  0.6675990248749534  0.5053124534039282  0.4017664986941724   T   T   T
  0.1677903714005020  0.2557309366754955  0.4279159633221570   T   T   T
  0.1679240431227975  0.7558305826459509  0.4279630975604725   T   T   T
  0.5010426425616459  0.2559323173265174  0.4280973177696334   T   T   T
  0.5010430607174823  0.7557555062331579  0.4280056354112267   T   T   T
  0.8343550497382335  0.2556551080814264  0.4278774955259427   T   T   T
  0.8343001509122405  0.7557628286294212  0.4279363662743952   T   T   T
  0.0011512695869026  0.0053960736545626  0.4546085986098667   T   T   T
  0.0011032161258041  0.5057029907952072  0.4546041228175308   T   T   T
  0.3347954935465162  0.0059651006215307  0.4547684887567857   T   T   T
  0.3342122336400444  0.5059217724066893  0.4548237983667684   T   T   T
  0.6673887595557626  0.0059244450642961  0.4547592634313278   T   T   T
  0.6678458780175957  0.5057631537909572  0.4547307845635862   T   T   T
  0.1676295340871458  0.2545537467721606  0.4807578477554650   T   T   T
  0.1676389630647658  0.7557117741340087  0.4809508134035058   T   T   T
  0.5009985260444898  0.2570983422924938  0.4813052143926144   T   T   T
  0.5008832737272310  0.7552745768944729  0.4810230959509534   T   T   T
  0.8345861816649999  0.2541452982525483  0.4806695920532047   T   T   T
  0.8346990910439668  0.7557353999891524  0.4809070558097732   T   T   T
  0.0003933074010607  0.0028275735060253  0.5073641449545769   T   T   T
  0.0009691790604643  0.5003348130061973  0.5070558711368297   T   T   T
  0.3335062134152903  0.0025465036786031  0.5075320901716985   T   T   T
  0.3314314461609355  0.5037003180552322  0.5078336669746863   T   T   T
  0.6673420355636215  0.0024272695128503  0.5075255662205181   T   T   T
  0.6702397003515346  0.5018840728196193  0.5072906366050048   T   T   T
 
  0.00000000E+00  0.00000000E+00  0.00000000E+00
  0.00000000E+00  0.00000000E+00  0.00000000E+00
  0.00000000E+00  0.00000000E+00  0.00000000E+00
  0.00000000E+00  0.00000000E+00  0.00000000E+00
  0.00000000E+00  0.00000000E+00  0.00000000E+00
  0.00000000E+00  0.00000000E+00  0.00000000E+00
  0.00000000E+00  0.00000000E+00  0.00000000E+00
  0.00000000E+00  0.00000000E+00  0.00000000E+00
  0.00000000E+00  0.00000000E+00  0.00000000E+00
  0.00000000E+00  0.00000000E+00  0.00000000E+00
  0.00000000E+00  0.00000000E+00  0.00000000E+00
  0.00000000E+00  0.00000000E+00  0.00000000E+00
  0.00000000E+00  0.00000000E+00  0.00000000E+00
  0.00000000E+00  0.00000000E+00  0.00000000E+00
  0.00000000E+00  0.00000000E+00  0.00000000E+00
  0.00000000E+00  0.00000000E+00  0.00000000E+00
  0.00000000E+00  0.00000000E+00  0.00000000E+00
  0.00000000E+00  0.00000000E+00  0.00000000E+00
  0.00000000E+00  0.00000000E+00  0.00000000E+00
  0.00000000E+00  0.00000000E+00  0.00000000E+00
  0.00000000E+00  0.00000000E+00  0.00000000E+00
  0.00000000E+00  0.00000000E+00  0.00000000E+00
  0.00000000E+00  0.00000000E+00  0.00000000E+00
  0.00000000E+00  0.00000000E+00  0.00000000E+00
  0.00000000E+00  0.00000000E+00  0.00000000E+00
  0.00000000E+00  0.00000000E+00  0.00000000E+00
  0.00000000E+00  0.00000000E+00  0.00000000E+00
  0.00000000E+00  0.00000000E+00  0.00000000E+00
  0.00000000E+00  0.00000000E+00  0.00000000E+00
  0.00000000E+00  0.00000000E+00  0.00000000E+00
  0.00000000E+00  0.00000000E+00  0.00000000E+00
  0.00000000E+00  0.00000000E+00  0.00000000E+00
  0.00000000E+00  0.00000000E+00  0.00000000E+00
  0.00000000E+00  0.00000000E+00  0.00000000E+00
  0.00000000E+00  0.00000000E+00  0.00000000E+00
  0.00000000E+00  0.00000000E+00  0.00000000E+00
  0.00000000E+00  0.00000000E+00  0.00000000E+00
  0.00000000E+00  0.00000000E+00  0.00000000E+00
  0.00000000E+00  0.00000000E+00  0.00000000E+00
  0.00000000E+00  0.00000000E+00  0.00000000E+00
  0.00000000E+00  0.00000000E+00  0.00000000E+00
  0.00000000E+00  0.00000000E+00  0.00000000E+00
  0.00000000E+00  0.00000000E+00  0.00000000E+00
  0.00000000E+00  0.00000000E+00  0.00000000E+00
  0.00000000E+00  0.00000000E+00  0.00000000E+00
  0.00000000E+00  0.00000000E+00  0.00000000E+00
  0.00000000E+00  0.00000000E+00  0.00000000E+00
  0.00000000E+00  0.00000000E+00  0.00000000E+00
  0.00000000E+00  0.00000000E+00  0.00000000E+00
  0.00000000E+00  0.00000000E+00  0.00000000E+00
  0.00000000E+00  0.00000000E+00  0.00000000E+00
  0.00000000E+00  0.00000000E+00  0.00000000E+00
  0.00000000E+00  0.00000000E+00  0.00000000E+00
  0.00000000E+00  0.00000000E+00  0.00000000E+00
  0.00000000E+00  0.00000000E+00  0.00000000E+00
  0.00000000E+00  0.00000000E+00  0.00000000E+00
  0.00000000E+00  0.00000000E+00  0.00000000E+00
  0.00000000E+00  0.00000000E+00  0.00000000E+00
  0.00000000E+00  0.00000000E+00  0.00000000E+00
  0.00000000E+00  0.00000000E+00  0.00000000E+00
  0.00000000E+00  0.00000000E+00  0.00000000E+00
  0.00000000E+00  0.00000000E+00  0.00000000E+00
  0.00000000E+00  0.00000000E+00  0.00000000E+00
  0.00000000E+00  0.00000000E+00  0.00000000E+00
  0.00000000E+00  0.00000000E+00  0.00000000E+00
  0.00000000E+00  0.00000000E+00  0.00000000E+00
  0.00000000E+00  0.00000000E+00  0.00000000E+00
  0.00000000E+00  0.00000000E+00  0.00000000E+00
  0.00000000E+00  0.00000000E+00  0.00000000E+00
  0.00000000E+00  0.00000000E+00  0.00000000E+00
  0.00000000E+00  0.00000000E+00  0.00000000E+00
  0.00000000E+00  0.00000000E+00  0.00000000E+00
  0.00000000E+00  0.00000000E+00  0.00000000E+00
  0.00000000E+00  0.00000000E+00  0.00000000E+00
  0.00000000E+00  0.00000000E+00  0.00000000E+00
  0.00000000E+00  0.00000000E+00  0.00000000E+00
  0.00000000E+00  0.00000000E+00  0.00000000E+00
  0.00000000E+00  0.00000000E+00  0.00000000E+00
  0.00000000E+00  0.00000000E+00  0.00000000E+00
  0.00000000E+00  0.00000000E+00  0.00000000E+00
  0.00000000E+00  0.00000000E+00  0.00000000E+00
  0.00000000E+00  0.00000000E+00  0.00000000E+00
  0.00000000E+00  0.00000000E+00  0.00000000E+00
  0.00000000E+00  0.00000000E+00  0.00000000E+00
  0.00000000E+00  0.00000000E+00  0.00000000E+00
  0.00000000E+00  0.00000000E+00  0.00000000E+00
  0.00000000E+00  0.00000000E+00  0.00000000E+00
  0.00000000E+00  0.00000000E+00  0.00000000E+00
  0.00000000E+00  0.00000000E+00  0.00000000E+00
  0.00000000E+00  0.00000000E+00  0.00000000E+00
  0.00000000E+00  0.00000000E+00  0.00000000E+00
  0.00000000E+00  0.00000000E+00  0.00000000E+00
  0.00000000E+00  0.00000000E+00  0.00000000E+00
  0.00000000E+00  0.00000000E+00  0.00000000E+00
  0.00000000E+00  0.00000000E+00  0.00000000E+00
  0.00000000E+00  0.00000000E+00  0.00000000E+00
  0.00000000E+00  0.00000000E+00  0.00000000E+00
  0.00000000E+00  0.00000000E+00  0.00000000E+00
  0.00000000E+00  0.00000000E+00  0.00000000E+00
  0.00000000E+00  0.00000000E+00  0.00000000E+00
  0.00000000E+00  0.00000000E+00  0.00000000E+00
  0.00000000E+00  0.00000000E+00  0.00000000E+00
  0.00000000E+00  0.00000000E+00  0.00000000E+00
  0.00000000E+00  0.00000000E+00  0.00000000E+00
  0.00000000E+00  0.00000000E+00  0.00000000E+00
  0.00000000E+00  0.00000000E+00  0.00000000E+00
  0.00000000E+00  0.00000000E+00  0.00000000E+00
  0.00000000E+00  0.00000000E+00  0.00000000E+00
  0.00000000E+00  0.00000000E+00  0.00000000E+00
  0.00000000E+00  0.00000000E+00  0.00000000E+00
  0.00000000E+00  0.00000000E+00  0.00000000E+00
  0.00000000E+00  0.00000000E+00  0.00000000E+00
  0.00000000E+00  0.00000000E+00  0.00000000E+00
  0.00000000E+00  0.00000000E+00  0.00000000E+00
  0.00000000E+00  0.00000000E+00  0.00000000E+00
  0.00000000E+00  0.00000000E+00  0.00000000E+00
  0.00000000E+00  0.00000000E+00  0.00000000E+00
  0.00000000E+00  0.00000000E+00  0.00000000E+00
  0.00000000E+00  0.00000000E+00  0.00000000E+00
  0.00000000E+00  0.00000000E+00  0.00000000E+00
  0.00000000E+00  0.00000000E+00  0.00000000E+00
