C H O Si                                
   1.00000000000000     
     9.2874599999999994    0.0000000000000000    0.0000000000000000
     0.0000000000000000    8.7562999999999995    0.0000000000000000
     0.0000000000000000    0.0000000000000000   90.0000000000000000
   C    H    O    Si
    36    33    16    36
Selective dynamics
Direct
  0.0007299295529205  0.1351358019974312  0.4232316672280755   T   T   T
  0.0007064109813029  0.6352562199041258  0.4232439610872313   T   T   T
  0.3340076551774708  0.1351763829730228  0.4232882636534985   T   T   T
  0.3339653969637701  0.6351010039659354  0.4233000945115088   T   T   T
  0.6673078592259883  0.1351124215074181  0.4232825843141041   T   T   T
  0.6673236946585489  0.6350637834935696  0.4232833959527566   T   T   T
  0.1676200710431115  0.3814305108224678  0.4396023017255303   T   T   T
  0.1676681086691826  0.8814459514134060  0.4396207995916037   T   T   T
  0.5009623309062505  0.3813896677806465  0.4396751916537280   T   T   T
  0.5009516559795218  0.8813532669499891  0.4396400176169868   T   T   T
  0.8342454596140894  0.3814365018853980  0.4395797939383866   T   T   T
  0.8341574413368030  0.8814972590668579  0.4396064942067201   T   T   T
  0.0009840957274136  0.1312190529289692  0.4570949699659170   T   T   T
  0.0009419496696958  0.6314342873573331  0.4571030196052965   T   T   T
  0.3344589879832928  0.1312616122114609  0.4571521096566145   T   T   T
  0.3343587156457345  0.6311322959346316  0.4571703931910366   T   T   T
  0.6675046356708561  0.1313390937507929  0.4571520853507641   T   T   T
  0.6675855273303078  0.6312729466850716  0.4571462181528099   T   T   T
  0.1677331983018278  0.3812466920953773  0.4740789625665208   T   T   T
  0.1679652423003209  0.8813726384322061  0.4741176309170565   T   T   T
  0.5009702418016607  0.3816961350367187  0.4742441759339607   T   T   T
  0.5010320104025031  0.8810852168089178  0.4741548395334154   T   T   T
  0.8343216307010618  0.3812386745987719  0.4740563759273878   T   T   T
  0.8341780266227765  0.8814567374446141  0.4741160808833723   T   T   T
  0.0011970690009559  0.1308213642788776  0.4915190863750263   T   T   T
  0.0011479065285232  0.6315612173899252  0.4915764811785990   T   T   T
  0.3348265890320826  0.1319591276442747  0.4916845719204482   T   T   T
  0.3340754298939322  0.6316918242415778  0.4917426387687094   T   T   T
  0.6670006784795381  0.1318336189205268  0.4916806442882091   T   T   T
  0.6679734732342951  0.6317260925712729  0.4916703664327353   T   T   T
  0.1673297895046214  0.3834429705546006  0.5078014620791539   T   T   T
  0.1670951109164652  0.8857483828620321  0.5079838739489906   T   T   T
  0.5008782242137643  0.3890752263035083  0.5084812606351502   T   T   T
  0.5006049819577649  0.8850293918287298  0.5080523216484977   T   T   T
  0.8350920142598142  0.3828561118108766  0.5077115288511563   T   T   T
  0.8341845829317465  0.8857127261847223  0.5079506619130717   T   T   T
  0.0034579239028858  0.0619735034802549  0.4132861676059986   T   T   T
  0.0033299988688962  0.5621345369727665  0.4132956142092366   T   T   T
  0.3367716311585450  0.0619662072804479  0.4133453676371613   T   T   T
  0.3365808925984753  0.5618197001841374  0.4133645084970271   T   T   T
  0.6695984807103229  0.0618469815364657  0.4133451396222097   T   T   T
  0.6698616930018375  0.5618370906059637  0.4133449964387590   T   T   T
  0.1692632314407940  0.3108348980909451  0.5177812602075805   T   T   T
  0.1690465505327141  0.8123144175820010  0.5179053703195933   T   T   T
  0.5041399739501733  0.3146850944689733  0.5183394665068068   T   T   T
  0.5015818674613137  0.8120323672442280  0.5180154334079086   T   T   T
  0.8377769255056523  0.3102606499530383  0.5176902019902920   T   T   T
  0.8363031431625972  0.8131820538279365  0.5179259353690980   T   T   T
  0.0881007380345321  0.1183340392947496  0.5288260752295507   T   T   T
  0.0892443893912172  0.6116711313208409  0.5286259640586918   T   T   T
  0.4217174574610893  0.1188577783299978  0.5288677261821606   T   T   T
  0.3829273796617115  0.6362552039964291  0.5310054493201259   T   T   T
  0.7571463609496326  0.1168931605552028  0.5288072044282156   T   T   T
  0.7902231200241623  0.6003005905492041  0.5278087132143392   T   T   T
  0.2567357912032112  0.3664356040589191  0.4024047070307949   T   T   T
  0.2568827790970049  0.8663601712123905  0.4024238276409587   T   T   T
  0.5894039212274343  0.3666500182049835  0.4024388454529154   T   T   T
  0.5892309737818838  0.8664618470716955  0.4024041430169414   T   T   T
  0.9215328035666516  0.3670739868025020  0.4023157179790203   T   T   T
  0.9215335581968964  0.8672092292892434  0.4023445948951618   T   T   T
  0.5463567316538626  0.6172208529389331  0.5595304361966249   T   T   T
  0.4888765154600475  0.4774332242447771  0.5718034544604664   T   T   T
  0.5680385607167669  0.6393702068523152  0.5783892010398703   T   T   T
  0.3098932678910597  0.3849037155166480  0.5823455483393370   T   T   T
  0.4231945720197967  0.2600859208115224  0.5781761930855566   T   T   T
  0.6459232658294297  0.7345626503465603  0.5980118475011262   T   T   T
  0.4815569845316975  0.7653121011363275  0.5957687652078153   T   T   T
  0.5331114015771209  0.8048942866308922  0.5466196200119040   T   T   T
  0.5946537816727669  0.6588284060445899  0.5375246040504963   T   T   T
  0.1605944269584426  0.3405725921632002  0.4060465814939141   T   T   T
  0.1606964417446091  0.8406613822572034  0.4060668831595579   T   T   T
  0.4933843362241319  0.3408125035733425  0.4061192922129362   T   T   T
  0.4932688373625433  0.8404039804916221  0.4060834933146430   T   T   T
  0.8259067418019178  0.3402718000998063  0.4060276328666931   T   T   T
  0.8258922993740466  0.8404556875342962  0.4060556569085743   T   T   T
  0.9925184345575766  0.0916068347199852  0.5250980706088288   T   T   T
  0.9919684819437746  0.5879337155727102  0.5249912159058606   T   T   T
  0.3261896566307283  0.0910105871296474  0.5252065842833730   T   T   T
  0.3045900580609898  0.5900040938522294  0.5252431531010202   T   T   T
  0.6608489514192419  0.0913358378678061  0.5251786657226541   T   T   T
  0.6871587040486026  0.5912006258937290  0.5252164179415204   T   T   T
  0.5665936253659483  0.5605371014559849  0.5697145597739603   T   T   T
  0.3789079769156270  0.3547237228807123  0.5747151447738001   T   T   T
  0.5731900751526037  0.7575694409729827  0.5905132739154287   T   T   T
  0.5218886418901449  0.6947475530196938  0.5454247651822386   T   T   T
  0.1671859129768533  0.2522816888016762  0.4229663725826922   T   T   T
  0.1672135044025383  0.7522812437345842  0.4229854413410070   T   T   T
  0.5004578563309390  0.2522274622888961  0.4230285746142363   T   T   T
  0.5004431215012990  0.7520978749817800  0.4230060276888511   T   T   T
  0.8337413925223299  0.2521566496139191  0.4229571334926365   T   T   T
  0.8337085858658553  0.7522016891707424  0.4229794208910613   T   T   T
  0.0009311973548211  0.0053683775776505  0.4400770986359946   T   T   T
  0.0009306970064798  0.5054362614121622  0.4400783396858899   T   T   T
  0.3343347527430107  0.0053634841802550  0.4401187200316616   T   T   T
  0.3342912557865055  0.5053081427757462  0.4401342434437223   T   T   T
  0.6674746273366917  0.0054167348226715  0.4401196526884897   T   T   T
  0.6675715548624866  0.5053329484090378  0.4401169354722854   T   T   T
  0.1677230143538541  0.2557997896771417  0.4569707169971088   T   T   T
  0.1678166477101238  0.7558464745454314  0.4569982481446991   T   T   T
  0.5009624872136927  0.2559929495640820  0.4570714035041614   T   T   T
  0.5009156190558277  0.7557455736022191  0.4570193842272526   T   T   T
  0.8342893727616194  0.2557974693376556  0.4569534088359876   T   T   T
  0.8341808438411946  0.7559485437766114  0.4569907957504047   T   T   T
  0.0011318777608979  0.0055312740193682  0.4741936624531136   T   T   T
  0.0010580001964347  0.5058639035088318  0.4741920793573386   T   T   T
  0.3347139898350721  0.0060462187957883  0.4742759954146195   T   T   T
  0.3341697586086498  0.5060148559105693  0.4743186082105382   T   T   T
  0.6673190832525222  0.0060204011150761  0.4742733767477091   T   T   T
  0.6678040120687242  0.5058590583563499  0.4742514347661457   T   T   T
  0.1676161941297453  0.2547473750961184  0.4910372810127468   T   T   T
  0.1676090950340518  0.7558574979591500  0.4911526175922634   T   T   T
  0.5008993991834857  0.2571582051846846  0.4913631417993742   T   T   T
  0.5008358560394658  0.7553038337600972  0.4911890220523566   T   T   T
  0.8345919259859216  0.2540933721196890  0.4909660970472398   T   T   T
  0.8346166671973717  0.7558169462812029  0.4911329620109190   T   T   T
  0.0004198836451668  0.0027511797700708  0.5082029936977279   T   T   T
  0.0009636570706900  0.5003800795070327  0.5080025735765960   T   T   T
  0.3335755615813737  0.0026091767853200  0.5082961940595985   T   T   T
  0.3314355428138502  0.5038492584911849  0.5084980772827199   T   T   T
  0.6672994793307860  0.0024848526488364  0.5082888941753279   T   T   T
  0.6702879360586471  0.5017556404585337  0.5081379441596677   T   T   T
 
  0.00000000E+00  0.00000000E+00  0.00000000E+00
  0.00000000E+00  0.00000000E+00  0.00000000E+00
  0.00000000E+00  0.00000000E+00  0.00000000E+00
  0.00000000E+00  0.00000000E+00  0.00000000E+00
  0.00000000E+00  0.00000000E+00  0.00000000E+00
  0.00000000E+00  0.00000000E+00  0.00000000E+00
  0.00000000E+00  0.00000000E+00  0.00000000E+00
  0.00000000E+00  0.00000000E+00  0.00000000E+00
  0.00000000E+00  0.00000000E+00  0.00000000E+00
  0.00000000E+00  0.00000000E+00  0.00000000E+00
  0.00000000E+00  0.00000000E+00  0.00000000E+00
  0.00000000E+00  0.00000000E+00  0.00000000E+00
  0.00000000E+00  0.00000000E+00  0.00000000E+00
  0.00000000E+00  0.00000000E+00  0.00000000E+00
  0.00000000E+00  0.00000000E+00  0.00000000E+00
  0.00000000E+00  0.00000000E+00  0.00000000E+00
  0.00000000E+00  0.00000000E+00  0.00000000E+00
  0.00000000E+00  0.00000000E+00  0.00000000E+00
  0.00000000E+00  0.00000000E+00  0.00000000E+00
  0.00000000E+00  0.00000000E+00  0.00000000E+00
  0.00000000E+00  0.00000000E+00  0.00000000E+00
  0.00000000E+00  0.00000000E+00  0.00000000E+00
  0.00000000E+00  0.00000000E+00  0.00000000E+00
  0.00000000E+00  0.00000000E+00  0.00000000E+00
  0.00000000E+00  0.00000000E+00  0.00000000E+00
  0.00000000E+00  0.00000000E+00  0.00000000E+00
  0.00000000E+00  0.00000000E+00  0.00000000E+00
  0.00000000E+00  0.00000000E+00  0.00000000E+00
  0.00000000E+00  0.00000000E+00  0.00000000E+00
  0.00000000E+00  0.00000000E+00  0.00000000E+00
  0.00000000E+00  0.00000000E+00  0.00000000E+00
  0.00000000E+00  0.00000000E+00  0.00000000E+00
  0.00000000E+00  0.00000000E+00  0.00000000E+00
  0.00000000E+00  0.00000000E+00  0.00000000E+00
  0.00000000E+00  0.00000000E+00  0.00000000E+00
  0.00000000E+00  0.00000000E+00  0.00000000E+00
  0.00000000E+00  0.00000000E+00  0.00000000E+00
  0.00000000E+00  0.00000000E+00  0.00000000E+00
  0.00000000E+00  0.00000000E+00  0.00000000E+00
  0.00000000E+00  0.00000000E+00  0.00000000E+00
  0.00000000E+00  0.00000000E+00  0.00000000E+00
  0.00000000E+00  0.00000000E+00  0.00000000E+00
  0.00000000E+00  0.00000000E+00  0.00000000E+00
  0.00000000E+00  0.00000000E+00  0.00000000E+00
  0.00000000E+00  0.00000000E+00  0.00000000E+00
  0.00000000E+00  0.00000000E+00  0.00000000E+00
  0.00000000E+00  0.00000000E+00  0.00000000E+00
  0.00000000E+00  0.00000000E+00  0.00000000E+00
  0.00000000E+00  0.00000000E+00  0.00000000E+00
  0.00000000E+00  0.00000000E+00  0.00000000E+00
  0.00000000E+00  0.00000000E+00  0.00000000E+00
  0.00000000E+00  0.00000000E+00  0.00000000E+00
  0.00000000E+00  0.00000000E+00  0.00000000E+00
  0.00000000E+00  0.00000000E+00  0.00000000E+00
  0.00000000E+00  0.00000000E+00  0.00000000E+00
  0.00000000E+00  0.00000000E+00  0.00000000E+00
  0.00000000E+00  0.00000000E+00  0.00000000E+00
  0.00000000E+00  0.00000000E+00  0.00000000E+00
  0.00000000E+00  0.00000000E+00  0.00000000E+00
  0.00000000E+00  0.00000000E+00  0.00000000E+00
  0.00000000E+00  0.00000000E+00  0.00000000E+00
  0.00000000E+00  0.00000000E+00  0.00000000E+00
  0.00000000E+00  0.00000000E+00  0.00000000E+00
  0.00000000E+00  0.00000000E+00  0.00000000E+00
  0.00000000E+00  0.00000000E+00  0.00000000E+00
  0.00000000E+00  0.00000000E+00  0.00000000E+00
  0.00000000E+00  0.00000000E+00  0.00000000E+00
  0.00000000E+00  0.00000000E+00  0.00000000E+00
  0.00000000E+00  0.00000000E+00  0.00000000E+00
  0.00000000E+00  0.00000000E+00  0.00000000E+00
  0.00000000E+00  0.00000000E+00  0.00000000E+00
  0.00000000E+00  0.00000000E+00  0.00000000E+00
  0.00000000E+00  0.00000000E+00  0.00000000E+00
  0.00000000E+00  0.00000000E+00  0.00000000E+00
  0.00000000E+00  0.00000000E+00  0.00000000E+00
  0.00000000E+00  0.00000000E+00  0.00000000E+00
  0.00000000E+00  0.00000000E+00  0.00000000E+00
  0.00000000E+00  0.00000000E+00  0.00000000E+00
  0.00000000E+00  0.00000000E+00  0.00000000E+00
  0.00000000E+00  0.00000000E+00  0.00000000E+00
  0.00000000E+00  0.00000000E+00  0.00000000E+00
  0.00000000E+00  0.00000000E+00  0.00000000E+00
  0.00000000E+00  0.00000000E+00  0.00000000E+00
  0.00000000E+00  0.00000000E+00  0.00000000E+00
  0.00000000E+00  0.00000000E+00  0.00000000E+00
  0.00000000E+00  0.00000000E+00  0.00000000E+00
  0.00000000E+00  0.00000000E+00  0.00000000E+00
  0.00000000E+00  0.00000000E+00  0.00000000E+00
  0.00000000E+00  0.00000000E+00  0.00000000E+00
  0.00000000E+00  0.00000000E+00  0.00000000E+00
  0.00000000E+00  0.00000000E+00  0.00000000E+00
  0.00000000E+00  0.00000000E+00  0.00000000E+00
  0.00000000E+00  0.00000000E+00  0.00000000E+00
  0.00000000E+00  0.00000000E+00  0.00000000E+00
  0.00000000E+00  0.00000000E+00  0.00000000E+00
  0.00000000E+00  0.00000000E+00  0.00000000E+00
  0.00000000E+00  0.00000000E+00  0.00000000E+00
  0.00000000E+00  0.00000000E+00  0.00000000E+00
  0.00000000E+00  0.00000000E+00  0.00000000E+00
  0.00000000E+00  0.00000000E+00  0.00000000E+00
  0.00000000E+00  0.00000000E+00  0.00000000E+00
  0.00000000E+00  0.00000000E+00  0.00000000E+00
  0.00000000E+00  0.00000000E+00  0.00000000E+00
  0.00000000E+00  0.00000000E+00  0.00000000E+00
  0.00000000E+00  0.00000000E+00  0.00000000E+00
  0.00000000E+00  0.00000000E+00  0.00000000E+00
  0.00000000E+00  0.00000000E+00  0.00000000E+00
  0.00000000E+00  0.00000000E+00  0.00000000E+00
  0.00000000E+00  0.00000000E+00  0.00000000E+00
  0.00000000E+00  0.00000000E+00  0.00000000E+00
  0.00000000E+00  0.00000000E+00  0.00000000E+00
  0.00000000E+00  0.00000000E+00  0.00000000E+00
  0.00000000E+00  0.00000000E+00  0.00000000E+00
  0.00000000E+00  0.00000000E+00  0.00000000E+00
  0.00000000E+00  0.00000000E+00  0.00000000E+00
  0.00000000E+00  0.00000000E+00  0.00000000E+00
  0.00000000E+00  0.00000000E+00  0.00000000E+00
  0.00000000E+00  0.00000000E+00  0.00000000E+00
  0.00000000E+00  0.00000000E+00  0.00000000E+00
  0.00000000E+00  0.00000000E+00  0.00000000E+00
  0.00000000E+00  0.00000000E+00  0.00000000E+00
