C H O Si                                
   1.00000000000000     
     9.2874599999999994    0.0000000000000000    0.0000000000000000
     0.0000000000000000    8.7562999999999995    0.0000000000000000
     0.0000000000000000    0.0000000000000000   90.0000000000000000
   C    H    O    Si
    36    33    16    36
Selective dynamics
Direct
  0.0007700172756431  0.1350743713345135  0.4232540928059496   T   T   T
  0.0007645091291379  0.6351782783831583  0.4232641090201697   T   T   T
  0.3340860738467731  0.1351270973908771  0.4233097432130133   T   T   T
  0.3340402152401237  0.6350228263081363  0.4233200734998473   T   T   T
  0.6673919881218789  0.1350170557025372  0.4232942235711460   T   T   T
  0.6674321028656885  0.6350323575035477  0.4232950128679365   T   T   T
  0.1675365703303657  0.3813130554490013  0.4396106813620242   T   T   T
  0.1676009572858802  0.8813614197511589  0.4396282608813542   T   T   T
  0.5008903070775750  0.3812885247958940  0.4396776707749347   T   T   T
  0.5009167556952935  0.8812694194241241  0.4396407436504678   T   T   T
  0.8341906934946924  0.3813342503422917  0.4395751962179640   T   T   T
  0.8341249254978168  0.8814067519961182  0.4396107168445978   T   T   T
  0.0007970130961466  0.1310759784084669  0.4570994657399864   T   T   T
  0.0007884733718432  0.6312844832446931  0.4571050124571640   T   T   T
  0.3342729172122551  0.1310832504842630  0.4571543827276367   T   T   T
  0.3342175171320032  0.6309887671350422  0.4571712747394737   T   T   T
  0.6673688215133675  0.1311787511289458  0.4571443045738635   T   T   T
  0.6674365620954178  0.6311666929355837  0.4571396856261702   T   T   T
  0.1676493987923194  0.3811301863970556  0.4740873908719376   T   T   T
  0.1679041266601716  0.8811831476002900  0.4741267320290975   T   T   T
  0.5008702421078924  0.3815788681811240  0.4742476363124368   T   T   T
  0.5009076408306959  0.8808882373927396  0.4741588272198583   T   T   T
  0.8342387151599790  0.3811264835276294  0.4740572226429645   T   T   T
  0.8340781940967931  0.8813092215385080  0.4741219966269327   T   T   T
  0.0013272521087996  0.1308235957439140  0.4915399271415088   T   T   T
  0.0012001023199806  0.6315497058528390  0.4915986120993064   T   T   T
  0.3349295455326227  0.1320412928466574  0.4916942498112044   T   T   T
  0.3342357019546325  0.6317254355095041  0.4917574979012674   T   T   T
  0.6671076131794971  0.1319714247671281  0.4916707942285899   T   T   T
  0.6680744244941560  0.6318395227433987  0.4916728756873784   T   T   T
  0.1676944707534237  0.3836282308872216  0.5078087589007785   T   T   T
  0.1673154559931129  0.8859630614518761  0.5079896293742271   T   T   T
  0.5014240098249804  0.3893560590093486  0.5084640310897336   T   T   T
  0.5008837289574120  0.8854202367492034  0.5080309098027255   T   T   T
  0.8352786682076563  0.3829225462294131  0.5076846421351803   T   T   T
  0.8342568461471015  0.8860075554765570  0.5079348174252255   T   T   T
  0.0030495541930413  0.0620712567769239  0.4132981274516354   T   T   T
  0.0029205618697433  0.5622177499142328  0.4133020827382059   T   T   T
  0.3364042822373238  0.0620440522915305  0.4133604062301374   T   T   T
  0.3362055323741761  0.5618344194672980  0.4133769755518352   T   T   T
  0.6692595497698529  0.0619619229744925  0.4133412060871542   T   T   T
  0.6695763729317410  0.5620301615333984  0.4133385667877885   T   T   T
  0.1695268990290221  0.3109897087694669  0.5177865499863388   T   T   T
  0.1693643807966114  0.8126597450351039  0.5179186068315752   T   T   T
  0.5047358882707247  0.3148749303129413  0.5183141117257136   T   T   T
  0.5018970783946720  0.8127264925684765  0.5180093307080337   T   T   T
  0.8375217295439691  0.3102116870552342  0.5176541006667639   T   T   T
  0.8358464621411189  0.8135490003458317  0.5179109710250591   T   T   T
  0.0874018212785894  0.1175015789069285  0.5290267414533887   T   T   T
  0.0882568982226269  0.6116718401575492  0.5287917836954306   T   T   T
  0.4211162148021786  0.1179471083812673  0.5290494828957591   T   T   T
  0.3833886858801934  0.6360015687703713  0.5310936712096106   T   T   T
  0.7565492937568026  0.1158225905079956  0.5289988598533834   T   T   T
  0.7909161707400481  0.5993611119021207  0.5278770756127464   T   T   T
  0.2564313813071272  0.3652883158360689  0.4022678453523771   T   T   T
  0.2565661994643236  0.8652328004580084  0.4022849880719984   T   T   T
  0.5891916258884080  0.3654670738834557  0.4023121041079803   T   T   T
  0.5890057238832418  0.8652530669252411  0.4022716287689986   T   T   T
  0.9213219062048142  0.3657187734858099  0.4021681719898140   T   T   T
  0.9213267934928837  0.8658503065462427  0.4021952025944273   T   T   T
  0.5457927041946870  0.6162673748694635  0.5595394955171394   T   T   T
  0.4890684728054592  0.4768075962740304  0.5718310331284154   T   T   T
  0.5683143667576583  0.6395270573591099  0.5783141711063009   T   T   T
  0.3113405305256269  0.3864951986328705  0.5824017033005909   T   T   T
  0.4238753001131828  0.2610981177404689  0.5781623148535106   T   T   T
  0.6453682103921518  0.7339056148916102  0.5978901278524246   T   T   T
  0.4808657581447978  0.7636621382149512  0.5956424344023287   T   T   T
  0.5340986787117065  0.8052027435911998  0.5466801717657380   T   T   T
  0.5944013211567357  0.6594766996365446  0.5375489705003665   T   T   T
  0.1606131692890511  0.3410330653610570  0.4060947914952598   T   T   T
  0.1607155717967685  0.8411173365424520  0.4061122681256437   T   T   T
  0.4934693035340375  0.3412767312358722  0.4061676099410251   T   T   T
  0.4933361964613767  0.8408645244236503  0.4061276407414944   T   T   T
  0.8260098086426418  0.3407249515076588  0.4060736844502755   T   T   T
  0.8260048944689696  0.8410071031093830  0.4061073829061447   T   T   T
  0.9923219622330511  0.0921877379579200  0.5250804324441313   T   T   T
  0.9917190585882739  0.5882747688467661  0.5249712917518115   T   T   T
  0.3260267574004787  0.0918837708466699  0.5251606455185519   T   T   T
  0.3052997053407017  0.5908734423186698  0.5252055668030818   T   T   T
  0.6607587969315659  0.0924947699592308  0.5251092551449209   T   T   T
  0.6880492840622450  0.5921477775388913  0.5251381174101565   T   T   T
  0.5668546034644363  0.5601312805866181  0.5696726789710679   T   T   T
  0.3793739706114174  0.3555867166800507  0.5747049546102089   T   T   T
  0.5726866138155309  0.7575217465693722  0.5904055915787927   T   T   T
  0.5213052900439464  0.6954015888046597  0.5453544767570794   T   T   T
  0.1672874242586740  0.2522831553287175  0.4229352024793840   T   T   T
  0.1673173837741767  0.7523273843362596  0.4229504849188012   T   T   T
  0.5005809431452986  0.2522440053491792  0.4229934197251490   T   T   T
  0.5005508834957866  0.7521370766115325  0.4229689668554238   T   T   T
  0.8338570380140559  0.2521568375815718  0.4229184301749932   T   T   T
  0.8338394045053915  0.7522780571316203  0.4229455657602729   T   T   T
  0.0008570422410883  0.0052830123378666  0.4400629086039475   T   T   T
  0.0008707158671109  0.5053130797343905  0.4400633524645066   T   T   T
  0.3343018252041429  0.0052448947233819  0.4401013865110834   T   T   T
  0.3342234637246062  0.5051828908450958  0.4401198076056690   T   T   T
  0.6674408419434289  0.0053011569189018  0.4400957602013116   T   T   T
  0.6675064225638000  0.5052155078785975  0.4400892091759683   T   T   T
  0.1675469270304014  0.2557606608562745  0.4569647515161758   T   T   T
  0.1676886664717567  0.7557878944529648  0.4569901375297272   T   T   T
  0.5007981162912053  0.2559148612212295  0.4570612092878489   T   T   T
  0.5007766274610270  0.7557406877068307  0.4570042884916489   T   T   T
  0.8341118956107781  0.2557840169874390  0.4569359376837562   T   T   T
  0.8340536083658584  0.7559465435027710  0.4569819683589907   T   T   T
  0.0010673306778964  0.0055286968404471  0.4742150325921265   T   T   T
  0.0009760770106865  0.5058871812921305  0.4742123044170992   T   T   T
  0.3346035103889901  0.0060420165648430  0.4742920919977840   T   T   T
  0.3340682888928048  0.5060655946106022  0.4743376045936516   T   T   T
  0.6671885424822114  0.0059999764949661  0.4742801456411698   T   T   T
  0.6676913705599580  0.5059631113791369  0.4742638599133580   T   T   T
  0.1677251079461074  0.2548205137293367  0.4910759207276885   T   T   T
  0.1677097964448824  0.7559066375930277  0.4911974778860029   T   T   T
  0.5010019913084507  0.2572675975110266  0.4913924427446117   T   T   T
  0.5009154031716362  0.7554030181335797  0.4912231860952940   T   T   T
  0.8347260332738216  0.2541369845996579  0.4909886046845749   T   T   T
  0.8346813098641002  0.7559003635328616  0.4911682897581418   T   T   T
  0.0006123192802389  0.0029537263632905  0.5082663539300262   T   T   T
  0.0012075950317133  0.5004308118071950  0.5080556195911375   T   T   T
  0.3337724048791163  0.0029312419934900  0.5083415116155660   T   T   T
  0.3318920009844870  0.5040779936152390  0.5085568062454807   T   T   T
  0.6675372263940070  0.0029798741626455  0.5083164872692817   T   T   T
  0.6707614134094899  0.5020854599410089  0.5081715585726008   T   T   T
 
  0.00000000E+00  0.00000000E+00  0.00000000E+00
  0.00000000E+00  0.00000000E+00  0.00000000E+00
  0.00000000E+00  0.00000000E+00  0.00000000E+00
  0.00000000E+00  0.00000000E+00  0.00000000E+00
  0.00000000E+00  0.00000000E+00  0.00000000E+00
  0.00000000E+00  0.00000000E+00  0.00000000E+00
  0.00000000E+00  0.00000000E+00  0.00000000E+00
  0.00000000E+00  0.00000000E+00  0.00000000E+00
  0.00000000E+00  0.00000000E+00  0.00000000E+00
  0.00000000E+00  0.00000000E+00  0.00000000E+00
  0.00000000E+00  0.00000000E+00  0.00000000E+00
  0.00000000E+00  0.00000000E+00  0.00000000E+00
  0.00000000E+00  0.00000000E+00  0.00000000E+00
  0.00000000E+00  0.00000000E+00  0.00000000E+00
  0.00000000E+00  0.00000000E+00  0.00000000E+00
  0.00000000E+00  0.00000000E+00  0.00000000E+00
  0.00000000E+00  0.00000000E+00  0.00000000E+00
  0.00000000E+00  0.00000000E+00  0.00000000E+00
  0.00000000E+00  0.00000000E+00  0.00000000E+00
  0.00000000E+00  0.00000000E+00  0.00000000E+00
  0.00000000E+00  0.00000000E+00  0.00000000E+00
  0.00000000E+00  0.00000000E+00  0.00000000E+00
  0.00000000E+00  0.00000000E+00  0.00000000E+00
  0.00000000E+00  0.00000000E+00  0.00000000E+00
  0.00000000E+00  0.00000000E+00  0.00000000E+00
  0.00000000E+00  0.00000000E+00  0.00000000E+00
  0.00000000E+00  0.00000000E+00  0.00000000E+00
  0.00000000E+00  0.00000000E+00  0.00000000E+00
  0.00000000E+00  0.00000000E+00  0.00000000E+00
  0.00000000E+00  0.00000000E+00  0.00000000E+00
  0.00000000E+00  0.00000000E+00  0.00000000E+00
  0.00000000E+00  0.00000000E+00  0.00000000E+00
  0.00000000E+00  0.00000000E+00  0.00000000E+00
  0.00000000E+00  0.00000000E+00  0.00000000E+00
  0.00000000E+00  0.00000000E+00  0.00000000E+00
  0.00000000E+00  0.00000000E+00  0.00000000E+00
  0.00000000E+00  0.00000000E+00  0.00000000E+00
  0.00000000E+00  0.00000000E+00  0.00000000E+00
  0.00000000E+00  0.00000000E+00  0.00000000E+00
  0.00000000E+00  0.00000000E+00  0.00000000E+00
  0.00000000E+00  0.00000000E+00  0.00000000E+00
  0.00000000E+00  0.00000000E+00  0.00000000E+00
  0.00000000E+00  0.00000000E+00  0.00000000E+00
  0.00000000E+00  0.00000000E+00  0.00000000E+00
  0.00000000E+00  0.00000000E+00  0.00000000E+00
  0.00000000E+00  0.00000000E+00  0.00000000E+00
  0.00000000E+00  0.00000000E+00  0.00000000E+00
  0.00000000E+00  0.00000000E+00  0.00000000E+00
  0.00000000E+00  0.00000000E+00  0.00000000E+00
  0.00000000E+00  0.00000000E+00  0.00000000E+00
  0.00000000E+00  0.00000000E+00  0.00000000E+00
  0.00000000E+00  0.00000000E+00  0.00000000E+00
  0.00000000E+00  0.00000000E+00  0.00000000E+00
  0.00000000E+00  0.00000000E+00  0.00000000E+00
  0.00000000E+00  0.00000000E+00  0.00000000E+00
  0.00000000E+00  0.00000000E+00  0.00000000E+00
  0.00000000E+00  0.00000000E+00  0.00000000E+00
  0.00000000E+00  0.00000000E+00  0.00000000E+00
  0.00000000E+00  0.00000000E+00  0.00000000E+00
  0.00000000E+00  0.00000000E+00  0.00000000E+00
  0.00000000E+00  0.00000000E+00  0.00000000E+00
  0.00000000E+00  0.00000000E+00  0.00000000E+00
  0.00000000E+00  0.00000000E+00  0.00000000E+00
  0.00000000E+00  0.00000000E+00  0.00000000E+00
  0.00000000E+00  0.00000000E+00  0.00000000E+00
  0.00000000E+00  0.00000000E+00  0.00000000E+00
  0.00000000E+00  0.00000000E+00  0.00000000E+00
  0.00000000E+00  0.00000000E+00  0.00000000E+00
  0.00000000E+00  0.00000000E+00  0.00000000E+00
  0.00000000E+00  0.00000000E+00  0.00000000E+00
  0.00000000E+00  0.00000000E+00  0.00000000E+00
  0.00000000E+00  0.00000000E+00  0.00000000E+00
  0.00000000E+00  0.00000000E+00  0.00000000E+00
  0.00000000E+00  0.00000000E+00  0.00000000E+00
  0.00000000E+00  0.00000000E+00  0.00000000E+00
  0.00000000E+00  0.00000000E+00  0.00000000E+00
  0.00000000E+00  0.00000000E+00  0.00000000E+00
  0.00000000E+00  0.00000000E+00  0.00000000E+00
  0.00000000E+00  0.00000000E+00  0.00000000E+00
  0.00000000E+00  0.00000000E+00  0.00000000E+00
  0.00000000E+00  0.00000000E+00  0.00000000E+00
  0.00000000E+00  0.00000000E+00  0.00000000E+00
  0.00000000E+00  0.00000000E+00  0.00000000E+00
  0.00000000E+00  0.00000000E+00  0.00000000E+00
  0.00000000E+00  0.00000000E+00  0.00000000E+00
  0.00000000E+00  0.00000000E+00  0.00000000E+00
  0.00000000E+00  0.00000000E+00  0.00000000E+00
  0.00000000E+00  0.00000000E+00  0.00000000E+00
  0.00000000E+00  0.00000000E+00  0.00000000E+00
  0.00000000E+00  0.00000000E+00  0.00000000E+00
  0.00000000E+00  0.00000000E+00  0.00000000E+00
  0.00000000E+00  0.00000000E+00  0.00000000E+00
  0.00000000E+00  0.00000000E+00  0.00000000E+00
  0.00000000E+00  0.00000000E+00  0.00000000E+00
  0.00000000E+00  0.00000000E+00  0.00000000E+00
  0.00000000E+00  0.00000000E+00  0.00000000E+00
  0.00000000E+00  0.00000000E+00  0.00000000E+00
  0.00000000E+00  0.00000000E+00  0.00000000E+00
  0.00000000E+00  0.00000000E+00  0.00000000E+00
  0.00000000E+00  0.00000000E+00  0.00000000E+00
  0.00000000E+00  0.00000000E+00  0.00000000E+00
  0.00000000E+00  0.00000000E+00  0.00000000E+00
  0.00000000E+00  0.00000000E+00  0.00000000E+00
  0.00000000E+00  0.00000000E+00  0.00000000E+00
  0.00000000E+00  0.00000000E+00  0.00000000E+00
  0.00000000E+00  0.00000000E+00  0.00000000E+00
  0.00000000E+00  0.00000000E+00  0.00000000E+00
  0.00000000E+00  0.00000000E+00  0.00000000E+00
  0.00000000E+00  0.00000000E+00  0.00000000E+00
  0.00000000E+00  0.00000000E+00  0.00000000E+00
  0.00000000E+00  0.00000000E+00  0.00000000E+00
  0.00000000E+00  0.00000000E+00  0.00000000E+00
  0.00000000E+00  0.00000000E+00  0.00000000E+00
  0.00000000E+00  0.00000000E+00  0.00000000E+00
  0.00000000E+00  0.00000000E+00  0.00000000E+00
  0.00000000E+00  0.00000000E+00  0.00000000E+00
  0.00000000E+00  0.00000000E+00  0.00000000E+00
  0.00000000E+00  0.00000000E+00  0.00000000E+00
  0.00000000E+00  0.00000000E+00  0.00000000E+00
  0.00000000E+00  0.00000000E+00  0.00000000E+00
  0.00000000E+00  0.00000000E+00  0.00000000E+00
