C H O Si                                
   1.00000000000000     
     9.2874599999999994    0.0000000000000000    0.0000000000000000
     0.0000000000000000   17.5126199999999983    0.0000000000000000
     0.0000000000000000    0.0000000000000000   58.0000000000000000
   C    H    O    Si
    72    57    28    72
Selective dynamics
Direct
  0.9931170811588768  0.0630489851138017  0.0604770551789237   T   T   T
  0.3264512390674696  0.0630803239932567  0.0605724041366361   T   T   T
  0.6597278883632623  0.0630796978099433  0.0605480681929368   T   T   T
  0.9929380101079918  0.3131147761723719  0.0604700998272152   T   T   T
  0.3262844585857199  0.3130440072208955  0.0605823591295468   T   T   T
  0.6596103951350479  0.3130723634253860  0.0605445270402650   T   T   T
  0.1600506871740044  0.1858107983648827  0.1393911693357380   T   T   T
  0.4932984794937511  0.1861086256697612  0.1396348645668739   T   T   T
  0.8266698065144186  0.1857992307102224  0.1393193473808666   T   T   T
  0.1599132995488324  0.4358992737983088  0.1394345265496246   T   T   T
  0.4932733768539340  0.4358313143439715  0.1394749747279888   T   T   T
  0.8266323322637168  0.4359133422654090  0.1394202748968292   T   T   T
  0.3275124819648402  0.0612003546270414  0.1666882929820933   T   T   T
  0.6598029766204990  0.0611361908324821  0.1666446683303002   T   T   T
  0.9939182719220816  0.0605131027118172  0.1664098355294314   T   T   T
  0.3267521420635088  0.3110069844573881  0.1667603830918396   T   T   T
  0.6606174713786525  0.3110942087548721  0.1666359477306850   T   T   T
  0.9937092249172718  0.3109881898479041  0.1664473186689452   T   T   T
  0.1608078543982815  0.1872804656349772  0.1917302936595881   T   T   T
  0.4941676225122374  0.1897890563373480  0.1927016660942700   T   T   T
  0.8281751196520751  0.1867165138534851  0.1914788552486346   T   T   T
  0.1602041006988716  0.4383237357127159  0.1919450007220942   T   T   T
  0.4937220500381568  0.4379334483218596  0.1919891072719601   T   T   T
  0.8272774509929045  0.4383937003693744  0.1918923024469254   T   T   T
  0.1596108937471219  0.1860482176401183  0.0858785695005569   T   T   T
  0.4929207638865912  0.1860431983008032  0.0860102294562732   T   T   T
  0.8262440422440243  0.1860321755915547  0.0858351745834822   T   T   T
  0.1596737242493338  0.4360435651263381  0.0858972451212064   T   T   T
  0.4929729087355562  0.4360090143464853  0.0859400340980751   T   T   T
  0.8262514269259049  0.4360349544395175  0.0858952614787001   T   T   T
  0.3264339945743787  0.0609176663400083  0.1130879194130731   T   T   T
  0.6596398407481712  0.0609218869855956  0.1130712791686910   T   T   T
  0.9930538868605975  0.0608282272677414  0.1129861063964627   T   T   T
  0.3263929869941908  0.3108729525049886  0.1131235186166274   T   T   T
  0.6598304411035436  0.3108722269843272  0.1130789318937835   T   T   T
  0.9930910396563523  0.3108695082098025  0.1129775957683952   T   T   T
  0.9931736588550575  0.5630324268388432  0.0605103971971525   T   T   T
  0.3264757156025253  0.5630446506893755  0.0605279864229000   T   T   T
  0.6598687800392703  0.5630538523911031  0.0605239849271937   T   T   T
  0.9929698424600537  0.8130879925012188  0.0605216539441787   T   T   T
  0.3262861812837590  0.8130568536276528  0.0605250903645864   T   T   T
  0.6596400924767168  0.8130729756634980  0.0605200544976125   T   T   T
  0.1599346559487468  0.6859226967460291  0.1394278332616719   T   T   T
  0.4931916724426952  0.6859057821181219  0.1394332680368990   T   T   T
  0.8265218070534044  0.6859153030053090  0.1394267890347755   T   T   T
  0.1602963209530444  0.9358819645807138  0.1394398995823929   T   T   T
  0.4932627908398758  0.9358539145949757  0.1394443805006248   T   T   T
  0.8264438352249875  0.9359214291271680  0.1394275936705734   T   T   T
  0.3268125490846407  0.5610343278179125  0.1665750726543520   T   T   T
  0.6600137139889496  0.5610526607697859  0.1665701270733604   T   T   T
  0.9934819555646029  0.5611952413050522  0.1665339863164428   T   T   T
  0.3268782623006791  0.8110066452551897  0.1665855925725517   T   T   T
  0.6601858668237829  0.8110289357110249  0.1665865116997351   T   T   T
  0.9935609481647183  0.8110654864650672  0.1665720908715591   T   T   T
  0.1605066410941078  0.6881094688524380  0.1919569178148789   T   T   T
  0.4937605269822631  0.6880860127085673  0.1919663655082611   T   T   T
  0.8270619793203845  0.6881049240843183  0.1919397389260278   T   T   T
  0.1607081330264994  0.9380749655402332  0.1919678841915055   T   T   T
  0.4939065966211797  0.9379986009409056  0.1919945020015353   T   T   T
  0.8271462219231526  0.9380496055292417  0.1919307024619374   T   T   T
  0.1596561192305335  0.6860338385253016  0.0858972172144423   T   T   T
  0.4929637003257242  0.6860049517446127  0.0859074337906538   T   T   T
  0.8262683939149065  0.6860348999645267  0.0858961282627744   T   T   T
  0.1596763586725093  0.9360446894744464  0.0858959328464958   T   T   T
  0.4929358598469472  0.9360284788526730  0.0859191116612233   T   T   T
  0.8262145336239312  0.9360590351147272  0.0858892262823108   T   T   T
  0.3263713056685430  0.5608588419908348  0.1130533917343172   T   T   T
  0.6596937469757734  0.5608602309064571  0.1130525406135692   T   T   T
  0.9930342471484437  0.5608891898811602  0.1130277639787393   T   T   T
  0.3264760366886885  0.8108466194588894  0.1130364656942138   T   T   T
  0.6597760357104092  0.8108549588318023  0.1130389972123953   T   T   T
  0.9931106238314009  0.8109221326580762  0.1130467093242693   T   T   T
  0.0758104242784201  0.1773959763491437  0.0270133091818527   T   T   T
  0.4081688265380479  0.1774044723338860  0.0271980201147345   T   T   T
  0.7414467975031882  0.1773447704354451  0.0270502868552547   T   T   T
  0.0756950238817745  0.4274538953319447  0.0270298118142639   T   T   T
  0.4077875405332566  0.4272759871197924  0.0271397966897838   T   T   T
  0.7407979940806256  0.4273094041245468  0.0271056514952772   T   T   T
  0.3242628867252159  0.0268556420709519  0.0450494443179597   T   T   T
  0.6567356882883604  0.0268607241891187  0.0450275868978060   T   T   T
  0.9906531566094938  0.0268810164739844  0.0449463984336620   T   T   T
  0.3237292213100884  0.2767775392786256  0.0450700392967894   T   T   T
  0.6569216705516588  0.2768429847433499  0.0450256117136757   T   T   T
  0.9903560442199598  0.2769660677834344  0.0449335145656031   T   T   T
  0.8289986057571397  0.4025305656737357  0.2074655774986452   T   T   T
  0.8305923839180950  0.1507434962444094  0.2070511003854966   T   T   T
  0.1620189214939435  0.1512815786329609  0.2072960228325136   T   T   T
  0.4969753022404770  0.1530355518733689  0.2081063562782671   T   T   T
  0.1621109203137436  0.4020043683657686  0.2074392983059608   T   T   T
  0.4941990711347155  0.4017834178052475  0.2075298447679689   T   T   T
  0.0789110016957065  0.0521799570293550  0.2253675038979194   T   T   T
  0.4131342571582391  0.0517465087751912  0.2255306594744610   T   T   T
  0.7463872196609341  0.0519905812914383  0.2254383389563696   T   T   T
  0.0772072528421717  0.3008753730088409  0.2249749494293004   T   T   T
  0.3774149387582214  0.3099382353809881  0.2288263707892799   T   T   T
  0.7818328171574470  0.2949251590464565  0.2231198143788639   T   T   T
  0.5463179918364479  0.3053321073384068  0.2741262950324623   T   T   T
  0.4926575394340200  0.2376988149412412  0.2934091474364314   T   T   T
  0.5720709093181781  0.3198778600707601  0.3031472076835586   T   T   T
  0.3145655129961359  0.1943721674520603  0.3097374762720635   T   T   T
  0.4221329861389715  0.1302308633831671  0.3022608949973499   T   T   T
  0.6507889949664883  0.3661632705132378  0.3334771658721511   T   T   T
  0.4848528494545915  0.3776035778802481  0.3307711382617858   T   T   T
  0.5170301418498013  0.3956118960262014  0.2522782572079790   T   T   T
  0.5848850757573113  0.3237643653746237  0.2389541729084357   T   T   T
  0.0754797427680690  0.6774522807616945  0.0270719205499656   T   T   T
  0.4084313132448262  0.6773847565203756  0.0271017250874083   T   T   T
  0.7416943183605831  0.6773734730228965  0.0271037752087664   T   T   T
  0.0751933058941551  0.9273976215772962  0.0270663641870666   T   T   T
  0.4079242755489946  0.9273053566040639  0.0271133298416827   T   T   T
  0.7412969113024546  0.9273710275400926  0.0270978292727831   T   T   T
  0.3239083240862756  0.5268110651322467  0.0450096793972535   T   T   T
  0.6572952311774438  0.5268216851905251  0.0450049458950826   T   T   T
  0.9905591833295592  0.5268281941149168  0.0449861505283476   T   T   T
  0.3237444889596162  0.7768549198884122  0.0450014618574122   T   T   T
  0.6569485293249708  0.7768728623178361  0.0449965851605725   T   T   T
  0.9903365483381008  0.7768663694642826  0.0450008196775903   T   T   T
  0.8295261054377266  0.9018600925774662  0.2074572040524530   T   T   T
  0.8293773430698207  0.6519133507570479  0.2074640639135554   T   T   T
  0.1626606454776252  0.6518829985630079  0.2074759632225266   T   T   T
  0.4961707015115642  0.6519683847460109  0.2075044204515437   T   T   T
  0.1627272861406060  0.9018340639701852  0.2074833721380510   T   T   T
  0.4962843557359543  0.9017433408178476  0.2075040709427104   T   T   T
  0.0783630181451670  0.5531454396974268  0.2253748166867551   T   T   T
  0.4125187431042537  0.5536540088373317  0.2252171359215742   T   T   T
  0.7457414694518071  0.5530483528527234  0.2253026899499354   T   T   T
  0.0792009294248619  0.8022881789004391  0.2254017077031974   T   T   T
  0.4120601334941574  0.8025366579232706  0.2254619126564801   T   T   T
  0.7466442027381822  0.8020739535860906  0.2253461239334773   T   T   T
  0.1690917482705216  0.1669000143173614  0.0341144594582048   T   T   T
  0.5017866479415320  0.1670735867507003  0.0342205972690796   T   T   T
  0.8350127517481046  0.1667215086104724  0.0340475428197742   T   T   T
  0.1689550089598854  0.4168610371400700  0.0341245012427054   T   T   T
  0.5014545708461912  0.4168695297018636  0.0341394063112901   T   T   T
  0.8344666144808143  0.4169836784142884  0.0341120095319578   T   T   T
  0.3194105397737573  0.0419146867586605  0.2184722616595606   T   T   T
  0.6525833915235119  0.0418575070809804  0.2184385863878641   T   T   T
  0.9853990221083609  0.0421151936644362  0.2182730311372723   T   T   T
  0.3002921188012937  0.2921562681305253  0.2184963167122834   T   T   T
  0.6796523993166054  0.2915502398081089  0.2184834685887608   T   T   T
  0.9828461806273096  0.2903661853973094  0.2180845624040462   T   T   T
  0.5705753964916945  0.2795101720744421  0.2898096023536645   T   T   T
  0.3809404034405888  0.1790668089356888  0.2975353289078221   T   T   T
  0.5754053694279436  0.3771325404770154  0.3222302096487076   T   T   T
  0.5107602680553399  0.3401463831890541  0.2508329995942976   T   T   T
  0.1688573858238523  0.6669072928898726  0.0341360043431241   T   T   T
  0.5019541519623831  0.6669077695853931  0.0341325526292855   T   T   T
  0.8352188170400981  0.6668819391794245  0.0341287383373214   T   T   T
  0.1685972572020644  0.9168845467010879  0.0341253853533352   T   T   T
  0.5015447007142817  0.9169488397786436  0.0341318378857985   T   T   T
  0.8348666436815917  0.9168505315831450  0.0341086592600772   T   T   T
  0.3189304434911890  0.5418925465373018  0.2183913612691656   T   T   T
  0.6521181139750326  0.5419947547227708  0.2183724920978496   T   T   T
  0.9849709065629539  0.5422064566077869  0.2183601255238332   T   T   T
  0.3186485206247177  0.7919500968714626  0.2184068622412169   T   T   T
  0.6526849557005844  0.7917630073708198  0.2184244194240329   T   T   T
  0.9855227198337304  0.7919047420626167  0.2183966635646745   T   T   T
  0.4932205303286718  0.1217543687027266  0.0598969726026428   T   T   T
  0.8265288242838443  0.1216968655541266  0.0597662018747708   T   T   T
  0.1598274828948049  0.3717217793556648  0.0598248312281973   T   T   T
  0.4930638222193100  0.3717124082088412  0.0598460743764779   T   T   T
  0.8263469053890644  0.3717627960434574  0.0598028825529376   T   T   T
  0.1599434498262190  0.1217174369818597  0.0598079055752394   T   T   T
  0.9932596447618183  0.4983990258748920  0.1396579180848860   T   T   T
  0.3265547773354888  0.4983131654464462  0.1396833131631704   T   T   T
  0.6598743192769631  0.4983243511434063  0.1396806006417468   T   T   T
  0.9933689799622685  0.2482225794234964  0.1395511736564262   T   T   T
  0.3264955195305719  0.2483710791432295  0.1397935795006333   T   T   T
  0.6601283700560102  0.2482995440749911  0.1396866321952668   T   T   T
  0.1603641885107844  0.1227264482966149  0.1658867522908838   T   T   T
  0.4936159971361729  0.1238958677385261  0.1663656693958576   T   T   T
  0.8272977615831080  0.1223297508040204  0.1657195115193324   T   T   T
  0.1602139378966516  0.3732626288635305  0.1660273857035824   T   T   T
  0.4934031315488596  0.3730114906180688  0.1660481216584192   T   T   T
  0.8272296491755522  0.3732933674113077  0.1659944773703581   T   T   T
  0.3268050407198634  0.4968878080038806  0.1926617113173567   T   T   T
  0.6604090907689827  0.4968922722791203  0.1926558815738307   T   T   T
  0.9936590763763284  0.4971142651448222  0.1926385090954420   T   T   T
  0.3251703229384163  0.2475515400247403  0.1931096848598675   T   T   T
  0.9941076258382017  0.2456802402786342  0.1922193416163760   T   T   T
  0.6634692589377859  0.2463554244562601  0.1924960890020642   T   T   T
  0.9929916437820342  0.4981261771136111  0.0864328881582700   T   T   T
  0.3263564765332008  0.4981383074740326  0.0864558685613374   T   T   T
  0.6596437678028011  0.4981404896446789  0.0864549843905107   T   T   T
  0.9929300726442772  0.2481331923368093  0.0863823797654080   T   T   T
  0.3262659283717416  0.2481395680187054  0.0865114611414812   T   T   T
  0.6596149657401187  0.2481324016462103  0.0864717423698728   T   T   T
  0.1597583901179412  0.1233092077794628  0.1127563920437509   T   T   T
  0.4930405265687877  0.1233926616720724  0.1129175617189847   T   T   T
  0.8264242946757142  0.1232676216727223  0.1127034569192370   T   T   T
  0.1597792919064716  0.3733378039372416  0.1127947770094955   T   T   T
  0.4931087228017129  0.3732903748545574  0.1128269681786821   T   T   T
  0.8264932363422468  0.3733325839851283  0.1127832511204171   T   T   T
  0.4933004717269417  0.6217003544556178  0.0598229683426348   T   T   T
  0.8266404482908148  0.6217075216914025  0.0598205866508263   T   T   T
  0.1598149289748390  0.8717203664119595  0.0598224212280325   T   T   T
  0.4930851030615694  0.8717256027146846  0.0598258139986675   T   T   T
  0.8264023784449124  0.8717324949281909  0.0598121631761397   T   T   T
  0.1599645957702119  0.6217079491429502  0.0598243077811720   T   T   T
  0.9934318490533378  0.9980682862263469  0.1395811065009696   T   T   T
  0.3269607079853230  0.9984304122774063  0.1397331262260570   T   T   T
  0.6596041749826598  0.9983630540204842  0.1397022254031988   T   T   T
  0.9932149922755018  0.7483567576905820  0.1396736482878901   T   T   T
  0.3265536770945516  0.7483478998037316  0.1396759008797150   T   T   T
  0.6598482916148031  0.7483468951466693  0.1396791703422201   T   T   T
  0.1601290388058409  0.6232263768068895  0.1660052419741065   T   T   T
  0.4934013513561686  0.6231925579876807  0.1660172020301449   T   T   T
  0.8267678128009757  0.6232043406648088  0.1660029459198832   T   T   T
  0.1602784426688484  0.8731238405545312  0.1660222867248578   T   T   T
  0.4935014964292587  0.8731221381556015  0.1660401103209353   T   T   T
  0.8268038962657328  0.8731170287025918  0.1660027445669138   T   T   T
  0.3272562060115288  0.9967438503254937  0.1927577826067260   T   T   T
  0.6604418841092689  0.9967032751130803  0.1927152345342342   T   T   T
  0.9938112086515122  0.9966552083353759  0.1926014601722716   T   T   T
  0.3270279336411996  0.7468028611141018  0.1926940660795534   T   T   T
  0.9936713549961391  0.7467887743776808  0.1926716187150535   T   T   T
  0.6603311990208884  0.7467652973974250  0.1926813470939845   T   T   T
  0.9929950940558725  0.9981084985950880  0.0863981257168509   T   T   T
  0.3263632057520514  0.9981415222148395  0.0864852829061761   T   T   T
  0.6595543236495914  0.9981460041167975  0.0864692233519364   T   T   T
  0.9929686477237595  0.7481513850824548  0.0864433284694932   T   T   T
  0.3263424836221512  0.7481160003961127  0.0864466762693247   T   T   T
  0.6596121760032213  0.7481305475408511  0.0864442548333986   T   T   T
  0.1597558323392213  0.6233386539929839  0.1127937598461063   T   T   T
  0.4930657387687926  0.6233153137134365  0.1128017729782940   T   T   T
  0.8263930596288445  0.6233339971233121  0.1127924824801684   T   T   T
  0.1599337293918750  0.8733317862546999  0.1127952122872799   T   T   T
  0.4931178644596322  0.8733004050764035  0.1128023448377618   T   T   T
  0.8263640865837349  0.8733484168991674  0.1127865898411060   T   T   T
 
  0.00000000E+00  0.00000000E+00  0.00000000E+00
  0.00000000E+00  0.00000000E+00  0.00000000E+00
  0.00000000E+00  0.00000000E+00  0.00000000E+00
  0.00000000E+00  0.00000000E+00  0.00000000E+00
  0.00000000E+00  0.00000000E+00  0.00000000E+00
  0.00000000E+00  0.00000000E+00  0.00000000E+00
  0.00000000E+00  0.00000000E+00  0.00000000E+00
  0.00000000E+00  0.00000000E+00  0.00000000E+00
  0.00000000E+00  0.00000000E+00  0.00000000E+00
  0.00000000E+00  0.00000000E+00  0.00000000E+00
  0.00000000E+00  0.00000000E+00  0.00000000E+00
  0.00000000E+00  0.00000000E+00  0.00000000E+00
  0.00000000E+00  0.00000000E+00  0.00000000E+00
  0.00000000E+00  0.00000000E+00  0.00000000E+00
  0.00000000E+00  0.00000000E+00  0.00000000E+00
  0.00000000E+00  0.00000000E+00  0.00000000E+00
  0.00000000E+00  0.00000000E+00  0.00000000E+00
  0.00000000E+00  0.00000000E+00  0.00000000E+00
  0.00000000E+00  0.00000000E+00  0.00000000E+00
  0.00000000E+00  0.00000000E+00  0.00000000E+00
  0.00000000E+00  0.00000000E+00  0.00000000E+00
  0.00000000E+00  0.00000000E+00  0.00000000E+00
  0.00000000E+00  0.00000000E+00  0.00000000E+00
  0.00000000E+00  0.00000000E+00  0.00000000E+00
  0.00000000E+00  0.00000000E+00  0.00000000E+00
  0.00000000E+00  0.00000000E+00  0.00000000E+00
  0.00000000E+00  0.00000000E+00  0.00000000E+00
  0.00000000E+00  0.00000000E+00  0.00000000E+00
  0.00000000E+00  0.00000000E+00  0.00000000E+00
  0.00000000E+00  0.00000000E+00  0.00000000E+00
  0.00000000E+00  0.00000000E+00  0.00000000E+00
  0.00000000E+00  0.00000000E+00  0.00000000E+00
  0.00000000E+00  0.00000000E+00  0.00000000E+00
  0.00000000E+00  0.00000000E+00  0.00000000E+00
  0.00000000E+00  0.00000000E+00  0.00000000E+00
  0.00000000E+00  0.00000000E+00  0.00000000E+00
  0.00000000E+00  0.00000000E+00  0.00000000E+00
  0.00000000E+00  0.00000000E+00  0.00000000E+00
  0.00000000E+00  0.00000000E+00  0.00000000E+00
  0.00000000E+00  0.00000000E+00  0.00000000E+00
  0.00000000E+00  0.00000000E+00  0.00000000E+00
  0.00000000E+00  0.00000000E+00  0.00000000E+00
  0.00000000E+00  0.00000000E+00  0.00000000E+00
  0.00000000E+00  0.00000000E+00  0.00000000E+00
  0.00000000E+00  0.00000000E+00  0.00000000E+00
  0.00000000E+00  0.00000000E+00  0.00000000E+00
  0.00000000E+00  0.00000000E+00  0.00000000E+00
  0.00000000E+00  0.00000000E+00  0.00000000E+00
  0.00000000E+00  0.00000000E+00  0.00000000E+00
  0.00000000E+00  0.00000000E+00  0.00000000E+00
  0.00000000E+00  0.00000000E+00  0.00000000E+00
  0.00000000E+00  0.00000000E+00  0.00000000E+00
  0.00000000E+00  0.00000000E+00  0.00000000E+00
  0.00000000E+00  0.00000000E+00  0.00000000E+00
  0.00000000E+00  0.00000000E+00  0.00000000E+00
  0.00000000E+00  0.00000000E+00  0.00000000E+00
  0.00000000E+00  0.00000000E+00  0.00000000E+00
  0.00000000E+00  0.00000000E+00  0.00000000E+00
  0.00000000E+00  0.00000000E+00  0.00000000E+00
  0.00000000E+00  0.00000000E+00  0.00000000E+00
  0.00000000E+00  0.00000000E+00  0.00000000E+00
  0.00000000E+00  0.00000000E+00  0.00000000E+00
  0.00000000E+00  0.00000000E+00  0.00000000E+00
  0.00000000E+00  0.00000000E+00  0.00000000E+00
  0.00000000E+00  0.00000000E+00  0.00000000E+00
  0.00000000E+00  0.00000000E+00  0.00000000E+00
  0.00000000E+00  0.00000000E+00  0.00000000E+00
  0.00000000E+00  0.00000000E+00  0.00000000E+00
  0.00000000E+00  0.00000000E+00  0.00000000E+00
  0.00000000E+00  0.00000000E+00  0.00000000E+00
  0.00000000E+00  0.00000000E+00  0.00000000E+00
  0.00000000E+00  0.00000000E+00  0.00000000E+00
  0.00000000E+00  0.00000000E+00  0.00000000E+00
  0.00000000E+00  0.00000000E+00  0.00000000E+00
  0.00000000E+00  0.00000000E+00  0.00000000E+00
  0.00000000E+00  0.00000000E+00  0.00000000E+00
  0.00000000E+00  0.00000000E+00  0.00000000E+00
  0.00000000E+00  0.00000000E+00  0.00000000E+00
  0.00000000E+00  0.00000000E+00  0.00000000E+00
  0.00000000E+00  0.00000000E+00  0.00000000E+00
  0.00000000E+00  0.00000000E+00  0.00000000E+00
  0.00000000E+00  0.00000000E+00  0.00000000E+00
  0.00000000E+00  0.00000000E+00  0.00000000E+00
  0.00000000E+00  0.00000000E+00  0.00000000E+00
  0.00000000E+00  0.00000000E+00  0.00000000E+00
  0.00000000E+00  0.00000000E+00  0.00000000E+00
  0.00000000E+00  0.00000000E+00  0.00000000E+00
  0.00000000E+00  0.00000000E+00  0.00000000E+00
  0.00000000E+00  0.00000000E+00  0.00000000E+00
  0.00000000E+00  0.00000000E+00  0.00000000E+00
  0.00000000E+00  0.00000000E+00  0.00000000E+00
  0.00000000E+00  0.00000000E+00  0.00000000E+00
  0.00000000E+00  0.00000000E+00  0.00000000E+00
  0.00000000E+00  0.00000000E+00  0.00000000E+00
  0.00000000E+00  0.00000000E+00  0.00000000E+00
  0.00000000E+00  0.00000000E+00  0.00000000E+00
  0.00000000E+00  0.00000000E+00  0.00000000E+00
  0.00000000E+00  0.00000000E+00  0.00000000E+00
  0.00000000E+00  0.00000000E+00  0.00000000E+00
  0.00000000E+00  0.00000000E+00  0.00000000E+00
  0.00000000E+00  0.00000000E+00  0.00000000E+00
  0.00000000E+00  0.00000000E+00  0.00000000E+00
  0.00000000E+00  0.00000000E+00  0.00000000E+00
  0.00000000E+00  0.00000000E+00  0.00000000E+00
  0.00000000E+00  0.00000000E+00  0.00000000E+00
  0.00000000E+00  0.00000000E+00  0.00000000E+00
  0.00000000E+00  0.00000000E+00  0.00000000E+00
  0.00000000E+00  0.00000000E+00  0.00000000E+00
  0.00000000E+00  0.00000000E+00  0.00000000E+00
  0.00000000E+00  0.00000000E+00  0.00000000E+00
  0.00000000E+00  0.00000000E+00  0.00000000E+00
  0.00000000E+00  0.00000000E+00  0.00000000E+00
  0.00000000E+00  0.00000000E+00  0.00000000E+00
  0.00000000E+00  0.00000000E+00  0.00000000E+00
  0.00000000E+00  0.00000000E+00  0.00000000E+00
  0.00000000E+00  0.00000000E+00  0.00000000E+00
  0.00000000E+00  0.00000000E+00  0.00000000E+00
  0.00000000E+00  0.00000000E+00  0.00000000E+00
  0.00000000E+00  0.00000000E+00  0.00000000E+00
  0.00000000E+00  0.00000000E+00  0.00000000E+00
  0.00000000E+00  0.00000000E+00  0.00000000E+00
  0.00000000E+00  0.00000000E+00  0.00000000E+00
  0.00000000E+00  0.00000000E+00  0.00000000E+00
  0.00000000E+00  0.00000000E+00  0.00000000E+00
  0.00000000E+00  0.00000000E+00  0.00000000E+00
  0.00000000E+00  0.00000000E+00  0.00000000E+00
  0.00000000E+00  0.00000000E+00  0.00000000E+00
  0.00000000E+00  0.00000000E+00  0.00000000E+00
  0.00000000E+00  0.00000000E+00  0.00000000E+00
  0.00000000E+00  0.00000000E+00  0.00000000E+00
  0.00000000E+00  0.00000000E+00  0.00000000E+00
  0.00000000E+00  0.00000000E+00  0.00000000E+00
  0.00000000E+00  0.00000000E+00  0.00000000E+00
  0.00000000E+00  0.00000000E+00  0.00000000E+00
  0.00000000E+00  0.00000000E+00  0.00000000E+00
  0.00000000E+00  0.00000000E+00  0.00000000E+00
  0.00000000E+00  0.00000000E+00  0.00000000E+00
  0.00000000E+00  0.00000000E+00  0.00000000E+00
  0.00000000E+00  0.00000000E+00  0.00000000E+00
  0.00000000E+00  0.00000000E+00  0.00000000E+00
  0.00000000E+00  0.00000000E+00  0.00000000E+00
  0.00000000E+00  0.00000000E+00  0.00000000E+00
  0.00000000E+00  0.00000000E+00  0.00000000E+00
  0.00000000E+00  0.00000000E+00  0.00000000E+00
  0.00000000E+00  0.00000000E+00  0.00000000E+00
  0.00000000E+00  0.00000000E+00  0.00000000E+00
  0.00000000E+00  0.00000000E+00  0.00000000E+00
  0.00000000E+00  0.00000000E+00  0.00000000E+00
  0.00000000E+00  0.00000000E+00  0.00000000E+00
  0.00000000E+00  0.00000000E+00  0.00000000E+00
  0.00000000E+00  0.00000000E+00  0.00000000E+00
  0.00000000E+00  0.00000000E+00  0.00000000E+00
  0.00000000E+00  0.00000000E+00  0.00000000E+00
  0.00000000E+00  0.00000000E+00  0.00000000E+00
  0.00000000E+00  0.00000000E+00  0.00000000E+00
  0.00000000E+00  0.00000000E+00  0.00000000E+00
  0.00000000E+00  0.00000000E+00  0.00000000E+00
  0.00000000E+00  0.00000000E+00  0.00000000E+00
  0.00000000E+00  0.00000000E+00  0.00000000E+00
  0.00000000E+00  0.00000000E+00  0.00000000E+00
  0.00000000E+00  0.00000000E+00  0.00000000E+00
  0.00000000E+00  0.00000000E+00  0.00000000E+00
  0.00000000E+00  0.00000000E+00  0.00000000E+00
  0.00000000E+00  0.00000000E+00  0.00000000E+00
  0.00000000E+00  0.00000000E+00  0.00000000E+00
  0.00000000E+00  0.00000000E+00  0.00000000E+00
  0.00000000E+00  0.00000000E+00  0.00000000E+00
  0.00000000E+00  0.00000000E+00  0.00000000E+00
  0.00000000E+00  0.00000000E+00  0.00000000E+00
  0.00000000E+00  0.00000000E+00  0.00000000E+00
  0.00000000E+00  0.00000000E+00  0.00000000E+00
  0.00000000E+00  0.00000000E+00  0.00000000E+00
  0.00000000E+00  0.00000000E+00  0.00000000E+00
  0.00000000E+00  0.00000000E+00  0.00000000E+00
  0.00000000E+00  0.00000000E+00  0.00000000E+00
  0.00000000E+00  0.00000000E+00  0.00000000E+00
  0.00000000E+00  0.00000000E+00  0.00000000E+00
  0.00000000E+00  0.00000000E+00  0.00000000E+00
  0.00000000E+00  0.00000000E+00  0.00000000E+00
  0.00000000E+00  0.00000000E+00  0.00000000E+00
  0.00000000E+00  0.00000000E+00  0.00000000E+00
  0.00000000E+00  0.00000000E+00  0.00000000E+00
  0.00000000E+00  0.00000000E+00  0.00000000E+00
  0.00000000E+00  0.00000000E+00  0.00000000E+00
  0.00000000E+00  0.00000000E+00  0.00000000E+00
  0.00000000E+00  0.00000000E+00  0.00000000E+00
  0.00000000E+00  0.00000000E+00  0.00000000E+00
  0.00000000E+00  0.00000000E+00  0.00000000E+00
  0.00000000E+00  0.00000000E+00  0.00000000E+00
  0.00000000E+00  0.00000000E+00  0.00000000E+00
  0.00000000E+00  0.00000000E+00  0.00000000E+00
  0.00000000E+00  0.00000000E+00  0.00000000E+00
  0.00000000E+00  0.00000000E+00  0.00000000E+00
  0.00000000E+00  0.00000000E+00  0.00000000E+00
  0.00000000E+00  0.00000000E+00  0.00000000E+00
  0.00000000E+00  0.00000000E+00  0.00000000E+00
  0.00000000E+00  0.00000000E+00  0.00000000E+00
  0.00000000E+00  0.00000000E+00  0.00000000E+00
  0.00000000E+00  0.00000000E+00  0.00000000E+00
  0.00000000E+00  0.00000000E+00  0.00000000E+00
  0.00000000E+00  0.00000000E+00  0.00000000E+00
  0.00000000E+00  0.00000000E+00  0.00000000E+00
  0.00000000E+00  0.00000000E+00  0.00000000E+00
  0.00000000E+00  0.00000000E+00  0.00000000E+00
  0.00000000E+00  0.00000000E+00  0.00000000E+00
  0.00000000E+00  0.00000000E+00  0.00000000E+00
  0.00000000E+00  0.00000000E+00  0.00000000E+00
  0.00000000E+00  0.00000000E+00  0.00000000E+00
  0.00000000E+00  0.00000000E+00  0.00000000E+00
  0.00000000E+00  0.00000000E+00  0.00000000E+00
  0.00000000E+00  0.00000000E+00  0.00000000E+00
  0.00000000E+00  0.00000000E+00  0.00000000E+00
  0.00000000E+00  0.00000000E+00  0.00000000E+00
  0.00000000E+00  0.00000000E+00  0.00000000E+00
  0.00000000E+00  0.00000000E+00  0.00000000E+00
  0.00000000E+00  0.00000000E+00  0.00000000E+00
  0.00000000E+00  0.00000000E+00  0.00000000E+00
  0.00000000E+00  0.00000000E+00  0.00000000E+00
  0.00000000E+00  0.00000000E+00  0.00000000E+00
  0.00000000E+00  0.00000000E+00  0.00000000E+00
  0.00000000E+00  0.00000000E+00  0.00000000E+00
  0.00000000E+00  0.00000000E+00  0.00000000E+00
  0.00000000E+00  0.00000000E+00  0.00000000E+00
  0.00000000E+00  0.00000000E+00  0.00000000E+00
  0.00000000E+00  0.00000000E+00  0.00000000E+00
  0.00000000E+00  0.00000000E+00  0.00000000E+00
  0.00000000E+00  0.00000000E+00  0.00000000E+00
  0.00000000E+00  0.00000000E+00  0.00000000E+00
  0.00000000E+00  0.00000000E+00  0.00000000E+00
