C H O Si                                
   1.00000000000000     
     9.2874599999999994    0.0000000000000000    0.0000000000000000
     0.0000000000000000   17.5126199999999983    0.0000000000000000
     0.0000000000000000    0.0000000000000000   58.0000000000000000
   C    H    O    Si
    72    57    28    72
Selective dynamics
Direct
  0.9930125820107756  0.0631044266611343  0.0604774831310186   T   T   T
  0.3263723682991140  0.0630853062713179  0.0605796439498925   T   T   T
  0.6595563760811792  0.0630816360224232  0.0605581151310012   T   T   T
  0.9928654796941599  0.3131257601197271  0.0604801398206713   T   T   T
  0.3262019190478233  0.3130734012123605  0.0605919246635697   T   T   T
  0.6594705286652852  0.3130729286715094  0.0605559863986223   T   T   T
  0.1600760665424654  0.1858053712058228  0.1393883170996982   T   T   T
  0.4932867326423549  0.1860139885664233  0.1396226443275520   T   T   T
  0.8267385776408827  0.1857660169766008  0.1393201732074530   T   T   T
  0.1599127351862474  0.4359472958557582  0.1394236679105317   T   T   T
  0.4933091622326261  0.4357879711041693  0.1394762207890134   T   T   T
  0.8266653076244046  0.4359520231449717  0.1394103905509633   T   T   T
  0.3274883033893881  0.0612161946517869  0.1667242252995734   T   T   T
  0.6597330055327474  0.0611722141775036  0.1666582235914614   T   T   T
  0.9938077788988224  0.0605674136086976  0.1664151490279908   T   T   T
  0.3266834150368760  0.3110882856741272  0.1667492856270999   T   T   T
  0.6605062252721344  0.3110712766957225  0.1666559353978593   T   T   T
  0.9935614663630573  0.3109279082057831  0.1664488129071827   T   T   T
  0.1606668455110702  0.1872592286997857  0.1917401934283643   T   T   T
  0.4941006916256055  0.1897825943289044  0.1926966885282817   T   T   T
  0.8279871341261162  0.1867737568293528  0.1914918714660711   T   T   T
  0.1600363188798455  0.4382791756178822  0.1919324305581127   T   T   T
  0.4936287828289517  0.4379416135382199  0.1919837753366516   T   T   T
  0.8271568017895545  0.4383760194977748  0.1918821542899999   T   T   T
  0.1596185494891657  0.1859701810953044  0.0858718560657995   T   T   T
  0.4929132021961560  0.1860013567769101  0.0860044630954925   T   T   T
  0.8262343287859836  0.1859732833227428  0.0858345166244704   T   T   T
  0.1596535061598746  0.4359483699035164  0.0858980096137390   T   T   T
  0.4929846877814776  0.4359376409271665  0.0859312568032196   T   T   T
  0.8263318420179250  0.4359624416914494  0.0858959021576929   T   T   T
  0.3263063853386783  0.0609070040872961  0.1130815924502408   T   T   T
  0.6595337416010877  0.0608878813259707  0.1130618083151962   T   T   T
  0.9929674126681328  0.0608633039754328  0.1129813026926951   T   T   T
  0.3263272554827352  0.3108821888748061  0.1131082883464657   T   T   T
  0.6597847393537741  0.3108605715917595  0.1130731852204715   T   T   T
  0.9930922757758298  0.3108848190223785  0.1129898210285930   T   T   T
  0.9930652141682091  0.5630423904234736  0.0605188859047702   T   T   T
  0.3263775423090053  0.5630397696361386  0.0605399707755845   T   T   T
  0.6596773047408335  0.5630399680075671  0.0605372243943338   T   T   T
  0.9928778709409244  0.8131000540692787  0.0605307858289396   T   T   T
  0.3262165622454820  0.8130512762042572  0.0605369531764818   T   T   T
  0.6594874672870151  0.8130723279193885  0.0605340477619885   T   T   T
  0.1599202496956544  0.6859508097157548  0.1394256204365183   T   T   T
  0.4932064157114170  0.6859215139025157  0.1394353726208102   T   T   T
  0.8264961984810242  0.6859305875592876  0.1394251721357731   T   T   T
  0.1603452711112076  0.9359375914816704  0.1394322064786591   T   T   T
  0.4932570068307718  0.9358475699838694  0.1394349526031271   T   T   T
  0.8263910012735269  0.9359614157210937  0.1394216959747909   T   T   T
  0.3266869397276989  0.5610307476704065  0.1665756534238300   T   T   T
  0.6598301897052437  0.5610101505847417  0.1665709386758675   T   T   T
  0.9933274997805277  0.5611663338926861  0.1665237932797780   T   T   T
  0.3267503131054604  0.8109763803585840  0.1665837887751617   T   T   T
  0.6600104884492192  0.8110053678462866  0.1665727619091074   T   T   T
  0.9934140887851769  0.8110247989948276  0.1665676845307966   T   T   T
  0.1603051099666424  0.6880641218731606  0.1919518425612771   T   T   T
  0.4936338320450687  0.6880963008444850  0.1919669433099916   T   T   T
  0.8269498412892644  0.6880748334429151  0.1919385538445274   T   T   T
  0.1605525443914598  0.9380189867488234  0.1919562973082664   T   T   T
  0.4937748884581850  0.9380300442154696  0.1919936057272002   T   T   T
  0.8270381400979180  0.9380229479353862  0.1919210837142720   T   T   T
  0.1596341620606656  0.6859527058719960  0.0858947103475410   T   T   T
  0.4929621635161083  0.6859224167854836  0.0859005487358519   T   T   T
  0.8263097768205607  0.6859530674489690  0.0858957342642026   T   T   T
  0.1596558324574728  0.9359947715883602  0.0858959707226934   T   T   T
  0.4929537355573607  0.9359454207595672  0.0859157297284569   T   T   T
  0.8262448480500175  0.9359888670130969  0.0858904267704357   T   T   T
  0.3262877222861147  0.5608687803709529  0.1130488305017659   T   T   T
  0.6595972348793527  0.5608685919067257  0.1130454344492596   T   T   T
  0.9929699666203100  0.5609083644240767  0.1130228633257741   T   T   T
  0.3264455978192502  0.8108560852597159  0.1130324308631031   T   T   T
  0.6597382242987140  0.8108502576174909  0.1130310396860102   T   T   T
  0.9930806098338368  0.8109364709709056  0.1130434106235421   T   T   T
  0.0756924096100209  0.1773082659766881  0.0270620212009975   T   T   T
  0.4080898548474671  0.1773327021029406  0.0272399668388277   T   T   T
  0.7413808943640440  0.1772726897975568  0.0270917962516663   T   T   T
  0.0755420828081692  0.4273690573172437  0.0270834497136129   T   T   T
  0.4076292286035639  0.4272380136696892  0.0271683329906426   T   T   T
  0.7406410705907743  0.4272781516796089  0.0271291747929525   T   T   T
  0.3242826816488102  0.0268641538444809  0.0450577218799823   T   T   T
  0.6567373258429281  0.0268665546752057  0.0450360167001226   T   T   T
  0.9906717732126301  0.0268850747703710  0.0449590188465273   T   T   T
  0.3236767590907230  0.2768094205979166  0.0450843342578344   T   T   T
  0.6568786630984789  0.2768738521989086  0.0450332435699908   T   T   T
  0.9903167360170931  0.2769921589396602  0.0449426506689769   T   T   T
  0.8289444847342745  0.4025530335789110  0.2074631315032840   T   T   T
  0.8305997431899494  0.1507297355984885  0.2070466314115161   T   T   T
  0.1620364805044560  0.1512418926251223  0.2073035941710457   T   T   T
  0.4970787212723527  0.1530780143581141  0.2081115427738332   T   T   T
  0.1621280000358721  0.4020327952624158  0.2074412528142977   T   T   T
  0.4942013963981802  0.4018180951460843  0.2075263993898069   T   T   T
  0.0790630950666739  0.0522538593035629  0.2253931521427243   T   T   T
  0.4133758788989965  0.0518149461793309  0.2255530979631330   T   T   T
  0.7466315297357660  0.0520589702309131  0.2254598358642102   T   T   T
  0.0772673104352891  0.3008816347379912  0.2249760924556516   T   T   T
  0.3776430301434570  0.3100726287612734  0.2288662675510453   T   T   T
  0.7819407913003514  0.2949357984209692  0.2230815783139348   T   T   T
  0.5464450859925452  0.3053626737065500  0.2740975830053491   T   T   T
  0.4930177773083381  0.2377597046111113  0.2934201697734560   T   T   T
  0.5720741647691527  0.3197802486978965  0.3031367289885141   T   T   T
  0.3147155140122174  0.1944681169570535  0.3097470013742680   T   T   T
  0.4221714124523201  0.1303347688000646  0.3022545213553597   T   T   T
  0.6507151441860375  0.3661156473975444  0.3334966558229601   T   T   T
  0.4847613806416118  0.3774557916232808  0.3307757337916507   T   T   T
  0.5172714795646627  0.3956008010298238  0.2522623465604023   T   T   T
  0.5848797490682817  0.3237102089034267  0.2389131118597392   T   T   T
  0.0753677489188627  0.6773581097241972  0.0271256476241983   T   T   T
  0.4082955798841562  0.6773028669627504  0.0271496021547437   T   T   T
  0.7415759582502127  0.6772879627055193  0.0271527433757257   T   T   T
  0.0750438988313275  0.9273243930463401  0.0271129235330895   T   T   T
  0.4077648076813251  0.9272519203825624  0.0271495530164896   T   T   T
  0.7411508647266354  0.9273157316141650  0.0271350243797560   T   T   T
  0.3239107352426660  0.5268293465507259  0.0450194005732029   T   T   T
  0.6572950473241851  0.5268385499805500  0.0450144975830012   T   T   T
  0.9905579659165836  0.5268406612966030  0.0449965648015088   T   T   T
  0.3237144749209208  0.7768726938172503  0.0450113709560829   T   T   T
  0.6569047744154242  0.7768964344840267  0.0450090183417075   T   T   T
  0.9902872680996871  0.7768829953554638  0.0450110991014703   T   T   T
  0.8295120643287471  0.9018684175138579  0.2074560362661769   T   T   T
  0.8293743869532754  0.6518951369961845  0.2074657742128477   T   T   T
  0.1626556298383299  0.6518758537185829  0.2074777218355180   T   T   T
  0.4961745373580004  0.6519739515446717  0.2075048053061819   T   T   T
  0.1627763084987157  0.9018429750205026  0.2074851250673827   T   T   T
  0.4962894357313541  0.9017599021992324  0.2074995577003693   T   T   T
  0.0785394204136855  0.5532680909111117  0.2254118995757587   T   T   T
  0.4127601647366188  0.5537687304179615  0.2252468999050213   T   T   T
  0.7459745204654573  0.5531613683247419  0.2253406760788255   T   T   T
  0.0794393449852763  0.8023760437434527  0.2254353237723288   T   T   T
  0.4122598114219507  0.8026547972688397  0.2255069809286635   T   T   T
  0.7469020678123299  0.8021321739401613  0.2253606419877165   T   T   T
  0.1694327176040606  0.1669914050008914  0.0340695902346728   T   T   T
  0.5019791017003569  0.1670806510939153  0.0342001835345713   T   T   T
  0.8352483781225853  0.1667868639387680  0.0340095296699176   T   T   T
  0.1693208887105332  0.4169531426638424  0.0340642681057877   T   T   T
  0.5015652793061194  0.4168938687519424  0.0341061065880291   T   T   T
  0.8345754327802569  0.4170962700309573  0.0340806163235703   T   T   T
  0.3197213547816936  0.0419437980563844  0.2184995808784549   T   T   T
  0.6529468945232522  0.0418157240403983  0.2184636685338022   T   T   T
  0.9858609185085895  0.0419933424781395  0.2182421880708106   T   T   T
  0.3009678644043987  0.2920562741667054  0.2185062021938871   T   T   T
  0.6795770673161989  0.2914798723247616  0.2185529623116471   T   T   T
  0.9831955439615435  0.2902928632528737  0.2180005497999404   T   T   T
  0.5708156247059892  0.2795170894065103  0.2897930195118384   T   T   T
  0.3808046450337200  0.1790939142882872  0.2975077925048215   T   T   T
  0.5754209688449863  0.3773859862645603  0.3222595359736309   T   T   T
  0.5108947696707957  0.3400971655333517  0.2508419974375958   T   T   T
  0.1692351607307848  0.6670342572479786  0.0340798743153914   T   T   T
  0.5022515579583737  0.6670184443864967  0.0340811233868793   T   T   T
  0.8355502296597022  0.6670184516870697  0.0340860369154403   T   T   T
  0.1689343570237101  0.9169818421686902  0.0340718826055762   T   T   T
  0.5017186772498941  0.9170034940680528  0.0340899363267241   T   T   T
  0.8350757957940931  0.9169424126418857  0.0340630809527697   T   T   T
  0.3193092693371822  0.5419005318314698  0.2184101513590765   T   T   T
  0.6525558839076956  0.5419976077003347  0.2183709671935954   T   T   T
  0.9854784096194318  0.5420935629838903  0.2183428009452963   T   T   T
  0.3190901962089218  0.7919178299535549  0.2184064663222309   T   T   T
  0.6530440056843062  0.7916822892498480  0.2184595070813475   T   T   T
  0.9859443125223443  0.7918618225302477  0.2184044203722117   T   T   T
  0.4930930997312651  0.1217875996373084  0.0598911613109220   T   T   T
  0.8264054385626096  0.1217411773495022  0.0597328196149881   T   T   T
  0.1597847859386160  0.3717872687562007  0.0597771789735622   T   T   T
  0.4929482039498945  0.3717376093466908  0.0598263031371491   T   T   T
  0.8262428783912229  0.3718001697582566  0.0597779255440422   T   T   T
  0.1599303302427811  0.1217755808677092  0.0597629172811584   T   T   T
  0.9933327220463932  0.4984397502689216  0.1396476777587702   T   T   T
  0.3266514272119795  0.4983446553848767  0.1396732018586816   T   T   T
  0.6599271498281907  0.4983462927379372  0.1396670280949477   T   T   T
  0.9934695833394398  0.2482199967859029  0.1395521979119516   T   T   T
  0.3265186353277661  0.2484340635571176  0.1397761239366132   T   T   T
  0.6602015208969148  0.2482653013472004  0.1396767532632830   T   T   T
  0.1603329758658485  0.1227316604030510  0.1658991110569697   T   T   T
  0.4935395529036974  0.1238912343937315  0.1663712748241637   T   T   T
  0.8271948450665977  0.1223711814960199  0.1657328415243859   T   T   T
  0.1600105436356562  0.3732627292446527  0.1660145872561635   T   T   T
  0.4933583655909786  0.3730142556863992  0.1660489910328967   T   T   T
  0.8271029736392012  0.3733150641122636  0.1659940877830939   T   T   T
  0.3266636692453467  0.4968707311374738  0.1926707249447386   T   T   T
  0.6603141814853695  0.4968599139785581  0.1926592285399258   T   T   T
  0.9936048314350973  0.4970702120701677  0.1926175186275497   T   T   T
  0.3251359063524109  0.2475542951063797  0.1930933686303416   T   T   T
  0.9940722000009784  0.2455513079126226  0.1921787455430764   T   T   T
  0.6632910680277766  0.2463747506680254  0.1925228968981964   T   T   T
  0.9930621068138513  0.4980662901177757  0.0864590177846732   T   T   T
  0.3263733006015482  0.4980646651418661  0.0864776960445939   T   T   T
  0.6596930344611874  0.4980638678701617  0.0864719171461025   T   T   T
  0.9929868786082753  0.2480890730439191  0.0864059727683663   T   T   T
  0.3262726595897483  0.2480953918106613  0.0865137647658808   T   T   T
  0.6596343421888861  0.2480816616237722  0.0864734183666580   T   T   T
  0.1595488968670838  0.1233037150622288  0.1127571514801650   T   T   T
  0.4928702817819823  0.1233333701067960  0.1129102406434206   T   T   T
  0.8261789588604571  0.1232894826649603  0.1127110206117294   T   T   T
  0.1596526262424075  0.3733418215573323  0.1127956569546909   T   T   T
  0.4929811187925529  0.3732760410599222  0.1128261705401806   T   T   T
  0.8263952972656168  0.3733282097851139  0.1127843319791330   T   T   T
  0.4932076131191361  0.6217494237937671  0.0597820710114420   T   T   T
  0.8265468784300759  0.6217456850028631  0.0597853072943320   T   T   T
  0.1597467655245938  0.8717739457616945  0.0597838932878526   T   T   T
  0.4929798259746122  0.8717711576277112  0.0598017212200627   T   T   T
  0.8262926444333617  0.8717622814646814  0.0597852770078754   T   T   T
  0.1599175799350653  0.6217601362942332  0.0597778374619779   T   T   T
  0.9934674320962513  0.9981292413231693  0.1395746015904034   T   T   T
  0.3270510204716806  0.9984795497297198  0.1397276580907756   T   T   T
  0.6595926424467801  0.9984186036848872  0.1397032013855945   T   T   T
  0.9932767347678472  0.7483648526178139  0.1396657894891675   T   T   T
  0.3266440485130334  0.7483701533119016  0.1396682096042705   T   T   T
  0.6599179269254679  0.7483572287880207  0.1396641652500057   T   T   T
  0.1599574601592200  0.6231965768645024  0.1660028829097759   T   T   T
  0.4932567726317362  0.6231887418708297  0.1660255499285920   T   T   T
  0.8265204686144221  0.6231746518193515  0.1660034099064274   T   T   T
  0.1601656881981922  0.8731100920925250  0.1660122178769741   T   T   T
  0.4933594740499579  0.8731329081915444  0.1660293177759321   T   T   T
  0.8266608826638401  0.8731103100083925  0.1659924687170204   T   T   T
  0.3270803666566445  0.9967530537596713  0.1927814368556557   T   T   T
  0.6603857920736382  0.9967181669907330  0.1927258988525936   T   T   T
  0.9937632577607748  0.9965895730414578  0.1925684501801002   T   T   T
  0.3268947524148070  0.7467793853875726  0.1926895510982523   T   T   T
  0.9935792200876280  0.7467624796213608  0.1926713485268226   T   T   T
  0.6602494784343180  0.7467977120894759  0.1926878897293662   T   T   T
  0.9929764150294094  0.9980947692815912  0.0864186979276538   T   T   T
  0.3263781346544333  0.9980684609345070  0.0864934759685160   T   T   T
  0.6596194964776594  0.9980678336518580  0.0864750346052781   T   T   T
  0.9930277673901484  0.7480939917091251  0.0864636638575382   T   T   T
  0.3263590667065190  0.7480632983651667  0.0864584342770805   T   T   T
  0.6596517798456009  0.7480508596097949  0.0864553690460838   T   T   T
  0.1595127025986821  0.6233512011028145  0.1127985150468064   T   T   T
  0.4928364204963585  0.6233385329868054  0.1128055944095403   T   T   T
  0.8261748933165808  0.6233429590832655  0.1127968968055556   T   T   T
  0.1598590053045189  0.8733423074358492  0.1127938125265884   T   T   T
  0.4930429477423378  0.8732733146893352  0.1127989746184700   T   T   T
  0.8262564093783111  0.8733478158771959  0.1127920015057277   T   T   T
 
  0.00000000E+00  0.00000000E+00  0.00000000E+00
  0.00000000E+00  0.00000000E+00  0.00000000E+00
  0.00000000E+00  0.00000000E+00  0.00000000E+00
  0.00000000E+00  0.00000000E+00  0.00000000E+00
  0.00000000E+00  0.00000000E+00  0.00000000E+00
  0.00000000E+00  0.00000000E+00  0.00000000E+00
  0.00000000E+00  0.00000000E+00  0.00000000E+00
  0.00000000E+00  0.00000000E+00  0.00000000E+00
  0.00000000E+00  0.00000000E+00  0.00000000E+00
  0.00000000E+00  0.00000000E+00  0.00000000E+00
  0.00000000E+00  0.00000000E+00  0.00000000E+00
  0.00000000E+00  0.00000000E+00  0.00000000E+00
  0.00000000E+00  0.00000000E+00  0.00000000E+00
  0.00000000E+00  0.00000000E+00  0.00000000E+00
  0.00000000E+00  0.00000000E+00  0.00000000E+00
  0.00000000E+00  0.00000000E+00  0.00000000E+00
  0.00000000E+00  0.00000000E+00  0.00000000E+00
  0.00000000E+00  0.00000000E+00  0.00000000E+00
  0.00000000E+00  0.00000000E+00  0.00000000E+00
  0.00000000E+00  0.00000000E+00  0.00000000E+00
  0.00000000E+00  0.00000000E+00  0.00000000E+00
  0.00000000E+00  0.00000000E+00  0.00000000E+00
  0.00000000E+00  0.00000000E+00  0.00000000E+00
  0.00000000E+00  0.00000000E+00  0.00000000E+00
  0.00000000E+00  0.00000000E+00  0.00000000E+00
  0.00000000E+00  0.00000000E+00  0.00000000E+00
  0.00000000E+00  0.00000000E+00  0.00000000E+00
  0.00000000E+00  0.00000000E+00  0.00000000E+00
  0.00000000E+00  0.00000000E+00  0.00000000E+00
  0.00000000E+00  0.00000000E+00  0.00000000E+00
  0.00000000E+00  0.00000000E+00  0.00000000E+00
  0.00000000E+00  0.00000000E+00  0.00000000E+00
  0.00000000E+00  0.00000000E+00  0.00000000E+00
  0.00000000E+00  0.00000000E+00  0.00000000E+00
  0.00000000E+00  0.00000000E+00  0.00000000E+00
  0.00000000E+00  0.00000000E+00  0.00000000E+00
  0.00000000E+00  0.00000000E+00  0.00000000E+00
  0.00000000E+00  0.00000000E+00  0.00000000E+00
  0.00000000E+00  0.00000000E+00  0.00000000E+00
  0.00000000E+00  0.00000000E+00  0.00000000E+00
  0.00000000E+00  0.00000000E+00  0.00000000E+00
  0.00000000E+00  0.00000000E+00  0.00000000E+00
  0.00000000E+00  0.00000000E+00  0.00000000E+00
  0.00000000E+00  0.00000000E+00  0.00000000E+00
  0.00000000E+00  0.00000000E+00  0.00000000E+00
  0.00000000E+00  0.00000000E+00  0.00000000E+00
  0.00000000E+00  0.00000000E+00  0.00000000E+00
  0.00000000E+00  0.00000000E+00  0.00000000E+00
  0.00000000E+00  0.00000000E+00  0.00000000E+00
  0.00000000E+00  0.00000000E+00  0.00000000E+00
  0.00000000E+00  0.00000000E+00  0.00000000E+00
  0.00000000E+00  0.00000000E+00  0.00000000E+00
  0.00000000E+00  0.00000000E+00  0.00000000E+00
  0.00000000E+00  0.00000000E+00  0.00000000E+00
  0.00000000E+00  0.00000000E+00  0.00000000E+00
  0.00000000E+00  0.00000000E+00  0.00000000E+00
  0.00000000E+00  0.00000000E+00  0.00000000E+00
  0.00000000E+00  0.00000000E+00  0.00000000E+00
  0.00000000E+00  0.00000000E+00  0.00000000E+00
  0.00000000E+00  0.00000000E+00  0.00000000E+00
  0.00000000E+00  0.00000000E+00  0.00000000E+00
  0.00000000E+00  0.00000000E+00  0.00000000E+00
  0.00000000E+00  0.00000000E+00  0.00000000E+00
  0.00000000E+00  0.00000000E+00  0.00000000E+00
  0.00000000E+00  0.00000000E+00  0.00000000E+00
  0.00000000E+00  0.00000000E+00  0.00000000E+00
  0.00000000E+00  0.00000000E+00  0.00000000E+00
  0.00000000E+00  0.00000000E+00  0.00000000E+00
  0.00000000E+00  0.00000000E+00  0.00000000E+00
  0.00000000E+00  0.00000000E+00  0.00000000E+00
  0.00000000E+00  0.00000000E+00  0.00000000E+00
  0.00000000E+00  0.00000000E+00  0.00000000E+00
  0.00000000E+00  0.00000000E+00  0.00000000E+00
  0.00000000E+00  0.00000000E+00  0.00000000E+00
  0.00000000E+00  0.00000000E+00  0.00000000E+00
  0.00000000E+00  0.00000000E+00  0.00000000E+00
  0.00000000E+00  0.00000000E+00  0.00000000E+00
  0.00000000E+00  0.00000000E+00  0.00000000E+00
  0.00000000E+00  0.00000000E+00  0.00000000E+00
  0.00000000E+00  0.00000000E+00  0.00000000E+00
  0.00000000E+00  0.00000000E+00  0.00000000E+00
  0.00000000E+00  0.00000000E+00  0.00000000E+00
  0.00000000E+00  0.00000000E+00  0.00000000E+00
  0.00000000E+00  0.00000000E+00  0.00000000E+00
  0.00000000E+00  0.00000000E+00  0.00000000E+00
  0.00000000E+00  0.00000000E+00  0.00000000E+00
  0.00000000E+00  0.00000000E+00  0.00000000E+00
  0.00000000E+00  0.00000000E+00  0.00000000E+00
  0.00000000E+00  0.00000000E+00  0.00000000E+00
  0.00000000E+00  0.00000000E+00  0.00000000E+00
  0.00000000E+00  0.00000000E+00  0.00000000E+00
  0.00000000E+00  0.00000000E+00  0.00000000E+00
  0.00000000E+00  0.00000000E+00  0.00000000E+00
  0.00000000E+00  0.00000000E+00  0.00000000E+00
  0.00000000E+00  0.00000000E+00  0.00000000E+00
  0.00000000E+00  0.00000000E+00  0.00000000E+00
  0.00000000E+00  0.00000000E+00  0.00000000E+00
  0.00000000E+00  0.00000000E+00  0.00000000E+00
  0.00000000E+00  0.00000000E+00  0.00000000E+00
  0.00000000E+00  0.00000000E+00  0.00000000E+00
  0.00000000E+00  0.00000000E+00  0.00000000E+00
  0.00000000E+00  0.00000000E+00  0.00000000E+00
  0.00000000E+00  0.00000000E+00  0.00000000E+00
  0.00000000E+00  0.00000000E+00  0.00000000E+00
  0.00000000E+00  0.00000000E+00  0.00000000E+00
  0.00000000E+00  0.00000000E+00  0.00000000E+00
  0.00000000E+00  0.00000000E+00  0.00000000E+00
  0.00000000E+00  0.00000000E+00  0.00000000E+00
  0.00000000E+00  0.00000000E+00  0.00000000E+00
  0.00000000E+00  0.00000000E+00  0.00000000E+00
  0.00000000E+00  0.00000000E+00  0.00000000E+00
  0.00000000E+00  0.00000000E+00  0.00000000E+00
  0.00000000E+00  0.00000000E+00  0.00000000E+00
  0.00000000E+00  0.00000000E+00  0.00000000E+00
  0.00000000E+00  0.00000000E+00  0.00000000E+00
  0.00000000E+00  0.00000000E+00  0.00000000E+00
  0.00000000E+00  0.00000000E+00  0.00000000E+00
  0.00000000E+00  0.00000000E+00  0.00000000E+00
  0.00000000E+00  0.00000000E+00  0.00000000E+00
  0.00000000E+00  0.00000000E+00  0.00000000E+00
  0.00000000E+00  0.00000000E+00  0.00000000E+00
  0.00000000E+00  0.00000000E+00  0.00000000E+00
  0.00000000E+00  0.00000000E+00  0.00000000E+00
  0.00000000E+00  0.00000000E+00  0.00000000E+00
  0.00000000E+00  0.00000000E+00  0.00000000E+00
  0.00000000E+00  0.00000000E+00  0.00000000E+00
  0.00000000E+00  0.00000000E+00  0.00000000E+00
  0.00000000E+00  0.00000000E+00  0.00000000E+00
  0.00000000E+00  0.00000000E+00  0.00000000E+00
  0.00000000E+00  0.00000000E+00  0.00000000E+00
  0.00000000E+00  0.00000000E+00  0.00000000E+00
  0.00000000E+00  0.00000000E+00  0.00000000E+00
  0.00000000E+00  0.00000000E+00  0.00000000E+00
  0.00000000E+00  0.00000000E+00  0.00000000E+00
  0.00000000E+00  0.00000000E+00  0.00000000E+00
  0.00000000E+00  0.00000000E+00  0.00000000E+00
  0.00000000E+00  0.00000000E+00  0.00000000E+00
  0.00000000E+00  0.00000000E+00  0.00000000E+00
  0.00000000E+00  0.00000000E+00  0.00000000E+00
  0.00000000E+00  0.00000000E+00  0.00000000E+00
  0.00000000E+00  0.00000000E+00  0.00000000E+00
  0.00000000E+00  0.00000000E+00  0.00000000E+00
  0.00000000E+00  0.00000000E+00  0.00000000E+00
  0.00000000E+00  0.00000000E+00  0.00000000E+00
  0.00000000E+00  0.00000000E+00  0.00000000E+00
  0.00000000E+00  0.00000000E+00  0.00000000E+00
  0.00000000E+00  0.00000000E+00  0.00000000E+00
  0.00000000E+00  0.00000000E+00  0.00000000E+00
  0.00000000E+00  0.00000000E+00  0.00000000E+00
  0.00000000E+00  0.00000000E+00  0.00000000E+00
  0.00000000E+00  0.00000000E+00  0.00000000E+00
  0.00000000E+00  0.00000000E+00  0.00000000E+00
  0.00000000E+00  0.00000000E+00  0.00000000E+00
  0.00000000E+00  0.00000000E+00  0.00000000E+00
  0.00000000E+00  0.00000000E+00  0.00000000E+00
  0.00000000E+00  0.00000000E+00  0.00000000E+00
  0.00000000E+00  0.00000000E+00  0.00000000E+00
  0.00000000E+00  0.00000000E+00  0.00000000E+00
  0.00000000E+00  0.00000000E+00  0.00000000E+00
  0.00000000E+00  0.00000000E+00  0.00000000E+00
  0.00000000E+00  0.00000000E+00  0.00000000E+00
  0.00000000E+00  0.00000000E+00  0.00000000E+00
  0.00000000E+00  0.00000000E+00  0.00000000E+00
  0.00000000E+00  0.00000000E+00  0.00000000E+00
  0.00000000E+00  0.00000000E+00  0.00000000E+00
  0.00000000E+00  0.00000000E+00  0.00000000E+00
  0.00000000E+00  0.00000000E+00  0.00000000E+00
  0.00000000E+00  0.00000000E+00  0.00000000E+00
  0.00000000E+00  0.00000000E+00  0.00000000E+00
  0.00000000E+00  0.00000000E+00  0.00000000E+00
  0.00000000E+00  0.00000000E+00  0.00000000E+00
  0.00000000E+00  0.00000000E+00  0.00000000E+00
  0.00000000E+00  0.00000000E+00  0.00000000E+00
  0.00000000E+00  0.00000000E+00  0.00000000E+00
  0.00000000E+00  0.00000000E+00  0.00000000E+00
  0.00000000E+00  0.00000000E+00  0.00000000E+00
  0.00000000E+00  0.00000000E+00  0.00000000E+00
  0.00000000E+00  0.00000000E+00  0.00000000E+00
  0.00000000E+00  0.00000000E+00  0.00000000E+00
  0.00000000E+00  0.00000000E+00  0.00000000E+00
  0.00000000E+00  0.00000000E+00  0.00000000E+00
  0.00000000E+00  0.00000000E+00  0.00000000E+00
  0.00000000E+00  0.00000000E+00  0.00000000E+00
  0.00000000E+00  0.00000000E+00  0.00000000E+00
  0.00000000E+00  0.00000000E+00  0.00000000E+00
  0.00000000E+00  0.00000000E+00  0.00000000E+00
  0.00000000E+00  0.00000000E+00  0.00000000E+00
  0.00000000E+00  0.00000000E+00  0.00000000E+00
  0.00000000E+00  0.00000000E+00  0.00000000E+00
  0.00000000E+00  0.00000000E+00  0.00000000E+00
  0.00000000E+00  0.00000000E+00  0.00000000E+00
  0.00000000E+00  0.00000000E+00  0.00000000E+00
  0.00000000E+00  0.00000000E+00  0.00000000E+00
  0.00000000E+00  0.00000000E+00  0.00000000E+00
  0.00000000E+00  0.00000000E+00  0.00000000E+00
  0.00000000E+00  0.00000000E+00  0.00000000E+00
  0.00000000E+00  0.00000000E+00  0.00000000E+00
  0.00000000E+00  0.00000000E+00  0.00000000E+00
  0.00000000E+00  0.00000000E+00  0.00000000E+00
  0.00000000E+00  0.00000000E+00  0.00000000E+00
  0.00000000E+00  0.00000000E+00  0.00000000E+00
  0.00000000E+00  0.00000000E+00  0.00000000E+00
  0.00000000E+00  0.00000000E+00  0.00000000E+00
  0.00000000E+00  0.00000000E+00  0.00000000E+00
  0.00000000E+00  0.00000000E+00  0.00000000E+00
  0.00000000E+00  0.00000000E+00  0.00000000E+00
  0.00000000E+00  0.00000000E+00  0.00000000E+00
  0.00000000E+00  0.00000000E+00  0.00000000E+00
  0.00000000E+00  0.00000000E+00  0.00000000E+00
  0.00000000E+00  0.00000000E+00  0.00000000E+00
  0.00000000E+00  0.00000000E+00  0.00000000E+00
  0.00000000E+00  0.00000000E+00  0.00000000E+00
  0.00000000E+00  0.00000000E+00  0.00000000E+00
  0.00000000E+00  0.00000000E+00  0.00000000E+00
  0.00000000E+00  0.00000000E+00  0.00000000E+00
  0.00000000E+00  0.00000000E+00  0.00000000E+00
  0.00000000E+00  0.00000000E+00  0.00000000E+00
  0.00000000E+00  0.00000000E+00  0.00000000E+00
  0.00000000E+00  0.00000000E+00  0.00000000E+00
  0.00000000E+00  0.00000000E+00  0.00000000E+00
  0.00000000E+00  0.00000000E+00  0.00000000E+00
  0.00000000E+00  0.00000000E+00  0.00000000E+00
  0.00000000E+00  0.00000000E+00  0.00000000E+00
  0.00000000E+00  0.00000000E+00  0.00000000E+00
  0.00000000E+00  0.00000000E+00  0.00000000E+00
  0.00000000E+00  0.00000000E+00  0.00000000E+00
  0.00000000E+00  0.00000000E+00  0.00000000E+00
  0.00000000E+00  0.00000000E+00  0.00000000E+00
  0.00000000E+00  0.00000000E+00  0.00000000E+00
