K-Point Grid
0
Monkhorst Pack
3 2 1 
0 0 0

