C H O Si                                
   1.00000000000000     
     9.2874599999999994    0.0000000000000000    0.0000000000000000
     0.0000000000000000   17.5126199999999983    0.0000000000000000
     0.0000000000000000    0.0000000000000000   58.0000000000000000
   C    H    O    Si
    72    57    28    72
Selective dynamics
Direct
  0.9966217885549794  0.0651535171457972  0.0594799214422007   T   T   T
  0.3301538795054570  0.0651907670616874  0.0595689349164918   T   T   T
  0.6632826300129659  0.0651654730825300  0.0595958933077978   T   T   T
  0.9965705919428720  0.3152672502291157  0.0595142368134096   T   T   T
  0.3299812626211717  0.3151186660952269  0.0595735911181366   T   T   T
  0.6633663072017922  0.3150988170775534  0.0596196111195183   T   T   T
  0.1623230640206860  0.1879675651670088  0.1383148738960825   T   T   T
  0.4954270782411837  0.1883909149787027  0.1387157968310726   T   T   T
  0.8287589640626563  0.1880697342562884  0.1383494927789672   T   T   T
  0.1622285240496970  0.4381440225529444  0.1384550930998792   T   T   T
  0.4953722057579220  0.4372528451750353  0.1384402799001614   T   T   T
  0.8287867124396353  0.4381952078782049  0.1385192039818214   T   T   T
  0.3297227147549966  0.0633757216181659  0.1656861672179861   T   T   T
  0.6615806533374385  0.0635453297944590  0.1657355377117007   T   T   T
  0.9953780833398670  0.0625515609775924  0.1654033779615281   T   T   T
  0.3283629558911281  0.3133745913557558  0.1658196518644291   T   T   T
  0.6625923785549830  0.3134306620043874  0.1658052759616931   T   T   T
  0.9954536698651993  0.3131017866440903  0.1654743496962164   T   T   T
  0.1620250784075111  0.1887051087571159  0.1903914599561510   T   T   T
  0.4949629705376704  0.1924429094667727  0.1918287664460922   T   T   T
  0.8291967841328544  0.1892000225149622  0.1906247713771349   T   T   T
  0.1620369736616762  0.4403747937798634  0.1908822564739933   T   T   T
  0.4952774427048807  0.4388683205282382  0.1914088023848211   T   T   T
  0.8290880565693211  0.4404124770076692  0.1910761106942521   T   T   T
  0.1628093563818255  0.1881973230092843  0.0848332081407135   T   T   T
  0.4960104455188348  0.1882852856781753  0.0850290716571570   T   T   T
  0.8294551153596477  0.1881889621309745  0.0848774597377914   T   T   T
  0.1628351320513146  0.4382634633737778  0.0849094029708658   T   T   T
  0.4960206972253545  0.4382003537699473  0.0848573272937460   T   T   T
  0.8293803574344532  0.4383059291071419  0.0849465523503531   T   T   T
  0.3292356217302330  0.0631436536075555  0.1121118814663979   T   T   T
  0.6624222505199355  0.0631397783297678  0.1121351653593958   T   T   T
  0.9956691999135652  0.0630111906492452  0.1120345660890514   T   T   T
  0.3290210982425265  0.3130118374061091  0.1121265379639381   T   T   T
  0.6625707590405207  0.3130191633252908  0.1121455589684621   T   T   T
  0.9956657719379185  0.3130716814207281  0.1120342344501793   T   T   T
  0.9966280358313285  0.5653191366534938  0.0595997356623265   T   T   T
  0.3299970947678198  0.5653193831847135  0.0595833393813052   T   T   T
  0.6633448916445280  0.5652745784071675  0.0596376664418888   T   T   T
  0.9966592320218434  0.8153975891625647  0.0595594271575021   T   T   T
  0.3300934657156615  0.8152889443259708  0.0595679870664247   T   T   T
  0.6633298052136770  0.8152083402745778  0.0595922274323014   T   T   T
  0.1621253161981011  0.6883957935738600  0.1384597720553772   T   T   T
  0.4954927237179658  0.6880948984299234  0.1385284503422168   T   T   T
  0.8290518572443027  0.6883937591080546  0.1384872960857592   T   T   T
  0.1626065829434621  0.9381381835752228  0.1384686280529598   T   T   T
  0.4954984553747402  0.9380468601479166  0.1384860686410146   T   T   T
  0.8285130577822669  0.9381650088329401  0.1384686061696456   T   T   T
  0.3280689297916291  0.5634425759304430  0.1657307905569248   T   T   T
  0.6631129044186883  0.5632280286287438  0.1658519959467228   T   T   T
  0.9955652163476962  0.5635632911765305  0.1656083554640707   T   T   T
  0.3291554383112852  0.8133063742301985  0.1656580282948888   T   T   T
  0.6624627419073739  0.8132602715545956  0.1656729577941540   T   T   T
  0.9956752135934787  0.8134487927804763  0.1656398781232039   T   T   T
  0.1624427642712326  0.6903947697082442  0.1909815953423422   T   T   T
  0.4959578117300061  0.6901959759913002  0.1910534289719317   T   T   T
  0.8293341407948021  0.6904473952701929  0.1910214940734695   T   T   T
  0.1624891373665424  0.9402234759784943  0.1910044486975528   T   T   T
  0.4958506347309940  0.9402086261185867  0.1910411544771749   T   T   T
  0.8290232424819590  0.9402440655126374  0.1910186215958607   T   T   T
  0.1627996519357604  0.6884019407604598  0.0849380676644296   T   T   T
  0.4960374735225886  0.6883362695944295  0.0849469491736253   T   T   T
  0.8294482160745869  0.6884058249816255  0.0849589000381299   T   T   T
  0.1629629448305817  0.9383682698473289  0.0849167071745203   T   T   T
  0.4960836194510251  0.9383313807061096  0.0849365966196760   T   T   T
  0.8293612191941979  0.9383644177951772  0.0849326223253979   T   T   T
  0.3291206886302068  0.5630730690935695  0.1121203962652102   T   T   T
  0.6625375492746921  0.5630157273463241  0.1121742111903752   T   T   T
  0.9956684758543926  0.5631548646501645  0.1121175400976203   T   T   T
  0.3291788601100378  0.8131828690032316  0.1121008595224748   T   T   T
  0.6624922435342370  0.8131365424419433  0.1121059875127439   T   T   T
  0.9957154333677246  0.8133923869390728  0.1120918512939072   T   T   T
  0.0780318105893944  0.1802353173317147  0.0264226499596327   T   T   T
  0.4110869930237793  0.1803701291054354  0.0265947370135283   T   T   T
  0.7435629776642652  0.1801554655745957  0.0265299154831834   T   T   T
  0.0779108468108849  0.4302637461835323  0.0264794633619038   T   T   T
  0.4111856544310414  0.4300290798528873  0.0264357895417020   T   T   T
  0.7433006638302269  0.4300610758626215  0.0265798447857033   T   T   T
  0.3283051079898089  0.0287842660313151  0.0440882519429906   T   T   T
  0.6605641360214101  0.0287922501656018  0.0441081556392283   T   T   T
  0.9942624435831223  0.0287497317684572  0.0439954464885406   T   T   T
  0.3274401171353076  0.2786720472895747  0.0440986476781670   T   T   T
  0.6611754936126546  0.2786935548890389  0.0441379791566991   T   T   T
  0.9941276546905888  0.2789580663895953  0.0440097657530425   T   T   T
  0.8318676179895952  0.4035256111501572  0.2064477024919164   T   T   T
  0.8325843314394922  0.1530174930450825  0.2061459072479930   T   T   T
  0.1637597379260526  0.1529676261129022  0.2060116778644380   T   T   T
  0.4980767509032655  0.1555601796931884  0.2072044211837026   T   T   T
  0.1644250876251350  0.4035189577725705  0.2062644817176719   T   T   T
  0.5390357321332132  0.4654510789883413  0.2618750526809986   T   T   T
  0.0836004283553212  0.0560475895946135  0.2236005496681348   T   T   T
  0.4167493275708321  0.0560932778343207  0.2237429237280785   T   T   T
  0.7493592992243143  0.0562089395560067  0.2238242024425618   T   T   T
  0.0933033122934765  0.3000864310324783  0.2223564592341064   T   T   T
  0.3668411562587712  0.2831591242838937  0.2304035747803080   T   T   T
  0.7822239302484391  0.2958915628942944  0.2227489750051809   T   T   T
  0.5023217146520957  0.2712757116593232  0.2661640950912929   T   T   T
  0.4725292278676132  0.2276546536151478  0.3007244380861310   T   T   T
  0.5205213655676412  0.3119128006290940  0.3086866567452273   T   T   T
  0.2894424520576646  0.1365526226578027  0.2961520130555043   T   T   T
  0.4375439348721564  0.1073211640828565  0.2877908432566418   T   T   T
  0.6377294265720085  0.3861706933575274  0.3348820438059493   T   T   T
  0.5032762420533224  0.4317978213933656  0.3270323000659945   T   T   T
  0.5063764479896465  0.4405202279038791  0.2710226233498252   T   T   T
  0.5690906066872193  0.2683755698905119  0.2405499884598821   T   T   T
  0.0771938829411036  0.6802405176014896  0.0265456259275870   T   T   T
  0.4108148785172503  0.6801928631766898  0.0265322226007087   T   T   T
  0.7441211534290515  0.6801946866515871  0.0265417028064921   T   T   T
  0.0780971008550701  0.9303082149809617  0.0264563700715541   T   T   T
  0.4109783381403034  0.9301377318463999  0.0265138654311439   T   T   T
  0.7435872126020528  0.9301038207310474  0.0265252127237841   T   T   T
  0.3276572762682700  0.5289487993880673  0.0440899056756071   T   T   T
  0.6611133898804850  0.5289453848750122  0.0441403948244145   T   T   T
  0.9943016823869097  0.5289498925396833  0.0441059715601456   T   T   T
  0.3277494786917684  0.7789187143149299  0.0440772886205067   T   T   T
  0.6609832700392582  0.7789100968447514  0.0440861263809761   T   T   T
  0.9943945110167866  0.7790306440347313  0.0440671906985904   T   T   T
  0.8314908098405641  0.9039426449215688  0.2065217424077549   T   T   T
  0.8315666261114418  0.6538553280910812  0.2064585168062887   T   T   T
  0.1655758522674973  0.6536194841369720  0.2063791090587339   T   T   T
  0.4978506880415335  0.6532988905531402  0.2064338285843026   T   T   T
  0.1649553347291771  0.9039259339451040  0.2065121691150105   T   T   T
  0.4982975892017250  0.9038643449142697  0.2065349456205407   T   T   T
  0.0891222115455715  0.5541224912726340  0.2232419853345988   T   T   T
  0.4165139466218458  0.5500334808458254  0.2242500064949875   T   T   T
  0.7563896493939223  0.5555658465477912  0.2227861608434519   T   T   T
  0.0845040772269668  0.8048214022065391  0.2238518532058024   T   T   T
  0.4169749217440867  0.8048651692623526  0.2239064093564231   T   T   T
  0.7512589237997807  0.8046641678719424  0.2238592936423943   T   T   T
  0.1724071523243154  0.1682807097966050  0.0329270704710007   T   T   T
  0.5055523870093414  0.1685166719201436  0.0330881841677369   T   T   T
  0.8382581064842588  0.1683203592540585  0.0329440307440403   T   T   T
  0.1723135631948762  0.4183240765932211  0.0329743025847029   T   T   T
  0.5056480273482877  0.4180960770014793  0.0329155736140402   T   T   T
  0.8380387957083424  0.4185091632376374  0.0330264792708892   T   T   T
  0.3216510775888135  0.0433166327174319  0.2176324550023493   T   T   T
  0.6545061198528997  0.0431955021402483  0.2176717019061122   T   T   T
  0.9884029127231413  0.0434955740440900  0.2174859939279656   T   T   T
  0.2977605586969532  0.2941484431585793  0.2176129204545340   T   T   T
  0.6804655028461545  0.2913201155862297  0.2182934794343542   T   T   T
  0.9929522112102779  0.2912769799874687  0.2173292597339587   T   T   T
  0.5283318209354073  0.2734304155066362  0.2961956722086494   T   T   T
  0.3900415318034275  0.1321574453965181  0.3007690668523461   T   T   T
  0.5357000128079713  0.3807688599776956  0.3312589877964624   T   T   T
  0.4852914506669024  0.2528995274135694  0.2502200526176685   T   T   T
  0.1718153410996196  0.6684489248038615  0.0329953360327320   T   T   T
  0.5053665123079248  0.6683537547806573  0.0329981991860322   T   T   T
  0.8386782837599525  0.6684586215422514  0.0330212249850884   T   T   T
  0.1724361660186464  0.9184486290549947  0.0329884131530074   T   T   T
  0.5054987610268199  0.9184696702990115  0.0330172986806124   T   T   T
  0.8382735012566839  0.9185698303270599  0.0329935439391400   T   T   T
  0.3211393435101093  0.5453390409037927  0.2172613031981747   T   T   T
  0.6584235897984636  0.5446150138158301  0.2176216101339848   T   T   T
  0.9916609190570218  0.5441214489424172  0.2175412384788250   T   T   T
  0.3217040631907857  0.7937475453140193  0.2175761142566875   T   T   T
  0.6557135243115506  0.7935745661191934  0.2176273712521477   T   T   T
  0.9890070230479733  0.7937501737305799  0.2175932260701824   T   T   T
  0.4968952748175589  0.1239153009918871  0.0590536710435689   T   T   T
  0.8300739294748919  0.1238278144693067  0.0589283637575703   T   T   T
  0.1635456201750493  0.3738651001698361  0.0589664078123650   T   T   T
  0.4968426873436265  0.3738514865545019  0.0589654624023381   T   T   T
  0.8299978853305671  0.3739376266356796  0.0590015892060363   T   T   T
  0.1635561845244135  0.1237976404191334  0.0589041584138990   T   T   T
  0.9954762194536528  0.0001592151649842  0.1386194611383350   T   T   T
  0.3293844760221807  0.0006116270066974  0.1387638291208792   T   T   T
  0.6617811768069316  0.0006512115562265  0.1387864061738386   T   T   T
  0.9955552703067528  0.2505007867261284  0.1386911225957447   T   T   T
  0.3287658579667515  0.2511067733865635  0.1390020265564863   T   T   T
  0.6621806042964750  0.2510915804006305  0.1389873181660607   T   T   T
  0.1621010539980926  0.1247071899161559  0.1647340941224616   T   T   T
  0.4952981225280219  0.1266529486942240  0.1655109441441470   T   T   T
  0.8290211217021456  0.1249628093459271  0.1648140196781723   T   T   T
  0.1624672389012081  0.3754517951192363  0.1651214716256404   T   T   T
  0.4952356492167672  0.3771771690873359  0.1664523096690523   T   T   T
  0.8286216279092612  0.3755530187302579  0.1652179538173633   T   T   T
  0.3343955848667881  0.4957054177011921  0.1917874472526821   T   T   T
  0.6560183220499517  0.4956432079797250  0.1920380841414189   T   T   T
  0.9956276876740850  0.4986394782330066  0.1915672642420796   T   T   T
  0.3253660348974203  0.2504623174801637  0.1920973500978389   T   T   T
  0.9958942731941610  0.2476255518170981  0.1911480064737215   T   T   T
  0.6642604675240237  0.2497713268568283  0.1918296553269717   T   T   T
  0.9961495040302610  0.0003361061878486  0.0855246757831749   T   T   T
  0.3295738346186344  0.0003851167458004  0.0855930986242382   T   T   T
  0.6627450364113644  0.0003847278399840  0.0856124372793075   T   T   T
  0.9960838542996252  0.2503455075940775  0.0855321415771131   T   T   T
  0.3293588950327044  0.2503878275212003  0.0856438794846263   T   T   T
  0.6628219145789273  0.2503860421057430  0.0856627457107351   T   T   T
  0.1624470352500076  0.1255158688436334  0.1118168827591098   T   T   T
  0.4957778038493005  0.1257282758899375  0.1120652446629240   T   T   T
  0.8290590100270472  0.1255205894449176  0.1118487667162760   T   T   T
  0.1625464493451955  0.3755516968440462  0.1119461380520155   T   T   T
  0.4957317824655011  0.3756895269294077  0.1120278548410586   T   T   T
  0.8289080295921696  0.3756013956936362  0.1119946586267351   T   T   T
  0.4968559830241250  0.6239079834245460  0.0589998790543665   T   T   T
  0.8301004852588847  0.6239567807132614  0.0590131815943327   T   T   T
  0.1636245958775092  0.8739452418306001  0.0589658642354943   T   T   T
  0.4968995137800384  0.8739054942588689  0.0589861954216967   T   T   T
  0.8300271880973675  0.8739664024775764  0.0589634276959549   T   T   T
  0.1634949038416240  0.6239537949563925  0.0589860786336149   T   T   T
  0.9955447481945557  0.5005002780163157  0.1388309920208198   T   T   T
  0.3299302125299451  0.5003245907357681  0.1389752408281254   T   T   T
  0.6610084317522731  0.5002728459679534  0.1390496552515630   T   T   T
  0.9956127133193116  0.7505478872327892  0.1387177195853692   T   T   T
  0.3290410568192135  0.7503389952130217  0.1387448198497606   T   T   T
  0.6621885642201770  0.7503228429730867  0.1387529711649280   T   T   T
  0.1628903502939445  0.6249908019115540  0.1650374773549006   T   T   T
  0.4956773058481176  0.6243248136320289  0.1651428186680264   T   T   T
  0.8282467350395128  0.6248999749991820  0.1650888756139010   T   T   T
  0.1624808990216189  0.8752668330597824  0.1650164966381544   T   T   T
  0.4957535514170526  0.8752135835960089  0.1650501187766473   T   T   T
  0.8288782328636023  0.8752843723332018  0.1650280481146333   T   T   T
  0.3289548119980083  0.9989149399598852  0.1916241463341854   T   T   T
  0.6622092786861209  0.9989319944813685  0.1916492911538736   T   T   T
  0.9955597589890023  0.9988261825563310  0.1915046759482408   T   T   T
  0.3291686860861057  0.7485704396749554  0.1916240838982356   T   T   T
  0.9957653037788009  0.7487720545072727  0.1916160557160248   T   T   T
  0.6622454177204707  0.7485812362262744  0.1916611016570812   T   T   T
  0.9961111089852344  0.5003520204210825  0.0856234571596973   T   T   T
  0.3295838291620969  0.5003570231727028  0.0856225204365017   T   T   T
  0.6626081737327848  0.5003308585651499  0.0856685354013757   T   T   T
  0.9961278169764998  0.7504575436097463  0.0855893209422630   T   T   T
  0.3294926739694613  0.7503557592298999  0.0855873765093970   T   T   T
  0.6627633290511811  0.7503118584419746  0.0856037694770500   T   T   T
  0.1625968854787908  0.6254473013382551  0.1119378806254308   T   T   T
  0.4958003076241139  0.6253677527962384  0.1119590415537938   T   T   T
  0.8288933585654783  0.6254687475420009  0.1119631718821698   T   T   T
  0.1626106158049105  0.8755169862984157  0.1118755190307963   T   T   T
  0.4958044823031492  0.8754581841796607  0.1118883616960989   T   T   T
  0.8288608409132682  0.8755328934198862  0.1118847402252963   T   T   T
 
  0.00000000E+00  0.00000000E+00  0.00000000E+00
  0.00000000E+00  0.00000000E+00  0.00000000E+00
  0.00000000E+00  0.00000000E+00  0.00000000E+00
  0.00000000E+00  0.00000000E+00  0.00000000E+00
  0.00000000E+00  0.00000000E+00  0.00000000E+00
  0.00000000E+00  0.00000000E+00  0.00000000E+00
  0.00000000E+00  0.00000000E+00  0.00000000E+00
  0.00000000E+00  0.00000000E+00  0.00000000E+00
  0.00000000E+00  0.00000000E+00  0.00000000E+00
  0.00000000E+00  0.00000000E+00  0.00000000E+00
  0.00000000E+00  0.00000000E+00  0.00000000E+00
  0.00000000E+00  0.00000000E+00  0.00000000E+00
  0.00000000E+00  0.00000000E+00  0.00000000E+00
  0.00000000E+00  0.00000000E+00  0.00000000E+00
  0.00000000E+00  0.00000000E+00  0.00000000E+00
  0.00000000E+00  0.00000000E+00  0.00000000E+00
  0.00000000E+00  0.00000000E+00  0.00000000E+00
  0.00000000E+00  0.00000000E+00  0.00000000E+00
  0.00000000E+00  0.00000000E+00  0.00000000E+00
  0.00000000E+00  0.00000000E+00  0.00000000E+00
  0.00000000E+00  0.00000000E+00  0.00000000E+00
  0.00000000E+00  0.00000000E+00  0.00000000E+00
  0.00000000E+00  0.00000000E+00  0.00000000E+00
  0.00000000E+00  0.00000000E+00  0.00000000E+00
  0.00000000E+00  0.00000000E+00  0.00000000E+00
  0.00000000E+00  0.00000000E+00  0.00000000E+00
  0.00000000E+00  0.00000000E+00  0.00000000E+00
  0.00000000E+00  0.00000000E+00  0.00000000E+00
  0.00000000E+00  0.00000000E+00  0.00000000E+00
  0.00000000E+00  0.00000000E+00  0.00000000E+00
  0.00000000E+00  0.00000000E+00  0.00000000E+00
  0.00000000E+00  0.00000000E+00  0.00000000E+00
  0.00000000E+00  0.00000000E+00  0.00000000E+00
  0.00000000E+00  0.00000000E+00  0.00000000E+00
  0.00000000E+00  0.00000000E+00  0.00000000E+00
  0.00000000E+00  0.00000000E+00  0.00000000E+00
  0.00000000E+00  0.00000000E+00  0.00000000E+00
  0.00000000E+00  0.00000000E+00  0.00000000E+00
  0.00000000E+00  0.00000000E+00  0.00000000E+00
  0.00000000E+00  0.00000000E+00  0.00000000E+00
  0.00000000E+00  0.00000000E+00  0.00000000E+00
  0.00000000E+00  0.00000000E+00  0.00000000E+00
  0.00000000E+00  0.00000000E+00  0.00000000E+00
  0.00000000E+00  0.00000000E+00  0.00000000E+00
  0.00000000E+00  0.00000000E+00  0.00000000E+00
  0.00000000E+00  0.00000000E+00  0.00000000E+00
  0.00000000E+00  0.00000000E+00  0.00000000E+00
  0.00000000E+00  0.00000000E+00  0.00000000E+00
  0.00000000E+00  0.00000000E+00  0.00000000E+00
  0.00000000E+00  0.00000000E+00  0.00000000E+00
  0.00000000E+00  0.00000000E+00  0.00000000E+00
  0.00000000E+00  0.00000000E+00  0.00000000E+00
  0.00000000E+00  0.00000000E+00  0.00000000E+00
  0.00000000E+00  0.00000000E+00  0.00000000E+00
  0.00000000E+00  0.00000000E+00  0.00000000E+00
  0.00000000E+00  0.00000000E+00  0.00000000E+00
  0.00000000E+00  0.00000000E+00  0.00000000E+00
  0.00000000E+00  0.00000000E+00  0.00000000E+00
  0.00000000E+00  0.00000000E+00  0.00000000E+00
  0.00000000E+00  0.00000000E+00  0.00000000E+00
  0.00000000E+00  0.00000000E+00  0.00000000E+00
  0.00000000E+00  0.00000000E+00  0.00000000E+00
  0.00000000E+00  0.00000000E+00  0.00000000E+00
  0.00000000E+00  0.00000000E+00  0.00000000E+00
  0.00000000E+00  0.00000000E+00  0.00000000E+00
  0.00000000E+00  0.00000000E+00  0.00000000E+00
  0.00000000E+00  0.00000000E+00  0.00000000E+00
  0.00000000E+00  0.00000000E+00  0.00000000E+00
  0.00000000E+00  0.00000000E+00  0.00000000E+00
  0.00000000E+00  0.00000000E+00  0.00000000E+00
  0.00000000E+00  0.00000000E+00  0.00000000E+00
  0.00000000E+00  0.00000000E+00  0.00000000E+00
  0.00000000E+00  0.00000000E+00  0.00000000E+00
  0.00000000E+00  0.00000000E+00  0.00000000E+00
  0.00000000E+00  0.00000000E+00  0.00000000E+00
  0.00000000E+00  0.00000000E+00  0.00000000E+00
  0.00000000E+00  0.00000000E+00  0.00000000E+00
  0.00000000E+00  0.00000000E+00  0.00000000E+00
  0.00000000E+00  0.00000000E+00  0.00000000E+00
  0.00000000E+00  0.00000000E+00  0.00000000E+00
  0.00000000E+00  0.00000000E+00  0.00000000E+00
  0.00000000E+00  0.00000000E+00  0.00000000E+00
  0.00000000E+00  0.00000000E+00  0.00000000E+00
  0.00000000E+00  0.00000000E+00  0.00000000E+00
  0.00000000E+00  0.00000000E+00  0.00000000E+00
  0.00000000E+00  0.00000000E+00  0.00000000E+00
  0.00000000E+00  0.00000000E+00  0.00000000E+00
  0.00000000E+00  0.00000000E+00  0.00000000E+00
  0.00000000E+00  0.00000000E+00  0.00000000E+00
  0.00000000E+00  0.00000000E+00  0.00000000E+00
  0.00000000E+00  0.00000000E+00  0.00000000E+00
  0.00000000E+00  0.00000000E+00  0.00000000E+00
  0.00000000E+00  0.00000000E+00  0.00000000E+00
  0.00000000E+00  0.00000000E+00  0.00000000E+00
  0.00000000E+00  0.00000000E+00  0.00000000E+00
  0.00000000E+00  0.00000000E+00  0.00000000E+00
  0.00000000E+00  0.00000000E+00  0.00000000E+00
  0.00000000E+00  0.00000000E+00  0.00000000E+00
  0.00000000E+00  0.00000000E+00  0.00000000E+00
  0.00000000E+00  0.00000000E+00  0.00000000E+00
  0.00000000E+00  0.00000000E+00  0.00000000E+00
  0.00000000E+00  0.00000000E+00  0.00000000E+00
  0.00000000E+00  0.00000000E+00  0.00000000E+00
  0.00000000E+00  0.00000000E+00  0.00000000E+00
  0.00000000E+00  0.00000000E+00  0.00000000E+00
  0.00000000E+00  0.00000000E+00  0.00000000E+00
  0.00000000E+00  0.00000000E+00  0.00000000E+00
  0.00000000E+00  0.00000000E+00  0.00000000E+00
  0.00000000E+00  0.00000000E+00  0.00000000E+00
  0.00000000E+00  0.00000000E+00  0.00000000E+00
  0.00000000E+00  0.00000000E+00  0.00000000E+00
  0.00000000E+00  0.00000000E+00  0.00000000E+00
  0.00000000E+00  0.00000000E+00  0.00000000E+00
  0.00000000E+00  0.00000000E+00  0.00000000E+00
  0.00000000E+00  0.00000000E+00  0.00000000E+00
  0.00000000E+00  0.00000000E+00  0.00000000E+00
  0.00000000E+00  0.00000000E+00  0.00000000E+00
  0.00000000E+00  0.00000000E+00  0.00000000E+00
  0.00000000E+00  0.00000000E+00  0.00000000E+00
  0.00000000E+00  0.00000000E+00  0.00000000E+00
  0.00000000E+00  0.00000000E+00  0.00000000E+00
  0.00000000E+00  0.00000000E+00  0.00000000E+00
  0.00000000E+00  0.00000000E+00  0.00000000E+00
  0.00000000E+00  0.00000000E+00  0.00000000E+00
  0.00000000E+00  0.00000000E+00  0.00000000E+00
  0.00000000E+00  0.00000000E+00  0.00000000E+00
  0.00000000E+00  0.00000000E+00  0.00000000E+00
  0.00000000E+00  0.00000000E+00  0.00000000E+00
  0.00000000E+00  0.00000000E+00  0.00000000E+00
  0.00000000E+00  0.00000000E+00  0.00000000E+00
  0.00000000E+00  0.00000000E+00  0.00000000E+00
  0.00000000E+00  0.00000000E+00  0.00000000E+00
  0.00000000E+00  0.00000000E+00  0.00000000E+00
  0.00000000E+00  0.00000000E+00  0.00000000E+00
  0.00000000E+00  0.00000000E+00  0.00000000E+00
  0.00000000E+00  0.00000000E+00  0.00000000E+00
  0.00000000E+00  0.00000000E+00  0.00000000E+00
  0.00000000E+00  0.00000000E+00  0.00000000E+00
  0.00000000E+00  0.00000000E+00  0.00000000E+00
  0.00000000E+00  0.00000000E+00  0.00000000E+00
  0.00000000E+00  0.00000000E+00  0.00000000E+00
  0.00000000E+00  0.00000000E+00  0.00000000E+00
  0.00000000E+00  0.00000000E+00  0.00000000E+00
  0.00000000E+00  0.00000000E+00  0.00000000E+00
  0.00000000E+00  0.00000000E+00  0.00000000E+00
  0.00000000E+00  0.00000000E+00  0.00000000E+00
  0.00000000E+00  0.00000000E+00  0.00000000E+00
  0.00000000E+00  0.00000000E+00  0.00000000E+00
  0.00000000E+00  0.00000000E+00  0.00000000E+00
  0.00000000E+00  0.00000000E+00  0.00000000E+00
  0.00000000E+00  0.00000000E+00  0.00000000E+00
  0.00000000E+00  0.00000000E+00  0.00000000E+00
  0.00000000E+00  0.00000000E+00  0.00000000E+00
  0.00000000E+00  0.00000000E+00  0.00000000E+00
  0.00000000E+00  0.00000000E+00  0.00000000E+00
  0.00000000E+00  0.00000000E+00  0.00000000E+00
  0.00000000E+00  0.00000000E+00  0.00000000E+00
  0.00000000E+00  0.00000000E+00  0.00000000E+00
  0.00000000E+00  0.00000000E+00  0.00000000E+00
  0.00000000E+00  0.00000000E+00  0.00000000E+00
  0.00000000E+00  0.00000000E+00  0.00000000E+00
  0.00000000E+00  0.00000000E+00  0.00000000E+00
  0.00000000E+00  0.00000000E+00  0.00000000E+00
  0.00000000E+00  0.00000000E+00  0.00000000E+00
  0.00000000E+00  0.00000000E+00  0.00000000E+00
  0.00000000E+00  0.00000000E+00  0.00000000E+00
  0.00000000E+00  0.00000000E+00  0.00000000E+00
  0.00000000E+00  0.00000000E+00  0.00000000E+00
  0.00000000E+00  0.00000000E+00  0.00000000E+00
  0.00000000E+00  0.00000000E+00  0.00000000E+00
  0.00000000E+00  0.00000000E+00  0.00000000E+00
  0.00000000E+00  0.00000000E+00  0.00000000E+00
  0.00000000E+00  0.00000000E+00  0.00000000E+00
  0.00000000E+00  0.00000000E+00  0.00000000E+00
  0.00000000E+00  0.00000000E+00  0.00000000E+00
  0.00000000E+00  0.00000000E+00  0.00000000E+00
  0.00000000E+00  0.00000000E+00  0.00000000E+00
  0.00000000E+00  0.00000000E+00  0.00000000E+00
  0.00000000E+00  0.00000000E+00  0.00000000E+00
  0.00000000E+00  0.00000000E+00  0.00000000E+00
  0.00000000E+00  0.00000000E+00  0.00000000E+00
  0.00000000E+00  0.00000000E+00  0.00000000E+00
  0.00000000E+00  0.00000000E+00  0.00000000E+00
  0.00000000E+00  0.00000000E+00  0.00000000E+00
  0.00000000E+00  0.00000000E+00  0.00000000E+00
  0.00000000E+00  0.00000000E+00  0.00000000E+00
  0.00000000E+00  0.00000000E+00  0.00000000E+00
  0.00000000E+00  0.00000000E+00  0.00000000E+00
  0.00000000E+00  0.00000000E+00  0.00000000E+00
  0.00000000E+00  0.00000000E+00  0.00000000E+00
  0.00000000E+00  0.00000000E+00  0.00000000E+00
  0.00000000E+00  0.00000000E+00  0.00000000E+00
  0.00000000E+00  0.00000000E+00  0.00000000E+00
  0.00000000E+00  0.00000000E+00  0.00000000E+00
  0.00000000E+00  0.00000000E+00  0.00000000E+00
  0.00000000E+00  0.00000000E+00  0.00000000E+00
  0.00000000E+00  0.00000000E+00  0.00000000E+00
  0.00000000E+00  0.00000000E+00  0.00000000E+00
  0.00000000E+00  0.00000000E+00  0.00000000E+00
  0.00000000E+00  0.00000000E+00  0.00000000E+00
  0.00000000E+00  0.00000000E+00  0.00000000E+00
  0.00000000E+00  0.00000000E+00  0.00000000E+00
  0.00000000E+00  0.00000000E+00  0.00000000E+00
  0.00000000E+00  0.00000000E+00  0.00000000E+00
  0.00000000E+00  0.00000000E+00  0.00000000E+00
  0.00000000E+00  0.00000000E+00  0.00000000E+00
  0.00000000E+00  0.00000000E+00  0.00000000E+00
  0.00000000E+00  0.00000000E+00  0.00000000E+00
  0.00000000E+00  0.00000000E+00  0.00000000E+00
  0.00000000E+00  0.00000000E+00  0.00000000E+00
  0.00000000E+00  0.00000000E+00  0.00000000E+00
  0.00000000E+00  0.00000000E+00  0.00000000E+00
  0.00000000E+00  0.00000000E+00  0.00000000E+00
  0.00000000E+00  0.00000000E+00  0.00000000E+00
  0.00000000E+00  0.00000000E+00  0.00000000E+00
  0.00000000E+00  0.00000000E+00  0.00000000E+00
  0.00000000E+00  0.00000000E+00  0.00000000E+00
  0.00000000E+00  0.00000000E+00  0.00000000E+00
  0.00000000E+00  0.00000000E+00  0.00000000E+00
  0.00000000E+00  0.00000000E+00  0.00000000E+00
  0.00000000E+00  0.00000000E+00  0.00000000E+00
  0.00000000E+00  0.00000000E+00  0.00000000E+00
  0.00000000E+00  0.00000000E+00  0.00000000E+00
  0.00000000E+00  0.00000000E+00  0.00000000E+00
  0.00000000E+00  0.00000000E+00  0.00000000E+00
  0.00000000E+00  0.00000000E+00  0.00000000E+00
  0.00000000E+00  0.00000000E+00  0.00000000E+00
  0.00000000E+00  0.00000000E+00  0.00000000E+00
  0.00000000E+00  0.00000000E+00  0.00000000E+00
