C H O Si                                
   1.00000000000000     
     9.2874599999999994    0.0000000000000000    0.0000000000000000
     0.0000000000000000   17.5126199999999983    0.0000000000000000
     0.0000000000000000    0.0000000000000000   58.0000000000000000
   C    H    O    Si
    72    57    28    72
Selective dynamics
Direct
  0.9967382333188950  0.0651310766500150  0.0594884162247548   T   T   T
  0.3301817507488087  0.0652219882418169  0.0595684602266024   T   T   T
  0.6632649606618186  0.0651799361924101  0.0595809509558251   T   T   T
  0.9965729550385390  0.3152341926687572  0.0595103412560570   T   T   T
  0.3299998597639920  0.3151294649673626  0.0595640141662656   T   T   T
  0.6632759063111335  0.3151478867974849  0.0595979183502685   T   T   T
  0.1622365799511136  0.1879673752930102  0.1383216542716036   T   T   T
  0.4954590782122119  0.1884162085586817  0.1387190104684035   T   T   T
  0.8286445204938631  0.1880272588367367  0.1383830002263358   T   T   T
  0.1621577921476685  0.4382070018079084  0.1384568453986861   T   T   T
  0.4954383893401741  0.4372780428142128  0.1384768755310802   T   T   T
  0.8288084403034370  0.4381976446280109  0.1385505461488548   T   T   T
  0.3293340238869111  0.0633033217501387  0.1656675772218723   T   T   T
  0.6615195666593316  0.0635015223662111  0.1657354384950315   T   T   T
  0.9952514748532310  0.0625339567148737  0.1654310747551160   T   T   T
  0.3282242354109446  0.3132945763147468  0.1657812763513591   T   T   T
  0.6623491146185497  0.3133898331775828  0.1657957279321796   T   T   T
  0.9952891686284235  0.3131030139445511  0.1654940266173977   T   T   T
  0.1615588728199582  0.1886148489805261  0.1903948517149824   T   T   T
  0.4950098501599383  0.1924588322711734  0.1918146762061140   T   T   T
  0.8291472886230966  0.1891160716056558  0.1906144151073509   T   T   T
  0.1622236071332652  0.4404768296993373  0.1908808765873075   T   T   T
  0.4950877278057536  0.4389018139027265  0.1914161404761621   T   T   T
  0.8291188875211364  0.4404335691263693  0.1910802957192862   T   T   T
  0.1626509833979077  0.1881173669627615  0.0848426225985527   T   T   T
  0.4960002364905715  0.1882028539046999  0.0850418451975814   T   T   T
  0.8292751383680536  0.1881293636634590  0.0848624949765650   T   T   T
  0.1627258231274016  0.4382224906919917  0.0849044404603905   T   T   T
  0.4959959592944948  0.4381226871344254  0.0848485386464302   T   T   T
  0.8292965722178948  0.4382408583260978  0.0849703001595517   T   T   T
  0.3291810219607026  0.0631696529921457  0.1121306712477249   T   T   T
  0.6621941825532879  0.0631590084231744  0.1121475475755831   T   T   T
  0.9956363635324100  0.0630145922213899  0.1120203535082855   T   T   T
  0.3288984651695276  0.3129738689142053  0.1121411096575614   T   T   T
  0.6623001604784613  0.3129998874565803  0.1121645368907361   T   T   T
  0.9955707222116672  0.3130762826829145  0.1120332924222323   T   T   T
  0.9966898908104417  0.5653584769025390  0.0596019904962242   T   T   T
  0.3300050435647959  0.5653651987931038  0.0595901304528634   T   T   T
  0.6633955829394123  0.5653702000109924  0.0596191918512729   T   T   T
  0.9967093638110710  0.8154061862220889  0.0595721424322611   T   T   T
  0.3301073521589631  0.8152957745725649  0.0595851488906807   T   T   T
  0.6634427440681053  0.8152772997334666  0.0595804970061390   T   T   T
  0.1619649679786582  0.6884131943344393  0.1384442168306462   T   T   T
  0.4955665016934475  0.6881509361958297  0.1385406955516668   T   T   T
  0.8290661578652091  0.6884043558836185  0.1385023864450375   T   T   T
  0.1625100652690457  0.9381757743622012  0.1384840669717798   T   T   T
  0.4955774750348148  0.9381027923487757  0.1384994925759983   T   T   T
  0.8284235860226844  0.9381573514963008  0.1384866535347901   T   T   T
  0.3280196292835915  0.5633712211942685  0.1657122084700796   T   T   T
  0.6626225986296537  0.5632314073786168  0.1658387427361044   T   T   T
  0.9953317597856428  0.5635128101581299  0.1656192073966213   T   T   T
  0.3289113761718363  0.8132803121763226  0.1656574259870207   T   T   T
  0.6621173679126225  0.8132464732309704  0.1656705455136128   T   T   T
  0.9955756762130259  0.8133690538126163  0.1656507299549048   T   T   T
  0.1624022430569223  0.6904808213803044  0.1909824073121952   T   T   T
  0.4957714593394913  0.6902572099859683  0.1910686321877179   T   T   T
  0.8294160593744878  0.6904801738827591  0.1910124656850063   T   T   T
  0.1624386509006397  0.9403162893252502  0.1910103054416855   T   T   T
  0.4957249355050862  0.9402855713521100  0.1910613141032515   T   T   T
  0.8289145634680898  0.9403208160049896  0.1910313778607875   T   T   T
  0.1626304672039574  0.6883971518160210  0.0849346025728469   T   T   T
  0.4960185108707869  0.6883275103998068  0.0849540271565094   T   T   T
  0.8293836891409967  0.6883788981158461  0.0849689817649235   T   T   T
  0.1628280545191575  0.9383454417587280  0.0849258424914426   T   T   T
  0.4960862615172568  0.9382840696786807  0.0849430174632221   T   T   T
  0.8292841182903710  0.9383239270789314  0.0849186913266704   T   T   T
  0.3289925241716067  0.5630247581038573  0.1121425449932747   T   T   T
  0.6622251245301277  0.5630405136512876  0.1122029756958048   T   T   T
  0.9956310389320426  0.5632143751273575  0.1121176383175254   T   T   T
  0.3290678642403818  0.8132045568164563  0.1121119879436265   T   T   T
  0.6622173198885080  0.8131929671895591  0.1121130910919935   T   T   T
  0.9955505747197146  0.8134290014752608  0.1121062221147336   T   T   T
  0.0780978182878054  0.1801651439665017  0.0264124798047333   T   T   T
  0.4111700845207689  0.1802999086885189  0.0265879125345534   T   T   T
  0.7436578066663564  0.1800790197935429  0.0265289653116574   T   T   T
  0.0780026535048887  0.4301839771006793  0.0264728163068450   T   T   T
  0.4113329199062047  0.4299341018071881  0.0264303334042458   T   T   T
  0.7433914229899324  0.4299809756457080  0.0265713682735234   T   T   T
  0.3285068342970661  0.0287822911533150  0.0440951058711812   T   T   T
  0.6607626511025506  0.0287878614214834  0.0440978951401433   T   T   T
  0.9944199160739917  0.0287432822264266  0.0440029671828709   T   T   T
  0.3275657671917644  0.2786658863445332  0.0440942200657842   T   T   T
  0.6613402589691697  0.2786912663784966  0.0441324517821482   T   T   T
  0.9942996146600027  0.2789405345491582  0.0440001955190424   T   T   T
  0.8319784370602921  0.4035546783340568  0.2064532221850892   T   T   T
  0.8327715522519413  0.1530078407169251  0.2061484600215646   T   T   T
  0.1639058793106947  0.1529353874886910  0.2060231334298431   T   T   T
  0.4981691287956925  0.1555787378642155  0.2071949544267246   T   T   T
  0.1646146063478292  0.4035750509448950  0.2062500369746319   T   T   T
  0.5391046892221620  0.4653698435868942  0.2618194815880203   T   T   T
  0.0838278268795143  0.0560046199939164  0.2235930808351404   T   T   T
  0.4170260781066271  0.0560687066818789  0.2237441524476262   T   T   T
  0.7496352180181143  0.0561551038565881  0.2238127719907967   T   T   T
  0.0932905152599602  0.3001896902045797  0.2223374051361958   T   T   T
  0.3668282339578245  0.2831539728794797  0.2304093972519073   T   T   T
  0.7820570323827725  0.2959428404828354  0.2227719760012881   T   T   T
  0.5021549790088368  0.2713294353630283  0.2661530436116096   T   T   T
  0.4722792352356368  0.2278013873224335  0.3007349924254342   T   T   T
  0.5202270680196233  0.3119700822069441  0.3086545601338814   T   T   T
  0.2895452561853437  0.1365405787162405  0.2961070529689881   T   T   T
  0.4376467858403760  0.1074054769280800  0.2877166010987981   T   T   T
  0.6378013852311016  0.3861830485642572  0.3348626652673918   T   T   T
  0.5035386705943308  0.4318150422173384  0.3270569627323358   T   T   T
  0.5062547848100818  0.4403715460371500  0.2709336619207803   T   T   T
  0.5692751715566693  0.2683249680625012  0.2405194792411676   T   T   T
  0.0772392828088077  0.6801850824536291  0.0265363377417391   T   T   T
  0.4108588920431241  0.6801217947186556  0.0265335433617840   T   T   T
  0.7442061063417108  0.6801195436510130  0.0265396104694523   T   T   T
  0.0781606089912968  0.9302498305654949  0.0264425685983730   T   T   T
  0.4110890135990087  0.9300482101710662  0.0265211918194039   T   T   T
  0.7436718668834373  0.9300417124873201  0.0265128732998194   T   T   T
  0.3277946286098684  0.5289810160751752  0.0441031554413606   T   T   T
  0.6612705135996891  0.5289705794746066  0.0441421508535687   T   T   T
  0.9944846075456354  0.5289603633385669  0.0441204492819329   T   T   T
  0.3279001534930502  0.7789702139977529  0.0440859443674746   T   T   T
  0.6611271746649824  0.7789469647739131  0.0440863642664019   T   T   T
  0.9945738520798075  0.7790842510343230  0.0440701021703852   T   T   T
  0.8316163050532931  0.9039427886699871  0.2065166974804716   T   T   T
  0.8316888797446141  0.6538788958709167  0.2064464336512220   T   T   T
  0.1657037406702910  0.6536321368899238  0.2063619435819542   T   T   T
  0.4980019623833182  0.6532871594090194  0.2064305467661251   T   T   T
  0.1651173385671000  0.9039466099616198  0.2064968250877127   T   T   T
  0.4984435281605193  0.9038452869309492  0.2065329859405225   T   T   T
  0.0892009937958173  0.5541140795490098  0.2232333933115647   T   T   T
  0.4169001501055747  0.5500077613096920  0.2242352348631745   T   T   T
  0.7565270536513662  0.5555061096136116  0.2227855259692113   T   T   T
  0.0847508866058353  0.8047763742029658  0.2238408568901951   T   T   T
  0.4172297317311295  0.8048292438354924  0.2238993140970270   T   T   T
  0.7515369898256744  0.8046195640612674  0.2238569424379404   T   T   T
  0.1725371133141876  0.1683749534445016  0.0329274582634569   T   T   T
  0.5057449346894345  0.1685253625792680  0.0330674922604109   T   T   T
  0.8384447700363372  0.1684089542691919  0.0329341476798959   T   T   T
  0.1724971694280736  0.4183958763056311  0.0329539514168730   T   T   T
  0.5058451648378042  0.4181984256628387  0.0329143075244319   T   T   T
  0.8382983308731244  0.4185894297844374  0.0329936441284493   T   T   T
  0.3218385898256331  0.0434094670505552  0.2176464618261926   T   T   T
  0.6546366478418143  0.0433046220663867  0.2176870171875375   T   T   T
  0.9885925102699149  0.0435784141414488  0.2174711103847750   T   T   T
  0.2977133198817474  0.2940322197142204  0.2176098935702509   T   T   T
  0.6802051393608270  0.2913652738555398  0.2183636529803110   T   T   T
  0.9929465159140334  0.2912986596352685  0.2173274049518591   T   T   T
  0.5283389965282910  0.2734266769545728  0.2961798843491220   T   T   T
  0.3900215247615071  0.1319223642396971  0.3007474154364541   T   T   T
  0.5358299427018288  0.3807097405743150  0.3312469449051468   T   T   T
  0.4853200720380136  0.2530160186941352  0.2501949911748496   T   T   T
  0.1719804491457596  0.6685000428415113  0.0329734125165185   T   T   T
  0.5055964686157229  0.6683575582955871  0.0329579245987425   T   T   T
  0.8388933835560181  0.6684688448313250  0.0329993629532314   T   T   T
  0.1725403248761277  0.9185208224108538  0.0329810941931927   T   T   T
  0.5057469979421934  0.9185468445514623  0.0329958937042295   T   T   T
  0.8383928069005993  0.9186138953882270  0.0329939082079111   T   T   T
  0.3213662690409860  0.5451037117109817  0.2173174863524764   T   T   T
  0.6584365424909415  0.5444938852229533  0.2176828957829084   T   T   T
  0.9916528618549539  0.5441305743105377  0.2175599883888412   T   T   T
  0.3218230802540836  0.7937756233830662  0.2175953437465036   T   T   T
  0.6558727346688298  0.7936052312450939  0.2176555484765196   T   T   T
  0.9890858086124485  0.7937829791496097  0.2176250243825067   T   T   T
  0.4969440530635041  0.1239290090021462  0.0590418705375374   T   T   T
  0.8301661722336896  0.1237991297569370  0.0588983461692492   T   T   T
  0.1636220565042055  0.3738363650235089  0.0589413875433300   T   T   T
  0.4968913801298152  0.3738446470229281  0.0589374136379764   T   T   T
  0.8299966131804355  0.3739124176678320  0.0589769285592799   T   T   T
  0.1636183871284212  0.1237875332626808  0.0588992000111714   T   T   T
  0.9954351413656040  0.0002239886606564  0.1386264088247476   T   T   T
  0.3292744307656343  0.0005944306080346  0.1387450174188698   T   T   T
  0.6617824790440937  0.0006885753621982  0.1387892844606939   T   T   T
  0.9955267872975293  0.2505156099934256  0.1386844197051898   T   T   T
  0.3287410151225906  0.2510780514436241  0.1389926494387033   T   T   T
  0.6621061852871253  0.2510671595304461  0.1389793394536868   T   T   T
  0.1618630189880656  0.1246916243595246  0.1647409184729592   T   T   T
  0.4952479995395664  0.1265747085045711  0.1655021875997427   T   T   T
  0.8289947091186765  0.1248813722588886  0.1648234091665199   T   T   T
  0.1624503182714875  0.3754662695051512  0.1651240445959715   T   T   T
  0.4951591462813490  0.3771909933634759  0.1664690431421755   T   T   T
  0.8284992050893756  0.3755199510538128  0.1652259299015432   T   T   T
  0.3344290099202371  0.4958172053020561  0.1917943742906779   T   T   T
  0.6559433640178042  0.4955499361755277  0.1920678993594846   T   T   T
  0.9958034440771918  0.4986759643733442  0.1915835184854768   T   T   T
  0.3251384711053887  0.2503946458734017  0.1920900971305027   T   T   T
  0.9957663838136354  0.2476334748983119  0.1911568073263416   T   T   T
  0.6644308995390505  0.2498491403772284  0.1918585306348155   T   T   T
  0.9960978944414988  0.0002759552679319  0.0855236897352592   T   T   T
  0.3295936082942519  0.0003692474049818  0.0855983244797484   T   T   T
  0.6627021832191669  0.0003365299579608  0.0856078332170678   T   T   T
  0.9960228939305771  0.2502762625595757  0.0855423474528546   T   T   T
  0.3293777558992810  0.2503467871431884  0.0856460623892485   T   T   T
  0.6627214402626812  0.2503417427773881  0.0856678928302398   T   T   T
  0.1623556983519104  0.1255016397650428  0.1118181595070300   T   T   T
  0.4956769437271455  0.1257669475145094  0.1120939810989430   T   T   T
  0.8289317378758027  0.1255418085405646  0.1118534265668613   T   T   T
  0.1624674239564863  0.3755963654321519  0.1119580639702080   T   T   T
  0.4955666363907716  0.3756833619618055  0.1120633020533231   T   T   T
  0.8287706442813068  0.3756068584391156  0.1120203389844666   T   T   T
  0.4968948571850450  0.6239424611029952  0.0589793157972964   T   T   T
  0.8301983216803578  0.6239675497789556  0.0589987233918287   T   T   T
  0.1636895319426440  0.8739563744235697  0.0589515487861552   T   T   T
  0.4970296563944474  0.8738997796024341  0.0589665902858765   T   T   T
  0.8301511965875520  0.8739668315203147  0.0589535411727488   T   T   T
  0.1635646061825181  0.6239694177105535  0.0589713464307206   T   T   T
  0.9954741266227524  0.5005261951667591  0.1388178490576390   T   T   T
  0.3298835212709884  0.5002745833373687  0.1389677231552497   T   T   T
  0.6609993966547301  0.5002910081582780  0.1390525858397809   T   T   T
  0.9955240280697646  0.7505322270199069  0.1387090784618546   T   T   T
  0.3289668504390154  0.7503486894877653  0.1387304184662543   T   T   T
  0.6620886000950986  0.7503654022386151  0.1387400518619656   T   T   T
  0.1627586165419641  0.6249525686052168  0.1650308090310829   T   T   T
  0.4954743165183792  0.6243369253808841  0.1651492617221707   T   T   T
  0.8280006412901039  0.6248788573285091  0.1650870840528955   T   T   T
  0.1623260989599763  0.8752475677416435  0.1650317601932643   T   T   T
  0.4955074221147596  0.8752566386192276  0.1650582067276416   T   T   T
  0.8287769742428267  0.8752414700858440  0.1650376774796521   T   T   T
  0.3289147088456019  0.9989961239778928  0.1916426648205331   T   T   T
  0.6621599532956055  0.9989914921097183  0.1916680780038572   T   T   T
  0.9955636423978474  0.9988432944024700  0.1915272423621212   T   T   T
  0.3291576409447722  0.7486596789125212  0.1916512704742265   T   T   T
  0.9958652720382716  0.7488320454307617  0.1916473747045997   T   T   T
  0.6623210087642289  0.7485942122920899  0.1916643003821271   T   T   T
  0.9960871237016364  0.5003372904947546  0.0856103426087521   T   T   T
  0.3296162445384915  0.5002984717615757  0.0856205465868248   T   T   T
  0.6625378631899821  0.5003453074602568  0.0856650759868313   T   T   T
  0.9960240925199929  0.7504278609854620  0.0856028325773705   T   T   T
  0.3294503975926399  0.7503145565768405  0.0855994607406007   T   T   T
  0.6627032743246959  0.7503233398521992  0.0855959767853764   T   T   T
  0.1625117119795459  0.6254833534341725  0.1119298343537350   T   T   T
  0.4956195462879071  0.6253971281121973  0.1119845288031522   T   T   T
  0.8287528029801620  0.6254933325762614  0.1119818509286833   T   T   T
  0.1625146227144162  0.8755745110836253  0.1118857107753776   T   T   T
  0.4956776013456755  0.8755131826886561  0.1119000403517898   T   T   T
  0.8287390842319603  0.8755851058949795  0.1118811324002588   T   T   T
 
  0.00000000E+00  0.00000000E+00  0.00000000E+00
  0.00000000E+00  0.00000000E+00  0.00000000E+00
  0.00000000E+00  0.00000000E+00  0.00000000E+00
  0.00000000E+00  0.00000000E+00  0.00000000E+00
  0.00000000E+00  0.00000000E+00  0.00000000E+00
  0.00000000E+00  0.00000000E+00  0.00000000E+00
  0.00000000E+00  0.00000000E+00  0.00000000E+00
  0.00000000E+00  0.00000000E+00  0.00000000E+00
  0.00000000E+00  0.00000000E+00  0.00000000E+00
  0.00000000E+00  0.00000000E+00  0.00000000E+00
  0.00000000E+00  0.00000000E+00  0.00000000E+00
  0.00000000E+00  0.00000000E+00  0.00000000E+00
  0.00000000E+00  0.00000000E+00  0.00000000E+00
  0.00000000E+00  0.00000000E+00  0.00000000E+00
  0.00000000E+00  0.00000000E+00  0.00000000E+00
  0.00000000E+00  0.00000000E+00  0.00000000E+00
  0.00000000E+00  0.00000000E+00  0.00000000E+00
  0.00000000E+00  0.00000000E+00  0.00000000E+00
  0.00000000E+00  0.00000000E+00  0.00000000E+00
  0.00000000E+00  0.00000000E+00  0.00000000E+00
  0.00000000E+00  0.00000000E+00  0.00000000E+00
  0.00000000E+00  0.00000000E+00  0.00000000E+00
  0.00000000E+00  0.00000000E+00  0.00000000E+00
  0.00000000E+00  0.00000000E+00  0.00000000E+00
  0.00000000E+00  0.00000000E+00  0.00000000E+00
  0.00000000E+00  0.00000000E+00  0.00000000E+00
  0.00000000E+00  0.00000000E+00  0.00000000E+00
  0.00000000E+00  0.00000000E+00  0.00000000E+00
  0.00000000E+00  0.00000000E+00  0.00000000E+00
  0.00000000E+00  0.00000000E+00  0.00000000E+00
  0.00000000E+00  0.00000000E+00  0.00000000E+00
  0.00000000E+00  0.00000000E+00  0.00000000E+00
  0.00000000E+00  0.00000000E+00  0.00000000E+00
  0.00000000E+00  0.00000000E+00  0.00000000E+00
  0.00000000E+00  0.00000000E+00  0.00000000E+00
  0.00000000E+00  0.00000000E+00  0.00000000E+00
  0.00000000E+00  0.00000000E+00  0.00000000E+00
  0.00000000E+00  0.00000000E+00  0.00000000E+00
  0.00000000E+00  0.00000000E+00  0.00000000E+00
  0.00000000E+00  0.00000000E+00  0.00000000E+00
  0.00000000E+00  0.00000000E+00  0.00000000E+00
  0.00000000E+00  0.00000000E+00  0.00000000E+00
  0.00000000E+00  0.00000000E+00  0.00000000E+00
  0.00000000E+00  0.00000000E+00  0.00000000E+00
  0.00000000E+00  0.00000000E+00  0.00000000E+00
  0.00000000E+00  0.00000000E+00  0.00000000E+00
  0.00000000E+00  0.00000000E+00  0.00000000E+00
  0.00000000E+00  0.00000000E+00  0.00000000E+00
  0.00000000E+00  0.00000000E+00  0.00000000E+00
  0.00000000E+00  0.00000000E+00  0.00000000E+00
  0.00000000E+00  0.00000000E+00  0.00000000E+00
  0.00000000E+00  0.00000000E+00  0.00000000E+00
  0.00000000E+00  0.00000000E+00  0.00000000E+00
  0.00000000E+00  0.00000000E+00  0.00000000E+00
  0.00000000E+00  0.00000000E+00  0.00000000E+00
  0.00000000E+00  0.00000000E+00  0.00000000E+00
  0.00000000E+00  0.00000000E+00  0.00000000E+00
  0.00000000E+00  0.00000000E+00  0.00000000E+00
  0.00000000E+00  0.00000000E+00  0.00000000E+00
  0.00000000E+00  0.00000000E+00  0.00000000E+00
  0.00000000E+00  0.00000000E+00  0.00000000E+00
  0.00000000E+00  0.00000000E+00  0.00000000E+00
  0.00000000E+00  0.00000000E+00  0.00000000E+00
  0.00000000E+00  0.00000000E+00  0.00000000E+00
  0.00000000E+00  0.00000000E+00  0.00000000E+00
  0.00000000E+00  0.00000000E+00  0.00000000E+00
  0.00000000E+00  0.00000000E+00  0.00000000E+00
  0.00000000E+00  0.00000000E+00  0.00000000E+00
  0.00000000E+00  0.00000000E+00  0.00000000E+00
  0.00000000E+00  0.00000000E+00  0.00000000E+00
  0.00000000E+00  0.00000000E+00  0.00000000E+00
  0.00000000E+00  0.00000000E+00  0.00000000E+00
  0.00000000E+00  0.00000000E+00  0.00000000E+00
  0.00000000E+00  0.00000000E+00  0.00000000E+00
  0.00000000E+00  0.00000000E+00  0.00000000E+00
  0.00000000E+00  0.00000000E+00  0.00000000E+00
  0.00000000E+00  0.00000000E+00  0.00000000E+00
  0.00000000E+00  0.00000000E+00  0.00000000E+00
  0.00000000E+00  0.00000000E+00  0.00000000E+00
  0.00000000E+00  0.00000000E+00  0.00000000E+00
  0.00000000E+00  0.00000000E+00  0.00000000E+00
  0.00000000E+00  0.00000000E+00  0.00000000E+00
  0.00000000E+00  0.00000000E+00  0.00000000E+00
  0.00000000E+00  0.00000000E+00  0.00000000E+00
  0.00000000E+00  0.00000000E+00  0.00000000E+00
  0.00000000E+00  0.00000000E+00  0.00000000E+00
  0.00000000E+00  0.00000000E+00  0.00000000E+00
  0.00000000E+00  0.00000000E+00  0.00000000E+00
  0.00000000E+00  0.00000000E+00  0.00000000E+00
  0.00000000E+00  0.00000000E+00  0.00000000E+00
  0.00000000E+00  0.00000000E+00  0.00000000E+00
  0.00000000E+00  0.00000000E+00  0.00000000E+00
  0.00000000E+00  0.00000000E+00  0.00000000E+00
  0.00000000E+00  0.00000000E+00  0.00000000E+00
  0.00000000E+00  0.00000000E+00  0.00000000E+00
  0.00000000E+00  0.00000000E+00  0.00000000E+00
  0.00000000E+00  0.00000000E+00  0.00000000E+00
  0.00000000E+00  0.00000000E+00  0.00000000E+00
  0.00000000E+00  0.00000000E+00  0.00000000E+00
  0.00000000E+00  0.00000000E+00  0.00000000E+00
  0.00000000E+00  0.00000000E+00  0.00000000E+00
  0.00000000E+00  0.00000000E+00  0.00000000E+00
  0.00000000E+00  0.00000000E+00  0.00000000E+00
  0.00000000E+00  0.00000000E+00  0.00000000E+00
  0.00000000E+00  0.00000000E+00  0.00000000E+00
  0.00000000E+00  0.00000000E+00  0.00000000E+00
  0.00000000E+00  0.00000000E+00  0.00000000E+00
  0.00000000E+00  0.00000000E+00  0.00000000E+00
  0.00000000E+00  0.00000000E+00  0.00000000E+00
  0.00000000E+00  0.00000000E+00  0.00000000E+00
  0.00000000E+00  0.00000000E+00  0.00000000E+00
  0.00000000E+00  0.00000000E+00  0.00000000E+00
  0.00000000E+00  0.00000000E+00  0.00000000E+00
  0.00000000E+00  0.00000000E+00  0.00000000E+00
  0.00000000E+00  0.00000000E+00  0.00000000E+00
  0.00000000E+00  0.00000000E+00  0.00000000E+00
  0.00000000E+00  0.00000000E+00  0.00000000E+00
  0.00000000E+00  0.00000000E+00  0.00000000E+00
  0.00000000E+00  0.00000000E+00  0.00000000E+00
  0.00000000E+00  0.00000000E+00  0.00000000E+00
  0.00000000E+00  0.00000000E+00  0.00000000E+00
  0.00000000E+00  0.00000000E+00  0.00000000E+00
  0.00000000E+00  0.00000000E+00  0.00000000E+00
  0.00000000E+00  0.00000000E+00  0.00000000E+00
  0.00000000E+00  0.00000000E+00  0.00000000E+00
  0.00000000E+00  0.00000000E+00  0.00000000E+00
  0.00000000E+00  0.00000000E+00  0.00000000E+00
  0.00000000E+00  0.00000000E+00  0.00000000E+00
  0.00000000E+00  0.00000000E+00  0.00000000E+00
  0.00000000E+00  0.00000000E+00  0.00000000E+00
  0.00000000E+00  0.00000000E+00  0.00000000E+00
  0.00000000E+00  0.00000000E+00  0.00000000E+00
  0.00000000E+00  0.00000000E+00  0.00000000E+00
  0.00000000E+00  0.00000000E+00  0.00000000E+00
  0.00000000E+00  0.00000000E+00  0.00000000E+00
  0.00000000E+00  0.00000000E+00  0.00000000E+00
  0.00000000E+00  0.00000000E+00  0.00000000E+00
  0.00000000E+00  0.00000000E+00  0.00000000E+00
  0.00000000E+00  0.00000000E+00  0.00000000E+00
  0.00000000E+00  0.00000000E+00  0.00000000E+00
  0.00000000E+00  0.00000000E+00  0.00000000E+00
  0.00000000E+00  0.00000000E+00  0.00000000E+00
  0.00000000E+00  0.00000000E+00  0.00000000E+00
  0.00000000E+00  0.00000000E+00  0.00000000E+00
  0.00000000E+00  0.00000000E+00  0.00000000E+00
  0.00000000E+00  0.00000000E+00  0.00000000E+00
  0.00000000E+00  0.00000000E+00  0.00000000E+00
  0.00000000E+00  0.00000000E+00  0.00000000E+00
  0.00000000E+00  0.00000000E+00  0.00000000E+00
  0.00000000E+00  0.00000000E+00  0.00000000E+00
  0.00000000E+00  0.00000000E+00  0.00000000E+00
  0.00000000E+00  0.00000000E+00  0.00000000E+00
  0.00000000E+00  0.00000000E+00  0.00000000E+00
  0.00000000E+00  0.00000000E+00  0.00000000E+00
  0.00000000E+00  0.00000000E+00  0.00000000E+00
  0.00000000E+00  0.00000000E+00  0.00000000E+00
  0.00000000E+00  0.00000000E+00  0.00000000E+00
  0.00000000E+00  0.00000000E+00  0.00000000E+00
  0.00000000E+00  0.00000000E+00  0.00000000E+00
  0.00000000E+00  0.00000000E+00  0.00000000E+00
  0.00000000E+00  0.00000000E+00  0.00000000E+00
  0.00000000E+00  0.00000000E+00  0.00000000E+00
  0.00000000E+00  0.00000000E+00  0.00000000E+00
  0.00000000E+00  0.00000000E+00  0.00000000E+00
  0.00000000E+00  0.00000000E+00  0.00000000E+00
  0.00000000E+00  0.00000000E+00  0.00000000E+00
  0.00000000E+00  0.00000000E+00  0.00000000E+00
  0.00000000E+00  0.00000000E+00  0.00000000E+00
  0.00000000E+00  0.00000000E+00  0.00000000E+00
  0.00000000E+00  0.00000000E+00  0.00000000E+00
  0.00000000E+00  0.00000000E+00  0.00000000E+00
  0.00000000E+00  0.00000000E+00  0.00000000E+00
  0.00000000E+00  0.00000000E+00  0.00000000E+00
  0.00000000E+00  0.00000000E+00  0.00000000E+00
  0.00000000E+00  0.00000000E+00  0.00000000E+00
  0.00000000E+00  0.00000000E+00  0.00000000E+00
  0.00000000E+00  0.00000000E+00  0.00000000E+00
  0.00000000E+00  0.00000000E+00  0.00000000E+00
  0.00000000E+00  0.00000000E+00  0.00000000E+00
  0.00000000E+00  0.00000000E+00  0.00000000E+00
  0.00000000E+00  0.00000000E+00  0.00000000E+00
  0.00000000E+00  0.00000000E+00  0.00000000E+00
  0.00000000E+00  0.00000000E+00  0.00000000E+00
  0.00000000E+00  0.00000000E+00  0.00000000E+00
  0.00000000E+00  0.00000000E+00  0.00000000E+00
  0.00000000E+00  0.00000000E+00  0.00000000E+00
  0.00000000E+00  0.00000000E+00  0.00000000E+00
  0.00000000E+00  0.00000000E+00  0.00000000E+00
  0.00000000E+00  0.00000000E+00  0.00000000E+00
  0.00000000E+00  0.00000000E+00  0.00000000E+00
  0.00000000E+00  0.00000000E+00  0.00000000E+00
  0.00000000E+00  0.00000000E+00  0.00000000E+00
  0.00000000E+00  0.00000000E+00  0.00000000E+00
  0.00000000E+00  0.00000000E+00  0.00000000E+00
  0.00000000E+00  0.00000000E+00  0.00000000E+00
  0.00000000E+00  0.00000000E+00  0.00000000E+00
  0.00000000E+00  0.00000000E+00  0.00000000E+00
  0.00000000E+00  0.00000000E+00  0.00000000E+00
  0.00000000E+00  0.00000000E+00  0.00000000E+00
  0.00000000E+00  0.00000000E+00  0.00000000E+00
  0.00000000E+00  0.00000000E+00  0.00000000E+00
  0.00000000E+00  0.00000000E+00  0.00000000E+00
  0.00000000E+00  0.00000000E+00  0.00000000E+00
  0.00000000E+00  0.00000000E+00  0.00000000E+00
  0.00000000E+00  0.00000000E+00  0.00000000E+00
  0.00000000E+00  0.00000000E+00  0.00000000E+00
  0.00000000E+00  0.00000000E+00  0.00000000E+00
  0.00000000E+00  0.00000000E+00  0.00000000E+00
  0.00000000E+00  0.00000000E+00  0.00000000E+00
  0.00000000E+00  0.00000000E+00  0.00000000E+00
  0.00000000E+00  0.00000000E+00  0.00000000E+00
  0.00000000E+00  0.00000000E+00  0.00000000E+00
  0.00000000E+00  0.00000000E+00  0.00000000E+00
  0.00000000E+00  0.00000000E+00  0.00000000E+00
  0.00000000E+00  0.00000000E+00  0.00000000E+00
  0.00000000E+00  0.00000000E+00  0.00000000E+00
  0.00000000E+00  0.00000000E+00  0.00000000E+00
  0.00000000E+00  0.00000000E+00  0.00000000E+00
  0.00000000E+00  0.00000000E+00  0.00000000E+00
  0.00000000E+00  0.00000000E+00  0.00000000E+00
  0.00000000E+00  0.00000000E+00  0.00000000E+00
  0.00000000E+00  0.00000000E+00  0.00000000E+00
  0.00000000E+00  0.00000000E+00  0.00000000E+00
  0.00000000E+00  0.00000000E+00  0.00000000E+00
  0.00000000E+00  0.00000000E+00  0.00000000E+00
  0.00000000E+00  0.00000000E+00  0.00000000E+00
  0.00000000E+00  0.00000000E+00  0.00000000E+00
  0.00000000E+00  0.00000000E+00  0.00000000E+00
  0.00000000E+00  0.00000000E+00  0.00000000E+00
