C H O Si                                
   1.00000000000000     
     9.2874599999999994    0.0000000000000000    0.0000000000000000
     0.0000000000000000    8.7563099999999991    0.0000000000000000
     0.0000000000000000    0.0000000000000000   58.0000000000000000
   C    H    O    Si
    36    33    16    36
Selective dynamics
Direct
  0.9960126340458182  0.1302369319644754  0.0596094521961499   T   T   T
  0.3294887033219610  0.1303469757772135  0.0596931711682980   T   T   T
  0.6626976557003922  0.1303426951975029  0.0597134118070049   T   T   T
  0.9960276263692416  0.6305016701894978  0.0596250768470629   T   T   T
  0.3294163158897302  0.6301190926287760  0.0596649541950693   T   T   T
  0.6627841492527895  0.6301055816488615  0.0596890381260591   T   T   T
  0.1626115406183020  0.3757529876648966  0.1384487304466147   T   T   T
  0.4959213080788366  0.3759541815907247  0.1387547158019506   T   T   T
  0.8294092182484276  0.3757978185264751  0.1384495651773705   T   T   T
  0.1628702089760755  0.8760261727790117  0.1385110424045893   T   T   T
  0.4959790378017876  0.8755150824148448  0.1383240562201258   T   T   T
  0.8291613949287251  0.8759270628363561  0.1385610748968658   T   T   T
  0.3294095909147192  0.1267295928247782  0.1657237743504758   T   T   T
  0.6626255012832448  0.1267640379458740  0.1657636155496531   T   T   T
  0.9959600550903229  0.1255788996595545  0.1655213248984653   T   T   T
  0.3286641214746199  0.6261354526831310  0.1656318510797485   T   T   T
  0.6631146181766319  0.6258832322239115  0.1657111388901614   T   T   T
  0.9959617915218001  0.6260826713739310  0.1655944147836231   T   T   T
  0.1630823744899993  0.3789535450782336  0.1907531684309795   T   T   T
  0.4957810616919624  0.3840353626560574  0.1917270716212162   T   T   T
  0.8301474638841805  0.3789264928983819  0.1907735847182960   T   T   T
  0.1619396411970483  0.8804970151444226  0.1910153567456746   T   T   T
  0.4960763421906022  0.8892290759713047  0.1888527337289680   T   T   T
  0.8302506546314354  0.8803497021086889  0.1910817991009926   T   T   T
  0.1626473182699794  0.3759649737918850  0.0849865654640607   T   T   T
  0.4959475525034545  0.3759980696967491  0.0851410401627451   T   T   T
  0.8294249871208773  0.3760078396343411  0.0849924564109964   T   T   T
  0.1627696296480269  0.8760555655123748  0.0850194416746241   T   T   T
  0.4959420879622380  0.8759227880359830  0.0849617276135690   T   T   T
  0.8292832513528353  0.8761042438561791  0.0850344480163941   T   T   T
  0.3293897353913608  0.1257957117327744  0.1122046623470688   T   T   T
  0.6626594944141113  0.1257491373232453  0.1122217655099227   T   T   T
  0.9958847247368965  0.1256768690136724  0.1121222475411132   T   T   T
  0.3292539087513957  0.6255308933170144  0.1121579277456755   T   T   T
  0.6627543445928810  0.6255608464239966  0.1121815819935305   T   T   T
  0.9959116144359684  0.6259583753494684  0.1121305613907088   T   T   T
  0.0798321352450440  0.3575590307164577  0.0258117002137094   T   T   T
  0.4122621475168671  0.3578675335366552  0.0260358253681752   T   T   T
  0.7448662309415586  0.3571347495183588  0.0259458084458151   T   T   T
  0.0801026611992552  0.8580366909910212  0.0258353810761772   T   T   T
  0.4125902140567397  0.8570449820894495  0.0258393753293385   T   T   T
  0.7443276144763517  0.8572356884279074  0.0260199184812725   T   T   T
  0.3278963029802549  0.0580327468203550  0.0441525032120925   T   T   T
  0.6604286096659437  0.0580412929354010  0.0441744356428805   T   T   T
  0.9940194221196696  0.0579540802436717  0.0440668001301424   T   T   T
  0.3272658947713269  0.5578452439428436  0.0441253918971610   T   T   T
  0.6610004295224728  0.5577921691593588  0.0441500907790124   T   T   T
  0.9940436122532689  0.5582927605605933  0.0440734596396981   T   T   T
  0.8326727007389723  0.8085765961496908  0.2066430141151785   T   T   T
  0.8325087652085195  0.3066486350560398  0.2063174047091342   T   T   T
  0.1647731962948228  0.3074944817141045  0.2063849423829066   T   T   T
  0.4979246435822587  0.3110123539389456  0.2071889994890063   T   T   T
  0.1642180907816586  0.8081195037694879  0.2065165371358420   T   T   T
  0.5380554950550280  0.9266303840361495  0.2602396787565744   T   T   T
  0.0803763380897981  0.1083583085574560  0.2247165987983485   T   T   T
  0.4158794378469355  0.1055162072485870  0.2246577305915242   T   T   T
  0.7451498341045383  0.1065358618145394  0.2252689327025580   T   T   T
  0.0853730701317378  0.6082749947719843  0.2234484366865539   T   T   T
  0.3675635033512855  0.5705091319006248  0.2301059639154217   T   T   T
  0.7760574856515665  0.5997175621739994  0.2228314594896827   T   T   T
  0.4924846124754890  0.5414475920355740  0.2657270641726433   T   T   T
  0.4691652610287965  0.4571811797914911  0.3004969636190840   T   T   T
  0.5176374665237194  0.6262358968948182  0.3080850569461211   T   T   T
  0.2894373299943283  0.2730213893018650  0.2956138271972741   T   T   T
  0.4394864466785748  0.2183080683032529  0.2875263502894871   T   T   T
  0.6394441595508861  0.7696929263985951  0.3348785703483371   T   T   T
  0.5035324785274220  0.8625419647364497  0.3281676883637288   T   T   T
  0.5014147088917481  0.8746726211902459  0.2687132353128817   T   T   T
  0.5645569365888666  0.5366782516462032  0.2406334262306126   T   T   T
  0.1723319510721920  0.3386229696736393  0.0332888817041344   T   T   T
  0.5051519307633255  0.3392681568222314  0.0334454663844034   T   T   T
  0.8379134038979268  0.3387472859068112  0.0332997187938339   T   T   T
  0.1725865090284323  0.8388248616829540  0.0333227383546187   T   T   T
  0.5053927796922834  0.8383025004648803  0.0332608171041591   T   T   T
  0.8375135813526999  0.8390793556222029  0.0333435304530633   T   T   T
  0.3217644693624147  0.0874077529537099  0.2176172347648085   T   T   T
  0.6531779120519087  0.0878489364996463  0.2175954848026910   T   T   T
  0.9875897633982174  0.0893485843981456  0.2173185141474228   T   T   T
  0.3094554769371428  0.6034939307944701  0.2162756544479287   T   T   T
  0.6758773177646421  0.5908632672454683  0.2174984499384624   T   T   T
  0.9891114210160117  0.5864998225336984  0.2172313023453896   T   T   T
  0.5202342054459020  0.5504416155690496  0.2953800158924530   T   T   T
  0.3896532172840295  0.2654258695345113  0.3005031536471395   T   T   T
  0.5375319773378542  0.7591094980376768  0.3311486190597141   T   T   T
  0.4785266811322481  0.5056532780672762  0.2495985889171582   T   T   T
  0.4961627479932129  0.2478064145580025  0.0589664724948396   T   T   T
  0.8294295974173955  0.2476398649498934  0.0588516686913760   T   T   T
  0.1629261871379706  0.7477284177671385  0.0588627434702018   T   T   T
  0.4961846844178723  0.7474650726219464  0.0588327113727756   T   T   T
  0.8293202102886966  0.7477578332120199  0.0588809406961935   T   T   T
  0.1628226470550186  0.2476009275154265  0.0588435098427493   T   T   T
  0.9960302518234456  0.0005422140338751  0.1387418950567033   T   T   T
  0.3297043102791819  0.0008735552539522  0.1388618443556887   T   T   T
  0.6623294948273895  0.0008822483195243  0.1388896091928956   T   T   T
  0.9960379704823306  0.5008507930417290  0.1387355042064434   T   T   T
  0.3290972947411509  0.5007239501713959  0.1388399383292335   T   T   T
  0.6627633690280897  0.5006035506833016  0.1388327953695883   T   T   T
  0.1622617337975809  0.2500217793288247  0.1650456717863128   T   T   T
  0.4957418532312496  0.2518321813116594  0.1656098377957522   T   T   T
  0.8297601464467165  0.2498843401352770  0.1650156098479170   T   T   T
  0.1624678037074501  0.7507729660452650  0.1651183214656755   T   T   T
  0.4956768924928989  0.7488721122570340  0.1651053935905091   T   T   T
  0.8293251460274608  0.7505806642122067  0.1651742689151155   T   T   T
  0.3281208685342830  0.9970897028878660  0.1920407542769068   T   T   T
  0.6638422961704085  0.9971435008372534  0.1920984346456375   T   T   T
  0.9960908208900993  0.9983476439326031  0.1917609225787472   T   T   T
  0.3272064436468258  0.5012849353679691  0.1921182906841828   T   T   T
  0.9965811739206174  0.4961123205270717  0.1915414233548967   T   T   T
  0.6648119809560132  0.4983776795487604  0.1918947050043361   T   T   T
  0.9960219608331113  0.0002976010863129  0.0855078866481939   T   T   T
  0.3294031798542073  0.0003435688230233  0.0855596059212764   T   T   T
  0.6626119635307536  0.0003172531191620  0.0855772217597287   T   T   T
  0.9960250788015256  0.5004193377710000  0.0855035566732477   T   T   T
  0.3292972878101591  0.5001987001344891  0.0855523315909461   T   T   T
  0.6627639428411917  0.5001791512264734  0.0855642974130601   T   T   T
  0.1625395469690748  0.2506623107223471  0.1118590973530961   T   T   T
  0.4958977792746073  0.2507406142085248  0.1120464698391156   T   T   T
  0.8292385720787733  0.2506553212111119  0.1118604145100176   T   T   T
  0.1627216862390004  0.7508081139239049  0.1118942982067474   T   T   T
  0.4958638675056570  0.7502904356005957  0.1117894240788664   T   T   T
  0.8290923193708840  0.7508282492039278  0.1119185160203750   T   T   T
 
  0.00000000E+00  0.00000000E+00  0.00000000E+00
  0.00000000E+00  0.00000000E+00  0.00000000E+00
  0.00000000E+00  0.00000000E+00  0.00000000E+00
  0.00000000E+00  0.00000000E+00  0.00000000E+00
  0.00000000E+00  0.00000000E+00  0.00000000E+00
  0.00000000E+00  0.00000000E+00  0.00000000E+00
  0.00000000E+00  0.00000000E+00  0.00000000E+00
  0.00000000E+00  0.00000000E+00  0.00000000E+00
  0.00000000E+00  0.00000000E+00  0.00000000E+00
  0.00000000E+00  0.00000000E+00  0.00000000E+00
  0.00000000E+00  0.00000000E+00  0.00000000E+00
  0.00000000E+00  0.00000000E+00  0.00000000E+00
  0.00000000E+00  0.00000000E+00  0.00000000E+00
  0.00000000E+00  0.00000000E+00  0.00000000E+00
  0.00000000E+00  0.00000000E+00  0.00000000E+00
  0.00000000E+00  0.00000000E+00  0.00000000E+00
  0.00000000E+00  0.00000000E+00  0.00000000E+00
  0.00000000E+00  0.00000000E+00  0.00000000E+00
  0.00000000E+00  0.00000000E+00  0.00000000E+00
  0.00000000E+00  0.00000000E+00  0.00000000E+00
  0.00000000E+00  0.00000000E+00  0.00000000E+00
  0.00000000E+00  0.00000000E+00  0.00000000E+00
  0.00000000E+00  0.00000000E+00  0.00000000E+00
  0.00000000E+00  0.00000000E+00  0.00000000E+00
  0.00000000E+00  0.00000000E+00  0.00000000E+00
  0.00000000E+00  0.00000000E+00  0.00000000E+00
  0.00000000E+00  0.00000000E+00  0.00000000E+00
  0.00000000E+00  0.00000000E+00  0.00000000E+00
  0.00000000E+00  0.00000000E+00  0.00000000E+00
  0.00000000E+00  0.00000000E+00  0.00000000E+00
  0.00000000E+00  0.00000000E+00  0.00000000E+00
  0.00000000E+00  0.00000000E+00  0.00000000E+00
  0.00000000E+00  0.00000000E+00  0.00000000E+00
  0.00000000E+00  0.00000000E+00  0.00000000E+00
  0.00000000E+00  0.00000000E+00  0.00000000E+00
  0.00000000E+00  0.00000000E+00  0.00000000E+00
  0.00000000E+00  0.00000000E+00  0.00000000E+00
  0.00000000E+00  0.00000000E+00  0.00000000E+00
  0.00000000E+00  0.00000000E+00  0.00000000E+00
  0.00000000E+00  0.00000000E+00  0.00000000E+00
  0.00000000E+00  0.00000000E+00  0.00000000E+00
  0.00000000E+00  0.00000000E+00  0.00000000E+00
  0.00000000E+00  0.00000000E+00  0.00000000E+00
  0.00000000E+00  0.00000000E+00  0.00000000E+00
  0.00000000E+00  0.00000000E+00  0.00000000E+00
  0.00000000E+00  0.00000000E+00  0.00000000E+00
  0.00000000E+00  0.00000000E+00  0.00000000E+00
  0.00000000E+00  0.00000000E+00  0.00000000E+00
  0.00000000E+00  0.00000000E+00  0.00000000E+00
  0.00000000E+00  0.00000000E+00  0.00000000E+00
  0.00000000E+00  0.00000000E+00  0.00000000E+00
  0.00000000E+00  0.00000000E+00  0.00000000E+00
  0.00000000E+00  0.00000000E+00  0.00000000E+00
  0.00000000E+00  0.00000000E+00  0.00000000E+00
  0.00000000E+00  0.00000000E+00  0.00000000E+00
  0.00000000E+00  0.00000000E+00  0.00000000E+00
  0.00000000E+00  0.00000000E+00  0.00000000E+00
  0.00000000E+00  0.00000000E+00  0.00000000E+00
  0.00000000E+00  0.00000000E+00  0.00000000E+00
  0.00000000E+00  0.00000000E+00  0.00000000E+00
  0.00000000E+00  0.00000000E+00  0.00000000E+00
  0.00000000E+00  0.00000000E+00  0.00000000E+00
  0.00000000E+00  0.00000000E+00  0.00000000E+00
  0.00000000E+00  0.00000000E+00  0.00000000E+00
  0.00000000E+00  0.00000000E+00  0.00000000E+00
  0.00000000E+00  0.00000000E+00  0.00000000E+00
  0.00000000E+00  0.00000000E+00  0.00000000E+00
  0.00000000E+00  0.00000000E+00  0.00000000E+00
  0.00000000E+00  0.00000000E+00  0.00000000E+00
  0.00000000E+00  0.00000000E+00  0.00000000E+00
  0.00000000E+00  0.00000000E+00  0.00000000E+00
  0.00000000E+00  0.00000000E+00  0.00000000E+00
  0.00000000E+00  0.00000000E+00  0.00000000E+00
  0.00000000E+00  0.00000000E+00  0.00000000E+00
  0.00000000E+00  0.00000000E+00  0.00000000E+00
  0.00000000E+00  0.00000000E+00  0.00000000E+00
  0.00000000E+00  0.00000000E+00  0.00000000E+00
  0.00000000E+00  0.00000000E+00  0.00000000E+00
  0.00000000E+00  0.00000000E+00  0.00000000E+00
  0.00000000E+00  0.00000000E+00  0.00000000E+00
  0.00000000E+00  0.00000000E+00  0.00000000E+00
  0.00000000E+00  0.00000000E+00  0.00000000E+00
  0.00000000E+00  0.00000000E+00  0.00000000E+00
  0.00000000E+00  0.00000000E+00  0.00000000E+00
  0.00000000E+00  0.00000000E+00  0.00000000E+00
  0.00000000E+00  0.00000000E+00  0.00000000E+00
  0.00000000E+00  0.00000000E+00  0.00000000E+00
  0.00000000E+00  0.00000000E+00  0.00000000E+00
  0.00000000E+00  0.00000000E+00  0.00000000E+00
  0.00000000E+00  0.00000000E+00  0.00000000E+00
  0.00000000E+00  0.00000000E+00  0.00000000E+00
  0.00000000E+00  0.00000000E+00  0.00000000E+00
  0.00000000E+00  0.00000000E+00  0.00000000E+00
  0.00000000E+00  0.00000000E+00  0.00000000E+00
  0.00000000E+00  0.00000000E+00  0.00000000E+00
  0.00000000E+00  0.00000000E+00  0.00000000E+00
  0.00000000E+00  0.00000000E+00  0.00000000E+00
  0.00000000E+00  0.00000000E+00  0.00000000E+00
  0.00000000E+00  0.00000000E+00  0.00000000E+00
  0.00000000E+00  0.00000000E+00  0.00000000E+00
  0.00000000E+00  0.00000000E+00  0.00000000E+00
  0.00000000E+00  0.00000000E+00  0.00000000E+00
  0.00000000E+00  0.00000000E+00  0.00000000E+00
  0.00000000E+00  0.00000000E+00  0.00000000E+00
  0.00000000E+00  0.00000000E+00  0.00000000E+00
  0.00000000E+00  0.00000000E+00  0.00000000E+00
  0.00000000E+00  0.00000000E+00  0.00000000E+00
  0.00000000E+00  0.00000000E+00  0.00000000E+00
  0.00000000E+00  0.00000000E+00  0.00000000E+00
  0.00000000E+00  0.00000000E+00  0.00000000E+00
  0.00000000E+00  0.00000000E+00  0.00000000E+00
  0.00000000E+00  0.00000000E+00  0.00000000E+00
  0.00000000E+00  0.00000000E+00  0.00000000E+00
  0.00000000E+00  0.00000000E+00  0.00000000E+00
  0.00000000E+00  0.00000000E+00  0.00000000E+00
  0.00000000E+00  0.00000000E+00  0.00000000E+00
  0.00000000E+00  0.00000000E+00  0.00000000E+00
  0.00000000E+00  0.00000000E+00  0.00000000E+00
  0.00000000E+00  0.00000000E+00  0.00000000E+00
  0.00000000E+00  0.00000000E+00  0.00000000E+00
  0.00000000E+00  0.00000000E+00  0.00000000E+00
