C H O Si                                
   1.00000000000000     
     9.2874599999999994    0.0000000000000000    0.0000000000000000
     0.0000000000000000    8.7563099999999991    0.0000000000000000
     0.0000000000000000    0.0000000000000000   58.0000000000000000
   C    H    O    Si
    36    33    16    36
Selective dynamics
Direct
  0.9960284838467386  0.1302551378631585  0.0596067596755480   T   T   T
  0.3294234196628313  0.1304236257983609  0.0596880056294658   T   T   T
  0.6625701211389294  0.1304260740073139  0.0597100965516819   T   T   T
  0.9960242594744566  0.6305809398787078  0.0596194496149193   T   T   T
  0.3293321257345881  0.6302257871616845  0.0596596909175810   T   T   T
  0.6626588809864101  0.6301835094252622  0.0596811308959247   T   T   T
  0.1626406359720597  0.3757489806592073  0.1384620499124377   T   T   T
  0.4959681886253832  0.3758808216930579  0.1387466201864493   T   T   T
  0.8294239170490708  0.3757528662479021  0.1384677916272814   T   T   T
  0.1629301586203976  0.8760010773557793  0.1385212398279049   T   T   T
  0.4960646107108489  0.8754799242843178  0.1383340157516375   T   T   T
  0.8291863138513591  0.8758971449107973  0.1385705586933814   T   T   T
  0.3291408518438789  0.1266244003409596  0.1657166739912464   T   T   T
  0.6623339613565055  0.1266813957627689  0.1657697355440006   T   T   T
  0.9957174950140463  0.1256054255752143  0.1655122939989427   T   T   T
  0.3284090762618188  0.6260918855695683  0.1656200668594122   T   T   T
  0.6628114934789933  0.6258937979873762  0.1657037605236497   T   T   T
  0.9957557059237621  0.6261503497082864  0.1655824745535494   T   T   T
  0.1629647538572271  0.3790282067801058  0.1907555749588221   T   T   T
  0.4957710771907003  0.3839317905361528  0.1917008249519183   T   T   T
  0.8300511796800537  0.3789423724633997  0.1907646440129005   T   T   T
  0.1618708946463802  0.8805777912993717  0.1910138782036779   T   T   T
  0.4961425839903703  0.8893825950010694  0.1888615356748867   T   T   T
  0.8302371633307226  0.8804679014878538  0.1910764237677554   T   T   T
  0.1625746142135341  0.3759190883580014  0.0850074477243496   T   T   T
  0.4960265960748289  0.3759192884967935  0.0851698940623114   T   T   T
  0.8293558501170473  0.3759127517783202  0.0850204235234968   T   T   T
  0.1626970908293458  0.8759858520834309  0.0850353832972104   T   T   T
  0.4959243417967030  0.8758579365463079  0.0849866608029617   T   T   T
  0.8292526765019373  0.8759838888543334  0.0850573977438431   T   T   T
  0.3291663373801633  0.1257335496701505  0.1122089025777544   T   T   T
  0.6623658698876010  0.1257158768606459  0.1122320878363189   T   T   T
  0.9957892955031393  0.1256634642297601  0.1121315291535421   T   T   T
  0.3290713170977994  0.6255246717601948  0.1121729254052352   T   T   T
  0.6624501629038840  0.6255525155960728  0.1121848565104498   T   T   T
  0.9958139737047643  0.6259222867583792  0.1121422102786558   T   T   T
  0.0798107171788818  0.3575146590834657  0.0258165255461805   T   T   T
  0.4122257564825783  0.3578400067368034  0.0260407275559194   T   T   T
  0.7448444229581883  0.3570883456125031  0.0259516223323482   T   T   T
  0.0800811825607337  0.8579995805309333  0.0258415518098500   T   T   T
  0.4125672485640314  0.8569935437475029  0.0258436682392658   T   T   T
  0.7442909696496380  0.8572004242638409  0.0260251218223249   T   T   T
  0.3279840677490016  0.0580761667285192  0.0441574813749418   T   T   T
  0.6605079518094146  0.0580964613195887  0.0441813678339174   T   T   T
  0.9940991713092177  0.0579864939317974  0.0440684114180481   T   T   T
  0.3273513452544161  0.5578901355082159  0.0441304083733783   T   T   T
  0.6610872151877772  0.5578314609252818  0.0441532142330419   T   T   T
  0.9941202308428483  0.5583447963674224  0.0440776088648986   T   T   T
  0.8326303144930843  0.8086091184723530  0.2066331647428913   T   T   T
  0.8325148447645233  0.3066961161001595  0.2063095800119204   T   T   T
  0.1647479040227771  0.3075228714252333  0.2063828583834117   T   T   T
  0.4979378006591136  0.3110769812078397  0.2071890408900244   T   T   T
  0.1641870599097649  0.8081560027923439  0.2065104028101811   T   T   T
  0.5380340532474859  0.9266500288056406  0.2602315357599471   T   T   T
  0.0804028105011422  0.1083636516025981  0.2247120827659541   T   T   T
  0.4158999524134920  0.1055272119868520  0.2246570094721333   T   T   T
  0.7451893544070578  0.1065765326327988  0.2252680625208873   T   T   T
  0.0854505124448809  0.6082640182951169  0.2234412551264683   T   T   T
  0.3675153837980389  0.5704512338211691  0.2300914276950424   T   T   T
  0.7761599745321882  0.5997135090728608  0.2228239411582589   T   T   T
  0.4924361988216155  0.5414121188950822  0.2657096970648407   T   T   T
  0.4691758122070726  0.4572099097194007  0.3005085140105330   T   T   T
  0.5175805457723435  0.6262807558858158  0.3080882033173087   T   T   T
  0.2893968057929269  0.2730409873223000  0.2955935189146147   T   T   T
  0.4395753600214322  0.2184210230174524  0.2874983735150203   T   T   T
  0.6395265854304379  0.7696733681334282  0.3348789458545213   T   T   T
  0.5035655376877202  0.8626241482681248  0.3281805848623431   T   T   T
  0.5013797536504269  0.8746287520350368  0.2686965635034457   T   T   T
  0.5645998246291911  0.5365735079003107  0.2406148230906791   T   T   T
  0.1723474370942925  0.3386299857279679  0.0332889430102300   T   T   T
  0.5051719014167562  0.3392937683148219  0.0334370669612864   T   T   T
  0.8379340768171250  0.3387559607471151  0.0332976604191756   T   T   T
  0.1726018373632869  0.8388359926569121  0.0333199445677553   T   T   T
  0.5054093762377384  0.8383132100237575  0.0332574995384486   T   T   T
  0.8375179819408858  0.8390841369269079  0.0333415359601996   T   T   T
  0.3217819417454926  0.0874155474069642  0.2176174051126845   T   T   T
  0.6533736744434447  0.0877111771769631  0.2175680819878272   T   T   T
  0.9876558096599207  0.0892181469756691  0.2173150113184804   T   T   T
  0.3093284824767396  0.6035124037502340  0.2162747448554154   T   T   T
  0.6758954322298601  0.5908503755471120  0.2175180289062342   T   T   T
  0.9891115634967411  0.5865726607306029  0.2172366953897834   T   T   T
  0.5202019751163840  0.5504691467440895  0.2953826915748374   T   T   T
  0.3896132283000729  0.2652691176818212  0.3004914460581601   T   T   T
  0.5375887944486744  0.7591319742297784  0.3311490680858269   T   T   T
  0.4785298281746145  0.5057497628747549  0.2495799248109290   T   T   T
  0.4961299305721958  0.2477573659472842  0.0589707899059223   T   T   T
  0.8294140724068055  0.2475886727025486  0.0588528222138331   T   T   T
  0.1629304554256145  0.7476771055575233  0.0588681431458417   T   T   T
  0.4961432820561203  0.7474169964068034  0.0588360908166865   T   T   T
  0.8293331528635451  0.7477081397986634  0.0588829471976899   T   T   T
  0.1628324402186120  0.2475522815651772  0.0588450574533726   T   T   T
  0.9960900766515353  0.0005405090382421  0.1387464866553830   T   T   T
  0.3298215912919251  0.0008706073544879  0.1388724036933825   T   T   T
  0.6623971664061122  0.0009264295650631  0.1389048587751243   T   T   T
  0.9960931737650011  0.5008170574226755  0.1387370217730945   T   T   T
  0.3291994146510918  0.5007193270742817  0.1388370888220749   T   T   T
  0.6628282657373518  0.5005949083487171  0.1388290439438693   T   T   T
  0.1623899441805616  0.2500379101917372  0.1650344136314979   T   T   T
  0.4957501735114916  0.2517950644285122  0.1656129920031056   T   T   T
  0.8298025474124411  0.2498645525417797  0.1650104064768846   T   T   T
  0.1625307964106667  0.7508439562093457  0.1651194124552332   T   T   T
  0.4957589876317267  0.7488436508480352  0.1650984501982751   T   T   T
  0.8294040566730609  0.7506393465577693  0.1651794602867379   T   T   T
  0.3282300963047218  0.9971490055374848  0.1920247791321362   T   T   T
  0.6639944383090485  0.9971003689334464  0.1920822658190864   T   T   T
  0.9961772055236082  0.9983360220110262  0.1917522265537775   T   T   T
  0.3272679711179122  0.5013077266296369  0.1921230266016494   T   T   T
  0.9966452215024784  0.4960294203682873  0.1915382947504459   T   T   T
  0.6649418787203645  0.4983501923266445  0.1918969050589516   T   T   T
  0.9961130900726192  0.0002988636400076  0.0855144458264989   T   T   T
  0.3295099282551135  0.0003537971271440  0.0855617238568827   T   T   T
  0.6626717781267943  0.0003457963681918  0.0855774875556658   T   T   T
  0.9961031094774666  0.5004098419484634  0.0855107140114992   T   T   T
  0.3294143193363161  0.5002344184178164  0.0855569660776579   T   T   T
  0.6628317374392551  0.5002031288371407  0.0855676230563567   T   T   T
  0.1626550694866333  0.2506921453381938  0.1118547825917774   T   T   T
  0.4959941247276193  0.2508512682381285  0.1120505106828600   T   T   T
  0.8293470286334033  0.2506671406887043  0.1118525692719562   T   T   T
  0.1628613291249225  0.7508583303562867  0.1118891521224600   T   T   T
  0.4959414278262780  0.7502960805473914  0.1117816164128972   T   T   T
  0.8291598329397893  0.7508508478780272  0.1119146408174344   T   T   T
 
  0.00000000E+00  0.00000000E+00  0.00000000E+00
  0.00000000E+00  0.00000000E+00  0.00000000E+00
  0.00000000E+00  0.00000000E+00  0.00000000E+00
  0.00000000E+00  0.00000000E+00  0.00000000E+00
  0.00000000E+00  0.00000000E+00  0.00000000E+00
  0.00000000E+00  0.00000000E+00  0.00000000E+00
  0.00000000E+00  0.00000000E+00  0.00000000E+00
  0.00000000E+00  0.00000000E+00  0.00000000E+00
  0.00000000E+00  0.00000000E+00  0.00000000E+00
  0.00000000E+00  0.00000000E+00  0.00000000E+00
  0.00000000E+00  0.00000000E+00  0.00000000E+00
  0.00000000E+00  0.00000000E+00  0.00000000E+00
  0.00000000E+00  0.00000000E+00  0.00000000E+00
  0.00000000E+00  0.00000000E+00  0.00000000E+00
  0.00000000E+00  0.00000000E+00  0.00000000E+00
  0.00000000E+00  0.00000000E+00  0.00000000E+00
  0.00000000E+00  0.00000000E+00  0.00000000E+00
  0.00000000E+00  0.00000000E+00  0.00000000E+00
  0.00000000E+00  0.00000000E+00  0.00000000E+00
  0.00000000E+00  0.00000000E+00  0.00000000E+00
  0.00000000E+00  0.00000000E+00  0.00000000E+00
  0.00000000E+00  0.00000000E+00  0.00000000E+00
  0.00000000E+00  0.00000000E+00  0.00000000E+00
  0.00000000E+00  0.00000000E+00  0.00000000E+00
  0.00000000E+00  0.00000000E+00  0.00000000E+00
  0.00000000E+00  0.00000000E+00  0.00000000E+00
  0.00000000E+00  0.00000000E+00  0.00000000E+00
  0.00000000E+00  0.00000000E+00  0.00000000E+00
  0.00000000E+00  0.00000000E+00  0.00000000E+00
  0.00000000E+00  0.00000000E+00  0.00000000E+00
  0.00000000E+00  0.00000000E+00  0.00000000E+00
  0.00000000E+00  0.00000000E+00  0.00000000E+00
  0.00000000E+00  0.00000000E+00  0.00000000E+00
  0.00000000E+00  0.00000000E+00  0.00000000E+00
  0.00000000E+00  0.00000000E+00  0.00000000E+00
  0.00000000E+00  0.00000000E+00  0.00000000E+00
  0.00000000E+00  0.00000000E+00  0.00000000E+00
  0.00000000E+00  0.00000000E+00  0.00000000E+00
  0.00000000E+00  0.00000000E+00  0.00000000E+00
  0.00000000E+00  0.00000000E+00  0.00000000E+00
  0.00000000E+00  0.00000000E+00  0.00000000E+00
  0.00000000E+00  0.00000000E+00  0.00000000E+00
  0.00000000E+00  0.00000000E+00  0.00000000E+00
  0.00000000E+00  0.00000000E+00  0.00000000E+00
  0.00000000E+00  0.00000000E+00  0.00000000E+00
  0.00000000E+00  0.00000000E+00  0.00000000E+00
  0.00000000E+00  0.00000000E+00  0.00000000E+00
  0.00000000E+00  0.00000000E+00  0.00000000E+00
  0.00000000E+00  0.00000000E+00  0.00000000E+00
  0.00000000E+00  0.00000000E+00  0.00000000E+00
  0.00000000E+00  0.00000000E+00  0.00000000E+00
  0.00000000E+00  0.00000000E+00  0.00000000E+00
  0.00000000E+00  0.00000000E+00  0.00000000E+00
  0.00000000E+00  0.00000000E+00  0.00000000E+00
  0.00000000E+00  0.00000000E+00  0.00000000E+00
  0.00000000E+00  0.00000000E+00  0.00000000E+00
  0.00000000E+00  0.00000000E+00  0.00000000E+00
  0.00000000E+00  0.00000000E+00  0.00000000E+00
  0.00000000E+00  0.00000000E+00  0.00000000E+00
  0.00000000E+00  0.00000000E+00  0.00000000E+00
  0.00000000E+00  0.00000000E+00  0.00000000E+00
  0.00000000E+00  0.00000000E+00  0.00000000E+00
  0.00000000E+00  0.00000000E+00  0.00000000E+00
  0.00000000E+00  0.00000000E+00  0.00000000E+00
  0.00000000E+00  0.00000000E+00  0.00000000E+00
  0.00000000E+00  0.00000000E+00  0.00000000E+00
  0.00000000E+00  0.00000000E+00  0.00000000E+00
  0.00000000E+00  0.00000000E+00  0.00000000E+00
  0.00000000E+00  0.00000000E+00  0.00000000E+00
  0.00000000E+00  0.00000000E+00  0.00000000E+00
  0.00000000E+00  0.00000000E+00  0.00000000E+00
  0.00000000E+00  0.00000000E+00  0.00000000E+00
  0.00000000E+00  0.00000000E+00  0.00000000E+00
  0.00000000E+00  0.00000000E+00  0.00000000E+00
  0.00000000E+00  0.00000000E+00  0.00000000E+00
  0.00000000E+00  0.00000000E+00  0.00000000E+00
  0.00000000E+00  0.00000000E+00  0.00000000E+00
  0.00000000E+00  0.00000000E+00  0.00000000E+00
  0.00000000E+00  0.00000000E+00  0.00000000E+00
  0.00000000E+00  0.00000000E+00  0.00000000E+00
  0.00000000E+00  0.00000000E+00  0.00000000E+00
  0.00000000E+00  0.00000000E+00  0.00000000E+00
  0.00000000E+00  0.00000000E+00  0.00000000E+00
  0.00000000E+00  0.00000000E+00  0.00000000E+00
  0.00000000E+00  0.00000000E+00  0.00000000E+00
  0.00000000E+00  0.00000000E+00  0.00000000E+00
  0.00000000E+00  0.00000000E+00  0.00000000E+00
  0.00000000E+00  0.00000000E+00  0.00000000E+00
  0.00000000E+00  0.00000000E+00  0.00000000E+00
  0.00000000E+00  0.00000000E+00  0.00000000E+00
  0.00000000E+00  0.00000000E+00  0.00000000E+00
  0.00000000E+00  0.00000000E+00  0.00000000E+00
  0.00000000E+00  0.00000000E+00  0.00000000E+00
  0.00000000E+00  0.00000000E+00  0.00000000E+00
  0.00000000E+00  0.00000000E+00  0.00000000E+00
  0.00000000E+00  0.00000000E+00  0.00000000E+00
  0.00000000E+00  0.00000000E+00  0.00000000E+00
  0.00000000E+00  0.00000000E+00  0.00000000E+00
  0.00000000E+00  0.00000000E+00  0.00000000E+00
  0.00000000E+00  0.00000000E+00  0.00000000E+00
  0.00000000E+00  0.00000000E+00  0.00000000E+00
  0.00000000E+00  0.00000000E+00  0.00000000E+00
  0.00000000E+00  0.00000000E+00  0.00000000E+00
  0.00000000E+00  0.00000000E+00  0.00000000E+00
  0.00000000E+00  0.00000000E+00  0.00000000E+00
  0.00000000E+00  0.00000000E+00  0.00000000E+00
  0.00000000E+00  0.00000000E+00  0.00000000E+00
  0.00000000E+00  0.00000000E+00  0.00000000E+00
  0.00000000E+00  0.00000000E+00  0.00000000E+00
  0.00000000E+00  0.00000000E+00  0.00000000E+00
  0.00000000E+00  0.00000000E+00  0.00000000E+00
  0.00000000E+00  0.00000000E+00  0.00000000E+00
  0.00000000E+00  0.00000000E+00  0.00000000E+00
  0.00000000E+00  0.00000000E+00  0.00000000E+00
  0.00000000E+00  0.00000000E+00  0.00000000E+00
  0.00000000E+00  0.00000000E+00  0.00000000E+00
  0.00000000E+00  0.00000000E+00  0.00000000E+00
  0.00000000E+00  0.00000000E+00  0.00000000E+00
  0.00000000E+00  0.00000000E+00  0.00000000E+00
  0.00000000E+00  0.00000000E+00  0.00000000E+00
  0.00000000E+00  0.00000000E+00  0.00000000E+00
