C H O Si                                
   1.00000000000000     
     9.2874599999999994    0.0000000000000000    0.0000000000000000
     0.0000000000000000    8.7563099999999991    0.0000000000000000
     0.0000000000000000    0.0000000000000000   58.0000000000000000
   C    H    O    Si
    36    33    16    36
Selective dynamics
Direct
  0.9931108036936434  0.1262591699236181  0.0604203900516737   T   T   T
  0.3265448135655692  0.1262239806675463  0.0605605699799358   T   T   T
  0.6596771206422922  0.1264025586331043  0.0605155543630360   T   T   T
  0.9931283002250335  0.6263951051852115  0.0604365676802030   T   T   T
  0.3265108006160496  0.6259943019612499  0.0605947272221505   T   T   T
  0.6597918071259790  0.6262254016972645  0.0605278757158243   T   T   T
  0.1598254423523231  0.3716562197739197  0.1394058067373829   T   T   T
  0.4930496599637343  0.3721662226962928  0.1396360743638272   T   T   T
  0.8263991887917517  0.3715415467613213  0.1392991950275019   T   T   T
  0.1600595684189113  0.8717344992923848  0.1394517781717337   T   T   T
  0.4930430770937662  0.8714862917864884  0.1394931759416410   T   T   T
  0.8262893425938870  0.8717612644021753  0.1394133524534507   T   T   T
  0.3272712461380505  0.1223847987637402  0.1667218333887387   T   T   T
  0.6595432275810975  0.1222377116948571  0.1666538275385457   T   T   T
  0.9937850220830624  0.1213527219227062  0.1663480293554265   T   T   T
  0.3266682172878143  0.6220399497951123  0.1667813900884587   T   T   T
  0.6603849322646146  0.6221025599782394  0.1666381110837856   T   T   T
  0.9935518552156186  0.6220005417181563  0.1664422060628879   T   T   T
  0.1606052611456389  0.3748662038156573  0.1917738015041829   T   T   T
  0.4940460988172810  0.3793749392023328  0.1926783383800987   T   T   T
  0.8280209960063982  0.3737155069222143  0.1914647680353972   T   T   T
  0.1602821885447703  0.8768348462799301  0.1920049723194985   T   T   T
  0.4939388989610971  0.8758266654082952  0.1920424881347325   T   T   T
  0.8273958036021907  0.8765942596550690  0.1918570419168379   T   T   T
  0.1595357202220072  0.3719785420372510  0.0858481773553710   T   T   T
  0.4929061284513385  0.3719377286980166  0.0860023483576552   T   T   T
  0.8261540372243886  0.3720110925218011  0.0857936159888702   T   T   T
  0.1596435802042141  0.8720707305233064  0.0858718520360639   T   T   T
  0.4928787700492731  0.8719241438509165  0.0859266151689665   T   T   T
  0.8260958702855800  0.8721422398474032  0.0858498069624066   T   T   T
  0.3262836607626041  0.1217063871091887  0.1130939528737277   T   T   T
  0.6594794481053593  0.1216879683735923  0.1130654630692065   T   T   T
  0.9929512916866478  0.1215941666375665  0.1129567442941303   T   T   T
  0.3261894529617651  0.6216093370843023  0.1131116726422650   T   T   T
  0.6595973460161710  0.6217002042936799  0.1130548168647823   T   T   T
  0.9929312969542931  0.6218519302928508  0.1129622436375226   T   T   T
  0.0803879205171817  0.3552523498516820  0.0264338836583226   T   T   T
  0.4109577476910536  0.3549367767919526  0.0267273511841492   T   T   T
  0.7432973137475112  0.3545027418343918  0.0266299380030116   T   T   T
  0.0809937879134616  0.8554346941345764  0.0264421942710941   T   T   T
  0.4108857349017200  0.8544716899856540  0.0267050387012642   T   T   T
  0.7431739489320885  0.8544523313551333  0.0266715201637551   T   T   T
  0.3239340645532172  0.0537972664990769  0.0450305785080122   T   T   T
  0.6563887445512110  0.0539533790742733  0.0449926376229175   T   T   T
  0.9901293795087077  0.0540291302258930  0.0448719876851045   T   T   T
  0.3237277665166227  0.5534969836242016  0.0450763569286209   T   T   T
  0.6567031414589148  0.5537657597809358  0.0450048744204514   T   T   T
  0.9901481278364305  0.5542001103118639  0.0448842963106257   T   T   T
  0.8296710054792557  0.8049848419032185  0.2074533856870037   T   T   T
  0.8305536219605136  0.3016938785048878  0.2070323867273030   T   T   T
  0.1617111166026033  0.3028176944303373  0.2073446187310032   T   T   T
  0.4968295684558670  0.3058432714484388  0.2080861694047876   T   T   T
  0.1620827235245267  0.8039599142305830  0.2074866684272363   T   T   T
  0.4945154827085237  0.8032448511403576  0.2075593828533616   T   T   T
  0.0747679716781872  0.1052486279441641  0.2258345635052908   T   T   T
  0.4120589866705215  0.1049398160670928  0.2257508120908405   T   T   T
  0.7454876242505764  0.1041570534238636  0.2256938287421012   T   T   T
  0.0740949823171874  0.6017665533038745  0.2254344418047404   T   T   T
  0.3775085277901384  0.6189662539008777  0.2290724086096081   T   T   T
  0.7797904102468676  0.5902466135298242  0.2233685443522693   T   T   T
  0.5435992069116841  0.6113139374567699  0.2747664080868790   T   T   T
  0.4901347451988893  0.4745502231083338  0.2937857399873339   T   T   T
  0.5704536121459932  0.6390392933449019  0.3037710466113268   T   T   T
  0.3120934990556106  0.3859514235784803  0.3094022390829830   T   T   T
  0.4221853540102671  0.2588179341083024  0.3022854051517416   T   T   T
  0.6512296339863026  0.7314552251313057  0.3341560840018858   T   T   T
  0.4858771365888547  0.7581813337647264  0.3312714741453231   T   T   T
  0.5123723879296987  0.7924393757796616  0.2525107755960249   T   T   T
  0.5827449049408454  0.6501651334938097  0.2393840285076585   T   T   T
  0.1717112319583592  0.3341126135188039  0.0341252595813611   T   T   T
  0.5030199789861183  0.3356555311546128  0.0343307655958139   T   T   T
  0.8356728480871305  0.3348723203800901  0.0341157561307905   T   T   T
  0.1721846762261217  0.8340844773543754  0.0341519933787083   T   T   T
  0.5031408458594071  0.8342983909862561  0.0342009370003812   T   T   T
  0.8355790191849625  0.8351099937026769  0.0341654791609865   T   T   T
  0.3192773004427249  0.0842610915060777  0.2184667030491921   T   T   T
  0.6524482928761806  0.0840279633831409  0.2184338030577676   T   T   T
  0.9830938539881092  0.0864859205983263  0.2180954523249688   T   T   T
  0.3009623898630027  0.5857510639498528  0.2184120904441187   T   T   T
  0.6780136309607235  0.5840559973676350  0.2184637683487038   T   T   T
  0.9811807687714997  0.5819901549297013  0.2180065876759223   T   T   T
  0.5678891664186254  0.5591144107369840  0.2903006470092005   T   T   T
  0.3807092851875169  0.3561681282142060  0.2974692379019832   T   T   T
  0.5764708549216535  0.7529175385509849  0.3227866136850767   T   T   T
  0.5076251585150343  0.6814077418576625  0.2510594772428392   T   T   T
  0.4931641556357519  0.2437974219126290  0.0597725715909036   T   T   T
  0.8264465118061108  0.2436684638363694  0.0596144031859895   T   T   T
  0.1601554361955866  0.7434672518147132  0.0596962807457215   T   T   T
  0.4931762526699517  0.7434475491756848  0.0597264161050992   T   T   T
  0.8264256502794199  0.7437450517495890  0.0596534839748898   T   T   T
  0.1600722985740795  0.2434788143124414  0.0596699598352113   T   T   T
  0.9932266528851962  0.9963618096453877  0.1395726241425771   T   T   T
  0.3267072218289809  0.9969625627154468  0.1397761366486403   T   T   T
  0.6593911992045033  0.9967445370062779  0.1397330990318241   T   T   T
  0.9931088564165786  0.4966271766522956  0.1395646542350686   T   T   T
  0.3263112944000868  0.4969369197968018  0.1398212079425425   T   T   T
  0.6598431872006765  0.4967467027269045  0.1396955053720690   T   T   T
  0.1601758832525390  0.2457954075087675  0.1659424304051308   T   T   T
  0.4933609509600839  0.2478558437683593  0.1664011751335173   T   T   T
  0.8270300588428612  0.2448989615330716  0.1657373691429417   T   T   T
  0.1601362135064896  0.7466469988311173  0.1660995695334461   T   T   T
  0.4932955463047737  0.7461163919277122  0.1661196433711204   T   T   T
  0.8269830822966360  0.7465205794138925  0.1660137957579154   T   T   T
  0.3269664098065506  0.9937991890865261  0.1928816408826055   T   T   T
  0.6606088910293758  0.9936482521366320  0.1928236987914960   T   T   T
  0.9935272258997112  0.9942976494455139  0.1926405716041318   T   T   T
  0.3251554463766745  0.4952033481717676  0.1932232719496795   T   T   T
  0.9937905863842232  0.4917354188316432  0.1923147655794525   T   T   T
  0.6631458371760220  0.4928984171515353  0.1926201895592464   T   T   T
  0.9928867936639376  0.9962954782694265  0.0862982986319327   T   T   T
  0.3263626298450940  0.9962701491732898  0.0864189904918557   T   T   T
  0.6594079770987719  0.9964236376851026  0.0863905884380590   T   T   T
  0.9928455148601473  0.4963475821719327  0.0863027233587140   T   T   T
  0.3263011611793695  0.4962000919049417  0.0864507105022861   T   T   T
  0.6595269269323856  0.4962994082383026  0.0863956592609348   T   T   T
  0.1596072621514217  0.2467095730199849  0.1127163450822504   T   T   T
  0.4928999401744422  0.2468169980688557  0.1128775467837757   T   T   T
  0.8263010750686173  0.2466668006164159  0.1126437788440781   T   T   T
  0.1597436831077805  0.7468163373313152  0.1127516539299126   T   T   T
  0.4928851261800792  0.7466376733307561  0.1127905518884381   T   T   T
  0.8261776578407862  0.7468603960769733  0.1127157743055906   T   T   T
 
  0.00000000E+00  0.00000000E+00  0.00000000E+00
  0.00000000E+00  0.00000000E+00  0.00000000E+00
  0.00000000E+00  0.00000000E+00  0.00000000E+00
  0.00000000E+00  0.00000000E+00  0.00000000E+00
  0.00000000E+00  0.00000000E+00  0.00000000E+00
  0.00000000E+00  0.00000000E+00  0.00000000E+00
  0.00000000E+00  0.00000000E+00  0.00000000E+00
  0.00000000E+00  0.00000000E+00  0.00000000E+00
  0.00000000E+00  0.00000000E+00  0.00000000E+00
  0.00000000E+00  0.00000000E+00  0.00000000E+00
  0.00000000E+00  0.00000000E+00  0.00000000E+00
  0.00000000E+00  0.00000000E+00  0.00000000E+00
  0.00000000E+00  0.00000000E+00  0.00000000E+00
  0.00000000E+00  0.00000000E+00  0.00000000E+00
  0.00000000E+00  0.00000000E+00  0.00000000E+00
  0.00000000E+00  0.00000000E+00  0.00000000E+00
  0.00000000E+00  0.00000000E+00  0.00000000E+00
  0.00000000E+00  0.00000000E+00  0.00000000E+00
  0.00000000E+00  0.00000000E+00  0.00000000E+00
  0.00000000E+00  0.00000000E+00  0.00000000E+00
  0.00000000E+00  0.00000000E+00  0.00000000E+00
  0.00000000E+00  0.00000000E+00  0.00000000E+00
  0.00000000E+00  0.00000000E+00  0.00000000E+00
  0.00000000E+00  0.00000000E+00  0.00000000E+00
  0.00000000E+00  0.00000000E+00  0.00000000E+00
  0.00000000E+00  0.00000000E+00  0.00000000E+00
  0.00000000E+00  0.00000000E+00  0.00000000E+00
  0.00000000E+00  0.00000000E+00  0.00000000E+00
  0.00000000E+00  0.00000000E+00  0.00000000E+00
  0.00000000E+00  0.00000000E+00  0.00000000E+00
  0.00000000E+00  0.00000000E+00  0.00000000E+00
  0.00000000E+00  0.00000000E+00  0.00000000E+00
  0.00000000E+00  0.00000000E+00  0.00000000E+00
  0.00000000E+00  0.00000000E+00  0.00000000E+00
  0.00000000E+00  0.00000000E+00  0.00000000E+00
  0.00000000E+00  0.00000000E+00  0.00000000E+00
  0.00000000E+00  0.00000000E+00  0.00000000E+00
  0.00000000E+00  0.00000000E+00  0.00000000E+00
  0.00000000E+00  0.00000000E+00  0.00000000E+00
  0.00000000E+00  0.00000000E+00  0.00000000E+00
  0.00000000E+00  0.00000000E+00  0.00000000E+00
  0.00000000E+00  0.00000000E+00  0.00000000E+00
  0.00000000E+00  0.00000000E+00  0.00000000E+00
  0.00000000E+00  0.00000000E+00  0.00000000E+00
  0.00000000E+00  0.00000000E+00  0.00000000E+00
  0.00000000E+00  0.00000000E+00  0.00000000E+00
  0.00000000E+00  0.00000000E+00  0.00000000E+00
  0.00000000E+00  0.00000000E+00  0.00000000E+00
  0.00000000E+00  0.00000000E+00  0.00000000E+00
  0.00000000E+00  0.00000000E+00  0.00000000E+00
  0.00000000E+00  0.00000000E+00  0.00000000E+00
  0.00000000E+00  0.00000000E+00  0.00000000E+00
  0.00000000E+00  0.00000000E+00  0.00000000E+00
  0.00000000E+00  0.00000000E+00  0.00000000E+00
  0.00000000E+00  0.00000000E+00  0.00000000E+00
  0.00000000E+00  0.00000000E+00  0.00000000E+00
  0.00000000E+00  0.00000000E+00  0.00000000E+00
  0.00000000E+00  0.00000000E+00  0.00000000E+00
  0.00000000E+00  0.00000000E+00  0.00000000E+00
  0.00000000E+00  0.00000000E+00  0.00000000E+00
  0.00000000E+00  0.00000000E+00  0.00000000E+00
  0.00000000E+00  0.00000000E+00  0.00000000E+00
  0.00000000E+00  0.00000000E+00  0.00000000E+00
  0.00000000E+00  0.00000000E+00  0.00000000E+00
  0.00000000E+00  0.00000000E+00  0.00000000E+00
  0.00000000E+00  0.00000000E+00  0.00000000E+00
  0.00000000E+00  0.00000000E+00  0.00000000E+00
  0.00000000E+00  0.00000000E+00  0.00000000E+00
  0.00000000E+00  0.00000000E+00  0.00000000E+00
  0.00000000E+00  0.00000000E+00  0.00000000E+00
  0.00000000E+00  0.00000000E+00  0.00000000E+00
  0.00000000E+00  0.00000000E+00  0.00000000E+00
  0.00000000E+00  0.00000000E+00  0.00000000E+00
  0.00000000E+00  0.00000000E+00  0.00000000E+00
  0.00000000E+00  0.00000000E+00  0.00000000E+00
  0.00000000E+00  0.00000000E+00  0.00000000E+00
  0.00000000E+00  0.00000000E+00  0.00000000E+00
  0.00000000E+00  0.00000000E+00  0.00000000E+00
  0.00000000E+00  0.00000000E+00  0.00000000E+00
  0.00000000E+00  0.00000000E+00  0.00000000E+00
  0.00000000E+00  0.00000000E+00  0.00000000E+00
  0.00000000E+00  0.00000000E+00  0.00000000E+00
  0.00000000E+00  0.00000000E+00  0.00000000E+00
  0.00000000E+00  0.00000000E+00  0.00000000E+00
  0.00000000E+00  0.00000000E+00  0.00000000E+00
  0.00000000E+00  0.00000000E+00  0.00000000E+00
  0.00000000E+00  0.00000000E+00  0.00000000E+00
  0.00000000E+00  0.00000000E+00  0.00000000E+00
  0.00000000E+00  0.00000000E+00  0.00000000E+00
  0.00000000E+00  0.00000000E+00  0.00000000E+00
  0.00000000E+00  0.00000000E+00  0.00000000E+00
  0.00000000E+00  0.00000000E+00  0.00000000E+00
  0.00000000E+00  0.00000000E+00  0.00000000E+00
  0.00000000E+00  0.00000000E+00  0.00000000E+00
  0.00000000E+00  0.00000000E+00  0.00000000E+00
  0.00000000E+00  0.00000000E+00  0.00000000E+00
  0.00000000E+00  0.00000000E+00  0.00000000E+00
  0.00000000E+00  0.00000000E+00  0.00000000E+00
  0.00000000E+00  0.00000000E+00  0.00000000E+00
  0.00000000E+00  0.00000000E+00  0.00000000E+00
  0.00000000E+00  0.00000000E+00  0.00000000E+00
  0.00000000E+00  0.00000000E+00  0.00000000E+00
  0.00000000E+00  0.00000000E+00  0.00000000E+00
  0.00000000E+00  0.00000000E+00  0.00000000E+00
  0.00000000E+00  0.00000000E+00  0.00000000E+00
  0.00000000E+00  0.00000000E+00  0.00000000E+00
  0.00000000E+00  0.00000000E+00  0.00000000E+00
  0.00000000E+00  0.00000000E+00  0.00000000E+00
  0.00000000E+00  0.00000000E+00  0.00000000E+00
  0.00000000E+00  0.00000000E+00  0.00000000E+00
  0.00000000E+00  0.00000000E+00  0.00000000E+00
  0.00000000E+00  0.00000000E+00  0.00000000E+00
  0.00000000E+00  0.00000000E+00  0.00000000E+00
  0.00000000E+00  0.00000000E+00  0.00000000E+00
  0.00000000E+00  0.00000000E+00  0.00000000E+00
  0.00000000E+00  0.00000000E+00  0.00000000E+00
  0.00000000E+00  0.00000000E+00  0.00000000E+00
  0.00000000E+00  0.00000000E+00  0.00000000E+00
  0.00000000E+00  0.00000000E+00  0.00000000E+00
  0.00000000E+00  0.00000000E+00  0.00000000E+00
  0.00000000E+00  0.00000000E+00  0.00000000E+00
