C H O Si                                
   1.00000000000000     
     9.2874599999999994    0.0000000000000000    0.0000000000000000
     0.0000000000000000    8.7563099999999991    0.0000000000000000
     0.0000000000000000    0.0000000000000000   58.0000000000000000
   C    H    O    Si
    36    33    16    36
Selective dynamics
Direct
  0.9928359018398856  0.1263240005072948  0.0604029528793140   T   T   T
  0.3265750777314080  0.1261183892199498  0.0605528651570536   T   T   T
  0.6594315983645213  0.1263158438033043  0.0605001952572338   T   T   T
  0.9928726245468782  0.6264802879318950  0.0604175069510831   T   T   T
  0.3265653256588777  0.6258090027662183  0.0605896135719771   T   T   T
  0.6595807846043976  0.6261536618024410  0.0605173236409255   T   T   T
  0.1597475152254680  0.3717449317702654  0.1393557180417213   T   T   T
  0.4929421014528449  0.3720758883616958  0.1396142049235390   T   T   T
  0.8262844945320034  0.3716284886562242  0.1392689099754778   T   T   T
  0.1598878886422215  0.8717921505901892  0.1394228257288539   T   T   T
  0.4929669449572416  0.8715932473793965  0.1394790857040960   T   T   T
  0.8260966135138542  0.8718979143673238  0.1393926053586589   T   T   T
  0.3272182541917082  0.1223344978457991  0.1667278974249578   T   T   T
  0.6593784712299942  0.1220365048528094  0.1666881523138267   T   T   T
  0.9935617907662534  0.1212329292476387  0.1663638173182952   T   T   T
  0.3264948108911775  0.6219894483439964  0.1667944016534459   T   T   T
  0.6601526621629542  0.6218449125914175  0.1666382426164281   T   T   T
  0.9934300030346306  0.6218191164773416  0.1664367402628164   T   T   T
  0.1604647009486130  0.3748582413162832  0.1918119070752625   T   T   T
  0.4939767328196157  0.3793094628470783  0.1927015329916557   T   T   T
  0.8277853328954832  0.3735158525829976  0.1914592325091215   T   T   T
  0.1601713037422088  0.8767746631450624  0.1920336585593662   T   T   T
  0.4938036981259714  0.8759251784378522  0.1920703115248786   T   T   T
  0.8272198080977018  0.8765423081454734  0.1918815995513584   T   T   T
  0.1594179710733699  0.3719160851937466  0.0858517829823909   T   T   T
  0.4928447735627979  0.3718450210361831  0.0860065099576681   T   T   T
  0.8260631482842632  0.3719968679054274  0.0858122938124264   T   T   T
  0.1595376284571645  0.8719380894089167  0.0858696289071033   T   T   T
  0.4928361057336026  0.8717945844339358  0.0859159571907850   T   T   T
  0.8259847869727802  0.8720183609056203  0.0858573137868130   T   T   T
  0.3262437016366139  0.1217996627692001  0.1130779555223316   T   T   T
  0.6594183652397152  0.1218019646895558  0.1130635976110893   T   T   T
  0.9928125457776099  0.1217628499746263  0.1129367569095479   T   T   T
  0.3261890432385072  0.6217631471367489  0.1131104599297472   T   T   T
  0.6594626006417253  0.6218186886034188  0.1130512341525677   T   T   T
  0.9927914437783955  0.6219988016272019  0.1129401756460557   T   T   T
  0.0807795085949357  0.3550762368376358  0.0264649658611364   T   T   T
  0.4111043352758121  0.3548654523067987  0.0267200843681182   T   T   T
  0.7433850421719599  0.3544425619743858  0.0266246994645019   T   T   T
  0.0813992750633391  0.8552988468510188  0.0264608569222245   T   T   T
  0.4110524267285075  0.8544076915905746  0.0267026191236742   T   T   T
  0.7433073347476624  0.8544206621550263  0.0266607725480020   T   T   T
  0.3237239181727191  0.0538372476187789  0.0450098135257786   T   T   T
  0.6561970278970758  0.0539175527613332  0.0449708381491918   T   T   T
  0.9899703892143468  0.0540423320297748  0.0448575879386827   T   T   T
  0.3235310133023415  0.5535701552975765  0.0450414012233498   T   T   T
  0.6564676182977661  0.5537672603417690  0.0449894067749243   T   T   T
  0.9899966005938359  0.5541865951557859  0.0448723947482760   T   T   T
  0.8297129565676156  0.8049895136136538  0.2074721795995777   T   T   T
  0.8305800822497322  0.3017544587341614  0.2070480040910292   T   T   T
  0.1617574043175852  0.3027152453842554  0.2073716393293586   T   T   T
  0.4968175619178624  0.3056619734888910  0.2080981687348323   T   T   T
  0.1621491849357250  0.8037782540424077  0.2074976668459917   T   T   T
  0.4946190502017407  0.8032527962812364  0.2075656462736777   T   T   T
  0.0747751388707231  0.1053386693646398  0.2258342762375612   T   T   T
  0.4124894813136050  0.1052794893833445  0.2258084402291263   T   T   T
  0.7458990607303386  0.1044476070943630  0.2257550362294919   T   T   T
  0.0740047506149153  0.6016582764403977  0.2254202911229082   T   T   T
  0.3780280895269057  0.6191040538586953  0.2291103566582664   T   T   T
  0.7797185849416479  0.5905687069619310  0.2234258283050877   T   T   T
  0.5439258523363797  0.6111425861524118  0.2747580163896876   T   T   T
  0.4901164515304196  0.4743964289886740  0.2937869466677939   T   T   T
  0.5707252718188440  0.6390434761657083  0.3037732973648463   T   T   T
  0.3124119789196750  0.3862147975478011  0.3093891546826588   T   T   T
  0.4220743590921009  0.2589184348672108  0.3022664247415733   T   T   T
  0.6513093388195218  0.7316372333019378  0.3341932316297310   T   T   T
  0.4856734560899851  0.7580613992842700  0.3312575097100354   T   T   T
  0.5125009505138848  0.7926967362958730  0.2525106273964180   T   T   T
  0.5826219011497573  0.6498637062938628  0.2393501516151895   T   T   T
  0.1720641250335500  0.3336900604104363  0.0341491670605642   T   T   T
  0.5034404830869117  0.3361102918120263  0.0342940593642950   T   T   T
  0.8358917458848797  0.3350921681299425  0.0340981674877377   T   T   T
  0.1724086443971911  0.8336033696702768  0.0341907004980647   T   T   T
  0.5035199449793597  0.8343306955018323  0.0341631665436604   T   T   T
  0.8357671955604515  0.8352544360087344  0.0341570250259374   T   T   T
  0.3197321294153807  0.0840670329946264  0.2185539093813297   T   T   T
  0.6529288904138253  0.0837747768460565  0.2185201058332794   T   T   T
  0.9833781816515466  0.0865148456130131  0.2180245834537342   T   T   T
  0.3018471922327971  0.5855864357737125  0.2184191055828043   T   T   T
  0.6781104232647291  0.5836472433736075  0.2184623609344454   T   T   T
  0.9813684455560711  0.5820208657344637  0.2179080298256784   T   T   T
  0.5677610427083832  0.5592541455566368  0.2903032718581508   T   T   T
  0.3810052254950358  0.3564713715776961  0.2974506278003620   T   T   T
  0.5764656584900621  0.7528971065754978  0.3228322201537258   T   T   T
  0.5078553391212235  0.6816970133858054  0.2510349765503681   T   T   T
  0.4931288839835615  0.2439831078660908  0.0597467908504375   T   T   T
  0.8262466116138321  0.2438063231457434  0.0596023600971901   T   T   T
  0.1602251234201944  0.7432125808079366  0.0597254894466572   T   T   T
  0.4931820218132963  0.7434893091673671  0.0597120979127108   T   T   T
  0.8262244099963720  0.7438394455617954  0.0596478541392950   T   T   T
  0.1600491847946628  0.2433158689767130  0.0596856467319167   T   T   T
  0.9931354435008922  0.9964986674968732  0.1395532043750537   T   T   T
  0.3266193244753208  0.9970316149785426  0.1397445215839532   T   T   T
  0.6592730629687188  0.9969697387732244  0.1397230201125057   T   T   T
  0.9930856712631272  0.4967637464660892  0.1395233827574835   T   T   T
  0.3261876713175958  0.4970974113133471  0.1398135075829207   T   T   T
  0.6597547915556208  0.4967635723413231  0.1396693081269410   T   T   T
  0.1600146974911333  0.2458190799975996  0.1659543090156319   T   T   T
  0.4933018723869722  0.2478495670695236  0.1664106392989929   T   T   T
  0.8268618102405394  0.2448343376487149  0.1657424821619790   T   T   T
  0.1599493194308444  0.7467010133816444  0.1661098333117055   T   T   T
  0.4931411666321265  0.7461742797266036  0.1661310622234166   T   T   T
  0.8268081481278832  0.7465124151207287  0.1660300444891624   T   T   T
  0.3270390115843974  0.9938932164350598  0.1929168500488395   T   T   T
  0.6606874063218248  0.9936513094010139  0.1928756903936027   T   T   T
  0.9935910808523474  0.9940515257246761  0.1926294419041838   T   T   T
  0.3252668726943352  0.4952348830744177  0.1932484007178941   T   T   T
  0.9937710111932540  0.4914292482836432  0.1922932105430346   T   T   T
  0.6632319943167495  0.4926702007998132  0.1926080475591058   T   T   T
  0.9928307491854915  0.9963117495579856  0.0863003772761815   T   T   T
  0.3263902816510062  0.9962605139037488  0.0864122549922975   T   T   T
  0.6594155371789409  0.9963819489252623  0.0863789739469773   T   T   T
  0.9928159497224276  0.4964062363802759  0.0862938154281749   T   T   T
  0.3262943524540070  0.4961255579040942  0.0864672559782336   T   T   T
  0.6594926735195733  0.4963416702250524  0.0863910247653955   T   T   T
  0.1594926352187643  0.2468071669506425  0.1127080060872545   T   T   T
  0.4928083933070279  0.2468857788732365  0.1128841699680470   T   T   T
  0.8260790736558256  0.2467698711177283  0.1126386302846222   T   T   T
  0.1596085124119503  0.7468996513504529  0.1127480559977562   T   T   T
  0.4927706513382158  0.7468176469133214  0.1127875692672444   T   T   T
  0.8259983357161406  0.7469867857346218  0.1127198033253145   T   T   T
 
  0.00000000E+00  0.00000000E+00  0.00000000E+00
  0.00000000E+00  0.00000000E+00  0.00000000E+00
  0.00000000E+00  0.00000000E+00  0.00000000E+00
  0.00000000E+00  0.00000000E+00  0.00000000E+00
  0.00000000E+00  0.00000000E+00  0.00000000E+00
  0.00000000E+00  0.00000000E+00  0.00000000E+00
  0.00000000E+00  0.00000000E+00  0.00000000E+00
  0.00000000E+00  0.00000000E+00  0.00000000E+00
  0.00000000E+00  0.00000000E+00  0.00000000E+00
  0.00000000E+00  0.00000000E+00  0.00000000E+00
  0.00000000E+00  0.00000000E+00  0.00000000E+00
  0.00000000E+00  0.00000000E+00  0.00000000E+00
  0.00000000E+00  0.00000000E+00  0.00000000E+00
  0.00000000E+00  0.00000000E+00  0.00000000E+00
  0.00000000E+00  0.00000000E+00  0.00000000E+00
  0.00000000E+00  0.00000000E+00  0.00000000E+00
  0.00000000E+00  0.00000000E+00  0.00000000E+00
  0.00000000E+00  0.00000000E+00  0.00000000E+00
  0.00000000E+00  0.00000000E+00  0.00000000E+00
  0.00000000E+00  0.00000000E+00  0.00000000E+00
  0.00000000E+00  0.00000000E+00  0.00000000E+00
  0.00000000E+00  0.00000000E+00  0.00000000E+00
  0.00000000E+00  0.00000000E+00  0.00000000E+00
  0.00000000E+00  0.00000000E+00  0.00000000E+00
  0.00000000E+00  0.00000000E+00  0.00000000E+00
  0.00000000E+00  0.00000000E+00  0.00000000E+00
  0.00000000E+00  0.00000000E+00  0.00000000E+00
  0.00000000E+00  0.00000000E+00  0.00000000E+00
  0.00000000E+00  0.00000000E+00  0.00000000E+00
  0.00000000E+00  0.00000000E+00  0.00000000E+00
  0.00000000E+00  0.00000000E+00  0.00000000E+00
  0.00000000E+00  0.00000000E+00  0.00000000E+00
  0.00000000E+00  0.00000000E+00  0.00000000E+00
  0.00000000E+00  0.00000000E+00  0.00000000E+00
  0.00000000E+00  0.00000000E+00  0.00000000E+00
  0.00000000E+00  0.00000000E+00  0.00000000E+00
  0.00000000E+00  0.00000000E+00  0.00000000E+00
  0.00000000E+00  0.00000000E+00  0.00000000E+00
  0.00000000E+00  0.00000000E+00  0.00000000E+00
  0.00000000E+00  0.00000000E+00  0.00000000E+00
  0.00000000E+00  0.00000000E+00  0.00000000E+00
  0.00000000E+00  0.00000000E+00  0.00000000E+00
  0.00000000E+00  0.00000000E+00  0.00000000E+00
  0.00000000E+00  0.00000000E+00  0.00000000E+00
  0.00000000E+00  0.00000000E+00  0.00000000E+00
  0.00000000E+00  0.00000000E+00  0.00000000E+00
  0.00000000E+00  0.00000000E+00  0.00000000E+00
  0.00000000E+00  0.00000000E+00  0.00000000E+00
  0.00000000E+00  0.00000000E+00  0.00000000E+00
  0.00000000E+00  0.00000000E+00  0.00000000E+00
  0.00000000E+00  0.00000000E+00  0.00000000E+00
  0.00000000E+00  0.00000000E+00  0.00000000E+00
  0.00000000E+00  0.00000000E+00  0.00000000E+00
  0.00000000E+00  0.00000000E+00  0.00000000E+00
  0.00000000E+00  0.00000000E+00  0.00000000E+00
  0.00000000E+00  0.00000000E+00  0.00000000E+00
  0.00000000E+00  0.00000000E+00  0.00000000E+00
  0.00000000E+00  0.00000000E+00  0.00000000E+00
  0.00000000E+00  0.00000000E+00  0.00000000E+00
  0.00000000E+00  0.00000000E+00  0.00000000E+00
  0.00000000E+00  0.00000000E+00  0.00000000E+00
  0.00000000E+00  0.00000000E+00  0.00000000E+00
  0.00000000E+00  0.00000000E+00  0.00000000E+00
  0.00000000E+00  0.00000000E+00  0.00000000E+00
  0.00000000E+00  0.00000000E+00  0.00000000E+00
  0.00000000E+00  0.00000000E+00  0.00000000E+00
  0.00000000E+00  0.00000000E+00  0.00000000E+00
  0.00000000E+00  0.00000000E+00  0.00000000E+00
  0.00000000E+00  0.00000000E+00  0.00000000E+00
  0.00000000E+00  0.00000000E+00  0.00000000E+00
  0.00000000E+00  0.00000000E+00  0.00000000E+00
  0.00000000E+00  0.00000000E+00  0.00000000E+00
  0.00000000E+00  0.00000000E+00  0.00000000E+00
  0.00000000E+00  0.00000000E+00  0.00000000E+00
  0.00000000E+00  0.00000000E+00  0.00000000E+00
  0.00000000E+00  0.00000000E+00  0.00000000E+00
  0.00000000E+00  0.00000000E+00  0.00000000E+00
  0.00000000E+00  0.00000000E+00  0.00000000E+00
  0.00000000E+00  0.00000000E+00  0.00000000E+00
  0.00000000E+00  0.00000000E+00  0.00000000E+00
  0.00000000E+00  0.00000000E+00  0.00000000E+00
  0.00000000E+00  0.00000000E+00  0.00000000E+00
  0.00000000E+00  0.00000000E+00  0.00000000E+00
  0.00000000E+00  0.00000000E+00  0.00000000E+00
  0.00000000E+00  0.00000000E+00  0.00000000E+00
  0.00000000E+00  0.00000000E+00  0.00000000E+00
  0.00000000E+00  0.00000000E+00  0.00000000E+00
  0.00000000E+00  0.00000000E+00  0.00000000E+00
  0.00000000E+00  0.00000000E+00  0.00000000E+00
  0.00000000E+00  0.00000000E+00  0.00000000E+00
  0.00000000E+00  0.00000000E+00  0.00000000E+00
  0.00000000E+00  0.00000000E+00  0.00000000E+00
  0.00000000E+00  0.00000000E+00  0.00000000E+00
  0.00000000E+00  0.00000000E+00  0.00000000E+00
  0.00000000E+00  0.00000000E+00  0.00000000E+00
  0.00000000E+00  0.00000000E+00  0.00000000E+00
  0.00000000E+00  0.00000000E+00  0.00000000E+00
  0.00000000E+00  0.00000000E+00  0.00000000E+00
  0.00000000E+00  0.00000000E+00  0.00000000E+00
  0.00000000E+00  0.00000000E+00  0.00000000E+00
  0.00000000E+00  0.00000000E+00  0.00000000E+00
  0.00000000E+00  0.00000000E+00  0.00000000E+00
  0.00000000E+00  0.00000000E+00  0.00000000E+00
  0.00000000E+00  0.00000000E+00  0.00000000E+00
  0.00000000E+00  0.00000000E+00  0.00000000E+00
  0.00000000E+00  0.00000000E+00  0.00000000E+00
  0.00000000E+00  0.00000000E+00  0.00000000E+00
  0.00000000E+00  0.00000000E+00  0.00000000E+00
  0.00000000E+00  0.00000000E+00  0.00000000E+00
  0.00000000E+00  0.00000000E+00  0.00000000E+00
  0.00000000E+00  0.00000000E+00  0.00000000E+00
  0.00000000E+00  0.00000000E+00  0.00000000E+00
  0.00000000E+00  0.00000000E+00  0.00000000E+00
  0.00000000E+00  0.00000000E+00  0.00000000E+00
  0.00000000E+00  0.00000000E+00  0.00000000E+00
  0.00000000E+00  0.00000000E+00  0.00000000E+00
  0.00000000E+00  0.00000000E+00  0.00000000E+00
  0.00000000E+00  0.00000000E+00  0.00000000E+00
  0.00000000E+00  0.00000000E+00  0.00000000E+00
  0.00000000E+00  0.00000000E+00  0.00000000E+00
  0.00000000E+00  0.00000000E+00  0.00000000E+00
