C H O Si                                
   1.00000000000000     
     9.2874599999999994    0.0000000000000000    0.0000000000000000
     0.0000000000000000    8.7562999999999995    0.0000000000000000
     0.0000000000000000    0.0000000000000000   58.0000000000000000
   C    H    O    Si
    36    33    16    36
Selective dynamics
Direct
  0.0018904557884352  0.1353456661371247  0.3755289003025170   T   T   T
  0.0018481391847876  0.6354199205458990  0.3755417036529964   T   T   T
  0.3352672444181060  0.1354059707845324  0.3756423510424921   T   T   T
  0.3352366087391389  0.6352687707555396  0.3756603180414830   T   T   T
  0.6683698547470984  0.1352367447129114  0.3756414807779077   T   T   T
  0.6683927175886955  0.6351904112401149  0.3756465443065383   T   T   T
  0.1686827474967199  0.3810654947952567  0.4009682896955196   T   T   T
  0.1687694257384006  0.8810760204083719  0.4009880384485107   T   T   T
  0.5021024868930719  0.3810081273151278  0.4011117390797512   T   T   T
  0.5020687830739531  0.8809683141795983  0.4010378322255094   T   T   T
  0.8354076638526867  0.3808916925185509  0.4009183836388290   T   T   T
  0.8353893760035712  0.8809298470300039  0.4009526348813894   T   T   T
  0.0021734718049111  0.1307129837538354  0.4280606460594769   T   T   T
  0.0021495489562216  0.6309164694304726  0.4280834419372574   T   T   T
  0.3355483675290739  0.1309008730737171  0.4281919260419609   T   T   T
  0.3354554954262149  0.6307859857629392  0.4282072192749665   T   T   T
  0.6686993956791661  0.1307657794993242  0.4281641491566588   T   T   T
  0.6687803150138407  0.6307708319389290  0.4281501042845335   T   T   T
  0.1688705901910596  0.3807764389699526  0.4544869639265080   T   T   T
  0.1691323158375581  0.8808400046754009  0.4545440618805845   T   T   T
  0.5020835567427419  0.3811533378110873  0.4547357119396372   T   T   T
  0.5021831051534642  0.8805325383954272  0.4546078907260108   T   T   T
  0.8355559200933652  0.3806431225004418  0.4543919799526818   T   T   T
  0.8354101417324823  0.8808033072124226  0.4544888544899039   T   T   T
  0.0024319111814168  0.1302379624323998  0.4814628869500543   T   T   T
  0.0022837819414949  0.6309390899684854  0.4815818180239110   T   T   T
  0.3360297175795262  0.1315395484976065  0.4817784466230594   T   T   T
  0.3353562418291283  0.6309705888847926  0.4818496965277768   T   T   T
  0.6681023380335511  0.1313215747755176  0.4817215394331263   T   T   T
  0.6690929926649565  0.6311129243939767  0.4817171150910485   T   T   T
  0.1687294072296021  0.3836048537903481  0.5068270122633738   T   T   T
  0.1681770765102330  0.8857077651326414  0.5070458202010225   T   T   T
  0.5024414623410590  0.3889807192198768  0.5078318269729158   T   T   T
  0.5018052301865243  0.8850969914337526  0.5071226916867054   T   T   T
  0.8363791483898532  0.3826520950062964  0.5065806599445297   T   T   T
  0.8353574385035627  0.8856873699702246  0.5069624443150098   T   T   T
  0.0049040356317006  0.0630291960136606  0.3599930393520440   T   T   T
  0.0048319809515542  0.5630946732779337  0.3600034633559628   T   T   T
  0.3382969587786774  0.0630245716057871  0.3601150868420697   T   T   T
  0.3381353915969088  0.5627763136014658  0.3601469601360073   T   T   T
  0.6706814942179138  0.0628280131816211  0.3601125377455567   T   T   T
  0.6709180927772889  0.5627985314944848  0.3601156057622422   T   T   T
  0.1704123643795131  0.3116362242971595  0.5223993659638895   T   T   T
  0.1707152597301314  0.8131342866900001  0.5225504431374832   T   T   T
  0.5057599429336809  0.3154673113356864  0.5232407698861110   T   T   T
  0.5028457775026247  0.8128039466046743  0.5226595284507545   T   T   T
  0.8390741606400151  0.3107387619964239  0.5221603213889776   T   T   T
  0.8378130333520317  0.8140240034894317  0.5225419547765595   T   T   T
  0.0832632345662338  0.1144819391364799  0.5408516167963725   T   T   T
  0.0834479473452530  0.6107458318147155  0.5404387858971110   T   T   T
  0.4166995861211449  0.1157365186235192  0.5409103382944735   T   T   T
  0.3823704333426221  0.6323274546790505  0.5439357614282111   T   T   T
  0.7517135874062040  0.1140201478617185  0.5408332206129889   T   T   T
  0.7892564808980586  0.5989509405797379  0.5384400213265788   T   T   T
  0.2518493125871420  0.3637137041738103  0.3418067992587798   T   T   T
  0.2521199990665259  0.8636095868299035  0.3418401637315168   T   T   T
  0.5844332212223422  0.3638442198293132  0.3418760879075310   T   T   T
  0.5842629563733894  0.8637172509462550  0.3418166924389909   T   T   T
  0.9162437498910259  0.3641966312091027  0.3416239418945616   T   T   T
  0.9162853458720734  0.8642836355019324  0.3416584517990583   T   T   T
  0.5411313924709669  0.6140432471293003  0.5881276503816817   T   T   T
  0.4864711620183357  0.4749005101836071  0.6069002053279027   T   T   T
  0.5659155270165008  0.6400494611405996  0.6170483634351003   T   T   T
  0.3069133313427378  0.3810947702203496  0.6219358602805758   T   T   T
  0.4236033601952505  0.2583024740924577  0.6160122628796527   T   T   T
  0.6472855842622888  0.7349296602791341  0.6468335581634995   T   T   T
  0.4829460312178952  0.7681770599107531  0.6436557754107290   T   T   T
  0.5200759256002552  0.8030187418212639  0.5673077008407977   T   T   T
  0.5897814909573367  0.6614570029500677  0.5536908528929709   T   T   T
  0.1593966134721575  0.3442536780286544  0.3492713098280811   T   T   T
  0.1595910311068769  0.8442953726009303  0.3492921214005651   T   T   T
  0.4921483149091289  0.3446787506380012  0.3494140823100722   T   T   T
  0.4920035111760482  0.8442802220233977  0.3493485323007327   T   T   T
  0.8244453414627048  0.3440155924867616  0.3492417655898983   T   T   T
  0.8244781612451704  0.8442015637931720  0.3492786539550856   T   T   T
  0.9913831140674675  0.0950707526655980  0.5332088075809075   T   T   T
  0.9901994821752412  0.5906059716276082  0.5331382282418493   T   T   T
  0.3248312381632943  0.0940455518671664  0.5334144966293982   T   T   T
  0.3067673855373521  0.5946580072755584  0.5334032404733359   T   T   T
  0.6592931244149965  0.0943844827971369  0.5333629932870559   T   T   T
  0.6875403058069516  0.5939988814894648  0.5334682390441342   T   T   T
  0.5636637398409755  0.5598087082095595  0.6036035814199909   T   T   T
  0.3793119321330207  0.3525964969864712  0.6105169228409637   T   T   T
  0.5737284462203439  0.7577517042426140  0.6353200779779852   T   T   T
  0.5125603240504832  0.6927041117524468  0.5650601732938438   T   T   T
  0.1684893092942427  0.2527603348458054  0.3747657179885271   T   T   T
  0.1685274783196235  0.7527376070472369  0.3747848201701598   T   T   T
  0.5017317346380323  0.2528087632360100  0.3748817051797365   T   T   T
  0.5016967385915863  0.7526720310548892  0.3748399342187552   T   T   T
  0.8349460137411377  0.2525904741188612  0.3747319772635072   T   T   T
  0.8349017383763985  0.7526195298520106  0.3747595563513863   T   T   T
  0.0020542844209857  0.0053046499698740  0.4014203278087993   T   T   T
  0.0020119555003666  0.5053749863703403  0.4014321778219986   T   T   T
  0.3354165807583885  0.0054126709939791  0.4015213369101461   T   T   T
  0.3353578282259037  0.5053257403930267  0.4015453727074175   T   T   T
  0.6686193447835892  0.0052447614988248  0.4015052360647606   T   T   T
  0.6686975227936042  0.5051910380791181  0.4015112494573336   T   T   T
  0.1687985882791861  0.2558594232921079  0.4278302062445901   T   T   T
  0.1689339124350054  0.7559286645692902  0.4278676212089775   T   T   T
  0.5021199981447481  0.2559394229902194  0.4279922216482183   T   T   T
  0.5020582156026983  0.7557831046194693  0.4279043505117203   T   T   T
  0.8354793335802735  0.2556566072269214  0.4277663093384872   T   T   T
  0.8353906771496457  0.7558188643457137  0.4278219937218753   T   T   T
  0.0023480166284064  0.0054190285361424  0.4546693772734510   T   T   T
  0.0022517557014292  0.5057501384770897  0.4546835692758405   T   T   T
  0.3358753491222066  0.0060682573863603  0.4548445893942716   T   T   T
  0.3353289989933674  0.5060272533338803  0.4548982784741712   T   T   T
  0.6684645471787437  0.0058292741343319  0.4548060086997130   T   T   T
  0.6689268551107620  0.5057740325793481  0.4547754238351533   T   T   T
  0.1688002167591254  0.2547094266131844  0.4810197678414559   T   T   T
  0.1687943499798919  0.7556029321701705  0.4811806627493726   T   T   T
  0.5020634116476088  0.2570978747100486  0.4815224369450702   T   T   T
  0.5019057703421022  0.7550649808975402  0.4812202265853874   T   T   T
  0.8357759373017338  0.2538491019287579  0.4808416064727498   T   T   T
  0.8357256346748799  0.7555957374057253  0.4811124514378161   T   T   T
  0.0016760727896870  0.0031530128382624  0.5077483546446139   T   T   T
  0.0022844997280316  0.5005692470537270  0.5074418764820126   T   T   T
  0.3347466249131826  0.0028939058885870  0.5079026647289065   T   T   T
  0.3330862138566017  0.5042786534356190  0.5082944893455079   T   T   T
  0.6686061504649574  0.0028724883541493  0.5078722721823381   T   T   T
  0.6718544933783331  0.5020571554114358  0.5076906999938784   T   T   T
 
  0.00000000E+00  0.00000000E+00  0.00000000E+00
  0.00000000E+00  0.00000000E+00  0.00000000E+00
  0.00000000E+00  0.00000000E+00  0.00000000E+00
  0.00000000E+00  0.00000000E+00  0.00000000E+00
  0.00000000E+00  0.00000000E+00  0.00000000E+00
  0.00000000E+00  0.00000000E+00  0.00000000E+00
  0.00000000E+00  0.00000000E+00  0.00000000E+00
  0.00000000E+00  0.00000000E+00  0.00000000E+00
  0.00000000E+00  0.00000000E+00  0.00000000E+00
  0.00000000E+00  0.00000000E+00  0.00000000E+00
  0.00000000E+00  0.00000000E+00  0.00000000E+00
  0.00000000E+00  0.00000000E+00  0.00000000E+00
  0.00000000E+00  0.00000000E+00  0.00000000E+00
  0.00000000E+00  0.00000000E+00  0.00000000E+00
  0.00000000E+00  0.00000000E+00  0.00000000E+00
  0.00000000E+00  0.00000000E+00  0.00000000E+00
  0.00000000E+00  0.00000000E+00  0.00000000E+00
  0.00000000E+00  0.00000000E+00  0.00000000E+00
  0.00000000E+00  0.00000000E+00  0.00000000E+00
  0.00000000E+00  0.00000000E+00  0.00000000E+00
  0.00000000E+00  0.00000000E+00  0.00000000E+00
  0.00000000E+00  0.00000000E+00  0.00000000E+00
  0.00000000E+00  0.00000000E+00  0.00000000E+00
  0.00000000E+00  0.00000000E+00  0.00000000E+00
  0.00000000E+00  0.00000000E+00  0.00000000E+00
  0.00000000E+00  0.00000000E+00  0.00000000E+00
  0.00000000E+00  0.00000000E+00  0.00000000E+00
  0.00000000E+00  0.00000000E+00  0.00000000E+00
  0.00000000E+00  0.00000000E+00  0.00000000E+00
  0.00000000E+00  0.00000000E+00  0.00000000E+00
  0.00000000E+00  0.00000000E+00  0.00000000E+00
  0.00000000E+00  0.00000000E+00  0.00000000E+00
  0.00000000E+00  0.00000000E+00  0.00000000E+00
  0.00000000E+00  0.00000000E+00  0.00000000E+00
  0.00000000E+00  0.00000000E+00  0.00000000E+00
  0.00000000E+00  0.00000000E+00  0.00000000E+00
  0.00000000E+00  0.00000000E+00  0.00000000E+00
  0.00000000E+00  0.00000000E+00  0.00000000E+00
  0.00000000E+00  0.00000000E+00  0.00000000E+00
  0.00000000E+00  0.00000000E+00  0.00000000E+00
  0.00000000E+00  0.00000000E+00  0.00000000E+00
  0.00000000E+00  0.00000000E+00  0.00000000E+00
  0.00000000E+00  0.00000000E+00  0.00000000E+00
  0.00000000E+00  0.00000000E+00  0.00000000E+00
  0.00000000E+00  0.00000000E+00  0.00000000E+00
  0.00000000E+00  0.00000000E+00  0.00000000E+00
  0.00000000E+00  0.00000000E+00  0.00000000E+00
  0.00000000E+00  0.00000000E+00  0.00000000E+00
  0.00000000E+00  0.00000000E+00  0.00000000E+00
  0.00000000E+00  0.00000000E+00  0.00000000E+00
  0.00000000E+00  0.00000000E+00  0.00000000E+00
  0.00000000E+00  0.00000000E+00  0.00000000E+00
  0.00000000E+00  0.00000000E+00  0.00000000E+00
  0.00000000E+00  0.00000000E+00  0.00000000E+00
  0.00000000E+00  0.00000000E+00  0.00000000E+00
  0.00000000E+00  0.00000000E+00  0.00000000E+00
  0.00000000E+00  0.00000000E+00  0.00000000E+00
  0.00000000E+00  0.00000000E+00  0.00000000E+00
  0.00000000E+00  0.00000000E+00  0.00000000E+00
  0.00000000E+00  0.00000000E+00  0.00000000E+00
  0.00000000E+00  0.00000000E+00  0.00000000E+00
  0.00000000E+00  0.00000000E+00  0.00000000E+00
  0.00000000E+00  0.00000000E+00  0.00000000E+00
  0.00000000E+00  0.00000000E+00  0.00000000E+00
  0.00000000E+00  0.00000000E+00  0.00000000E+00
  0.00000000E+00  0.00000000E+00  0.00000000E+00
  0.00000000E+00  0.00000000E+00  0.00000000E+00
  0.00000000E+00  0.00000000E+00  0.00000000E+00
  0.00000000E+00  0.00000000E+00  0.00000000E+00
  0.00000000E+00  0.00000000E+00  0.00000000E+00
  0.00000000E+00  0.00000000E+00  0.00000000E+00
  0.00000000E+00  0.00000000E+00  0.00000000E+00
  0.00000000E+00  0.00000000E+00  0.00000000E+00
  0.00000000E+00  0.00000000E+00  0.00000000E+00
  0.00000000E+00  0.00000000E+00  0.00000000E+00
  0.00000000E+00  0.00000000E+00  0.00000000E+00
  0.00000000E+00  0.00000000E+00  0.00000000E+00
  0.00000000E+00  0.00000000E+00  0.00000000E+00
  0.00000000E+00  0.00000000E+00  0.00000000E+00
  0.00000000E+00  0.00000000E+00  0.00000000E+00
  0.00000000E+00  0.00000000E+00  0.00000000E+00
  0.00000000E+00  0.00000000E+00  0.00000000E+00
  0.00000000E+00  0.00000000E+00  0.00000000E+00
  0.00000000E+00  0.00000000E+00  0.00000000E+00
  0.00000000E+00  0.00000000E+00  0.00000000E+00
  0.00000000E+00  0.00000000E+00  0.00000000E+00
  0.00000000E+00  0.00000000E+00  0.00000000E+00
  0.00000000E+00  0.00000000E+00  0.00000000E+00
  0.00000000E+00  0.00000000E+00  0.00000000E+00
  0.00000000E+00  0.00000000E+00  0.00000000E+00
  0.00000000E+00  0.00000000E+00  0.00000000E+00
  0.00000000E+00  0.00000000E+00  0.00000000E+00
  0.00000000E+00  0.00000000E+00  0.00000000E+00
  0.00000000E+00  0.00000000E+00  0.00000000E+00
  0.00000000E+00  0.00000000E+00  0.00000000E+00
  0.00000000E+00  0.00000000E+00  0.00000000E+00
  0.00000000E+00  0.00000000E+00  0.00000000E+00
  0.00000000E+00  0.00000000E+00  0.00000000E+00
  0.00000000E+00  0.00000000E+00  0.00000000E+00
  0.00000000E+00  0.00000000E+00  0.00000000E+00
  0.00000000E+00  0.00000000E+00  0.00000000E+00
  0.00000000E+00  0.00000000E+00  0.00000000E+00
  0.00000000E+00  0.00000000E+00  0.00000000E+00
  0.00000000E+00  0.00000000E+00  0.00000000E+00
  0.00000000E+00  0.00000000E+00  0.00000000E+00
  0.00000000E+00  0.00000000E+00  0.00000000E+00
  0.00000000E+00  0.00000000E+00  0.00000000E+00
  0.00000000E+00  0.00000000E+00  0.00000000E+00
  0.00000000E+00  0.00000000E+00  0.00000000E+00
  0.00000000E+00  0.00000000E+00  0.00000000E+00
  0.00000000E+00  0.00000000E+00  0.00000000E+00
  0.00000000E+00  0.00000000E+00  0.00000000E+00
  0.00000000E+00  0.00000000E+00  0.00000000E+00
  0.00000000E+00  0.00000000E+00  0.00000000E+00
  0.00000000E+00  0.00000000E+00  0.00000000E+00
  0.00000000E+00  0.00000000E+00  0.00000000E+00
  0.00000000E+00  0.00000000E+00  0.00000000E+00
  0.00000000E+00  0.00000000E+00  0.00000000E+00
  0.00000000E+00  0.00000000E+00  0.00000000E+00
  0.00000000E+00  0.00000000E+00  0.00000000E+00
  0.00000000E+00  0.00000000E+00  0.00000000E+00
