C H O Si                                
   1.00000000000000     
    18.5749199999999988    0.0000000000000000    0.0000000000000000
     0.0000000000000000   17.5126199999999983    0.0000000000000000
     0.0000000000000000    0.0000000000000000   58.0000000000000000
   C    H    O    Si
   144   105    52   144
Selective dynamics
Direct
  0.4996642291252151  0.0653828768829463  0.0600414399760824   T   T   T
  0.1663263870590618  0.0654684591651299  0.0600857881678327   T   T   T
  0.3329100920510233  0.0654389377694114  0.0600694885723419   T   T   T
  0.4996861455040024  0.3154242727734001  0.0600292895377173   T   T   T
  0.1663458562865851  0.3154622361613017  0.0601049243072371   T   T   T
  0.3329400261220867  0.3154583990707008  0.0600867448991778   T   T   T
  0.0827209690013768  0.1881320043006657  0.1390003068338873   T   T   T
  0.2493467358997051  0.1881544008408214  0.1389995168055471   T   T   T
  0.4159974268375503  0.1881066282340647  0.1389460871747207   T   T   T
  0.0826797387079704  0.4381743926591691  0.1390368900386948   T   T   T
  0.2493095855077417  0.4381883354072684  0.1390079777191296   T   T   T
  0.4160492668322945  0.4382643034880447  0.1389624826653338   T   T   T
  0.1661332251019823  0.0631537445690125  0.1661330750200036   T   T   T
  0.3326666809220193  0.0631672534938676  0.1661233544392929   T   T   T
  0.4992003896939595  0.0628744575871000  0.1659998432703779   T   T   T
  0.1661035176082974  0.3132749097557208  0.1661685824006485   T   T   T
  0.3327121509220147  0.3133320363257109  0.1661399511486310   T   T   T
  0.4992230456419016  0.3131861347311400  0.1660088001381039   T   T   T
  0.0828412211339093  0.1900244586054167  0.1915058918605698   T   T   T
  0.2492936702673736  0.1902621953527380  0.1915117039711103   T   T   T
  0.4158268855243688  0.1902351831090276  0.1914693526713813   T   T   T
  0.0824426994820352  0.4402347141074676  0.1915862773966439   T   T   T
  0.2492918276667281  0.4403001723242769  0.1915447326562404   T   T   T
  0.4161897961914668  0.4403941185298368  0.1915211309840229   T   T   T
  0.0828512489552195  0.1883507666011368  0.0854609876618840   T   T   T
  0.2494866561627654  0.1883974316302779  0.0854495448302165   T   T   T
  0.4162135958563906  0.1883344373595097  0.0854183681202029   T   T   T
  0.0828389683635411  0.4383672095958736  0.0854762442223984   T   T   T
  0.2495005827099670  0.4384168188660029  0.0854642923588623   T   T   T
  0.4162241371304789  0.4383743013715111  0.0854250635885324   T   T   T
  0.1661928974792815  0.0631537156336361  0.1126067011315662   T   T   T
  0.3327660675818561  0.0631259317414597  0.1125890294580196   T   T   T
  0.4994678062531821  0.0631212505365222  0.1125656329556138   T   T   T
  0.1661607496055966  0.3131903224389060  0.1126241563148829   T   T   T
  0.3327877911689945  0.3131777967207191  0.1125987693318613   T   T   T
  0.4994755590068300  0.3131811377000456  0.1125496074365738   T   T   T
  0.4996890411186585  0.5654409239645900  0.0600390529277651   T   T   T
  0.1663189584429439  0.5654316843624977  0.0601136495759135   T   T   T
  0.3329523029571849  0.5654665638616280  0.0600829091564541   T   T   T
  0.4996938295986850  0.8154704130618988  0.0600631729234133   T   T   T
  0.1663173365607619  0.8153938214316701  0.0601103922313198   T   T   T
  0.3329210760361265  0.8154037545897811  0.0600747346255103   T   T   T
  0.0826932943898002  0.6881490547906916  0.1390415937053739   T   T   T
  0.2493034946478619  0.6881266972433007  0.1390149533064074   T   T   T
  0.4159978264294089  0.6882040151995377  0.1389707860534565   T   T   T
  0.0827341566103385  0.9380431618911445  0.1390056875486337   T   T   T
  0.2493192752227309  0.9380709046220392  0.1389920784783505   T   T   T
  0.4159434855363835  0.9380025009124320  0.1389433663020392   T   T   T
  0.1660586882426122  0.5632271984818980  0.1661870693127317   T   T   T
  0.3327261761515450  0.5632292450995763  0.1661589384769326   T   T   T
  0.4993246404029573  0.5634200277362018  0.1660818120579415   T   T   T
  0.1660531792344687  0.8131986729676559  0.1661740552308204   T   T   T
  0.3326883614842197  0.8131884229856416  0.1661463083431791   T   T   T
  0.4993772686495119  0.8132629760701413  0.1661267762640219   T   T   T
  0.0826339735254099  0.6902359712827660  0.1915754107180621   T   T   T
  0.2492752654716625  0.6902331654070782  0.1915449024108662   T   T   T
  0.4159311706919049  0.6902735571798677  0.1914938156982131   T   T   T
  0.0826162413751262  0.9402597485355377  0.1915626843163339   T   T   T
  0.2492472670647773  0.9402260376358487  0.1915218409662550   T   T   T
  0.4158981379193735  0.9402346296918969  0.1914835217195993   T   T   T
  0.0828142243811542  0.6883222742521055  0.0854877626147318   T   T   T
  0.2494663445514310  0.6883470698708237  0.0854573716519203   T   T   T
  0.4162170884849000  0.6883738190164914  0.0854299851975783   T   T   T
  0.0828560265616790  0.9383518535038898  0.0854595924092935   T   T   T
  0.2494695596970800  0.9383699191575731  0.0854431815198026   T   T   T
  0.4161713130847853  0.9383500526534212  0.0854196820047331   T   T   T
  0.1661463668580453  0.5631862540803452  0.1126368089718878   T   T   T
  0.3327756235989884  0.5631995545212464  0.1126040335717601   T   T   T
  0.4994792723471411  0.5632001213700791  0.1125744307692337   T   T   T
  0.1661621822241373  0.8131400870608062  0.1126177020784765   T   T   T
  0.3327453617691081  0.8131098977575210  0.1125888152997892   T   T   T
  0.4994727620493788  0.8132594024446556  0.1125900206308273   T   T   T
  0.9996380228985305  0.0653974522105936  0.0600909796266609   T   T   T
  0.6663866495285056  0.0654593345194563  0.0601287830875569   T   T   T
  0.8329303392574842  0.0654810535644992  0.0601731137214718   T   T   T
  0.9996607078260870  0.3154105214818856  0.0601085483921735   T   T   T
  0.6663900201140263  0.3153683491664190  0.0600898062366585   T   T   T
  0.8330025377660463  0.3153152794682915  0.0601303774201444   T   T   T
  0.5827159191032160  0.1880910500317067  0.1388651885088126   T   T   T
  0.7492763963227217  0.1885482406961522  0.1392328843964253   T   T   T
  0.9159758391055267  0.1882575894604237  0.1389548465279591   T   T   T
  0.5827089283822905  0.4382127626506296  0.1389621133052241   T   T   T
  0.7492980118203072  0.4372995516493927  0.1389250053581638   T   T   T
  0.9159781317766941  0.4381876443998842  0.1390619263293637   T   T   T
  0.6663138989536682  0.0634183453583283  0.1662149050402082   T   T   T
  0.8323801235822910  0.0636820720645928  0.1662830230964426   T   T   T
  0.9994855296792247  0.0630604297366722  0.1660767473612385   T   T   T
  0.6657164712555546  0.3134799678106254  0.1663013805103520   T   T   T
  0.8327199711477126  0.3135140195391717  0.1662904187248849   T   T   T
  0.9994467082754440  0.3132783025537237  0.1661271248186681   T   T   T
  0.5822638670633901  0.1890632719282397  0.1909886280080595   T   T   T
  0.7489267987246991  0.1924579455606162  0.1923026649043835   T   T   T
  0.9161792309675245  0.1895965861743447  0.1912046344538386   T   T   T
  0.5826325721707412  0.4402345983868491  0.1914163765695009   T   T   T
  0.7490411126833731  0.4389986133814795  0.1918784623374447   T   T   T
  0.9157389790402355  0.4402709741040376  0.1916072743592825   T   T   T
  0.5828730618529406  0.1883528539933586  0.0853854874792295   T   T   T
  0.7495223947135470  0.1884489953627507  0.0855711877303861   T   T   T
  0.9162196893577579  0.1883573501536138  0.0854654597635898   T   T   T
  0.5829008002245853  0.4383783051734720  0.0854222236305648   T   T   T
  0.7494882127408944  0.4383305540174506  0.0853405334052458   T   T   T
  0.9161655844631575  0.4383653977541638  0.0855000880417255   T   T   T
  0.6662307463962073  0.0632776498105415  0.1126583299485840   T   T   T
  0.8327207868671617  0.0633178081633635  0.1127064380470102   T   T   T
  0.9994887452137780  0.0631575844052811  0.1126285288323773   T   T   T
  0.6661353787770695  0.3131239900410239  0.1126412667398658   T   T   T
  0.8327724378829429  0.3131592483858829  0.1126582026294956   T   T   T
  0.9994745418768468  0.3132247282413319  0.1126331617587785   T   T   T
  0.9996130090932799  0.5653918405441433  0.0601267851676348   T   T   T
  0.6663734805988023  0.5654791039829734  0.0600562725933095   T   T   T
  0.8329670315301513  0.5654425269493105  0.0601110329966031   T   T   T
  0.9995999410413995  0.8154051213309023  0.0601322568945975   T   T   T
  0.6663864763463669  0.8154623696805618  0.0601126044446716   T   T   T
  0.8329494399563242  0.8154642130014723  0.0601414712623013   T   T   T
  0.5825585726036149  0.6882936994780107  0.1389556659088706   T   T   T
  0.7493314345235089  0.6880469295787012  0.1390519495887415   T   T   T
  0.9161363716211514  0.6882473557622754  0.1390296813702818   T   T   T
  0.5827976217381270  0.9382157841003363  0.1390214998550233   T   T   T
  0.7493508495429210  0.9381280919094854  0.1390383731488842   T   T   T
  0.9159205979210649  0.9382686625989159  0.1390609000950153   T   T   T
  0.6655941877357945  0.5633848023710731  0.1662378179794623   T   T   T
  0.8329674782478946  0.5632210543189864  0.1663360337266974   T   T   T
  0.9993710536729761  0.5632967312575921  0.1661927921346007   T   T   T
  0.6660930300192104  0.8131612908021975  0.1661668468253834   T   T   T
  0.8326690585901640  0.8131706956359214  0.1662075381997196   T   T   T
  0.9993780070930492  0.8132814897969269  0.1661809273367178   T   T   T
  0.5825187203414047  0.6902852576614188  0.1915241571878434   T   T   T
  0.7492237384025036  0.6901472107488013  0.1915858603500751   T   T   T
  0.9160372232637931  0.6903586378923721  0.1915594698933221   T   T   T
  0.5825610356204430  0.9402289656422396  0.1915401640102286   T   T   T
  0.7492264157785533  0.9402675912049422  0.1915641040313562   T   T   T
  0.9158949967830600  0.9403886021704346  0.1915532196036094   T   T   T
  0.5828740479083940  0.6883588324367607  0.0854328147866005   T   T   T
  0.7495047306395454  0.6883625729509907  0.0854764607113269   T   T   T
  0.9161868700102610  0.6883177289686043  0.0854995076081393   T   T   T
  0.5829236286621349  0.9384012466546794  0.0854629428219854   T   T   T
  0.7495373241563998  0.9384463855872631  0.0854959695469022   T   T   T
  0.9161643073412414  0.9384330751194434  0.0855132921130990   T   T   T
  0.6662142136138950  0.5630757639851779  0.1126275611625384   T   T   T
  0.8327566246439400  0.5630167068536809  0.1126853606154706   T   T   T
  0.9994754154274974  0.5631717059691870  0.1126662984231925   T   T   T
  0.6662185496804041  0.8131766189226085  0.1126235416877444   T   T   T
  0.8327840587155627  0.8131556869294088  0.1126610717826663   T   T   T
  0.9994800594743394  0.8132571630185982  0.1126594193200993   T   T   T
  0.0402706915941343  0.1798495119520895  0.0268091315714755   T   T   T
  0.2068419883347863  0.1798266339166356  0.0267934023314031   T   T   T
  0.3734679196963030  0.1797745807045287  0.0267871828401018   T   T   T
  0.0402645924473736  0.4298182664825371  0.0268309764828219   T   T   T
  0.2068401937224817  0.4297758754547659  0.0268034184833515   T   T   T
  0.3734631006051224  0.4297473830031685  0.0267927486048936   T   T   T
  0.1651167433739820  0.0290941177349219  0.0446065844323328   T   T   T
  0.3316803426696963  0.0290699622694812  0.0445898210007495   T   T   T
  0.4984673907708324  0.0290669223123806  0.0445553284229427   T   T   T
  0.1651117872879490  0.2791195039135116  0.0446206813480384   T   T   T
  0.3317112356923769  0.2791008941860899  0.0446015646176713   T   T   T
  0.4985046757057586  0.2791229910656065  0.0445356680580380   T   T   T
  0.4177357521714257  0.4038557728827592  0.2069752694303099   T   T   T
  0.4172586354216599  0.1538460289760905  0.2069461325560793   T   T   T
  0.0839830040544714  0.1536936536039600  0.2069947047013508   T   T   T
  0.2505724509204433  0.1538716833462302  0.2069947601630996   T   T   T
  0.0837746489466733  0.4036650472288812  0.2070350146714283   T   T   T
  0.2505750141613282  0.4038034454787460  0.2070055929240494   T   T   T
  0.0422011488726061  0.0549822972036665  0.2247309520579157   T   T   T
  0.2088225002051231  0.0549081579242865  0.2247549149903254   T   T   T
  0.3753224483496856  0.0551383835558860  0.2247153917333669   T   T   T
  0.0408236216635359  0.3041201578718490  0.2250850231159650   T   T   T
  0.2086860349062651  0.3049043347294221  0.2247610111835247   T   T   T
  0.3750004792020449  0.3054185171051169  0.2248178431047513   T   T   T
  0.0402394825532391  0.6798202490896036  0.0268481830932413   T   T   T
  0.2067726409622478  0.6797496396227369  0.0268073466225484   T   T   T
  0.3734820354772293  0.6797898247632851  0.0267932235137146   T   T   T
  0.0402322955129056  0.9297211768162554  0.0268108371272587   T   T   T
  0.2068219808386725  0.9297046439011174  0.0267827360227299   T   T   T
  0.3734720554746209  0.9296792065015508  0.0267767769430278   T   T   T
  0.1650489196529323  0.5290458577910270  0.0446375825726528   T   T   T
  0.3317498562864530  0.5290744310367550  0.0446053311939056   T   T   T
  0.4985051634779191  0.5290869740611724  0.0445585192393725   T   T   T
  0.1650788928055489  0.7790406155560283  0.0446246118291487   T   T   T
  0.3317027306061295  0.7790632616265408  0.0445905117524182   T   T   T
  0.4985828506619759  0.7791192081557936  0.0445824018718131   T   T   T
  0.4171900407922456  0.9038184299767149  0.2069637134887729   T   T   T
  0.4173121006116041  0.6537564331952509  0.2069498055688357   T   T   T
  0.0837887194036490  0.6538049783597872  0.2070455618765423   T   T   T
  0.2505410054027997  0.6537957318267519  0.2070181026256982   T   T   T
  0.0838323450005011  0.9038756660458209  0.2070418028096065   T   T   T
  0.2504904254060876  0.9038360967746895  0.2070048795759406   T   T   T
  0.0432156278702127  0.5544940150340483  0.2245859682036269   T   T   T
  0.2088031986646007  0.5546140221368007  0.2248129397917194   T   T   T
  0.3755939009697691  0.5547343415427145  0.2247787343347370   T   T   T
  0.0424169190449313  0.8048095841089515  0.2247666672006348   T   T   T
  0.2088065615690335  0.8047488812830479  0.2248126866467493   T   T   T
  0.3756555382829553  0.8046142033180796  0.2247428753280694   T   T   T
  0.5403401500182885  0.1797385662672943  0.0267579052621036   T   T   T
  0.7069397965864758  0.1798998991509638  0.0269132189941016   T   T   T
  0.8734440144332846  0.1797853110781956  0.0268530631142743   T   T   T
  0.5402073894462712  0.4297272077448934  0.0268017425873640   T   T   T
  0.7072094945146372  0.4296454277343609  0.0267027106846384   T   T   T
  0.8734111892357280  0.4296737299390757  0.0268963871535222   T   T   T
  0.6653820594440726  0.0290646369257751  0.0446566138776852   T   T   T
  0.8316053849873900  0.0290436851870302  0.0447051576070711   T   T   T
  0.9984112037033815  0.0290493555707902  0.0446123529948703   T   T   T
  0.6651162607693955  0.2789232047488569  0.0446326151530994   T   T   T
  0.8319748843813202  0.2788895479473792  0.0446676262927489   T   T   T
  0.9984000234534489  0.2790945874766156  0.0446188588538011   T   T   T
  0.9168661607939930  0.4034357956411807  0.2069909660235705   T   T   T
  0.9174524405789047  0.1533790842647820  0.2067282886592440   T   T   T
  0.5832155222915526  0.1532960036362557  0.2066018977681444   T   T   T
  0.7504038105024894  0.1556241167740900  0.2076862010062785   T   T   T
  0.5835135795277751  0.4034844870525288  0.2068036609435513   T   T   T
  0.7698027253543519  0.4648438935713811  0.2622343920727939   T   T   T
  0.5416586287739916  0.0560934957887513  0.2245491679912547   T   T   T
  0.7085835644549831  0.0558990426604085  0.2246400676908626   T   T   T
  0.8750201594751181  0.0558550075348641  0.2247677429344468   T   T   T
  0.5491359472294551  0.3009017149325061  0.2228097715657507   T   T   T
  0.6849090766530131  0.2823453123310677  0.2310118503210317   T   T   T
  0.8912041309000509  0.2962386409695121  0.2234658858309914   T   T   T
  0.7512299806020704  0.2695538855523731  0.2665263542839713   T   T   T
  0.7362375389286909  0.2271277820723746  0.3008317307873857   T   T   T
  0.7600223636837027  0.3114495855294447  0.3087268272874286   T   T   T
  0.6440936655064335  0.1360462926536554  0.2963092430924416   T   T   T
  0.7180177223874177  0.1069099259469175  0.2877622847491493   T   T   T
  0.8178920732542534  0.3863722079874817  0.3348155900232672   T   T   T
  0.7509766691413227  0.4318849598494598  0.3266640468333016   T   T   T
  0.7528911044517699  0.4395352241119982  0.2711713088103374   T   T   T
  0.7849701769376540  0.2671850246815813  0.2409985541199195   T   T   T
  0.5402469548984405  0.6798810544681883  0.0267796657159558   T   T   T
  0.7069993377891208  0.6798885673014405  0.0268166743046100   T   T   T
  0.8736203706211222  0.6798332064130315  0.0268606107888276   T   T   T
  0.5404071135311600  0.9298301647239755  0.0267851504388349   T   T   T
  0.7068634309250369  0.9297590229977083  0.0268424102912898   T   T   T
  0.8736107887391751  0.9298181033958917  0.0268456103898706   T   T   T
  0.6652561293778818  0.5290991189138873  0.0445786387361107   T   T   T
  0.8318198536629139  0.5290545488964978  0.0446362430257780   T   T   T
  0.9983671709976221  0.5290164614212928  0.0446485027780270   T   T   T
  0.6652103824845371  0.7791500084420989  0.0446158704978819   T   T   T
  0.8317444995063877  0.7791379659948439  0.0446511368458504   T   T   T
  0.9982870176974623  0.7790533496236121  0.0446512926818347   T   T   T
  0.9171576303460545  0.9040271789784965  0.2070465561734638   T   T   T
  0.9170238470817668  0.6537314393682636  0.2069892872015301   T   T   T
  0.5841417980457999  0.6534543017518049  0.2069013422075123   T   T   T
  0.7501839362206245  0.6532077403806668  0.2069583488871579   T   T   T
  0.5837618320331998  0.9038535353247750  0.2070219201825919   T   T   T
  0.7505032801981391  0.9038320036882380  0.2070367521466817   T   T   T
  0.5441722850459221  0.5541458989567727  0.2242377446577228   T   T   T
  0.7085115662614142  0.5499907674582850  0.2250960534740165   T   T   T
  0.8787390082732754  0.5552643108431388  0.2236644565553041   T   T   T
  0.5419363296620616  0.8047284993778296  0.2247504374632450   T   T   T
  0.7085881368161844  0.8047338813822404  0.2247703915064166   T   T   T
  0.8759159871168305  0.8045799214725560  0.2247134361463929   T   T   T
  0.0872969109396726  0.1690845878194964  0.0336196640169174   T   T   T
  0.2538828790222580  0.1691070155036631  0.0336001337915060   T   T   T
  0.4205210696523190  0.1689953468346722  0.0335760747455977   T   T   T
  0.0872987456767459  0.4190934860025293  0.0336403780472704   T   T   T
  0.2538817590591325  0.4190809714021060  0.0336129651810795   T   T   T
  0.4205211020268280  0.4190243460617983  0.0335816347238357   T   T   T
  0.1617487297346055  0.0439619726528021  0.2180019773725386   T   T   T
  0.3282632502110183  0.0436614532145649  0.2180270047723367   T   T   T
  0.4946914298112070  0.0437251065539230  0.2179472283461122   T   T   T
  0.1616337725750913  0.2936827176625784  0.2180320948484037   T   T   T
  0.3281962025143263  0.2936404782383595  0.2180284778283407   T   T   T
  0.4987012385721750  0.2931029176777039  0.2178589581459588   T   T   T
  0.0872791943932368  0.6690790739791844  0.0336500993091223   T   T   T
  0.2538352369955321  0.6690393181158831  0.0336012530852496   T   T   T
  0.4205516208438196  0.6690788035490273  0.0335829505344972   T   T   T
  0.0872640109882613  0.9190272169811895  0.0336294501043238   T   T   T
  0.2538429579718250  0.9190341505860082  0.0336072538333059   T   T   T
  0.4205205171573054  0.9189981678769258  0.0335846706637710   T   T   T
  0.1617171852024676  0.5437736621545524  0.2180569008718662   T   T   T
  0.3284916478120123  0.5436805851061648  0.2180637610944044   T   T   T
  0.4961887298193314  0.5442971702811029  0.2179200762449419   T   T   T
  0.1617463949058432  0.7938806593665462  0.2180405708460726   T   T   T
  0.3284805060123694  0.7937584210408491  0.2180389155996480   T   T   T
  0.4948333760597137  0.7939266077070096  0.2179891964732368   T   T   T
  0.5873630836187104  0.1689484957845685  0.0335618208472099   T   T   T
  0.7539688015361253  0.1690578138373138  0.0337103828337192   T   T   T
  0.9205244486234703  0.1689053375479858  0.0336087035313845   T   T   T
  0.5872963489769619  0.4189951562469897  0.0335719465321276   T   T   T
  0.7542216893204071  0.4184831058355556  0.0334591588137671   T   T   T
  0.9205408593574680  0.4189679677506493  0.0336499149755243   T   T   T
  0.6615260651200949  0.0434596403569002  0.2181157178018949   T   T   T
  0.8280844079415843  0.0434327375051462  0.2181597317075482   T   T   T
  0.9951410338648404  0.0439703419882641  0.2179844082252591   T   T   T
  0.6512726190337922  0.2950945536574511  0.2180445566290245   T   T   T
  0.8405135214058014  0.2918380632654639  0.2187655406439895   T   T   T
  0.9944560231395810  0.2922295012478709  0.2180174183326786   T   T   T
  0.7642284460571912  0.2728261966475904  0.2962930358157038   T   T   T
  0.6945985067423788  0.1321684079110328  0.3007397880702577   T   T   T
  0.7670050238982891  0.3809023831781284  0.3310375127262866   T   T   T
  0.7432154903991184  0.2508785915979191  0.2505688594395455   T   T   T
  0.5872978059010849  0.6691451559958322  0.0335753259552593   T   T   T
  0.7540487449197046  0.6691526557170879  0.0336123885614017   T   T   T
  0.9206814271655264  0.6690812167325555  0.0336460430685006   T   T   T
  0.5874134802463115  0.9191638979450798  0.0336241395999040   T   T   T
  0.7539257370248101  0.9190875136951058  0.0336424382454514   T   T   T
  0.9206247529605323  0.9190597182059764  0.0336624528200823   T   T   T
  0.6614031407843839  0.5455023697200433  0.2177200716486915   T   T   T
  0.8300978691780296  0.5451965458308123  0.2180320466839766   T   T   T
  0.9956770943388792  0.5440734523253178  0.2180845942402955   T   T   T
  0.6614872700100874  0.7939401140471536  0.2180164623242879   T   T   T
  0.8286224307168319  0.7937303199071406  0.2180983902796575   T   T   T
  0.9952707089876912  0.7939152727701154  0.2180595636347585   T   T   T
  0.2496849876702383  0.1241291398787162  0.0594113869214956   T   T   T
  0.4163793831714407  0.1240241336800029  0.0593916180204042   T   T   T
  0.0830242493559884  0.3740471235355463  0.0594480360496054   T   T   T
  0.2497076878241960  0.3741228338946179  0.0594289018005480   T   T   T
  0.4164089203714399  0.3740429325070730  0.0594016681675333   T   T   T
  0.0830235212647607  0.1240536962448045  0.0594244734916987   T   T   T
  0.4993079393983175  0.0004220703311731  0.1391795685323573   T   T   T
  0.1660351074375605  0.0005076041467939  0.1392303597327320   T   T   T
  0.3326598498431060  0.0004958298082359  0.1392171178623028   T   T   T
  0.4994835319959042  0.2506072275317333  0.1392011158313307   T   T   T
  0.1660232264983399  0.2506110853850530  0.1392629585749481   T   T   T
  0.3327260735478725  0.2505992961259163  0.1392437460522714   T   T   T
  0.0827694823886716  0.1252145442322724  0.1655328731444992   T   T   T
  0.2494048021994221  0.1253378862887794  0.1655526375539269   T   T   T
  0.4160574127619778  0.1252840400567335  0.1655098784364507   T   T   T
  0.0826025774589518  0.3753535409533790  0.1656136994419471   T   T   T
  0.2494178215257232  0.3753749055793718  0.1655715593362947   T   T   T
  0.4162808636083181  0.3753823831678206  0.1655485913361626   T   T   T
  0.1657275459754928  0.4987607755209597  0.1922201817603257   T   T   T
  0.3327387306158162  0.4987876015821309  0.1922104662166217   T   T   T
  0.4999974468425067  0.4988352876427719  0.1921072008642691   T   T   T
  0.1659152135166972  0.2488815932571446  0.1921859820481502   T   T   T
  0.4994618275102291  0.2484878805914503  0.1919978068214275   T   T   T
  0.3326001898008217  0.2489048033921292  0.1921583511268351   T   T   T
  0.4995552339444453  0.0004431358440948  0.0860176651710949   T   T   T
  0.1661608166166167  0.0004583013605327  0.0860400426235290   T   T   T
  0.3328311587515211  0.0004288912943997  0.0860242801608583   T   T   T
  0.4995899012488403  0.2505051134427532  0.0860119358355610   T   T   T
  0.1661582468269634  0.2504766801867975  0.0860632804986293   T   T   T
  0.3328933112234916  0.2504357446042567  0.0860402264573592   T   T   T
  0.0828244570928636  0.1256560113182115  0.1123788430129914   T   T   T
  0.2494992195406045  0.1256776846760657  0.1123693110922820   T   T   T
  0.4161629176995728  0.1256315591454784  0.1123402517263011   T   T   T
  0.0827533116790689  0.3756992618412743  0.1124138095220411   T   T   T
  0.2494955217324377  0.3756733909602154  0.1123853792729930   T   T   T
  0.4162392672319639  0.3756824288849541  0.1123628002148301   T   T   T
  0.2496812175972050  0.6240666245007547  0.0594191748040176   T   T   T
  0.4164191042625198  0.6240468164854684  0.0593960786601588   T   T   T
  0.0830171426206969  0.8739801798854108  0.0594331617699176   T   T   T
  0.2496725948801726  0.8740460759414360  0.0594163436438325   T   T   T
  0.4163611234308074  0.8740104100329178  0.0593950455017882   T   T   T
  0.0829934537852855  0.6239917460016137  0.0594518808442744   T   T   T
  0.4996623596819247  0.5006125416185631  0.1392479470160828   T   T   T
  0.1659498896558202  0.5005739758570247  0.1392776446530986   T   T   T
  0.3327307338766767  0.5005540913775975  0.1392463516806311   T   T   T
  0.4994709593365375  0.7505336365084337  0.1392106918041716   T   T   T
  0.1659708517789888  0.7505152410559056  0.1392605972124471   T   T   T
  0.3326689081363396  0.7504999129117927  0.1392324410817310   T   T   T
  0.0825328678805991  0.6252069568285729  0.1656176015220742   T   T   T
  0.2493990535013769  0.6252474993398501  0.1655818278678647   T   T   T
  0.4161965212399650  0.6252605930876576  0.1655401964280727   T   T   T
  0.0826809304974495  0.8752960127651312  0.1655956840347335   T   T   T
  0.2493751155617612  0.8752741625902212  0.1655597984561338   T   T   T
  0.4160542800955199  0.8752658198029142  0.1655337928469967   T   T   T
  0.1658700989531756  0.9989020712647994  0.1921948304446215   T   T   T
  0.3325241599046695  0.9988629604051364  0.1921764408806917   T   T   T
  0.4991606292376126  0.9988950561528922  0.1921044069027603   T   T   T
  0.1658538938557684  0.7488314074050074  0.1922213473525072   T   T   T
  0.4993067808567055  0.7487789488807844  0.1921720279979190   T   T   T
  0.3325760650529761  0.7488201612399162  0.1922017956915411   T   T   T
  0.4996498256934617  0.5004626368118633  0.0860250554663397   T   T   T
  0.1661393692603419  0.5004458690894313  0.0860781781528077   T   T   T
  0.3329057618530544  0.5004481921078767  0.0860471403232026   T   T   T
  0.4996155531168357  0.7504447007038937  0.0860333979791778   T   T   T
  0.1661289328359361  0.7503831456732032  0.0860678200656772   T   T   T
  0.3328503898604511  0.7503676734657094  0.0860320917903015   T   T   T
  0.0827292602298620  0.6256054003928495  0.1124198778330468   T   T   T
  0.2494806192869350  0.6256236861087003  0.1123834592879929   T   T   T
  0.4162321832188320  0.6256246328503891  0.1123562333815465   T   T   T
  0.0828173859083518  0.8756017860602477  0.1123730506592908   T   T   T
  0.2494764237102623  0.8756104463625743  0.1123607191898793   T   T   T
  0.4161271638599905  0.8755696968518014  0.1123251972508673   T   T   T
  0.7497205096146706  0.1241793485532341  0.0595444198561308   T   T   T
  0.9163472502691929  0.1240781140335599  0.0594526342200752   T   T   T
  0.5831685296766437  0.3740653894925693  0.0594134013153473   T   T   T
  0.7497803609644259  0.3740750346181376  0.0593961981364166   T   T   T
  0.9163271274269925  0.3740435925242535  0.0594872320976620   T   T   T
  0.5831025301961251  0.1240588006784978  0.0593936277699993   T   T   T
  0.9993920003707037  0.0004661081100780  0.1392368490825839   T   T   T
  0.6662179549590239  0.0007679930896815  0.1393106371229683   T   T   T
  0.8324739989168513  0.0008115712471401  0.1393534614901300   T   T   T
  0.9992718477735292  0.2506578381660439  0.1392607618440533   T   T   T
  0.6659579879996945  0.2512953602332108  0.1395172498107114   T   T   T
  0.8325510431906535  0.2512845149227957  0.1394945900712757   T   T   T
  0.5826404732349874  0.1250022877050802  0.1653414482258794   T   T   T
  0.7491691731698522  0.1267800607566406  0.1660457875732956   T   T   T
  0.9160525102734579  0.1252254158548767  0.1654301405468233   T   T   T
  0.5829235720895741  0.3755314365801991  0.1656183006283248   T   T   T
  0.7491218593308814  0.3774096696267312  0.1669370247005486   T   T   T
  0.9155930086373799  0.3756324609116439  0.1657424378661336   T   T   T
  0.6687176033765775  0.4958357746439914  0.1923751735500026   T   T   T
  0.8292605734293262  0.4958384139145002  0.1925995355582990   T   T   T
  0.9985167863567761  0.4987314023939257  0.1922367778843229   T   T   T
  0.6642435897497171  0.2507440940505173  0.1926680112207097   T   T   T
  0.9992742284119438  0.2482779641991477  0.1919487444723976   T   T   T
  0.8334020637377920  0.2500491402962280  0.1923911646702235   T   T   T
  0.9995383887015168  0.0004617030087466  0.0860706174688979   T   T   T
  0.6662718713457583  0.0005551387736178  0.0861043100441638   T   T   T
  0.8328165765452068  0.0005677791594591  0.0861427843645280   T   T   T
  0.9995182785931503  0.2504946749790843  0.0860879738736586   T   T   T
  0.6662236507955194  0.2506102771926616  0.0861306159135277   T   T   T
  0.8328546938894433  0.2505728625076349  0.0861556452091536   T   T   T
  0.5828741770100968  0.1257662062215746  0.1123303050178282   T   T   T
  0.7494574851879130  0.1260501154524312  0.1125826193779706   T   T   T
  0.9161010004632336  0.1257904222194164  0.1124101526331168   T   T   T