C H O Si                                
   1.00000000000000     
    18.5749199999999988    0.0000000000000000    0.0000000000000000
     0.0000000000000000   17.5126199999999983    0.0000000000000000
     0.0000000000000000    0.0000000000000000   58.0000000000000000
   C    H    O    Si
   144   105    52   144
Selective dynamics
Direct
  0.4997068766822917  0.0654852504076542  0.0600362892970537   T   T   T
  0.1663292147743947  0.0655092399252451  0.0600903936168232   T   T   T
  0.3329669860415210  0.0655040268134124  0.0600797296015301   T   T   T
  0.4997389225095435  0.3154903788726809  0.0600312716473595   T   T   T
  0.1663511167355409  0.3155452379461847  0.0601064921243409   T   T   T
  0.3330141127208900  0.3155355386317772  0.0600882892452601   T   T   T
  0.0827296484113716  0.1881826188478314  0.1389920878687572   T   T   T
  0.2493855165565938  0.1881726226821977  0.1389916460177552   T   T   T
  0.4160228486351843  0.1881177561035903  0.1389468263169231   T   T   T
  0.0827118598249532  0.4381798629360024  0.1390176863187229   T   T   T
  0.2493838071654898  0.4381782081427969  0.1390080000534830   T   T   T
  0.4160108179861504  0.4382216684346303  0.1389669255904778   T   T   T
  0.1660008991435348  0.0631522009358542  0.1661546895477919   T   T   T
  0.3325675124174857  0.0631324806938378  0.1661610580156338   T   T   T
  0.4990851160608057  0.0628557050526869  0.1660323444377662   T   T   T
  0.1659685055552275  0.3132437541643835  0.1661891839456742   T   T   T
  0.3326167798338672  0.3132623286253819  0.1661734595698549   T   T   T
  0.4990657157068307  0.3132374450873984  0.1660065842458316   T   T   T
  0.0828097901127815  0.1900282612715329  0.1915301562301855   T   T   T
  0.2492976908384625  0.1902209459981865  0.1915359215365164   T   T   T
  0.4158115925058003  0.1901566027458509  0.1914832441058088   T   T   T
  0.0825342963526902  0.4402263815865480  0.1915513891465929   T   T   T
  0.2493242044289473  0.4402499539288026  0.1915563293070278   T   T   T
  0.4161723486769709  0.4403485262471991  0.1915157526560589   T   T   T
  0.0828667776735514  0.1884146549344781  0.0854690511560930   T   T   T
  0.2495492930185461  0.1884095276809861  0.0854603252257214   T   T   T
  0.4162367450164720  0.1883737824063133  0.0854253807150535   T   T   T
  0.0828658375348315  0.4384096024763495  0.0854965952772395   T   T   T
  0.2495325896008204  0.4384118680382771  0.0854753922732878   T   T   T
  0.4162410504804456  0.4384045903215889  0.0854358969613472   T   T   T
  0.1660571946699195  0.0632368721344436  0.1126112651626577   T   T   T
  0.3326859950773726  0.0631838895953191  0.1125964038669337   T   T   T
  0.4993963842871736  0.0631615959578906  0.1125657638057736   T   T   T
  0.1660661212064130  0.3132705513753991  0.1126221187936561   T   T   T
  0.3327280114378284  0.3132617708016332  0.1126048870989558   T   T   T
  0.4993838238046466  0.3132591385081612  0.1125315195615558   T   T   T
  0.4997108919645590  0.5654818795818380  0.0600407775323482   T   T   T
  0.1663106925380951  0.5654926679303701  0.0601169971296927   T   T   T
  0.3329934196465012  0.5655049137074406  0.0600832540035357   T   T   T
  0.4997043359594847  0.8155640329197130  0.0600848452359630   T   T   T
  0.1663065014167827  0.8155075163606296  0.0601048314238000   T   T   T
  0.3329917322580897  0.8155016609500921  0.0600838360381075   T   T   T
  0.0827365180072207  0.6881665977737842  0.1390334123627821   T   T   T
  0.2493759669967830  0.6881489171707965  0.1390121554604074   T   T   T
  0.4160135327316416  0.6882156358044480  0.1389708314300615   T   T   T
  0.0827751917798212  0.9381412599178686  0.1390028883351642   T   T   T
  0.2493732659263547  0.9381064511609827  0.1389984396502363   T   T   T
  0.4159677720508107  0.9380418318856258  0.1389545536232364   T   T   T
  0.1659250515014744  0.5631997167364335  0.1662044772639037   T   T   T
  0.3326104144195188  0.5632151774059364  0.1661909790893366   T   T   T
  0.4992092180308667  0.5633643128332446  0.1660778957808475   T   T   T
  0.1659556589557863  0.8132013449504467  0.1662081606114265   T   T   T
  0.3325737846145079  0.8131609091263151  0.1661724423818854   T   T   T
  0.4992326741826175  0.8132162261853325  0.1661671169887871   T   T   T
  0.0826560626267272  0.6901944806331940  0.1915626415293234   T   T   T
  0.2493093539779484  0.6901687119814941  0.1915690712609962   T   T   T
  0.4159442806073441  0.6901541975042704  0.1915187531402545   T   T   T
  0.0826206040824127  0.9402532297335113  0.1915481170676065   T   T   T
  0.2492625399088558  0.9401785360437451  0.1915574665928597   T   T   T
  0.4158995167340136  0.9401706531969651  0.1915234001122291   T   T   T
  0.0828491440840946  0.6883915860038377  0.0855039218371977   T   T   T
  0.2495331149114343  0.6883770798389731  0.0854555303483716   T   T   T
  0.4162496111055491  0.6883812459852985  0.0854413783280097   T   T   T
  0.0828674436062620  0.9383975455083817  0.0854787136024433   T   T   T
  0.2495178316001286  0.9383758104251426  0.0854623386133393   T   T   T
  0.4161959096142284  0.9383918787681110  0.0854279742416306   T   T   T
  0.1660285295423237  0.5632475111964410  0.1126342665423256   T   T   T
  0.3327091711478944  0.5632625511017344  0.1126047802969928   T   T   T
  0.4993833305263999  0.5632506718645011  0.1125698838103684   T   T   T
  0.1660728635008512  0.8131837975121946  0.1126270716353108   T   T   T
  0.3326738363404915  0.8131762943756685  0.1125892431100526   T   T   T
  0.4993609514729332  0.8133210389159424  0.1125935030797550   T   T   T
  0.9996503171305551  0.0654996387319938  0.0601023624875058   T   T   T
  0.6663954389732147  0.0655446871393752  0.0601276292097654   T   T   T
  0.8329802898935491  0.0654734081648626  0.0601623734117148   T   T   T
  0.9996741871628131  0.3155408680394297  0.0601143214835435   T   T   T
  0.6663854847910349  0.3154696866114727  0.0600910975992326   T   T   T
  0.8330873423291028  0.3153918643238953  0.0601500105308643   T   T   T
  0.5827205691954176  0.1881982580354103  0.1388661449905143   T   T   T
  0.7493117729270853  0.1885310276936222  0.1392390537734617   T   T   T
  0.9159891656383794  0.1882748063336232  0.1389500941249847   T   T   T
  0.5826815181264370  0.4382588554705447  0.1389615394063635   T   T   T
  0.7492904998348623  0.4374214438662938  0.1389726212548156   T   T   T
  0.9159709240990245  0.4381389659024530  0.1390854241113918   T   T   T
  0.6662172895627658  0.0634345757227676  0.1662626310032384   T   T   T
  0.8323237131132303  0.0637169336953665  0.1663549692414478   T   T   T
  0.9993762114334446  0.0630603440979637  0.1661150881034862   T   T   T
  0.6656187258491857  0.3135086884276942  0.1663287114329669   T   T   T
  0.8326748559105193  0.3134887575189695  0.1663054601353980   T   T   T
  0.9994185171537217  0.3132228480045969  0.1661822385769983   T   T   T
  0.5822225155626509  0.1892878105060435  0.1909395953042708   T   T   T
  0.7488895876642969  0.1924468291221382  0.1922776928457111   T   T   T
  0.9161890575067799  0.1897047057892191  0.1911996661724886   T   T   T
  0.5825992400810851  0.4403344936893952  0.1914233423179877   T   T   T
  0.7491060198985878  0.4389086761306286  0.1919022074694335   T   T   T
  0.9158158779486179  0.4401392133023128  0.1916307577291963   T   T   T
  0.5829179422859544  0.1883747407963650  0.0854039485219968   T   T   T
  0.7495450308143599  0.1884654786893754  0.0855872125178614   T   T   T
  0.9161918071824192  0.1883928566891322  0.0854636437689903   T   T   T
  0.5829318986900404  0.4383809122580543  0.0854161895415734   T   T   T
  0.7495567004630331  0.4383061897654211  0.0853783273859646   T   T   T
  0.9161707745789877  0.4383852087603811  0.0855250164301900   T   T   T
  0.6661286602094908  0.0633358174509882  0.1126707774542354   T   T   T
  0.8326769792779939  0.0633903619446024  0.1127048746514221   T   T   T
  0.9993748272405522  0.0632619960667059  0.1126155401300123   T   T   T
  0.6660452147412380  0.3132558323207555  0.1126519673603686   T   T   T
  0.8326843903061513  0.3132738757852966  0.1126650577033706   T   T   T
  0.9993822805326096  0.3132763645566530  0.1126351162162897   T   T   T
  0.9996338594645922  0.5654650343444028  0.0601279540080721   T   T   T
  0.6663776199236640  0.5654829645350169  0.0600439367733862   T   T   T
  0.8330326690650056  0.5654843181624531  0.0601206515367460   T   T   T
  0.9996156376828597  0.8155088962932200  0.0601365050464372   T   T   T
  0.6663569964147973  0.8155721044104975  0.0601103215595995   T   T   T
  0.8330053651853433  0.8155419765436410  0.0601372301852217   T   T   T
  0.5825750956667644  0.6882849619481397  0.1389543756696835   T   T   T
  0.7493749086776805  0.6880127926374338  0.1390619716671012   T   T   T
  0.9161748117596485  0.6882297284621788  0.1390398390941028   T   T   T
  0.5828495659253771  0.9382169950168486  0.1390180550395581   T   T   T
  0.7494570562965477  0.9381667031196408  0.1390443934991075   T   T   T
  0.9159413810337335  0.9383060273537841  0.1390734924781789   T   T   T
  0.6654844799345153  0.5632605433850151  0.1662898400934163   T   T   T
  0.8329715887960700  0.5631309585703810  0.1663943892712326   T   T   T
  0.9992756101908803  0.5632383758289699  0.1662246369637448   T   T   T
  0.6659528498545642  0.8131672260752202  0.1661945615899050   T   T   T
  0.8326188685135926  0.8131009143170344  0.1662467246006585   T   T   T
  0.9993159500033936  0.8132570533147789  0.1662222479238049   T   T   T
  0.5825429224436792  0.6902549856382612  0.1915017413708264   T   T   T
  0.7492613285389127  0.6900526556002029  0.1916048985556836   T   T   T
  0.9160913691594014  0.6902672252696652  0.1915558181015106   T   T   T
  0.5825816429800739  0.9402601056351155  0.1915333623123706   T   T   T
  0.7493007288868756  0.9402151149852795  0.1915742616470133   T   T   T
  0.9159328041093359  0.9403320662479585  0.1915585237130176   T   T   T
  0.5829348063252368  0.6883739960689381  0.0854217515167109   T   T   T
  0.7495677874719849  0.6883607217205414  0.0854862154615953   T   T   T
  0.9162006460187576  0.6883760361843654  0.0855216846160464   T   T   T
  0.5828982543340897  0.9384432778794523  0.0854807579379632   T   T   T
  0.7495286537610418  0.9384330462259896  0.0855201676986457   T   T   T
  0.9161753174931772  0.9384352993597480  0.0855326812124938   T   T   T
  0.6660516814750980  0.5631022674165801  0.1126105886398066   T   T   T
  0.8326808369281359  0.5630403115200108  0.1126872937622088   T   T   T
  0.9993549655219697  0.5632000951446208  0.1126629731749973   T   T   T
  0.6660922662758068  0.8132165297398257  0.1126275206253538   T   T   T
  0.8327392317904510  0.8132147514942432  0.1126601953773278   T   T   T
  0.9994034200148892  0.8133296895962153  0.1126562894887282   T   T   T
  0.0402380595780404  0.1797375358740099  0.0267821707313512   T   T   T
  0.2068420154917354  0.1797145515970351  0.0267733696383585   T   T   T
  0.3734315494990231  0.1796499048551750  0.0267769538275352   T   T   T
  0.0402423824172958  0.4296738022636425  0.0268232174732828   T   T   T
  0.2068542685057264  0.4296300351242661  0.0267990454828667   T   T   T
  0.3734528848547843  0.4295958535683200  0.0267915145586339   T   T   T
  0.1651857462195152  0.0290763095842079  0.0446127567627035   T   T   T
  0.3317848053844901  0.0290428755629450  0.0446050351049313   T   T   T
  0.4985210133202356  0.0290151525259714  0.0445640429767764   T   T   T
  0.1651579120001287  0.2791175889004839  0.0446285922759987   T   T   T
  0.3317920352363592  0.2790914635700223  0.0446181448923452   T   T   T
  0.4985780656447250  0.2791161476204595  0.0445425180408880   T   T   T
  0.4177872167168932  0.4037374667096021  0.2069572904157494   T   T   T
  0.4173358513866350  0.1537113826424647  0.2069539143798331   T   T   T
  0.0840495261412660  0.1535720567722551  0.2069983440338687   T   T   T
  0.2506285343950345  0.1537413904665195  0.2070027342620372   T   T   T
  0.0838478690710865  0.4035861336106609  0.2069856735183430   T   T   T
  0.2506440506569226  0.4036428310226148  0.2069960910555141   T   T   T
  0.0422120976980561  0.0548631818100571  0.2247082909220140   T   T   T
  0.2088493751897297  0.0547829586861172  0.2247221709967495   T   T   T
  0.3753861448850074  0.0550510614071211  0.2247074562260241   T   T   T
  0.0409301051349526  0.3040995769305952  0.2250797293372581   T   T   T
  0.2087220590002620  0.3048614328724149  0.2247585770340222   T   T   T
  0.3751136044701816  0.3053438464822673  0.2248068449394766   T   T   T
  0.0402284434547074  0.6796969388069555  0.0268344359625514   T   T   T
  0.2067960901185303  0.6796271860138907  0.0267997867893899   T   T   T
  0.3734715319131841  0.6796822395077977  0.0267716797133117   T   T   T
  0.0402047034661357  0.9295995472140030  0.0267891810802983   T   T   T
  0.2068445928702514  0.9295452571706454  0.0267877010693430   T   T   T
  0.3734277719636979  0.9295472544393438  0.0267681120629714   T   T   T
  0.1651186238350459  0.5290392921110280  0.0446456662096284   T   T   T
  0.3318772531300392  0.5290563405443022  0.0446084891925456   T   T   T
  0.4986083382066095  0.5290530701124365  0.0445568827950133   T   T   T
  0.1651459189497909  0.7790294875082916  0.0446421669134106   T   T   T
  0.3318002989523213  0.7790560618518584  0.0446088557814654   T   T   T
  0.4986594203640837  0.7791448722162819  0.0446025144105905   T   T   T
  0.4172437379409285  0.9036301776364064  0.2069754942592934   T   T   T
  0.4173630587592052  0.6536131040757344  0.2069734744308678   T   T   T
  0.0838124133044236  0.6536924292649289  0.2070222338912989   T   T   T
  0.2505891288510198  0.6536396500419425  0.2070267591758437   T   T   T
  0.0838900785225259  0.9037549516901098  0.2070102845160354   T   T   T
  0.2505682358548509  0.9036218370304238  0.2070087292565621   T   T   T
  0.0432627730518829  0.5544155925720172  0.2245829088029851   T   T   T
  0.2088357441141047  0.5544844488205583  0.2247873252616988   T   T   T
  0.3756642439434716  0.5546500254231481  0.2247706665307933   T   T   T
  0.0424705965246533  0.8047455536553620  0.2247564246707301   T   T   T
  0.2088510144413158  0.8046484730178812  0.2247864388406277   T   T   T
  0.3757210333760987  0.8045298440366324  0.2247378314104638   T   T   T
  0.5402442284318458  0.1796031647863232  0.0267515891334749   T   T   T
  0.7069457199925087  0.1797248448697051  0.0269264102175578   T   T   T
  0.8734199211694265  0.1796539311823405  0.0268380714379876   T   T   T
  0.5401392384061687  0.4296103796181002  0.0267908726411627   T   T   T
  0.7073188637396576  0.4294523325806847  0.0267074196405151   T   T   T
  0.8734086849603268  0.4295567504844171  0.0268740130993824   T   T   T
  0.6654242329616934  0.0290071162626088  0.0446719924799030   T   T   T
  0.8316845747632556  0.0289584042645792  0.0447051317684749   T   T   T
  0.9984867240159154  0.0290777009416837  0.0446173161587955   T   T   T
  0.6651606648325620  0.2789251389029556  0.0446381923679546   T   T   T
  0.8320959563705997  0.2788739798307683  0.0446922089628294   T   T   T
  0.9984832218164923  0.2791516798017485  0.0446275471612018   T   T   T
  0.9169397868636597  0.4032972433471336  0.2070073449461514   T   T   T
  0.9174979494589907  0.1533926431983755  0.2066956445597415   T   T   T
  0.5831582479682510  0.1533998557214078  0.2065344217942086   T   T   T
  0.7504008794870525  0.1555946355826606  0.2076544584318676   T   T   T
  0.5836406388311501  0.4034575705549053  0.2067870006260388   T   T   T
  0.7698774916247284  0.4646964126319605  0.2621078276260155   T   T   T
  0.5417231718477019  0.0559843289081745  0.2245299748463902   T   T   T
  0.7086230239535725  0.0557853935773864  0.2246194185639511   T   T   T
  0.8751139103235037  0.0557844915496766  0.2247639147874355   T   T   T
  0.5490606714776622  0.3009332966379931  0.2227534528088619   T   T   T
  0.6849933229989774  0.2823571951511136  0.2310405594134899   T   T   T
  0.8906819063696733  0.2962561098345955  0.2235647151928780   T   T   T
  0.7511030599674523  0.2698603897621888  0.2664982159834607   T   T   T
  0.7361262242499655  0.2271735155771920  0.3007540420109341   T   T   T
  0.7599696455810999  0.3117442708380315  0.3086467740558515   T   T   T
  0.6441310266464746  0.1359358659631233  0.2961811238606701   T   T   T
  0.7180719203836734  0.1071809928070609  0.2875993495606918   T   T   T
  0.8180724241694108  0.3862818524146297  0.3347667273916565   T   T   T
  0.7511723340016697  0.4319900916391006  0.3267130171566223   T   T   T
  0.7527620171254734  0.4392335262378564  0.2709674677978076   T   T   T
  0.7850440053060138  0.2674526054507733  0.2409578002180331   T   T   T
  0.5401929640323218  0.6798043342584748  0.0267440468468312   T   T   T
  0.7070018466161092  0.6797939666866371  0.0267853372268399   T   T   T
  0.8735939217701125  0.6797507656111841  0.0268188677473232   T   T   T
  0.5403544532674853  0.9297142325072688  0.0267646393986527   T   T   T
  0.7068698886794648  0.9296071668395092  0.0268467329659082   T   T   T
  0.8736004759638273  0.9296701220634824  0.0268400880945529   T   T   T
  0.6653266991723908  0.5290515229744501  0.0445584531057223   T   T   T
  0.8319381669371921  0.5290504920672139  0.0446392059903188   T   T   T
  0.9984602342484665  0.5290211111994063  0.0446514764826224   T   T   T
  0.6652678875567997  0.7791601378726895  0.0446311436042096   T   T   T
  0.8318193187169221  0.7791349684477040  0.0446563779235347   T   T   T
  0.9983646007188972  0.7790846409286146  0.0446566089463504   T   T   T
  0.9172294545271991  0.9038661216686099  0.2070262165354575   T   T   T
  0.9170462090619635  0.6535897923008241  0.2069737144740887   T   T   T
  0.5841993525565418  0.6533729815388898  0.2068757458181054   T   T   T
  0.7502502581881352  0.6530758931668804  0.2069715702745523   T   T   T
  0.5838092963287809  0.9037358349446560  0.2069914980665570   T   T   T
  0.7505844333083612  0.9036717765892935  0.2070267821568131   T   T   T
  0.5440897744513226  0.5540962848332134  0.2241978869343629   T   T   T
  0.7087863747900068  0.5498827392796198  0.2250382387978113   T   T   T
  0.8786295780060049  0.5551767488389894  0.2236726945604012   T   T   T
  0.5419773448641304  0.8046331159237196  0.2247367279460513   T   T   T
  0.7086096376905745  0.8046294051138263  0.2247518291174555   T   T   T
  0.8760199531313977  0.8045090145640038  0.2247039758193000   T   T   T
  0.0872770088689372  0.1690778182839446  0.0336024416801268   T   T   T
  0.2539010436440561  0.1691383069842058  0.0335922761494259   T   T   T
  0.4205379053563694  0.1690825706533315  0.0335613527098317   T   T   T
  0.0873376099624189  0.4190848247163221  0.0336117996118798   T   T   T
  0.2539503053866997  0.4191014419687228  0.0335973809708197   T   T   T
  0.4205766710415563  0.4191211742214129  0.0335679696756776   T   T   T
  0.1617158926268131  0.0442299488784612  0.2179579740865706   T   T   T
  0.3282549991420816  0.0437994160573658  0.2180363176734600   T   T   T
  0.4946485399884173  0.0438974211719610  0.2179611337113717   T   T   T
  0.1616070541640534  0.2938036163864987  0.2180439602786654   T   T   T
  0.3282360993743610  0.2937626465930239  0.2180324109150621   T   T   T
  0.4986685236594143  0.2929585002032198  0.2177777738245533   T   T   T
  0.0872948518864428  0.6690382184434431  0.0336264929591699   T   T   T
  0.2538830710989080  0.6690377187059656  0.0335945493101040   T   T   T
  0.4205593416204444  0.6691380306625295  0.0335813401698413   T   T   T
  0.0872674787203907  0.9190113813580092  0.0336037463169577   T   T   T
  0.2539305487175844  0.9190585797280890  0.0335915200812378   T   T   T
  0.4205480280305613  0.9190788797107227  0.0335653027339970   T   T   T
  0.1616716053242190  0.5438641176222077  0.2180588359650905   T   T   T
  0.3285103344948062  0.5436651893105724  0.2180801814805202   T   T   T
  0.4960303926306537  0.5444399543956503  0.2178999859319141   T   T   T
  0.1617254821021375  0.7939243812794262  0.2180399745354146   T   T   T
  0.3285226569352749  0.7938774429946627  0.2180215615611930   T   T   T
  0.4948061236940902  0.7940018796069637  0.2179915660506955   T   T   T
  0.5873548439382826  0.1691247825052361  0.0335406592671249   T   T   T
  0.7540636232579814  0.1689831098312128  0.0336787878232014   T   T   T
  0.9205332573623124  0.1689980089336287  0.0335991314099042   T   T   T
  0.5873088989965960  0.4190943805191827  0.0335405923537853   T   T   T
  0.7543310618081103  0.4185079633155587  0.0334987027563843   T   T   T
  0.9205770091223519  0.4189111378333638  0.0336154640236625   T   T   T
  0.6614839890671845  0.0435648175823426  0.2181192505119899   T   T   T
  0.8281285649312587  0.0435950545577459  0.2181567040593925   T   T   T
  0.9950722715206917  0.0442237418113396  0.2179685219337832   T   T   T
  0.6515387379516381  0.2952670033903242  0.2180336142524217   T   T   T
  0.8400824893962840  0.2918503579775074  0.2187106032207349   T   T   T
  0.9944535874904665  0.2923936334062843  0.2180587610889330   T   T   T
  0.7639894147722762  0.2729747461656415  0.2962518817564918   T   T   T
  0.6945443576032494  0.1317010328327505  0.3006745200694837   T   T   T
  0.7671470894389102  0.3809473691129363  0.3310170642001795   T   T   T
  0.7434567991573942  0.2507232224128832  0.2505551903514657   T   T   T
  0.5872943081824959  0.6692322332602104  0.0335371034610250   T   T   T
  0.7540567852902010  0.6692485532130917  0.0336076863479582   T   T   T
  0.9206423851747971  0.6691589598120313  0.0336354649856552   T   T   T
  0.5874001791005042  0.9191877588942066  0.0336018333124373   T   T   T
  0.7539832562309357  0.9190746783025943  0.0336318396949737   T   T   T
  0.9206642104946097  0.9190317390779339  0.0336387629011892   T   T   T
  0.6614924630946728  0.5449366349861162  0.2178047529243991   T   T   T
  0.8300256973302605  0.5449337752031040  0.2180383086179956   T   T   T
  0.9957345686761634  0.5440940151145098  0.2180537913398512   T   T   T
  0.6614650874930887  0.7940172814079278  0.2179973646737237   T   T   T
  0.8286824618949988  0.7937374444984463  0.2181029733345643   T   T   T
  0.9952755805365132  0.7938565097188629  0.2180849495265895   T   T   T
  0.2497070109541743  0.1241204360911758  0.0594152959749640   T   T   T
  0.4164106312201071  0.1240675571324815  0.0593867781825178   T   T   T
  0.0830463517492044  0.3741265895870870  0.0594501379510653   T   T   T
  0.2497447593075452  0.3741213888647565  0.0594273138987893   T   T   T
  0.4164811368259520  0.3740827094094002  0.0594000043773153   T   T   T
  0.0830354950418655  0.1240961365374058  0.0594270473386590   T   T   T
  0.4993688312745061  0.0004846207100592  0.1391854936455240   T   T   T
  0.1660929207775498  0.0006137959348476  0.1392352956121386   T   T   T
  0.3327124564544224  0.0005904141739054  0.1392246227623147   T   T   T
  0.4994741861036881  0.2507421361757693  0.1391845028136577   T   T   T
  0.1660482519660745  0.2506776809374121  0.1392561034686960   T   T   T
  0.3327728235421641  0.2506653050663208  0.1392409222042282   T   T   T
  0.0826451613056471  0.1252454240490485  0.1655418002253835   T   T   T
  0.2493100876992683  0.1253105234271821  0.1655616027599433   T   T   T
  0.4159502059523745  0.1252506173114438  0.1655228151172856   T   T   T
  0.0825286050273004  0.3753454580251509  0.1656010467235635   T   T   T
  0.2493214121520614  0.3753033609818850  0.1655780245073067   T   T   T
  0.4161276420243025  0.3753446693348594  0.1655571769715631   T   T   T
  0.1657771098629706  0.4987372785900993  0.1922333393486674   T   T   T
  0.3327445289400620  0.4987404326358099  0.1922274599030947   T   T   T
  0.4999195555025881  0.4988546866885546  0.1921100551818769   T   T   T
  0.1659015758811274  0.2488467196463126  0.1922078168960263   T   T   T
  0.4993804735238330  0.2484615965623612  0.1919385602440185   T   T   T
  0.3326178647563149  0.2488283395674770  0.1921860836197481   T   T   T
  0.4995616017270775  0.0005253775739904  0.0860140962133161   T   T   T
  0.1661918434650130  0.0004977570124134  0.0860544622617403   T   T   T
  0.3328759166387520  0.0004736588956912  0.0860366581874705   T   T   T
  0.4996368718429198  0.2505254689259527  0.0860100761289600   T   T   T
  0.1662022393592037  0.2505323261931471  0.0860644253952051   T   T   T
  0.3329432742084645  0.2505131191107412  0.0860487305861476   T   T   T
  0.0827098484864531  0.1257100267070047  0.1123702134946553   T   T   T
  0.2494099051250764  0.1256848704407635  0.1123659047687869   T   T   T
  0.4160980894636860  0.1256420353782787  0.1123331468030416   T   T   T
  0.0826700000607822  0.3756962220288030  0.1124069253133436   T   T   T
  0.2494284986332055  0.3756973170566032  0.1123849032409341   T   T   T
  0.4161561942088410  0.3757182582074449  0.1123545912043473   T   T   T
  0.2497044532377694  0.6240446323828658  0.0594213120421328   T   T   T
  0.4164434413676721  0.6240448441818891  0.0594005097856213   T   T   T
  0.0830081165343837  0.8740622333404449  0.0594353858668055   T   T   T
  0.2497163912972938  0.8740632739282483  0.0594176429929395   T   T   T
  0.4164020495095551  0.8740637787450042  0.0593905181112106   T   T   T
  0.0830105236445362  0.6240546628534587  0.0594593934461905   T   T   T
  0.4996058065005900  0.5006238216682287  0.1392373163558927   T   T   T
  0.1660128087101428  0.5006109453804898  0.1392717410087243   T   T   T
  0.3327728616140722  0.5006341245335771  0.1392498187879170   T   T   T
  0.4994794587050460  0.7506022444875409  0.1392169927063090   T   T   T
  0.1660409467619869  0.7505755558186431  0.1392719221284444   T   T   T
  0.3327213385909600  0.7505871900444235  0.1392301417706199   T   T   T
  0.0823996703382300  0.6251642305571172  0.1656119545007418   T   T   T
  0.2492671170773181  0.6252223829539584  0.1655897772035314   T   T   T
  0.4161057709743550  0.6252166528421976  0.1655411053595018   T   T   T
  0.0825957823630921  0.8752847131372967  0.1655863073819989   T   T   T
  0.2492813535815908  0.8752767547052664  0.1655788797352078   T   T   T
  0.4159424511423493  0.8752525067210793  0.1655514620976811   T   T   T
  0.1658614686611672  0.9988706253998749  0.1921991922464122   T   T   T
  0.3325237382252485  0.9988156830571385  0.1922110176245068   T   T   T
  0.4991442738609597  0.9988720194344344  0.1921395738861925   T   T   T
  0.1658755055552765  0.7487631624165109  0.1922355946828579   T   T   T
  0.4992967145916753  0.7486873548702667  0.1921961671270366   T   T   T
  0.3326202369323664  0.7487295323401043  0.1922154512919016   T   T   T
  0.4996866530897469  0.5004925387398949  0.0860287125011800   T   T   T
  0.1661719265227717  0.5004910351747823  0.0860793197071028   T   T   T
  0.3329237115992956  0.5004895221146399  0.0860501436727930   T   T   T
  0.4996574158569956  0.7504654291252614  0.0860396853137322   T   T   T
  0.1661901033946431  0.7504589374042658  0.0860637601239813   T   T   T
  0.3329244762607123  0.7504351602824572  0.0860332627475828   T   T   T
  0.0826113130619483  0.6256140980769641  0.1124151502087487   T   T   T
  0.2493969402130672  0.6256535589207449  0.1123746767403441   T   T   T
  0.4161609167089416  0.6256539377092818  0.1123520824931723   T   T   T
  0.0827422452405718  0.8756525989712836  0.1123805236324657   T   T   T
  0.2494010483601884  0.8756186750032858  0.1123669506791174   T   T   T
  0.4160342277685389  0.8756301411518866  0.1123267311544828   T   T   T
  0.7497728296891440  0.1241846542629637  0.0595392260593324   T   T   T
  0.9163571223428023  0.1241048892664112  0.0594454068508132   T   T   T
  0.5831830532700711  0.3741238745777823  0.0593916953324381   T   T   T
  0.7498326322966199  0.3740359197803555  0.0594283789158258   T   T   T
  0.9163555450411492  0.3741277869452249  0.0594865886633097   T   T   T
  0.5831345621612115  0.1241534506549411  0.0593814995827123   T   T   T
  0.9993981400786235  0.0005955376156590  0.1392387787086538   T   T   T
  0.6662886677800648  0.0008270920703350  0.1393249859489971   T   T   T
  0.8325490815073477  0.0009878820248687  0.1393785253966492   T   T   T
  0.9992820318278492  0.2507446522283093  0.1392732587953801   T   T   T
  0.6659899672022072  0.2513987768829451  0.1395147159895551   T   T   T
  0.8325701654929691  0.2513667643563988  0.1394776165340683   T   T   T
  0.5825404962333834  0.1250527051986060  0.1653465936169368   T   T   T
  0.7490956520604070  0.1267548709194377  0.1660754253071766   T   T   T
  0.9159907070137173  0.1252715169823193  0.1654423240564336   T   T   T
  0.5828143684095513  0.3755879670552062  0.1656362820798913   T   T   T
  0.7490782964751443  0.3773752508509524  0.1669800384995246   T   T   T
  0.9155812178412246  0.3755451726528362  0.1657764117080403   T   T   T
  0.6687524860671111  0.4956624242659907  0.1924031267694180   T   T   T
  0.8293518749060981  0.4956425176970037  0.1926031642103887   T   T   T
  0.9986005449966182  0.4986241605577643  0.1922390308708787   T   T   T
  0.6642703838340158  0.2507759289339506  0.1926720716673537   T   T   T
  0.9992741354179284  0.2483037427515857  0.1920094978358846   T   T   T
  0.8333620858142545  0.2499727724203338  0.1923626047845948   T   T   T
  0.9995313939067836  0.0005197294638851  0.0860737812828709   T   T   T
  0.6662612392547090  0.0006085618936467  0.0861122901300651   T   T   T
  0.8328365555976821  0.0005670651942376  0.0861455468012238   T   T   T
  0.9995000227458316  0.2505458924979307  0.0860842514268750   T   T   T
  0.6662501405089539  0.2506930203598948  0.0861377127583288   T   T   T
  0.8328633875558290  0.2506472528788942  0.0861634297022262   T   T   T
  0.5827891938723293  0.1258145625333325  0.1123462060853071   T   T   T
  0.7493827344004538  0.1260446873080051  0.1125971118766315   T   T   T
  0.9160190584077024  0.1258588102577557  0.1123955253632617   T   T   T