C H O Si                                
   1.00000000000000     
     9.2874599999999994    0.0000000000000000    0.0000000000000000
     0.0000000000000000   17.5126199999999983    0.0000000000000000
     0.0000000000000000    0.0000000000000000   58.0000000000000000
   C    H    O    Si
    72    57    28    72
Selective dynamics
Direct
  0.9932084368295734  0.0630698629191748  0.0604589128409984   T   T   T
  0.3265211689215735  0.0630775739189277  0.0605524852804949   T   T   T
  0.6598371270027319  0.0630604105676751  0.0605245850779937   T   T   T
  0.9930668617691932  0.3130940410946136  0.0604575091832017   T   T   T
  0.3263247855588164  0.3130438306687457  0.0605616575192026   T   T   T
  0.6597389715362436  0.3130370833869313  0.0605261840309738   T   T   T
  0.1599000441810854  0.1858663548125959  0.1394008375443730   T   T   T
  0.4931242491302044  0.1861799388990228  0.1396308935242879   T   T   T
  0.8265602308408424  0.1858201914854045  0.1393289396678918   T   T   T
  0.1597526378778966  0.4359963032755954  0.1394403369273879   T   T   T
  0.4931070561083654  0.4359158582925368  0.1394847766809964   T   T   T
  0.8264935539056200  0.4360083974612703  0.1394180885593167   T   T   T
  0.3273299340216884  0.0612318496933003  0.1667108140027509   T   T   T
  0.6597045035632269  0.0611492331293273  0.1666768318845925   T   T   T
  0.9937305808758466  0.0605446982500807  0.1664526830665566   T   T   T
  0.3266028681349493  0.3110777397416892  0.1667735636974362   T   T   T
  0.6604971492744945  0.3111619363228287  0.1666520760546994   T   T   T
  0.9935444496368446  0.3110613042770330  0.1664843314450601   T   T   T
  0.1605866404966897  0.1872603825406300  0.1917338426059498   T   T   T
  0.4940276538777852  0.1897643151888621  0.1926999678643302   T   T   T
  0.8278526296639188  0.1867673000210175  0.1914981301774640   T   T   T
  0.1601467048520683  0.4383744879161984  0.1919776909441042   T   T   T
  0.4936820929088199  0.4379443222078214  0.1920154093402552   T   T   T
  0.8272299194351656  0.4384393853419554  0.1919159879254330   T   T   T
  0.1596580229196500  0.1860651662853708  0.0858695132342523   T   T   T
  0.4928927365868211  0.1860470313185515  0.0859851687271502   T   T   T
  0.8262388098772456  0.1860521031904536  0.0858216163968102   T   T   T
  0.1596567859193189  0.4360569218182189  0.0858855880794396   T   T   T
  0.4929102269881678  0.4360507880267833  0.0859217897429001   T   T   T
  0.8262132505891885  0.4360470553609169  0.0858647584301170   T   T   T
  0.3263417897204400  0.0609563994610444  0.1130760267460333   T   T   T
  0.6595803691249935  0.0609546991411859  0.1130669364882549   T   T   T
  0.9929614877412624  0.0608740482321235  0.1129924966017403   T   T   T
  0.3262123386868813  0.3109378404197870  0.1131263712775184   T   T   T
  0.6596984924772162  0.3109579454805613  0.1130615845757660   T   T   T
  0.9929339023137359  0.3109325438968920  0.1129783269030518   T   T   T
  0.9932081085049644  0.5630037721155527  0.0604999100889429   T   T   T
  0.3265064558434094  0.5630418317445107  0.0605131848109786   T   T   T
  0.6599557915598597  0.5630446686104700  0.0605073547737005   T   T   T
  0.9930916048697881  0.8130540163578992  0.0605072372807832   T   T   T
  0.3263896312214313  0.8130293728643937  0.0605028711656079   T   T   T
  0.6598064498363601  0.8130613653234953  0.0605006251943860   T   T   T
  0.1597656310775394  0.6860353302146881  0.1394363596286017   T   T   T
  0.4930518942923064  0.6860277984667440  0.1394441296954657   T   T   T
  0.8263374951995826  0.6860435339653249  0.1394365666171090   T   T   T
  0.1601730696031098  0.9359083302924277  0.1394472449334140   T   T   T
  0.4931231348442365  0.9359013216069686  0.1394492336930468   T   T   T
  0.8262161192516770  0.9359652634691343  0.1394407729166205   T   T   T
  0.3266679409786913  0.5611154559625320  0.1666193965468331   T   T   T
  0.6599602199035612  0.5611159175815683  0.1666190894825194   T   T   T
  0.9934278844312747  0.5613010207854617  0.1665684029881844   T   T   T
  0.3267347475608405  0.8110841430869495  0.1666260032032230   T   T   T
  0.6600920181836640  0.8110994702898583  0.1666197651303501   T   T   T
  0.9934521255462796  0.8111291953936585  0.1666166001518296   T   T   T
  0.1604871531944018  0.6881743335932679  0.1919899856855374   T   T   T
  0.4936998504428423  0.6881051858705622  0.1919984610978519   T   T   T
  0.8270085110082038  0.6881672073012064  0.1919790649177714   T   T   T
  0.1606329025502406  0.9380801564355327  0.1920089287791484   T   T   T
  0.4938971195962962  0.9380110394358355  0.1920347323128800   T   T   T
  0.8271007872949327  0.9380803475932447  0.1919764983460691   T   T   T
  0.1596918961557104  0.6860696342688347  0.0858790719378146   T   T   T
  0.4929834397984083  0.6860437148457994  0.0858840309284534   T   T   T
  0.8262348516729512  0.6860714428781697  0.0858777353910570   T   T   T
  0.1597148298598872  0.9360887186848833  0.0858752323391026   T   T   T
  0.4929576320723378  0.9360685565094164  0.0858971764350826   T   T   T
  0.8262165209201096  0.9360787094125469  0.0858765070907144   T   T   T
  0.3262501028873440  0.5609365216934731  0.1130500173722687   T   T   T
  0.6595941265289061  0.5609414304447258  0.1130476110119572   T   T   T
  0.9928906985508054  0.5609621879314215  0.1130286210950810   T   T   T
  0.3262897296991187  0.8109139361829142  0.1130352892849580   T   T   T
  0.6596210786791596  0.8109397011405164  0.1130384190994570   T   T   T
  0.9929390181751957  0.8109923530466355  0.1130478954771044   T   T   T
  0.0754254080775397  0.1776905192113684  0.0271803623311286   T   T   T
  0.4079095028084873  0.1776881449091581  0.0273369301517642   T   T   T
  0.7406657796429024  0.1775668736279956  0.0272308771787512   T   T   T
  0.0752779271798264  0.4277134420583243  0.0271959834548723   T   T   T
  0.4076006076770968  0.4275525796567038  0.0272831681691860   T   T   T
  0.7401982758475394  0.4275190226895485  0.0272639255715302   T   T   T
  0.3241709148661405  0.0267759657053033  0.0450487016414110   T   T   T
  0.6568224808936466  0.0267430342416993  0.0450246660063993   T   T   T
  0.9906043221320034  0.0268239675840778  0.0449439906203007   T   T   T
  0.3237440408868444  0.2766889044976034  0.0450698707854975   T   T   T
  0.6569867053781194  0.2767099819706541  0.0450296812713982   T   T   T
  0.9904415326132616  0.2768835490834369  0.0449364084891781   T   T   T
  0.8288975236180308  0.4023976909655191  0.2074520253276860   T   T   T
  0.8302896064175318  0.1507229919703469  0.2070513192801759   T   T   T
  0.1617204820670018  0.1512528313847880  0.2072976266782928   T   T   T
  0.4965456027757589  0.1529070020529773  0.2080819521872513   T   T   T
  0.1618623601442211  0.4018716414651742  0.2074354013998824   T   T   T
  0.4940767432107797  0.4016758887462431  0.2075310971011284   T   T   T
  0.0802796954368732  0.0523050913855680  0.2251891673417321   T   T   T
  0.4143507836484051  0.0518588851240530  0.2253285090498403   T   T   T
  0.7476927703836919  0.0520903961281027  0.2252552964634929   T   T   T
  0.0780790797882205  0.3009341568919320  0.2248081720878971   T   T   T
  0.3778803156579067  0.3100156148559545  0.2286859340771693   T   T   T
  0.7815336778825523  0.2950218510779317  0.2230852235918460   T   T   T
  0.5460182287301424  0.3057598149434851  0.2739620483443192   T   T   T
  0.4922847260987377  0.2379771826074847  0.2933393850122514   T   T   T
  0.5716161441954702  0.3201257156969783  0.3030477018477465   T   T   T
  0.3143639646722267  0.1943018886837348  0.3097125071784764   T   T   T
  0.4219390498960934  0.1300802092192004  0.3022387672737428   T   T   T
  0.6506913869979060  0.3663963475000172  0.3334622876351542   T   T   T
  0.4846379172935604  0.3778678211512383  0.3307714428033180   T   T   T
  0.5173106158559363  0.3958531980893010  0.2522186992892140   T   T   T
  0.5849081634496747  0.3237791679575553  0.2388699120146840   T   T   T
  0.0750303662519608  0.6777224902581855  0.0272302614100292   T   T   T
  0.4079964635518583  0.6776423680936090  0.0272551468761545   T   T   T
  0.7412118389821212  0.6776355894340762  0.0272553160524973   T   T   T
  0.0747771827713348  0.9276577686211385  0.0272236672739084   T   T   T
  0.4076634433381582  0.9275751309273332  0.0272588156051251   T   T   T
  0.7409445432497436  0.9276188550899388  0.0272496273957485   T   T   T
  0.3238897461302095  0.5267167367033212  0.0450160887938984   T   T   T
  0.6573192184004468  0.5267348433464580  0.0450077121031708   T   T   T
  0.9905678149019054  0.5267387434697351  0.0449879398094275   T   T   T
  0.3238102323000371  0.7767502886619551  0.0449942862435092   T   T   T
  0.6570494825779509  0.7767538189113565  0.0449967650209416   T   T   T
  0.9904573007035241  0.7767707777191527  0.0449993979724178   T   T   T
  0.8292809024246574  0.9017311287397768  0.2074729338995541   T   T   T
  0.8292286489974103  0.6518076942756333  0.2074713745831317   T   T   T
  0.1624942300572015  0.6517897155571333  0.2074745867632782   T   T   T
  0.4959341589452244  0.6518424893028939  0.2075062793977049   T   T   T
  0.1625569085274102  0.9017201428960191  0.2075018682428352   T   T   T
  0.4961089230032846  0.9016385545163966  0.2075228580439622   T   T   T
  0.0798506587841300  0.5531953988978826  0.2251655562189342   T   T   T
  0.4138008945653074  0.5536677952271470  0.2250308206406136   T   T   T
  0.7471733049545700  0.5530962782206978  0.2250998650432675   T   T   T
  0.0806662472496563  0.8023400458803255  0.2252101221346488   T   T   T
  0.4134723764047875  0.8025843331963145  0.2252572435310043   T   T   T
  0.7477634220576180  0.8021731590263244  0.2251862530848813   T   T   T
  0.1692563147326088  0.1666571987171957  0.0340304414743128   T   T   T
  0.5019925691447004  0.1666746126683193  0.0341039987571381   T   T   T
  0.8348565560344332  0.1665952204581215  0.0339699805419491   T   T   T
  0.1690584001200060  0.4166219793745233  0.0340479692327196   T   T   T
  0.5017389618920405  0.4165383844649127  0.0340387946514293   T   T   T
  0.8344389966679906  0.4165960137592037  0.0339946183657619   T   T   T
  0.3199028805901385  0.0416668924023170  0.2185689928279130   T   T   T
  0.6531849206722259  0.0416206620829336  0.2185485035182040   T   T   T
  0.9860454757011539  0.0417200279529635  0.2184194630778232   T   T   T
  0.2999054411032104  0.2918198891793004  0.2185908541875238   T   T   T
  0.6791811635159456  0.2915075256251320  0.2185403946733366   T   T   T
  0.9830511998794086  0.2899079083081157  0.2182115451075103   T   T   T
  0.5701413269103328  0.2798183998295163  0.2897237238331796   T   T   T
  0.3809736210725726  0.1790081429541615  0.2975401727308069   T   T   T
  0.5752269221386557  0.3774612039645084  0.3222309689355226   T   T   T
  0.5113282442342127  0.3403698116315041  0.2508474896347117   T   T   T
  0.1689562017688076  0.6666280512316469  0.0340409173436588   T   T   T
  0.5020739058147277  0.6665914433083936  0.0340231418946769   T   T   T
  0.8352974736518882  0.6665981247150651  0.0340196561030367   T   T   T
  0.1687383280788854  0.9166018208490418  0.0340213445088782   T   T   T
  0.5018034595905235  0.9166570223146181  0.0340241936661553   T   T   T
  0.8350684967042910  0.9165902824460525  0.0340049352121593   T   T   T
  0.3195613714868893  0.5415096915126564  0.2185085421750489   T   T   T
  0.6528660426804171  0.5415426926956403  0.2184970191412605   T   T   T
  0.9857132712962193  0.5419296355566318  0.2184639385564343   T   T   T
  0.3193356580288411  0.7916063292764444  0.2185149312857068   T   T   T
  0.6531854288518381  0.7915418862389556  0.2185329612697837   T   T   T
  0.9862894651916683  0.7915715510964546  0.2185125966588000   T   T   T
  0.4933241175006607  0.1217369345426833  0.0599251912349945   T   T   T
  0.8266190489484011  0.1217077898668374  0.0598036221515894   T   T   T
  0.1598875959339366  0.3717021596836613  0.0598629777503555   T   T   T
  0.4931760685931311  0.3716774081297672  0.0598809620849889   T   T   T
  0.8264827878290143  0.3717286969587516  0.0598281291200421   T   T   T
  0.1600619876496161  0.1217050587746066  0.0598516345922521   T   T   T
  0.9930597695031792  0.4984706367598510  0.1396470408635328   T   T   T
  0.3263741538996119  0.4984050539053182  0.1396759294736771   T   T   T
  0.6596739478454808  0.4984105806928231  0.1396735666948432   T   T   T
  0.9931634460395906  0.2482706842672446  0.1395429730475395   T   T   T
  0.3262800596674298  0.2484343295687751  0.1397785721189387   T   T   T
  0.6599405184987961  0.2483196754458133  0.1396585877651376   T   T   T
  0.1600950484566127  0.1227316239521591  0.1658712822935992   T   T   T
  0.4934650817127137  0.1238484592161829  0.1663334670052820   T   T   T
  0.8270788182010377  0.1223378163482853  0.1657034497495818   T   T   T
  0.1600047897967587  0.3733108400155761  0.1660093446405542   T   T   T
  0.4933127031488580  0.3730372821252089  0.1660327539052419   T   T   T
  0.8270925636721475  0.3733281548904510  0.1659705474128326   T   T   T
  0.3267147654006498  0.4968773838471787  0.1926328857497588   T   T   T
  0.6603123906405114  0.4968431279489512  0.1926330667563875   T   T   T
  0.9935784840287935  0.4971268706756648  0.1926023364873122   T   T   T
  0.3249494639262419  0.2475148549799797  0.1930316383258126   T   T   T
  0.9938142278049609  0.2456675612480372  0.1921833256226141   T   T   T
  0.6631335338029435  0.2464096967072417  0.1924520873127305   T   T   T
  0.9929782736596993  0.4980786490508364  0.0864699788153904   T   T   T
  0.3263040696297777  0.4981088524695544  0.0864916444320613   T   T   T
  0.6596138949193308  0.4981105641055213  0.0864881639081487   T   T   T
  0.9929296961495830  0.2480840719800923  0.0864215293473883   T   T   T
  0.3262725182027572  0.2481125267765775  0.0865446273561576   T   T   T
  0.6595737256218417  0.2481006679597894  0.0864966891285365   T   T   T
  0.1596634834597115  0.1232785129052382  0.1127795496583385   T   T   T
  0.4929625871713185  0.1233445244878630  0.1129304544284142   T   T   T
  0.8263418455633810  0.1232517707700728  0.1127217035232057   T   T   T
  0.1596391573544680  0.3733331432868420  0.1128167636309218   T   T   T
  0.4929462136936724  0.3733008701726832  0.1128490095578072   T   T   T
  0.8263945662490804  0.3733457915522277  0.1127907670707453   T   T   T
  0.4933904751159615  0.6216728099302404  0.0598520106178234   T   T   T
  0.8267064209039049  0.6216969601960081  0.0598548604302060   T   T   T
  0.1599354655987903  0.8716995166108196  0.0598526116161448   T   T   T
  0.4932260890223634  0.8717145047800932  0.0598549810172594   T   T   T
  0.8265640970010089  0.8717272234882040  0.0598472698955321   T   T   T
  0.1600141366891427  0.6216726182389095  0.0598600046051609   T   T   T
  0.9932127875402791  0.9980876340239488  0.1395741603944534   T   T   T
  0.3267621830649672  0.9984550589886740  0.1397134233032251   T   T   T
  0.6594277930481659  0.9983858507749840  0.1396916864879845   T   T   T
  0.9930159178351426  0.7484370713677990  0.1396694311368276   T   T   T
  0.3263588666812110  0.7484462652521489  0.1396729134999418   T   T   T
  0.6596786702442800  0.7484378738405734  0.1396680157081995   T   T   T
  0.1600219692416407  0.6232809536346776  0.1659949792619167   T   T   T
  0.4933002845418089  0.6232245960192463  0.1660044303331389   T   T   T
  0.8266575703643353  0.6232390717535590  0.1659894901284221   T   T   T
  0.1601335572187710  0.8731338886867325  0.1660153016166002   T   T   T
  0.4934100359230730  0.8731161951443002  0.1660273294078607   T   T   T
  0.8267438425784849  0.8731452964167290  0.1659969721816212   T   T   T
  0.3271373867284241  0.9967167893177352  0.1927208663890877   T   T   T
  0.6603461216146106  0.9967094978084207  0.1926881172945393   T   T   T
  0.9937153208552307  0.9966710038009902  0.1925886795399127   T   T   T
  0.3269415536216291  0.7467993312297324  0.1926602300287508   T   T   T
  0.9935996019126122  0.7467998202771826  0.1926481661186269   T   T   T
  0.6602001027493081  0.7467862652025096  0.1926544281769196   T   T   T
  0.9929941676082816  0.9980803716963325  0.0864392638547020   T   T   T
  0.3263782102143450  0.9981323908497443  0.0865127260454317   T   T   T
  0.6595688647462228  0.9981211885843040  0.0864942774706434   T   T   T
  0.9929809933909137  0.7481041999156475  0.0864769045827740   T   T   T
  0.3263468877377594  0.7480948984107300  0.0864780073128398   T   T   T
  0.6596079836242486  0.7481162790788365  0.0864801002148120   T   T   T
  0.1596098603759974  0.6233629144120242  0.1128133186931501   T   T   T
  0.4929539156837471  0.6233429975912825  0.1128233078602535   T   T   T
  0.8262856187507490  0.6233766987492658  0.1128143158397257   T   T   T
  0.1598088814046069  0.8733252966503011  0.1128080239618815   T   T   T
  0.4929952162695767  0.8732962994656807  0.1128171370242413   T   T   T
  0.8262422822244848  0.8733474210370135  0.1128105020452519   T   T   T
 
  0.00000000E+00  0.00000000E+00  0.00000000E+00
  0.00000000E+00  0.00000000E+00  0.00000000E+00
  0.00000000E+00  0.00000000E+00  0.00000000E+00
  0.00000000E+00  0.00000000E+00  0.00000000E+00
  0.00000000E+00  0.00000000E+00  0.00000000E+00
  0.00000000E+00  0.00000000E+00  0.00000000E+00
  0.00000000E+00  0.00000000E+00  0.00000000E+00
  0.00000000E+00  0.00000000E+00  0.00000000E+00
  0.00000000E+00  0.00000000E+00  0.00000000E+00
  0.00000000E+00  0.00000000E+00  0.00000000E+00
  0.00000000E+00  0.00000000E+00  0.00000000E+00
  0.00000000E+00  0.00000000E+00  0.00000000E+00
  0.00000000E+00  0.00000000E+00  0.00000000E+00
  0.00000000E+00  0.00000000E+00  0.00000000E+00
  0.00000000E+00  0.00000000E+00  0.00000000E+00
  0.00000000E+00  0.00000000E+00  0.00000000E+00
  0.00000000E+00  0.00000000E+00  0.00000000E+00
  0.00000000E+00  0.00000000E+00  0.00000000E+00
  0.00000000E+00  0.00000000E+00  0.00000000E+00
  0.00000000E+00  0.00000000E+00  0.00000000E+00
  0.00000000E+00  0.00000000E+00  0.00000000E+00
  0.00000000E+00  0.00000000E+00  0.00000000E+00
  0.00000000E+00  0.00000000E+00  0.00000000E+00
  0.00000000E+00  0.00000000E+00  0.00000000E+00
  0.00000000E+00  0.00000000E+00  0.00000000E+00
  0.00000000E+00  0.00000000E+00  0.00000000E+00
  0.00000000E+00  0.00000000E+00  0.00000000E+00
  0.00000000E+00  0.00000000E+00  0.00000000E+00
  0.00000000E+00  0.00000000E+00  0.00000000E+00
  0.00000000E+00  0.00000000E+00  0.00000000E+00
  0.00000000E+00  0.00000000E+00  0.00000000E+00
  0.00000000E+00  0.00000000E+00  0.00000000E+00
  0.00000000E+00  0.00000000E+00  0.00000000E+00
  0.00000000E+00  0.00000000E+00  0.00000000E+00
  0.00000000E+00  0.00000000E+00  0.00000000E+00
  0.00000000E+00  0.00000000E+00  0.00000000E+00
  0.00000000E+00  0.00000000E+00  0.00000000E+00
  0.00000000E+00  0.00000000E+00  0.00000000E+00
  0.00000000E+00  0.00000000E+00  0.00000000E+00
  0.00000000E+00  0.00000000E+00  0.00000000E+00
  0.00000000E+00  0.00000000E+00  0.00000000E+00
  0.00000000E+00  0.00000000E+00  0.00000000E+00
  0.00000000E+00  0.00000000E+00  0.00000000E+00
  0.00000000E+00  0.00000000E+00  0.00000000E+00
  0.00000000E+00  0.00000000E+00  0.00000000E+00
  0.00000000E+00  0.00000000E+00  0.00000000E+00
  0.00000000E+00  0.00000000E+00  0.00000000E+00
  0.00000000E+00  0.00000000E+00  0.00000000E+00
  0.00000000E+00  0.00000000E+00  0.00000000E+00
  0.00000000E+00  0.00000000E+00  0.00000000E+00
  0.00000000E+00  0.00000000E+00  0.00000000E+00
  0.00000000E+00  0.00000000E+00  0.00000000E+00
  0.00000000E+00  0.00000000E+00  0.00000000E+00
  0.00000000E+00  0.00000000E+00  0.00000000E+00
  0.00000000E+00  0.00000000E+00  0.00000000E+00
  0.00000000E+00  0.00000000E+00  0.00000000E+00
  0.00000000E+00  0.00000000E+00  0.00000000E+00
  0.00000000E+00  0.00000000E+00  0.00000000E+00
  0.00000000E+00  0.00000000E+00  0.00000000E+00
  0.00000000E+00  0.00000000E+00  0.00000000E+00
  0.00000000E+00  0.00000000E+00  0.00000000E+00
  0.00000000E+00  0.00000000E+00  0.00000000E+00
  0.00000000E+00  0.00000000E+00  0.00000000E+00
  0.00000000E+00  0.00000000E+00  0.00000000E+00
  0.00000000E+00  0.00000000E+00  0.00000000E+00
  0.00000000E+00  0.00000000E+00  0.00000000E+00
  0.00000000E+00  0.00000000E+00  0.00000000E+00
  0.00000000E+00  0.00000000E+00  0.00000000E+00
  0.00000000E+00  0.00000000E+00  0.00000000E+00
  0.00000000E+00  0.00000000E+00  0.00000000E+00
  0.00000000E+00  0.00000000E+00  0.00000000E+00
  0.00000000E+00  0.00000000E+00  0.00000000E+00
  0.00000000E+00  0.00000000E+00  0.00000000E+00
  0.00000000E+00  0.00000000E+00  0.00000000E+00
  0.00000000E+00  0.00000000E+00  0.00000000E+00
  0.00000000E+00  0.00000000E+00  0.00000000E+00
  0.00000000E+00  0.00000000E+00  0.00000000E+00
  0.00000000E+00  0.00000000E+00  0.00000000E+00
  0.00000000E+00  0.00000000E+00  0.00000000E+00
  0.00000000E+00  0.00000000E+00  0.00000000E+00
  0.00000000E+00  0.00000000E+00  0.00000000E+00
  0.00000000E+00  0.00000000E+00  0.00000000E+00
  0.00000000E+00  0.00000000E+00  0.00000000E+00
  0.00000000E+00  0.00000000E+00  0.00000000E+00
  0.00000000E+00  0.00000000E+00  0.00000000E+00
  0.00000000E+00  0.00000000E+00  0.00000000E+00
  0.00000000E+00  0.00000000E+00  0.00000000E+00
  0.00000000E+00  0.00000000E+00  0.00000000E+00
  0.00000000E+00  0.00000000E+00  0.00000000E+00
  0.00000000E+00  0.00000000E+00  0.00000000E+00
  0.00000000E+00  0.00000000E+00  0.00000000E+00
  0.00000000E+00  0.00000000E+00  0.00000000E+00
  0.00000000E+00  0.00000000E+00  0.00000000E+00
  0.00000000E+00  0.00000000E+00  0.00000000E+00
  0.00000000E+00  0.00000000E+00  0.00000000E+00
  0.00000000E+00  0.00000000E+00  0.00000000E+00
  0.00000000E+00  0.00000000E+00  0.00000000E+00
  0.00000000E+00  0.00000000E+00  0.00000000E+00
  0.00000000E+00  0.00000000E+00  0.00000000E+00
  0.00000000E+00  0.00000000E+00  0.00000000E+00
  0.00000000E+00  0.00000000E+00  0.00000000E+00
  0.00000000E+00  0.00000000E+00  0.00000000E+00
  0.00000000E+00  0.00000000E+00  0.00000000E+00
  0.00000000E+00  0.00000000E+00  0.00000000E+00
  0.00000000E+00  0.00000000E+00  0.00000000E+00
  0.00000000E+00  0.00000000E+00  0.00000000E+00
  0.00000000E+00  0.00000000E+00  0.00000000E+00
  0.00000000E+00  0.00000000E+00  0.00000000E+00
  0.00000000E+00  0.00000000E+00  0.00000000E+00
  0.00000000E+00  0.00000000E+00  0.00000000E+00
  0.00000000E+00  0.00000000E+00  0.00000000E+00
  0.00000000E+00  0.00000000E+00  0.00000000E+00
  0.00000000E+00  0.00000000E+00  0.00000000E+00
  0.00000000E+00  0.00000000E+00  0.00000000E+00
  0.00000000E+00  0.00000000E+00  0.00000000E+00
  0.00000000E+00  0.00000000E+00  0.00000000E+00
  0.00000000E+00  0.00000000E+00  0.00000000E+00
  0.00000000E+00  0.00000000E+00  0.00000000E+00
  0.00000000E+00  0.00000000E+00  0.00000000E+00
  0.00000000E+00  0.00000000E+00  0.00000000E+00
  0.00000000E+00  0.00000000E+00  0.00000000E+00
  0.00000000E+00  0.00000000E+00  0.00000000E+00
  0.00000000E+00  0.00000000E+00  0.00000000E+00
  0.00000000E+00  0.00000000E+00  0.00000000E+00
  0.00000000E+00  0.00000000E+00  0.00000000E+00
  0.00000000E+00  0.00000000E+00  0.00000000E+00
  0.00000000E+00  0.00000000E+00  0.00000000E+00
  0.00000000E+00  0.00000000E+00  0.00000000E+00
  0.00000000E+00  0.00000000E+00  0.00000000E+00
  0.00000000E+00  0.00000000E+00  0.00000000E+00
  0.00000000E+00  0.00000000E+00  0.00000000E+00
  0.00000000E+00  0.00000000E+00  0.00000000E+00
  0.00000000E+00  0.00000000E+00  0.00000000E+00
  0.00000000E+00  0.00000000E+00  0.00000000E+00
  0.00000000E+00  0.00000000E+00  0.00000000E+00
  0.00000000E+00  0.00000000E+00  0.00000000E+00
  0.00000000E+00  0.00000000E+00  0.00000000E+00
  0.00000000E+00  0.00000000E+00  0.00000000E+00
  0.00000000E+00  0.00000000E+00  0.00000000E+00
  0.00000000E+00  0.00000000E+00  0.00000000E+00
  0.00000000E+00  0.00000000E+00  0.00000000E+00
  0.00000000E+00  0.00000000E+00  0.00000000E+00
  0.00000000E+00  0.00000000E+00  0.00000000E+00
  0.00000000E+00  0.00000000E+00  0.00000000E+00
  0.00000000E+00  0.00000000E+00  0.00000000E+00
  0.00000000E+00  0.00000000E+00  0.00000000E+00
  0.00000000E+00  0.00000000E+00  0.00000000E+00
  0.00000000E+00  0.00000000E+00  0.00000000E+00
  0.00000000E+00  0.00000000E+00  0.00000000E+00
  0.00000000E+00  0.00000000E+00  0.00000000E+00
  0.00000000E+00  0.00000000E+00  0.00000000E+00
  0.00000000E+00  0.00000000E+00  0.00000000E+00
  0.00000000E+00  0.00000000E+00  0.00000000E+00
  0.00000000E+00  0.00000000E+00  0.00000000E+00
  0.00000000E+00  0.00000000E+00  0.00000000E+00
  0.00000000E+00  0.00000000E+00  0.00000000E+00
  0.00000000E+00  0.00000000E+00  0.00000000E+00
  0.00000000E+00  0.00000000E+00  0.00000000E+00
  0.00000000E+00  0.00000000E+00  0.00000000E+00
  0.00000000E+00  0.00000000E+00  0.00000000E+00
  0.00000000E+00  0.00000000E+00  0.00000000E+00
  0.00000000E+00  0.00000000E+00  0.00000000E+00
  0.00000000E+00  0.00000000E+00  0.00000000E+00
  0.00000000E+00  0.00000000E+00  0.00000000E+00
  0.00000000E+00  0.00000000E+00  0.00000000E+00
  0.00000000E+00  0.00000000E+00  0.00000000E+00
  0.00000000E+00  0.00000000E+00  0.00000000E+00
  0.00000000E+00  0.00000000E+00  0.00000000E+00
  0.00000000E+00  0.00000000E+00  0.00000000E+00
  0.00000000E+00  0.00000000E+00  0.00000000E+00
  0.00000000E+00  0.00000000E+00  0.00000000E+00
  0.00000000E+00  0.00000000E+00  0.00000000E+00
  0.00000000E+00  0.00000000E+00  0.00000000E+00
  0.00000000E+00  0.00000000E+00  0.00000000E+00
  0.00000000E+00  0.00000000E+00  0.00000000E+00
  0.00000000E+00  0.00000000E+00  0.00000000E+00
  0.00000000E+00  0.00000000E+00  0.00000000E+00
  0.00000000E+00  0.00000000E+00  0.00000000E+00
  0.00000000E+00  0.00000000E+00  0.00000000E+00
  0.00000000E+00  0.00000000E+00  0.00000000E+00
  0.00000000E+00  0.00000000E+00  0.00000000E+00
  0.00000000E+00  0.00000000E+00  0.00000000E+00
  0.00000000E+00  0.00000000E+00  0.00000000E+00
  0.00000000E+00  0.00000000E+00  0.00000000E+00
  0.00000000E+00  0.00000000E+00  0.00000000E+00
  0.00000000E+00  0.00000000E+00  0.00000000E+00
  0.00000000E+00  0.00000000E+00  0.00000000E+00
  0.00000000E+00  0.00000000E+00  0.00000000E+00
  0.00000000E+00  0.00000000E+00  0.00000000E+00
  0.00000000E+00  0.00000000E+00  0.00000000E+00
  0.00000000E+00  0.00000000E+00  0.00000000E+00
  0.00000000E+00  0.00000000E+00  0.00000000E+00
  0.00000000E+00  0.00000000E+00  0.00000000E+00
  0.00000000E+00  0.00000000E+00  0.00000000E+00
  0.00000000E+00  0.00000000E+00  0.00000000E+00
  0.00000000E+00  0.00000000E+00  0.00000000E+00
  0.00000000E+00  0.00000000E+00  0.00000000E+00
  0.00000000E+00  0.00000000E+00  0.00000000E+00
  0.00000000E+00  0.00000000E+00  0.00000000E+00
  0.00000000E+00  0.00000000E+00  0.00000000E+00
  0.00000000E+00  0.00000000E+00  0.00000000E+00
  0.00000000E+00  0.00000000E+00  0.00000000E+00
  0.00000000E+00  0.00000000E+00  0.00000000E+00
  0.00000000E+00  0.00000000E+00  0.00000000E+00
  0.00000000E+00  0.00000000E+00  0.00000000E+00
  0.00000000E+00  0.00000000E+00  0.00000000E+00
  0.00000000E+00  0.00000000E+00  0.00000000E+00
  0.00000000E+00  0.00000000E+00  0.00000000E+00
  0.00000000E+00  0.00000000E+00  0.00000000E+00
  0.00000000E+00  0.00000000E+00  0.00000000E+00
  0.00000000E+00  0.00000000E+00  0.00000000E+00
  0.00000000E+00  0.00000000E+00  0.00000000E+00
  0.00000000E+00  0.00000000E+00  0.00000000E+00
  0.00000000E+00  0.00000000E+00  0.00000000E+00
  0.00000000E+00  0.00000000E+00  0.00000000E+00
  0.00000000E+00  0.00000000E+00  0.00000000E+00
  0.00000000E+00  0.00000000E+00  0.00000000E+00
  0.00000000E+00  0.00000000E+00  0.00000000E+00
  0.00000000E+00  0.00000000E+00  0.00000000E+00
  0.00000000E+00  0.00000000E+00  0.00000000E+00
  0.00000000E+00  0.00000000E+00  0.00000000E+00
  0.00000000E+00  0.00000000E+00  0.00000000E+00
  0.00000000E+00  0.00000000E+00  0.00000000E+00
  0.00000000E+00  0.00000000E+00  0.00000000E+00
  0.00000000E+00  0.00000000E+00  0.00000000E+00
  0.00000000E+00  0.00000000E+00  0.00000000E+00
  0.00000000E+00  0.00000000E+00  0.00000000E+00
  0.00000000E+00  0.00000000E+00  0.00000000E+00
  0.00000000E+00  0.00000000E+00  0.00000000E+00
