C H O Si                                
   1.00000000000000     
     9.2874599999999994    0.0000000000000000    0.0000000000000000
     0.0000000000000000   17.5126199999999983    0.0000000000000000
     0.0000000000000000    0.0000000000000000   58.0000000000000000
   C    H    O    Si
    72    57    28    72
Selective dynamics
Direct
  0.9931528433100481  0.0631082391551632  0.0604443952703985   T   T   T
  0.3266202752750174  0.0630574761349993  0.0605383720673395   T   T   T
  0.6598235163615130  0.0630263353891136  0.0605150008737705   T   T   T
  0.9929606202451560  0.3131181154728343  0.0604437000689121   T   T   T
  0.3264548523255381  0.3130102989611874  0.0605502158224431   T   T   T
  0.6596624169721192  0.3130166826862341  0.0605162718425967   T   T   T
  0.1597299111700005  0.1857831842453949  0.1393869490185224   T   T   T
  0.4929901003094101  0.1860248987356052  0.1396261343895124   T   T   T
  0.8263396754598097  0.1857667768761971  0.1393021512958212   T   T   T
  0.1594879649290681  0.4359904715957135  0.1394249794410476   T   T   T
  0.4929304925031339  0.4358397496961381  0.1394742701012757   T   T   T
  0.8262700067825332  0.4359558754614323  0.1394000701927429   T   T   T
  0.3272521339918890  0.0611751485412484  0.1667271976245699   T   T   T
  0.6594702164263366  0.0611866989889457  0.1666756649002676   T   T   T
  0.9936880473622581  0.0605525046165277  0.1664669212295340   T   T   T
  0.3264306054075133  0.3111311339920066  0.1667842659932156   T   T   T
  0.6602362621106096  0.3111335292881786  0.1666429799407917   T   T   T
  0.9933896475262920  0.3110198822193822  0.1664555384239161   T   T   T
  0.1604061792674809  0.1873055823720952  0.1917572431695628   T   T   T
  0.4937524877253334  0.1897590755929528  0.1927156886755115   T   T   T
  0.8278602325563736  0.1867431672491885  0.1914948135876796   T   T   T
  0.1600660152206664  0.4383276954025489  0.1919694570711060   T   T   T
  0.4937132895195662  0.4379762018080433  0.1920303763040040   T   T   T
  0.8273187074213891  0.4383874108134463  0.1919159574356913   T   T   T
  0.1595615578582958  0.1860860879009687  0.0858638016834604   T   T   T
  0.4929494763343948  0.1860716874375306  0.0859705897309472   T   T   T
  0.8261871641753001  0.1860469492969221  0.0858240670520948   T   T   T
  0.1596319118696432  0.4360781195190115  0.0858928207224788   T   T   T
  0.4930013807353813  0.4360335248639799  0.0859012199568422   T   T   T
  0.8262379286619241  0.4360775605138068  0.0858606843881462   T   T   T
  0.3263281007320958  0.0609055343682136  0.1130847183132937   T   T   T
  0.6594467475838480  0.0609094822167193  0.1130550840297617   T   T   T
  0.9929686278219957  0.0608161130204499  0.1129816858502104   T   T   T
  0.3262501779691019  0.3109015012371718  0.1131042784813116   T   T   T
  0.6595909293074547  0.3108854646218444  0.1130673917546112   T   T   T
  0.9929399520037901  0.3109058814864986  0.1129653717876568   T   T   T
  0.9932417227828141  0.5630256299269647  0.0604785711850127   T   T   T
  0.3265923240678122  0.5629848081813935  0.0605047962719991   T   T   T
  0.6598932465538235  0.5630015940859735  0.0604930650682405   T   T   T
  0.9931434872088144  0.8130827838155862  0.0604865031551552   T   T   T
  0.3265150053468172  0.8130161177751674  0.0604869270688879   T   T   T
  0.6597619299620429  0.8130370215952607  0.0604903555090663   T   T   T
  0.1595307512356569  0.6860020836467017  0.1394162171631839   T   T   T
  0.4928236841355694  0.6859372410330289  0.1394252783653357   T   T   T
  0.8260858145051715  0.6860038251024738  0.1394200126973783   T   T   T
  0.1598906511896071  0.9358831684051073  0.1394384455965737   T   T   T
  0.4929168968826556  0.9358234798933478  0.1394437246346112   T   T   T
  0.8260772787222511  0.9359580229199198  0.1394272579151635   T   T   T
  0.3265324875552227  0.5611050867168837  0.1666090870885396   T   T   T
  0.6596866079314287  0.5611128852421536  0.1665950571104315   T   T   T
  0.9930867864047032  0.5613018169782512  0.1665606200146280   T   T   T
  0.3266113711244917  0.8110653714789794  0.1666162611293925   T   T   T
  0.6598449217961522  0.8110854394342719  0.1666327985523329   T   T   T
  0.9931898109566151  0.8111403416830858  0.1666219991980255   T   T   T
  0.1603918984548271  0.6881304468040761  0.1919883584707146   T   T   T
  0.4937060268241154  0.6881224728575905  0.1920109163565114   T   T   T
  0.8270246714333289  0.6881225287657834  0.1919883954856569   T   T   T
  0.1605986847607683  0.9380712042033139  0.1920145207669603   T   T   T
  0.4938318746307335  0.9380609548050020  0.1920510033793308   T   T   T
  0.8270786149532100  0.9380598183014534  0.1919876934746975   T   T   T
  0.1596210229651921  0.6860631938717213  0.0858749648637836   T   T   T
  0.4929872075569202  0.6860271888541298  0.0858731044433848   T   T   T
  0.8263004051837222  0.6860780224581752  0.0858685213355380   T   T   T
  0.1596614844819297  0.9360838607896108  0.0858682032795386   T   T   T
  0.4929461109157245  0.9360386910965535  0.0858817266440158   T   T   T
  0.8262169439051174  0.9360903463686191  0.0858539883048976   T   T   T
  0.3262163818445572  0.5609145806791875  0.1130470038557312   T   T   T
  0.6594827496387429  0.5609124280101437  0.1130356658305546   T   T   T
  0.9928232395582901  0.5609788828088172  0.1130120672741900   T   T   T
  0.3263551823322783  0.8109068060752119  0.1130051714949786   T   T   T
  0.6595681035246612  0.8109232236716493  0.1130176474854533   T   T   T
  0.9929527393752265  0.8109827685303189  0.1130272487079369   T   T   T
  0.0755006668465808  0.1775856318699750  0.0272040706023728   T   T   T
  0.4079108290519038  0.1776122856709499  0.0273538864094693   T   T   T
  0.7406781460631383  0.1775157592008556  0.0272306250160622   T   T   T
  0.0752939747568271  0.4276472840793031  0.0272059123655078   T   T   T
  0.4075788956758016  0.4274971724378122  0.0272894234837706   T   T   T
  0.7401247877804811  0.4274993184176876  0.0272560629391246   T   T   T
  0.3241197288531092  0.0267492839139274  0.0450378858498061   T   T   T
  0.6566974361755342  0.0267145693958070  0.0450171910697130   T   T   T
  0.9905120993670441  0.0267838158553244  0.0449453551212580   T   T   T
  0.3236532733719675  0.2766659143874728  0.0450590910323600   T   T   T
  0.6568785180004565  0.2766940906707815  0.0450212878603923   T   T   T
  0.9903402503058788  0.2768472991370715  0.0449329804737332   T   T   T
  0.8287411491595629  0.4023809949899234  0.2074588524831182   T   T   T
  0.8302513594342334  0.1507354826688369  0.2070578132612980   T   T   T
  0.1617350465594990  0.1512166529975438  0.2073027282471909   T   T   T
  0.4965083637499851  0.1528819595921023  0.2080949084072415   T   T   T
  0.1617496371583662  0.4018504148202243  0.2074312482671446   T   T   T
  0.4939310399719695  0.4016712656299903  0.2075367347790836   T   T   T
  0.0806230422523197  0.0523612521306708  0.2252148809409814   T   T   T
  0.4147078037779543  0.0519162805354289  0.2253584359137740   T   T   T
  0.7481181789148036  0.0521627513389653  0.2252904328198746   T   T   T
  0.0781280978060323  0.3009512670790860  0.2248049145336003   T   T   T
  0.3784150268584271  0.3101479373056722  0.2287388226043881   T   T   T
  0.7816795957806076  0.2950794478514954  0.2230984593687834   T   T   T
  0.5463138387961710  0.3057392375072819  0.2739574471240581   T   T   T
  0.4925646697298233  0.2380131625472052  0.2932932004138620   T   T   T
  0.5718223262287275  0.3200972827401941  0.3029927732752033   T   T   T
  0.3145675293036383  0.1943755651609626  0.3097201318221120   T   T   T
  0.4218193952307390  0.1301561055697504  0.3022402382471743   T   T   T
  0.6503824367879395  0.3663406032101476  0.3335027839971089   T   T   T
  0.4847153898492477  0.3776613513866765  0.3307988107993676   T   T   T
  0.5174983858569984  0.3958214085262139  0.2522071933372565   T   T   T
  0.5847398359052691  0.3236866969065210  0.2388594452248573   T   T   T
  0.0750824300566353  0.6776481099046454  0.0272416290225333   T   T   T
  0.4080056169030680  0.6775746682540809  0.0272652183098429   T   T   T
  0.7412647283721397  0.6775708423069432  0.0272635769077219   T   T   T
  0.0748002662386708  0.9275985552296216  0.0272300725277723   T   T   T
  0.4076307798463654  0.9275230797241486  0.0272624516653579   T   T   T
  0.7409482598599677  0.9275704576332858  0.0272515059669290   T   T   T
  0.3238155381040990  0.5266858569696532  0.0450018325178697   T   T   T
  0.6572281107760816  0.5266868183157900  0.0449941429769681   T   T   T
  0.9904843910701108  0.5266929794189787  0.0449823516998766   T   T   T
  0.3236925266228518  0.7767158629595294  0.0449885974600780   T   T   T
  0.6569194572001766  0.7767384209415944  0.0449936290423891   T   T   T
  0.9903323068960425  0.7767449309863793  0.0449957984723630   T   T   T
  0.8291927577469620  0.9016835750858504  0.2074715514814225   T   T   T
  0.8291021507005160  0.6517667922210791  0.2074738648050814   T   T   T
  0.1623497193833114  0.6517555332741768  0.2074734693753655   T   T   T
  0.4957923920769147  0.6518087808269047  0.2075091049296704   T   T   T
  0.1624119595838119  0.9016939342280961  0.2074993001121790   T   T   T
  0.4960131144007311  0.9015957594171211  0.2075173942313616   T   T   T
  0.0802270524639031  0.5533130676001766  0.2252006160037211   T   T   T
  0.4142547443533504  0.5538022720899329  0.2250638913204731   T   T   T
  0.7475913787319892  0.5532194626181843  0.2251379643961412   T   T   T
  0.0811266243574995  0.8024260566900105  0.2252436889314692   T   T   T
  0.4138712067067905  0.8026921643375121  0.2253009261206993   T   T   T
  0.7482020514384946  0.8022254924421826  0.2252054055815222   T   T   T
  0.1694537021217543  0.1667107739260433  0.0340459317813684   T   T   T
  0.5021626566100713  0.1666867088305096  0.0340839004422952   T   T   T
  0.8349157189501415  0.1666854361343174  0.0339759057042809   T   T   T
  0.1691910329124568  0.4166598737595560  0.0340498080575169   T   T   T
  0.5018214497561159  0.4165636969309961  0.0340298695745740   T   T   T
  0.8344673771562976  0.4166572630224197  0.0339705196383480   T   T   T
  0.3202627987161694  0.0417050387365272  0.2186082904514500   T   T   T
  0.6535797673883991  0.0416363538697292  0.2186063871451352   T   T   T
  0.9863926877130001  0.0416880017543239  0.2184653934700008   T   T   T
  0.3008959428861607  0.2917322912899200  0.2186058237095520   T   T   T
  0.6792873089316258  0.2915043617100209  0.2185620733541189   T   T   T
  0.9832826091249915  0.2897693369660855  0.2181860045726024   T   T   T
  0.5701594852498524  0.2798592434357301  0.2897065208293107   T   T   T
  0.3810530403656287  0.1790871944796429  0.2975210160660225   T   T   T
  0.5752676309847127  0.3778207704931877  0.3222479263732594   T   T   T
  0.5112109381893827  0.3403274587712244  0.2508701605839197   T   T   T
  0.1691284769738464  0.6666968790707770  0.0340445752421609   T   T   T
  0.5021751372427619  0.6666326640040114  0.0340249472742174   T   T   T
  0.8353812130082133  0.6666534641011310  0.0340311463468723   T   T   T
  0.1688412285392792  0.9166321146220116  0.0340169283909048   T   T   T
  0.5018315076405523  0.9166791589505020  0.0340214431405449   T   T   T
  0.8350995193609020  0.9166269730168708  0.0340126734595389   T   T   T
  0.3199134176493990  0.5415361746599131  0.2185870450705345   T   T   T
  0.6532576401391084  0.5415484559764301  0.2185661148177114   T   T   T
  0.9861132710063945  0.5419412548129736  0.2185133038102744   T   T   T
  0.3196770022330458  0.7916686406356106  0.2185850166566159   T   T   T
  0.6535514151719454  0.7915617891090918  0.2185906094121577   T   T   T
  0.9866298745436191  0.7915869206542026  0.2185973246225298   T   T   T
  0.4934403363546235  0.1217275350381189  0.0599149129277179   T   T   T
  0.8265691928690592  0.1217468154651403  0.0597963095378223   T   T   T
  0.1599950668755740  0.3717183442340437  0.0598732993094005   T   T   T
  0.4932551511025886  0.3716986226077477  0.0598681842716772   T   T   T
  0.8263885171390872  0.3717733920561012  0.0598140404407526   T   T   T
  0.1601501864124737  0.1217268687176156  0.0598492924280977   T   T   T
  0.9929072781324947  0.4984557314184227  0.1396442523577612   T   T   T
  0.3262691930203361  0.4983275277602952  0.1396716557842816   T   T   T
  0.6595965595319997  0.4983233633861180  0.1396592622931513   T   T   T
  0.9931134250009579  0.2481819740184613  0.1395281478536411   T   T   T
  0.3262221952525000  0.2483694741690860  0.1397761419575851   T   T   T
  0.6598724523101247  0.2482723889931769  0.1396641499042005   T   T   T
  0.1601930742771872  0.1227133874805050  0.1658674358938964   T   T   T
  0.4932526777517838  0.1238691580554969  0.1663329534245004   T   T   T
  0.8270423984587634  0.1223177723916296  0.1656847118560844   T   T   T
  0.1598717082757845  0.3733351834811295  0.1659849915261642   T   T   T
  0.4930828517279677  0.3730741077874445  0.1660260090308811   T   T   T
  0.8269349524930620  0.3733420717001081  0.1659542445579580   T   T   T
  0.3267952003897169  0.4968944418375791  0.1926719073621666   T   T   T
  0.6604947219137400  0.4969068096369390  0.1926512588934090   T   T   T
  0.9936585089134032  0.4971870268034545  0.1926220053778932   T   T   T
  0.3248427437391355  0.2475836943585181  0.1930852971707246   T   T   T
  0.9938141803128377  0.2456474005256831  0.1921716591343383   T   T   T
  0.6631248301685276  0.2463229386315846  0.1924382182076961   T   T   T
  0.9929727362206675  0.4981654580621652  0.0864618372110306   T   T   T
  0.3263998984026080  0.4981354449118718  0.0864889629740017   T   T   T
  0.6596573824601821  0.4981570008960030  0.0864748203823521   T   T   T
  0.9928923917523693  0.2481598983452252  0.0864064407098172   T   T   T
  0.3263071551939418  0.2481441787004310  0.0865296573475338   T   T   T
  0.6596380067606201  0.2481423891407317  0.0864949256850060   T   T   T
  0.1595908294200466  0.1232940109741102  0.1127611911117053   T   T   T
  0.4928517648529533  0.1233943624637456  0.1129097663363689   T   T   T
  0.8262202597392598  0.1232317052802827  0.1127062062553064   T   T   T
  0.1595460528173752  0.3733644779880534  0.1128038547084313   T   T   T
  0.4928850000152588  0.3733166501718869  0.1128214701900273   T   T   T
  0.8262101472110186  0.3733389067035354  0.1127739966382542   T   T   T
  0.4934221726256101  0.6216855036267315  0.0598447502251874   T   T   T
  0.8267362763913215  0.6217053598499432  0.0598458295918871   T   T   T
  0.1600702552483986  0.8717225567525494  0.0598451937141798   T   T   T
  0.4933210545015799  0.8717226423749238  0.0598441804511554   T   T   T
  0.8265828564557558  0.8717098454534300  0.0598356262228390   T   T   T
  0.1601285393110664  0.6217047443298439  0.0598525167313473   T   T   T
  0.9931500420771814  0.9980686368162605  0.1395895920455278   T   T   T
  0.3266583014137296  0.9983586782703151  0.1397180946753223   T   T   T
  0.6592375584258618  0.9983745785337108  0.1396904062432835   T   T   T
  0.9928715654501942  0.7484098476912043  0.1396653244624327   T   T   T
  0.3262718753500761  0.7483793304881811  0.1396468767295326   T   T   T
  0.6594763554777416  0.7484131464583927  0.1396671126063030   T   T   T
  0.1598171561055225  0.6232934922152450  0.1659670438355862   T   T   T
  0.4931060095482260  0.6232470043889170  0.1659930349971354   T   T   T
  0.8263762888497775  0.6233124411786128  0.1659731406973751   T   T   T
  0.1599812663459989  0.8731740771259223  0.1660046606840798   T   T   T
  0.4932245026621942  0.8732062539398320  0.1660295093153435   T   T   T
  0.8264330891515967  0.8731969985465087  0.1659891141140279   T   T   T
  0.3272003925900883  0.9967684486475015  0.1927541606806647   T   T   T
  0.6604605185520251  0.9967845910530601  0.1927278360356489   T   T   T
  0.9937941965355807  0.9966378680159619  0.1926180421394826   T   T   T
  0.3270043471063096  0.7468541983578566  0.1926930325247854   T   T   T
  0.9936631392659887  0.7468482863650863  0.1926896783874109   T   T   T
  0.6603605976503346  0.7468260611743125  0.1926935830273941   T   T   T
  0.9929949087988246  0.9981496521282937  0.0864101369443552   T   T   T
  0.3264343494085796  0.9981446743291211  0.0865024529807686   T   T   T
  0.6595835905970377  0.9981448711855330  0.0864847318815605   T   T   T
  0.9930106199957753  0.7481946509706104  0.0864653823876581   T   T   T
  0.3264008238059097  0.7481232712504545  0.0864569517392799   T   T   T
  0.6596498336143993  0.7481474142318093  0.0864639159196093   T   T   T
  0.1595020899936685  0.6233767986052291  0.1127946161879539   T   T   T
  0.4928156177440954  0.6233542134647704  0.1127953936247375   T   T   T
  0.8260910158496915  0.6233908882456478  0.1127899424928290   T   T   T
  0.1597133929207076  0.8733634483699361  0.1127882059086411   T   T   T
  0.4929012345603136  0.8733345546808153  0.1127915482034618   T   T   T
  0.8261367069532084  0.8733948987759694  0.1127798851510449   T   T   T
 
  0.00000000E+00  0.00000000E+00  0.00000000E+00
  0.00000000E+00  0.00000000E+00  0.00000000E+00
  0.00000000E+00  0.00000000E+00  0.00000000E+00
  0.00000000E+00  0.00000000E+00  0.00000000E+00
  0.00000000E+00  0.00000000E+00  0.00000000E+00
  0.00000000E+00  0.00000000E+00  0.00000000E+00
  0.00000000E+00  0.00000000E+00  0.00000000E+00
  0.00000000E+00  0.00000000E+00  0.00000000E+00
  0.00000000E+00  0.00000000E+00  0.00000000E+00
  0.00000000E+00  0.00000000E+00  0.00000000E+00
  0.00000000E+00  0.00000000E+00  0.00000000E+00
  0.00000000E+00  0.00000000E+00  0.00000000E+00
  0.00000000E+00  0.00000000E+00  0.00000000E+00
  0.00000000E+00  0.00000000E+00  0.00000000E+00
  0.00000000E+00  0.00000000E+00  0.00000000E+00
  0.00000000E+00  0.00000000E+00  0.00000000E+00
  0.00000000E+00  0.00000000E+00  0.00000000E+00
  0.00000000E+00  0.00000000E+00  0.00000000E+00
  0.00000000E+00  0.00000000E+00  0.00000000E+00
  0.00000000E+00  0.00000000E+00  0.00000000E+00
  0.00000000E+00  0.00000000E+00  0.00000000E+00
  0.00000000E+00  0.00000000E+00  0.00000000E+00
  0.00000000E+00  0.00000000E+00  0.00000000E+00
  0.00000000E+00  0.00000000E+00  0.00000000E+00
  0.00000000E+00  0.00000000E+00  0.00000000E+00
  0.00000000E+00  0.00000000E+00  0.00000000E+00
  0.00000000E+00  0.00000000E+00  0.00000000E+00
  0.00000000E+00  0.00000000E+00  0.00000000E+00
  0.00000000E+00  0.00000000E+00  0.00000000E+00
  0.00000000E+00  0.00000000E+00  0.00000000E+00
  0.00000000E+00  0.00000000E+00  0.00000000E+00
  0.00000000E+00  0.00000000E+00  0.00000000E+00
  0.00000000E+00  0.00000000E+00  0.00000000E+00
  0.00000000E+00  0.00000000E+00  0.00000000E+00
  0.00000000E+00  0.00000000E+00  0.00000000E+00
  0.00000000E+00  0.00000000E+00  0.00000000E+00
  0.00000000E+00  0.00000000E+00  0.00000000E+00
  0.00000000E+00  0.00000000E+00  0.00000000E+00
  0.00000000E+00  0.00000000E+00  0.00000000E+00
  0.00000000E+00  0.00000000E+00  0.00000000E+00
  0.00000000E+00  0.00000000E+00  0.00000000E+00
  0.00000000E+00  0.00000000E+00  0.00000000E+00
  0.00000000E+00  0.00000000E+00  0.00000000E+00
  0.00000000E+00  0.00000000E+00  0.00000000E+00
  0.00000000E+00  0.00000000E+00  0.00000000E+00
  0.00000000E+00  0.00000000E+00  0.00000000E+00
  0.00000000E+00  0.00000000E+00  0.00000000E+00
  0.00000000E+00  0.00000000E+00  0.00000000E+00
  0.00000000E+00  0.00000000E+00  0.00000000E+00
  0.00000000E+00  0.00000000E+00  0.00000000E+00
  0.00000000E+00  0.00000000E+00  0.00000000E+00
  0.00000000E+00  0.00000000E+00  0.00000000E+00
  0.00000000E+00  0.00000000E+00  0.00000000E+00
  0.00000000E+00  0.00000000E+00  0.00000000E+00
  0.00000000E+00  0.00000000E+00  0.00000000E+00
  0.00000000E+00  0.00000000E+00  0.00000000E+00
  0.00000000E+00  0.00000000E+00  0.00000000E+00
  0.00000000E+00  0.00000000E+00  0.00000000E+00
  0.00000000E+00  0.00000000E+00  0.00000000E+00
  0.00000000E+00  0.00000000E+00  0.00000000E+00
  0.00000000E+00  0.00000000E+00  0.00000000E+00
  0.00000000E+00  0.00000000E+00  0.00000000E+00
  0.00000000E+00  0.00000000E+00  0.00000000E+00
  0.00000000E+00  0.00000000E+00  0.00000000E+00
  0.00000000E+00  0.00000000E+00  0.00000000E+00
  0.00000000E+00  0.00000000E+00  0.00000000E+00
  0.00000000E+00  0.00000000E+00  0.00000000E+00
  0.00000000E+00  0.00000000E+00  0.00000000E+00
  0.00000000E+00  0.00000000E+00  0.00000000E+00
  0.00000000E+00  0.00000000E+00  0.00000000E+00
  0.00000000E+00  0.00000000E+00  0.00000000E+00
  0.00000000E+00  0.00000000E+00  0.00000000E+00
  0.00000000E+00  0.00000000E+00  0.00000000E+00
  0.00000000E+00  0.00000000E+00  0.00000000E+00
  0.00000000E+00  0.00000000E+00  0.00000000E+00
  0.00000000E+00  0.00000000E+00  0.00000000E+00
  0.00000000E+00  0.00000000E+00  0.00000000E+00
  0.00000000E+00  0.00000000E+00  0.00000000E+00
  0.00000000E+00  0.00000000E+00  0.00000000E+00
  0.00000000E+00  0.00000000E+00  0.00000000E+00
  0.00000000E+00  0.00000000E+00  0.00000000E+00
  0.00000000E+00  0.00000000E+00  0.00000000E+00
  0.00000000E+00  0.00000000E+00  0.00000000E+00
  0.00000000E+00  0.00000000E+00  0.00000000E+00
  0.00000000E+00  0.00000000E+00  0.00000000E+00
  0.00000000E+00  0.00000000E+00  0.00000000E+00
  0.00000000E+00  0.00000000E+00  0.00000000E+00
  0.00000000E+00  0.00000000E+00  0.00000000E+00
  0.00000000E+00  0.00000000E+00  0.00000000E+00
  0.00000000E+00  0.00000000E+00  0.00000000E+00
  0.00000000E+00  0.00000000E+00  0.00000000E+00
  0.00000000E+00  0.00000000E+00  0.00000000E+00
  0.00000000E+00  0.00000000E+00  0.00000000E+00
  0.00000000E+00  0.00000000E+00  0.00000000E+00
  0.00000000E+00  0.00000000E+00  0.00000000E+00
  0.00000000E+00  0.00000000E+00  0.00000000E+00
  0.00000000E+00  0.00000000E+00  0.00000000E+00
  0.00000000E+00  0.00000000E+00  0.00000000E+00
  0.00000000E+00  0.00000000E+00  0.00000000E+00
  0.00000000E+00  0.00000000E+00  0.00000000E+00
  0.00000000E+00  0.00000000E+00  0.00000000E+00
  0.00000000E+00  0.00000000E+00  0.00000000E+00
  0.00000000E+00  0.00000000E+00  0.00000000E+00
  0.00000000E+00  0.00000000E+00  0.00000000E+00
  0.00000000E+00  0.00000000E+00  0.00000000E+00
  0.00000000E+00  0.00000000E+00  0.00000000E+00
  0.00000000E+00  0.00000000E+00  0.00000000E+00
  0.00000000E+00  0.00000000E+00  0.00000000E+00
  0.00000000E+00  0.00000000E+00  0.00000000E+00
  0.00000000E+00  0.00000000E+00  0.00000000E+00
  0.00000000E+00  0.00000000E+00  0.00000000E+00
  0.00000000E+00  0.00000000E+00  0.00000000E+00
  0.00000000E+00  0.00000000E+00  0.00000000E+00
  0.00000000E+00  0.00000000E+00  0.00000000E+00
  0.00000000E+00  0.00000000E+00  0.00000000E+00
  0.00000000E+00  0.00000000E+00  0.00000000E+00
  0.00000000E+00  0.00000000E+00  0.00000000E+00
  0.00000000E+00  0.00000000E+00  0.00000000E+00
  0.00000000E+00  0.00000000E+00  0.00000000E+00
  0.00000000E+00  0.00000000E+00  0.00000000E+00
  0.00000000E+00  0.00000000E+00  0.00000000E+00
  0.00000000E+00  0.00000000E+00  0.00000000E+00
  0.00000000E+00  0.00000000E+00  0.00000000E+00
  0.00000000E+00  0.00000000E+00  0.00000000E+00
  0.00000000E+00  0.00000000E+00  0.00000000E+00
  0.00000000E+00  0.00000000E+00  0.00000000E+00
  0.00000000E+00  0.00000000E+00  0.00000000E+00
  0.00000000E+00  0.00000000E+00  0.00000000E+00
  0.00000000E+00  0.00000000E+00  0.00000000E+00
  0.00000000E+00  0.00000000E+00  0.00000000E+00
  0.00000000E+00  0.00000000E+00  0.00000000E+00
  0.00000000E+00  0.00000000E+00  0.00000000E+00
  0.00000000E+00  0.00000000E+00  0.00000000E+00
  0.00000000E+00  0.00000000E+00  0.00000000E+00
  0.00000000E+00  0.00000000E+00  0.00000000E+00
  0.00000000E+00  0.00000000E+00  0.00000000E+00
  0.00000000E+00  0.00000000E+00  0.00000000E+00
  0.00000000E+00  0.00000000E+00  0.00000000E+00
  0.00000000E+00  0.00000000E+00  0.00000000E+00
  0.00000000E+00  0.00000000E+00  0.00000000E+00
  0.00000000E+00  0.00000000E+00  0.00000000E+00
  0.00000000E+00  0.00000000E+00  0.00000000E+00
  0.00000000E+00  0.00000000E+00  0.00000000E+00
  0.00000000E+00  0.00000000E+00  0.00000000E+00
  0.00000000E+00  0.00000000E+00  0.00000000E+00
  0.00000000E+00  0.00000000E+00  0.00000000E+00
  0.00000000E+00  0.00000000E+00  0.00000000E+00
  0.00000000E+00  0.00000000E+00  0.00000000E+00
  0.00000000E+00  0.00000000E+00  0.00000000E+00
  0.00000000E+00  0.00000000E+00  0.00000000E+00
  0.00000000E+00  0.00000000E+00  0.00000000E+00
  0.00000000E+00  0.00000000E+00  0.00000000E+00
  0.00000000E+00  0.00000000E+00  0.00000000E+00
  0.00000000E+00  0.00000000E+00  0.00000000E+00
  0.00000000E+00  0.00000000E+00  0.00000000E+00
  0.00000000E+00  0.00000000E+00  0.00000000E+00
  0.00000000E+00  0.00000000E+00  0.00000000E+00
  0.00000000E+00  0.00000000E+00  0.00000000E+00
  0.00000000E+00  0.00000000E+00  0.00000000E+00
  0.00000000E+00  0.00000000E+00  0.00000000E+00
  0.00000000E+00  0.00000000E+00  0.00000000E+00
  0.00000000E+00  0.00000000E+00  0.00000000E+00
  0.00000000E+00  0.00000000E+00  0.00000000E+00
  0.00000000E+00  0.00000000E+00  0.00000000E+00
  0.00000000E+00  0.00000000E+00  0.00000000E+00
  0.00000000E+00  0.00000000E+00  0.00000000E+00
  0.00000000E+00  0.00000000E+00  0.00000000E+00
  0.00000000E+00  0.00000000E+00  0.00000000E+00
  0.00000000E+00  0.00000000E+00  0.00000000E+00
  0.00000000E+00  0.00000000E+00  0.00000000E+00
  0.00000000E+00  0.00000000E+00  0.00000000E+00
  0.00000000E+00  0.00000000E+00  0.00000000E+00
  0.00000000E+00  0.00000000E+00  0.00000000E+00
  0.00000000E+00  0.00000000E+00  0.00000000E+00
  0.00000000E+00  0.00000000E+00  0.00000000E+00
  0.00000000E+00  0.00000000E+00  0.00000000E+00
  0.00000000E+00  0.00000000E+00  0.00000000E+00
  0.00000000E+00  0.00000000E+00  0.00000000E+00
  0.00000000E+00  0.00000000E+00  0.00000000E+00
  0.00000000E+00  0.00000000E+00  0.00000000E+00
  0.00000000E+00  0.00000000E+00  0.00000000E+00
  0.00000000E+00  0.00000000E+00  0.00000000E+00
  0.00000000E+00  0.00000000E+00  0.00000000E+00
  0.00000000E+00  0.00000000E+00  0.00000000E+00
  0.00000000E+00  0.00000000E+00  0.00000000E+00
  0.00000000E+00  0.00000000E+00  0.00000000E+00
  0.00000000E+00  0.00000000E+00  0.00000000E+00
  0.00000000E+00  0.00000000E+00  0.00000000E+00
  0.00000000E+00  0.00000000E+00  0.00000000E+00
  0.00000000E+00  0.00000000E+00  0.00000000E+00
  0.00000000E+00  0.00000000E+00  0.00000000E+00
  0.00000000E+00  0.00000000E+00  0.00000000E+00
  0.00000000E+00  0.00000000E+00  0.00000000E+00
  0.00000000E+00  0.00000000E+00  0.00000000E+00
  0.00000000E+00  0.00000000E+00  0.00000000E+00
  0.00000000E+00  0.00000000E+00  0.00000000E+00
  0.00000000E+00  0.00000000E+00  0.00000000E+00
  0.00000000E+00  0.00000000E+00  0.00000000E+00
  0.00000000E+00  0.00000000E+00  0.00000000E+00
  0.00000000E+00  0.00000000E+00  0.00000000E+00
  0.00000000E+00  0.00000000E+00  0.00000000E+00
  0.00000000E+00  0.00000000E+00  0.00000000E+00
  0.00000000E+00  0.00000000E+00  0.00000000E+00
  0.00000000E+00  0.00000000E+00  0.00000000E+00
  0.00000000E+00  0.00000000E+00  0.00000000E+00
  0.00000000E+00  0.00000000E+00  0.00000000E+00
  0.00000000E+00  0.00000000E+00  0.00000000E+00
  0.00000000E+00  0.00000000E+00  0.00000000E+00
  0.00000000E+00  0.00000000E+00  0.00000000E+00
  0.00000000E+00  0.00000000E+00  0.00000000E+00
  0.00000000E+00  0.00000000E+00  0.00000000E+00
  0.00000000E+00  0.00000000E+00  0.00000000E+00
  0.00000000E+00  0.00000000E+00  0.00000000E+00
  0.00000000E+00  0.00000000E+00  0.00000000E+00
  0.00000000E+00  0.00000000E+00  0.00000000E+00
  0.00000000E+00  0.00000000E+00  0.00000000E+00
  0.00000000E+00  0.00000000E+00  0.00000000E+00
  0.00000000E+00  0.00000000E+00  0.00000000E+00
  0.00000000E+00  0.00000000E+00  0.00000000E+00
  0.00000000E+00  0.00000000E+00  0.00000000E+00
  0.00000000E+00  0.00000000E+00  0.00000000E+00
  0.00000000E+00  0.00000000E+00  0.00000000E+00
  0.00000000E+00  0.00000000E+00  0.00000000E+00
  0.00000000E+00  0.00000000E+00  0.00000000E+00
  0.00000000E+00  0.00000000E+00  0.00000000E+00
  0.00000000E+00  0.00000000E+00  0.00000000E+00
  0.00000000E+00  0.00000000E+00  0.00000000E+00
  0.00000000E+00  0.00000000E+00  0.00000000E+00
  0.00000000E+00  0.00000000E+00  0.00000000E+00
