C H O Si                                
   1.00000000000000     
     9.2874599999999994    0.0000000000000000    0.0000000000000000
     0.0000000000000000   17.5126199999999983    0.0000000000000000
     0.0000000000000000    0.0000000000000000   58.0000000000000000
   C    H    O    Si
    72    57    28    72
Selective dynamics
Direct
  0.9970003234869925  0.0651967697126520  0.0594960909927519   T   T   T
  0.3304926171735528  0.0652563708722028  0.0595729514653260   T   T   T
  0.6636721817727113  0.0652330651313122  0.0596055822197318   T   T   T
  0.9969275534702128  0.3152953565679834  0.0595170059038244   T   T   T
  0.3303802488149410  0.3151778818262044  0.0595663045869923   T   T   T
  0.6637244944855596  0.3151751447271369  0.0596086633156933   T   T   T
  0.1622341102207935  0.1880765073175357  0.1383091677715619   T   T   T
  0.4953195161746332  0.1884638544813295  0.1387122579426969   T   T   T
  0.8286469348642728  0.1881823399697864  0.1383562407954110   T   T   T
  0.1621699644050197  0.4382406113016455  0.1384434113846061   T   T   T
  0.4953092889345869  0.4373545122838117  0.1384665496418293   T   T   T
  0.8287452562132801  0.4382919522438489  0.1385139641542329   T   T   T
  0.3294434694424794  0.0634159765867503  0.1657058408794415   T   T   T
  0.6613258909050876  0.0636043927160498  0.1657747668736929   T   T   T
  0.9950416706224897  0.0626499274469453  0.1654299903323060   T   T   T
  0.3282084469885188  0.3135152235858924  0.1658135227182611   T   T   T
  0.6623051910153520  0.3135922170837553  0.1658053711493693   T   T   T
  0.9951441512201402  0.3132459998112603  0.1654785925797611   T   T   T
  0.1616763877273726  0.1887603529045060  0.1903660593853508   T   T   T
  0.4945868852637907  0.1925172698483561  0.1918428720599321   T   T   T
  0.8288186485834170  0.1892995112251332  0.1906378645114307   T   T   T
  0.1617523778941688  0.4404458433813063  0.1908876996235810   T   T   T
  0.4949538530960492  0.4388117470963806  0.1914843398943037   T   T   T
  0.8287585497382999  0.4404882947999889  0.1910849048118028   T   T   T
  0.1631037382136587  0.1883037975263971  0.0848333142762531   T   T   T
  0.4962825543809464  0.1884233778409937  0.0850205895518209   T   T   T
  0.8297313644419698  0.1883291120700354  0.0848796747853566   T   T   T
  0.1630790354021683  0.4383558249460140  0.0849018376742058   T   T   T
  0.4962944325933316  0.4382577500627148  0.0848520245987633   T   T   T
  0.8296570777581715  0.4383806024079819  0.0849451312062972   T   T   T
  0.3293810434452906  0.0632600873762491  0.1121228444686404   T   T   T
  0.6624941921317263  0.0632494450714962  0.1121471102947949   T   T   T
  0.9957621413130948  0.0631052318421549  0.1120373233422256   T   T   T
  0.3291622678312490  0.3131255889663348  0.1121315922462952   T   T   T
  0.6626574504115672  0.3131104242941422  0.1121542254348043   T   T   T
  0.9957597443910580  0.3131796787425976  0.1120411612301294   T   T   T
  0.9970202672146503  0.5653166417009736  0.0595707580293727   T   T   T
  0.3304215292567084  0.5653022070573579  0.0595537997662871   T   T   T
  0.6637581135447025  0.5652685178071096  0.0596058030136908   T   T   T
  0.9970021851823495  0.8153911980616126  0.0595448240617379   T   T   T
  0.3304920533841907  0.8152850772512954  0.0595522399694284   T   T   T
  0.6637482919971148  0.8152505377348345  0.0595695670599426   T   T   T
  0.1620662696752678  0.6884068578501042  0.1384433040772882   T   T   T
  0.4954362846437964  0.6881037469444027  0.1385104222035834   T   T   T
  0.8289772400512906  0.6883989558443121  0.1384641545924942   T   T   T
  0.1625034245164753  0.9381996491188455  0.1384575378260401   T   T   T
  0.4953861185759260  0.9380884844058069  0.1384750796703468   T   T   T
  0.8284173253622938  0.9382430407301856  0.1384520749345300   T   T   T
  0.3278870711846280  0.5635137785739484  0.1657353058756930   T   T   T
  0.6628862090320377  0.5632845834906376  0.1658538179623333   T   T   T
  0.9953410128873360  0.5636342266903069  0.1656179919934198   T   T   T
  0.3288525582090029  0.8133721475677845  0.1656476227100924   T   T   T
  0.6622062535845520  0.8132971597235424  0.1656520451566079   T   T   T
  0.9953865312338657  0.8134808872556777  0.1656246285169092   T   T   T
  0.1619355710664133  0.6904693403906063  0.1909832063787305   T   T   T
  0.4955097842225699  0.6902202450105098  0.1910392161787880   T   T   T
  0.8289074994808817  0.6904713661463606  0.1910069779186650   T   T   T
  0.1619726221998549  0.9401560003170731  0.1909941048221698   T   T   T
  0.4954801411416418  0.9400922021618066  0.1910259684281139   T   T   T
  0.8286309645027199  0.9401791529356471  0.1910031139900785   T   T   T
  0.1630283558882674  0.6884317647761699  0.0849128846416059   T   T   T
  0.4963263699393732  0.6883849546184447  0.0849204640287235   T   T   T
  0.8297543698611534  0.6884318601025146  0.0849340319692997   T   T   T
  0.1631533772352161  0.9384201341516240  0.0849079240576918   T   T   T
  0.4963496434436182  0.9384147095373678  0.0849192569796144   T   T   T
  0.8296291533030480  0.9384617839722311  0.0849159777540145   T   T   T
  0.3292198034513857  0.5631385606613974  0.1121166400831579   T   T   T
  0.6626468440294738  0.5630767895663500  0.1121683953313008   T   T   T
  0.9957929067810199  0.5632442606362627  0.1121088781161652   T   T   T
  0.3293110091942352  0.8132371130126194  0.1120893270410991   T   T   T
  0.6625647741578670  0.8131637877540909  0.1120958593013995   T   T   T
  0.9958221262966406  0.8134313055264063  0.1120826465450432   T   T   T
  0.0765034849957062  0.1806730401930771  0.0268578726196638   T   T   T
  0.4096750516063574  0.1807886775355586  0.0269951036469765   T   T   T
  0.7427064902491360  0.1806754091725414  0.0269171781534917   T   T   T
  0.0764154199342039  0.4307106046495653  0.0269086111078191   T   T   T
  0.4098433588436674  0.4304791343590035  0.0268245465734264   T   T   T
  0.7423799547860835  0.4305713964086074  0.0269471671650711   T   T   T
  0.3284781529165265  0.0286612193037817  0.0441339550639623   T   T   T
  0.6609507177271339  0.0286672745431342  0.0441630192346709   T   T   T
  0.9945130714407312  0.0286605132863736  0.0440439159784109   T   T   T
  0.3276847130314470  0.2785578096598396  0.0441341001853789   T   T   T
  0.6615672845823788  0.2785528385173562  0.0441754108342360   T   T   T
  0.9945173611154292  0.2788191068610847  0.0440498362030405   T   T   T
  0.8314781191852754  0.4033426826202276  0.2063892093470917   T   T   T
  0.8321348200440841  0.1529802771283501  0.2061301531727883   T   T   T
  0.1636360123015350  0.1529050667454774  0.2059580913463525   T   T   T
  0.4976489401291025  0.1555349544697905  0.2071941183976470   T   T   T
  0.1639677281335976  0.4033445592809463  0.2062089720567517   T   T   T
  0.5383827105034059  0.4657390621880630  0.2620508003389685   T   T   T
  0.0845447822817764  0.0565153374994074  0.2232013706841461   T   T   T
  0.4175831225862892  0.0564938077944963  0.2233472711984850   T   T   T
  0.7504153317585674  0.0565670418750775  0.2234347409793582   T   T   T
  0.0945326186304958  0.2997396031443518  0.2221228778039465   T   T   T
  0.3675851119099692  0.2822150334932246  0.2302437974277680   T   T   T
  0.7825296231504645  0.2958723280838012  0.2225503393267858   T   T   T
  0.5046110544178651  0.2700612413903409  0.2660124182060964   T   T   T
  0.4727158780103640  0.2276672260240901  0.3007273496986701   T   T   T
  0.5207215779529416  0.3117274841513013  0.3087985886796439   T   T   T
  0.2891321243042336  0.1367079359415201  0.2961817932166854   T   T   T
  0.4371702363005786  0.1073132760988901  0.2878869454747249   T   T   T
  0.6375405166615428  0.3865067052801830  0.3348767226286644   T   T   T
  0.5031221058409153  0.4319658673478618  0.3269531100205920   T   T   T
  0.5067245394875758  0.4410127499972784  0.2713353489977351   T   T   T
  0.5702297234785890  0.2668743253971110  0.2402776435539719   T   T   T
  0.0762095713484940  0.6807743834289752  0.0269322133630367   T   T   T
  0.4096714098325285  0.6807242587872279  0.0269265998209878   T   T   T
  0.7429781259974343  0.6807276988114100  0.0269308836036729   T   T   T
  0.0766478152810119  0.9307635939275620  0.0268912249441529   T   T   T
  0.4094874263316108  0.9306088770949421  0.0269212129697860   T   T   T
  0.7424578102417523  0.9306395245506375  0.0269273515898507   T   T   T
  0.3280105182550334  0.5287486658541093  0.0441078219720809   T   T   T
  0.6614402633311607  0.5287268166673372  0.0441549745143648   T   T   T
  0.9946303811475709  0.5287694954967490  0.0441206295982326   T   T   T
  0.3280476084735642  0.7787691504983925  0.0440984178807443   T   T   T
  0.6612698050319833  0.7787703278039650  0.0441069694889604   T   T   T
  0.9946193331991316  0.7788732083402183  0.0440924193700070   T   T   T
  0.8311602102494633  0.9037006042363517  0.2064554810564878   T   T   T
  0.8310592479022892  0.6537339505980564  0.2064083041917131   T   T   T
  0.1651220943495006  0.6535193576205233  0.2063340416210302   T   T   T
  0.4973201361915843  0.6531388200305752  0.2063750877820047   T   T   T
  0.1643364363158302  0.9036846928787489  0.2064541598086937   T   T   T
  0.4978061303745803  0.9035469634676910  0.2064694141188144   T   T   T
  0.0905505352128698  0.5544523964369659  0.2228718765306675   T   T   T
  0.4179001793575923  0.5502508299495682  0.2239291809712153   T   T   T
  0.7570499033037996  0.5563201969481089  0.2223893382641225   T   T   T
  0.0852599740928454  0.8054270606010404  0.2234529722216395   T   T   T
  0.4181625017000861  0.8054485874160582  0.2234746959862839   T   T   T
  0.7521072730497400  0.8052621665413916  0.2234325648965127   T   T   T
  0.1719309438539726  0.1679570023890572  0.0328307053037840   T   T   T
  0.5051421044882550  0.1681836381633016  0.0329806534765209   T   T   T
  0.8382545796744780  0.1680082226130818  0.0328573985220230   T   T   T
  0.1718835306893692  0.4180750313479674  0.0328835373006901   T   T   T
  0.5052698631503578  0.4178872588921775  0.0328278918410283   T   T   T
  0.8379987474772006  0.4182417988842182  0.0329266177801921   T   T   T
  0.3217700068408869  0.0426115194505147  0.2177615909325638   T   T   T
  0.6548090714668332  0.0424728212552521  0.2178141467766799   T   T   T
  0.9885843869319497  0.0430601462420959  0.2175762617714557   T   T   T
  0.2976178658856583  0.2938312840982753  0.2176796591241971   T   T   T
  0.6804069818173640  0.2912531996610201  0.2183312939977485   T   T   T
  0.9934474950379777  0.2911174196448046  0.2173759827720928   T   T   T
  0.5287106239920438  0.2734127316497041  0.2962774636079434   T   T   T
  0.3896195815873137  0.1323599466620616  0.3008267080872351   T   T   T
  0.5354352565888378  0.3810552858577810  0.3313176533170052   T   T   T
  0.4878388089344133  0.2504802295789204  0.2502069777006112   T   T   T
  0.1717147904424779  0.6681299330588645  0.0328929442711409   T   T   T
  0.5051617543846637  0.6681568601964804  0.0329067238080203   T   T   T
  0.8384581300040558  0.6681269915858301  0.0329072759635955   T   T   T
  0.1720543264470800  0.9181525723859498  0.0328937962238513   T   T   T
  0.5050672206411366  0.9181873037007213  0.0329067301993109   T   T   T
  0.8380808933458871  0.9182822704244943  0.0328997288600256   T   T   T
  0.3214627678785255  0.5452290939563620  0.2173439414833927   T   T   T
  0.6585230227372834  0.5445623246947455  0.2176735608020261   T   T   T
  0.9922855341271639  0.5440139329457617  0.2175935246806808   T   T   T
  0.3220087438017785  0.7934434138473139  0.2176494184108996   T   T   T
  0.6557250774606455  0.7933433147331362  0.2176795828321682   T   T   T
  0.9889909134721919  0.7934682799228303  0.2176594180767955   T   T   T
  0.4972634444661677  0.1239323188215013  0.0591621568784426   T   T   T
  0.8305200767876841  0.1238454836380431  0.0590496922181023   T   T   T
  0.1639395955425831  0.3738651447772020  0.0590704751861643   T   T   T
  0.4972286414003491  0.3738658535164535  0.0590596603708744   T   T   T
  0.8303962906273343  0.3739375201019245  0.0591001878776309   T   T   T
  0.1639223823224264  0.1238038074543304  0.0590207846212891   T   T   T
  0.9953850531904892  0.0001688626954052  0.1385965667186157   T   T   T
  0.3292565871641828  0.0006019283746123  0.1387356526616872   T   T   T
  0.6616774795607678  0.0006385979221112  0.1387617980554606   T   T   T
  0.9954675379397762  0.2505246148336925  0.1386633587503861   T   T   T
  0.3287076382058292  0.2511277790506647  0.1389735302719959   T   T   T
  0.6620916898138511  0.2510950814435990  0.1389654352960111   T   T   T
  0.1618225464655929  0.1246969772302763  0.1646631310717077   T   T   T
  0.4950694365698390  0.1266320707633436  0.1654556872090623   T   T   T
  0.8287338829878855  0.1250008754851851  0.1647724477143210   T   T   T
  0.1622566655184201  0.3755510207001244  0.1650612872917076   T   T   T
  0.4950211093091810  0.3772731997254842  0.1664245294328947   T   T   T
  0.8284295806184425  0.3756550805364308  0.1651589882123446   T   T   T
  0.3341672459636079  0.4957541109211219  0.1916913075857732   T   T   T
  0.6556163620636503  0.4956640743785815  0.1919309855309290   T   T   T
  0.9953269233471242  0.4986666153364238  0.1914683324328806   T   T   T
  0.3250542406866451  0.2504484587634188  0.1919774955397758   T   T   T
  0.9955698548546705  0.2476668951143764  0.1910488340725028   T   T   T
  0.6639058487062622  0.2498379789997195  0.1917229261039154   T   T   T
  0.9963814994460780  0.0003396757559695  0.0855950849543659   T   T   T
  0.3297836409255344  0.0003891553940817  0.0856663560936765   T   T   T
  0.6629652117839010  0.0003907766419607  0.0856839778803277   T   T   T
  0.9963570589831352  0.2503665171980237  0.0856067651597270   T   T   T
  0.3296365661796044  0.2504205232168172  0.0857083309888665   T   T   T
  0.6630373352574904  0.2504146640151193  0.0857250866913995   T   T   T
  0.1625399708895881  0.1255281738310727  0.1118361694732317   T   T   T
  0.4958797888724870  0.1257671669738981  0.1120906003895273   T   T   T
  0.8291579875910250  0.1255683721902150  0.1118769183896842   T   T   T
  0.1626591133267821  0.3755925892234607  0.1119658417603074   T   T   T
  0.4958723419085196  0.3757215768952315  0.1120611453686262   T   T   T
  0.8290171990459720  0.3756400781140513  0.1120177451989048   T   T   T
  0.4972788693617147  0.6238845917535409  0.0590862141369011   T   T   T
  0.8305223873673786  0.6239263843148573  0.0590978677281828   T   T   T
  0.1640137768063617  0.8739152668731428  0.0590707929434704   T   T   T
  0.4973069793323189  0.8739067676166830  0.0590791685863117   T   T   T
  0.8304429066338850  0.8739771676233610  0.0590713487567612   T   T   T
  0.1639396416031702  0.6239128206071861  0.0590767022339057   T   T   T
  0.9954809754324980  0.5005378173950591  0.1387965864172026   T   T   T
  0.3298402615651372  0.5003570828579880  0.1389440424223842   T   T   T
  0.6609804444055453  0.5003162599104430  0.1390161581597661   T   T   T
  0.9955404085966383  0.7505232793069974  0.1386701173747207   T   T   T
  0.3289869638622013  0.7503318649958984  0.1386952718285815   T   T   T
  0.6620885803054077  0.7502915391734445  0.1387054334968857   T   T   T
  0.1626657196234760  0.6250358913497055  0.1649749038901177   T   T   T
  0.4954567886230359  0.6243694370968038  0.1650693039870339   T   T   T
  0.8280341119348421  0.6249505983257724  0.1650143398075445   T   T   T
  0.1621896308409236  0.8752523952712667  0.1649343021854265   T   T   T
  0.4954865449361712  0.8752039084548797  0.1649626451792076   T   T   T
  0.8286590348697759  0.8752760987226914  0.1649378537035230   T   T   T
  0.3285286950257967  0.9987288044934032  0.1915184426563457   T   T   T
  0.6617884509489750  0.9987599396146740  0.1915524568621459   T   T   T
  0.9950921770953572  0.9987254207582189  0.1913982727317265   T   T   T
  0.3287250104976020  0.7485785100887364  0.1915012140827965   T   T   T
  0.9952698702584091  0.7487694736062263  0.1914910683837009   T   T   T
  0.6617931242356785  0.7485715421887353  0.1915228494987078   T   T   T
  0.9963461620651262  0.5003803400755660  0.0856703411536468   T   T   T
  0.3298407014360943  0.5003701820351036  0.0856751137969652   T   T   T
  0.6628451360788851  0.5003450407305717  0.0857151986548010   T   T   T
  0.9963600548966298  0.7504444744783608  0.0856409543263802   T   T   T
  0.3297278330441512  0.7503508351229339  0.0856427772253481   T   T   T
  0.6630295686659819  0.7503048807638918  0.0856471290639568   T   T   T
  0.1626962159640769  0.6254909920990893  0.1119405450207026   T   T   T
  0.4959269253317661  0.6254020922099215  0.1119659812397467   T   T   T
  0.8290297188216829  0.6254913460068817  0.1119691035050699   T   T   T
  0.1627185437694107  0.8755270008662642  0.1118915940282921   T   T   T
  0.4959356486244830  0.8754803240401660  0.1119028171067893   T   T   T
  0.8289401577888950  0.8755648207324231  0.1118942175326878   T   T   T
 
  0.00000000E+00  0.00000000E+00  0.00000000E+00
  0.00000000E+00  0.00000000E+00  0.00000000E+00
  0.00000000E+00  0.00000000E+00  0.00000000E+00
  0.00000000E+00  0.00000000E+00  0.00000000E+00
  0.00000000E+00  0.00000000E+00  0.00000000E+00
  0.00000000E+00  0.00000000E+00  0.00000000E+00
  0.00000000E+00  0.00000000E+00  0.00000000E+00
  0.00000000E+00  0.00000000E+00  0.00000000E+00
  0.00000000E+00  0.00000000E+00  0.00000000E+00
  0.00000000E+00  0.00000000E+00  0.00000000E+00
  0.00000000E+00  0.00000000E+00  0.00000000E+00
  0.00000000E+00  0.00000000E+00  0.00000000E+00
  0.00000000E+00  0.00000000E+00  0.00000000E+00
  0.00000000E+00  0.00000000E+00  0.00000000E+00
  0.00000000E+00  0.00000000E+00  0.00000000E+00
  0.00000000E+00  0.00000000E+00  0.00000000E+00
  0.00000000E+00  0.00000000E+00  0.00000000E+00
  0.00000000E+00  0.00000000E+00  0.00000000E+00
  0.00000000E+00  0.00000000E+00  0.00000000E+00
  0.00000000E+00  0.00000000E+00  0.00000000E+00
  0.00000000E+00  0.00000000E+00  0.00000000E+00
  0.00000000E+00  0.00000000E+00  0.00000000E+00
  0.00000000E+00  0.00000000E+00  0.00000000E+00
  0.00000000E+00  0.00000000E+00  0.00000000E+00
  0.00000000E+00  0.00000000E+00  0.00000000E+00
  0.00000000E+00  0.00000000E+00  0.00000000E+00
  0.00000000E+00  0.00000000E+00  0.00000000E+00
  0.00000000E+00  0.00000000E+00  0.00000000E+00
  0.00000000E+00  0.00000000E+00  0.00000000E+00
  0.00000000E+00  0.00000000E+00  0.00000000E+00
  0.00000000E+00  0.00000000E+00  0.00000000E+00
  0.00000000E+00  0.00000000E+00  0.00000000E+00
  0.00000000E+00  0.00000000E+00  0.00000000E+00
  0.00000000E+00  0.00000000E+00  0.00000000E+00
  0.00000000E+00  0.00000000E+00  0.00000000E+00
  0.00000000E+00  0.00000000E+00  0.00000000E+00
  0.00000000E+00  0.00000000E+00  0.00000000E+00
  0.00000000E+00  0.00000000E+00  0.00000000E+00
  0.00000000E+00  0.00000000E+00  0.00000000E+00
  0.00000000E+00  0.00000000E+00  0.00000000E+00
  0.00000000E+00  0.00000000E+00  0.00000000E+00
  0.00000000E+00  0.00000000E+00  0.00000000E+00
  0.00000000E+00  0.00000000E+00  0.00000000E+00
  0.00000000E+00  0.00000000E+00  0.00000000E+00
  0.00000000E+00  0.00000000E+00  0.00000000E+00
  0.00000000E+00  0.00000000E+00  0.00000000E+00
  0.00000000E+00  0.00000000E+00  0.00000000E+00
  0.00000000E+00  0.00000000E+00  0.00000000E+00
  0.00000000E+00  0.00000000E+00  0.00000000E+00
  0.00000000E+00  0.00000000E+00  0.00000000E+00
  0.00000000E+00  0.00000000E+00  0.00000000E+00
  0.00000000E+00  0.00000000E+00  0.00000000E+00
  0.00000000E+00  0.00000000E+00  0.00000000E+00
  0.00000000E+00  0.00000000E+00  0.00000000E+00
  0.00000000E+00  0.00000000E+00  0.00000000E+00
  0.00000000E+00  0.00000000E+00  0.00000000E+00
  0.00000000E+00  0.00000000E+00  0.00000000E+00
  0.00000000E+00  0.00000000E+00  0.00000000E+00
  0.00000000E+00  0.00000000E+00  0.00000000E+00
  0.00000000E+00  0.00000000E+00  0.00000000E+00
  0.00000000E+00  0.00000000E+00  0.00000000E+00
  0.00000000E+00  0.00000000E+00  0.00000000E+00
  0.00000000E+00  0.00000000E+00  0.00000000E+00
  0.00000000E+00  0.00000000E+00  0.00000000E+00
  0.00000000E+00  0.00000000E+00  0.00000000E+00
  0.00000000E+00  0.00000000E+00  0.00000000E+00
  0.00000000E+00  0.00000000E+00  0.00000000E+00
  0.00000000E+00  0.00000000E+00  0.00000000E+00
  0.00000000E+00  0.00000000E+00  0.00000000E+00
  0.00000000E+00  0.00000000E+00  0.00000000E+00
  0.00000000E+00  0.00000000E+00  0.00000000E+00
  0.00000000E+00  0.00000000E+00  0.00000000E+00
  0.00000000E+00  0.00000000E+00  0.00000000E+00
  0.00000000E+00  0.00000000E+00  0.00000000E+00
  0.00000000E+00  0.00000000E+00  0.00000000E+00
  0.00000000E+00  0.00000000E+00  0.00000000E+00
  0.00000000E+00  0.00000000E+00  0.00000000E+00
  0.00000000E+00  0.00000000E+00  0.00000000E+00
  0.00000000E+00  0.00000000E+00  0.00000000E+00
  0.00000000E+00  0.00000000E+00  0.00000000E+00
  0.00000000E+00  0.00000000E+00  0.00000000E+00
  0.00000000E+00  0.00000000E+00  0.00000000E+00
  0.00000000E+00  0.00000000E+00  0.00000000E+00
  0.00000000E+00  0.00000000E+00  0.00000000E+00
  0.00000000E+00  0.00000000E+00  0.00000000E+00
  0.00000000E+00  0.00000000E+00  0.00000000E+00
  0.00000000E+00  0.00000000E+00  0.00000000E+00
  0.00000000E+00  0.00000000E+00  0.00000000E+00
  0.00000000E+00  0.00000000E+00  0.00000000E+00
  0.00000000E+00  0.00000000E+00  0.00000000E+00
  0.00000000E+00  0.00000000E+00  0.00000000E+00
  0.00000000E+00  0.00000000E+00  0.00000000E+00
  0.00000000E+00  0.00000000E+00  0.00000000E+00
  0.00000000E+00  0.00000000E+00  0.00000000E+00
  0.00000000E+00  0.00000000E+00  0.00000000E+00
  0.00000000E+00  0.00000000E+00  0.00000000E+00
  0.00000000E+00  0.00000000E+00  0.00000000E+00
  0.00000000E+00  0.00000000E+00  0.00000000E+00
  0.00000000E+00  0.00000000E+00  0.00000000E+00
  0.00000000E+00  0.00000000E+00  0.00000000E+00
  0.00000000E+00  0.00000000E+00  0.00000000E+00
  0.00000000E+00  0.00000000E+00  0.00000000E+00
  0.00000000E+00  0.00000000E+00  0.00000000E+00
  0.00000000E+00  0.00000000E+00  0.00000000E+00
  0.00000000E+00  0.00000000E+00  0.00000000E+00
  0.00000000E+00  0.00000000E+00  0.00000000E+00
  0.00000000E+00  0.00000000E+00  0.00000000E+00
  0.00000000E+00  0.00000000E+00  0.00000000E+00
  0.00000000E+00  0.00000000E+00  0.00000000E+00
  0.00000000E+00  0.00000000E+00  0.00000000E+00
  0.00000000E+00  0.00000000E+00  0.00000000E+00
  0.00000000E+00  0.00000000E+00  0.00000000E+00
  0.00000000E+00  0.00000000E+00  0.00000000E+00
  0.00000000E+00  0.00000000E+00  0.00000000E+00
  0.00000000E+00  0.00000000E+00  0.00000000E+00
  0.00000000E+00  0.00000000E+00  0.00000000E+00
  0.00000000E+00  0.00000000E+00  0.00000000E+00
  0.00000000E+00  0.00000000E+00  0.00000000E+00
  0.00000000E+00  0.00000000E+00  0.00000000E+00
  0.00000000E+00  0.00000000E+00  0.00000000E+00
  0.00000000E+00  0.00000000E+00  0.00000000E+00
  0.00000000E+00  0.00000000E+00  0.00000000E+00
  0.00000000E+00  0.00000000E+00  0.00000000E+00
  0.00000000E+00  0.00000000E+00  0.00000000E+00
  0.00000000E+00  0.00000000E+00  0.00000000E+00
  0.00000000E+00  0.00000000E+00  0.00000000E+00
  0.00000000E+00  0.00000000E+00  0.00000000E+00
  0.00000000E+00  0.00000000E+00  0.00000000E+00
  0.00000000E+00  0.00000000E+00  0.00000000E+00
  0.00000000E+00  0.00000000E+00  0.00000000E+00
  0.00000000E+00  0.00000000E+00  0.00000000E+00
  0.00000000E+00  0.00000000E+00  0.00000000E+00
  0.00000000E+00  0.00000000E+00  0.00000000E+00
  0.00000000E+00  0.00000000E+00  0.00000000E+00
  0.00000000E+00  0.00000000E+00  0.00000000E+00
  0.00000000E+00  0.00000000E+00  0.00000000E+00
  0.00000000E+00  0.00000000E+00  0.00000000E+00
  0.00000000E+00  0.00000000E+00  0.00000000E+00
  0.00000000E+00  0.00000000E+00  0.00000000E+00
  0.00000000E+00  0.00000000E+00  0.00000000E+00
  0.00000000E+00  0.00000000E+00  0.00000000E+00
  0.00000000E+00  0.00000000E+00  0.00000000E+00
  0.00000000E+00  0.00000000E+00  0.00000000E+00
  0.00000000E+00  0.00000000E+00  0.00000000E+00
  0.00000000E+00  0.00000000E+00  0.00000000E+00
  0.00000000E+00  0.00000000E+00  0.00000000E+00
  0.00000000E+00  0.00000000E+00  0.00000000E+00
  0.00000000E+00  0.00000000E+00  0.00000000E+00
  0.00000000E+00  0.00000000E+00  0.00000000E+00
  0.00000000E+00  0.00000000E+00  0.00000000E+00
  0.00000000E+00  0.00000000E+00  0.00000000E+00
  0.00000000E+00  0.00000000E+00  0.00000000E+00
  0.00000000E+00  0.00000000E+00  0.00000000E+00
  0.00000000E+00  0.00000000E+00  0.00000000E+00
  0.00000000E+00  0.00000000E+00  0.00000000E+00
  0.00000000E+00  0.00000000E+00  0.00000000E+00
  0.00000000E+00  0.00000000E+00  0.00000000E+00
  0.00000000E+00  0.00000000E+00  0.00000000E+00
  0.00000000E+00  0.00000000E+00  0.00000000E+00
  0.00000000E+00  0.00000000E+00  0.00000000E+00
  0.00000000E+00  0.00000000E+00  0.00000000E+00
  0.00000000E+00  0.00000000E+00  0.00000000E+00
  0.00000000E+00  0.00000000E+00  0.00000000E+00
  0.00000000E+00  0.00000000E+00  0.00000000E+00
  0.00000000E+00  0.00000000E+00  0.00000000E+00
  0.00000000E+00  0.00000000E+00  0.00000000E+00
  0.00000000E+00  0.00000000E+00  0.00000000E+00
  0.00000000E+00  0.00000000E+00  0.00000000E+00
  0.00000000E+00  0.00000000E+00  0.00000000E+00
  0.00000000E+00  0.00000000E+00  0.00000000E+00
  0.00000000E+00  0.00000000E+00  0.00000000E+00
  0.00000000E+00  0.00000000E+00  0.00000000E+00
  0.00000000E+00  0.00000000E+00  0.00000000E+00
  0.00000000E+00  0.00000000E+00  0.00000000E+00
  0.00000000E+00  0.00000000E+00  0.00000000E+00
  0.00000000E+00  0.00000000E+00  0.00000000E+00
  0.00000000E+00  0.00000000E+00  0.00000000E+00
  0.00000000E+00  0.00000000E+00  0.00000000E+00
  0.00000000E+00  0.00000000E+00  0.00000000E+00
  0.00000000E+00  0.00000000E+00  0.00000000E+00
  0.00000000E+00  0.00000000E+00  0.00000000E+00
  0.00000000E+00  0.00000000E+00  0.00000000E+00
  0.00000000E+00  0.00000000E+00  0.00000000E+00
  0.00000000E+00  0.00000000E+00  0.00000000E+00
  0.00000000E+00  0.00000000E+00  0.00000000E+00
  0.00000000E+00  0.00000000E+00  0.00000000E+00
  0.00000000E+00  0.00000000E+00  0.00000000E+00
  0.00000000E+00  0.00000000E+00  0.00000000E+00
  0.00000000E+00  0.00000000E+00  0.00000000E+00
  0.00000000E+00  0.00000000E+00  0.00000000E+00
  0.00000000E+00  0.00000000E+00  0.00000000E+00
  0.00000000E+00  0.00000000E+00  0.00000000E+00
  0.00000000E+00  0.00000000E+00  0.00000000E+00
  0.00000000E+00  0.00000000E+00  0.00000000E+00
  0.00000000E+00  0.00000000E+00  0.00000000E+00
  0.00000000E+00  0.00000000E+00  0.00000000E+00
  0.00000000E+00  0.00000000E+00  0.00000000E+00
  0.00000000E+00  0.00000000E+00  0.00000000E+00
  0.00000000E+00  0.00000000E+00  0.00000000E+00
  0.00000000E+00  0.00000000E+00  0.00000000E+00
  0.00000000E+00  0.00000000E+00  0.00000000E+00
  0.00000000E+00  0.00000000E+00  0.00000000E+00
  0.00000000E+00  0.00000000E+00  0.00000000E+00
  0.00000000E+00  0.00000000E+00  0.00000000E+00
  0.00000000E+00  0.00000000E+00  0.00000000E+00
  0.00000000E+00  0.00000000E+00  0.00000000E+00
  0.00000000E+00  0.00000000E+00  0.00000000E+00
  0.00000000E+00  0.00000000E+00  0.00000000E+00
  0.00000000E+00  0.00000000E+00  0.00000000E+00
  0.00000000E+00  0.00000000E+00  0.00000000E+00
  0.00000000E+00  0.00000000E+00  0.00000000E+00
  0.00000000E+00  0.00000000E+00  0.00000000E+00
  0.00000000E+00  0.00000000E+00  0.00000000E+00
  0.00000000E+00  0.00000000E+00  0.00000000E+00
  0.00000000E+00  0.00000000E+00  0.00000000E+00
  0.00000000E+00  0.00000000E+00  0.00000000E+00
  0.00000000E+00  0.00000000E+00  0.00000000E+00
  0.00000000E+00  0.00000000E+00  0.00000000E+00
  0.00000000E+00  0.00000000E+00  0.00000000E+00
  0.00000000E+00  0.00000000E+00  0.00000000E+00
  0.00000000E+00  0.00000000E+00  0.00000000E+00
  0.00000000E+00  0.00000000E+00  0.00000000E+00
  0.00000000E+00  0.00000000E+00  0.00000000E+00
  0.00000000E+00  0.00000000E+00  0.00000000E+00
  0.00000000E+00  0.00000000E+00  0.00000000E+00
  0.00000000E+00  0.00000000E+00  0.00000000E+00
  0.00000000E+00  0.00000000E+00  0.00000000E+00
  0.00000000E+00  0.00000000E+00  0.00000000E+00
  0.00000000E+00  0.00000000E+00  0.00000000E+00
