C H O Si                                
   1.00000000000000     
     9.2874599999999994    0.0000000000000000    0.0000000000000000
     0.0000000000000000   17.5126199999999983    0.0000000000000000
     0.0000000000000000    0.0000000000000000   58.0000000000000000
   C    H    O    Si
    72    57    28    72
Selective dynamics
Direct
  0.9970810993815437  0.0652115050435978  0.0594937141397116   T   T   T
  0.3305165085381112  0.0652784536625420  0.0595799136190579   T   T   T
  0.6636543334475268  0.0652928084190984  0.0595900500704556   T   T   T
  0.9970085382174166  0.3153302284649689  0.0595082798643532   T   T   T
  0.3303332210863760  0.3151944246798891  0.0595618306925026   T   T   T
  0.6637287954155161  0.3152303948001677  0.0595876481925564   T   T   T
  0.1622070324808106  0.1880470934370311  0.1383260377174727   T   T   T
  0.4953274865117019  0.1885056793993710  0.1387354042026774   T   T   T
  0.8285722579362478  0.1881063527177848  0.1383968938981740   T   T   T
  0.1621084450413590  0.4383032106373379  0.1384591694213901   T   T   T
  0.4953636812351059  0.4373739137096043  0.1384971984975759   T   T   T
  0.8287531430000126  0.4382794127558286  0.1385430739649267   T   T   T
  0.3290538625731942  0.0633467248903543  0.1657060225676256   T   T   T
  0.6612545298616042  0.0635923382494795  0.1657642287554839   T   T   T
  0.9950472899500024  0.0626227802157162  0.1654355429967906   T   T   T
  0.3279353157408957  0.3134596959741831  0.1657864395281723   T   T   T
  0.6621621930355869  0.3135010197419975  0.1657927847955396   T   T   T
  0.9951438184814170  0.3132199023697101  0.1654966942030343   T   T   T
  0.1613070242220198  0.1887272181683678  0.1903632283998196   T   T   T
  0.4947049548305405  0.1925115989271689  0.1918137346360348   T   T   T
  0.8287624286579878  0.1892612902688945  0.1906217143914011   T   T   T
  0.1620032801487531  0.4405398070677512  0.1908888589119063   T   T   T
  0.4948774147143552  0.4388422338425751  0.1914925653796974   T   T   T
  0.8288490383340762  0.4405237267395380  0.1911069600601593   T   T   T
  0.1629076014815996  0.1882727092082311  0.0848372701282614   T   T   T
  0.4963106789072904  0.1883340909733928  0.0850285719693142   T   T   T
  0.8295927236335349  0.1882954369250024  0.0848761554048489   T   T   T
  0.1629901624352939  0.4383182697244078  0.0849001524961034   T   T   T
  0.4962374116815507  0.4382361399222945  0.0848482489006761   T   T   T
  0.8295755874194088  0.4383452539089009  0.0849521920935408   T   T   T
  0.3292033616371267  0.0631779063693435  0.1121414515728402   T   T   T
  0.6622470119649716  0.0632402584303131  0.1121666518114215   T   T   T
  0.9957308991482950  0.0631254978458121  0.1120364318822840   T   T   T
  0.3290001458679774  0.3130903710163079  0.1121478720400543   T   T   T
  0.6623803034373429  0.3131254992572672  0.1121705920696921   T   T   T
  0.9957328853426529  0.3131819653498815  0.1120403205357767   T   T   T
  0.9970886028399463  0.5653350498791686  0.0595693732385888   T   T   T
  0.3304034402106933  0.5653107664060604  0.0595523178037562   T   T   T
  0.6637969136813714  0.5653288136121631  0.0595871228666548   T   T   T
  0.9970926365710884  0.8154421361565468  0.0595379116004921   T   T   T
  0.3304769844705897  0.8153184004404849  0.0595503611499233   T   T   T
  0.6637720086506996  0.8153163592750988  0.0595506352616316   T   T   T
  0.1619327880283300  0.6884279048007637  0.1384429133371100   T   T   T
  0.4954918536153864  0.6881501663442832  0.1385351332810136   T   T   T
  0.8290292042735071  0.6883858688959426  0.1384993461592886   T   T   T
  0.1623606372670322  0.9382632375843407  0.1384755553649664   T   T   T
  0.4955361896994906  0.9381936904836626  0.1384894708200742   T   T   T
  0.8283144219224935  0.9382216405922521  0.1384801641557453   T   T   T
  0.3277835961762134  0.5633860991156435  0.1657204729715486   T   T   T
  0.6625247821426197  0.5632703176471393  0.1658460868483906   T   T   T
  0.9952422521309631  0.5635837198481705  0.1656205841555763   T   T   T
  0.3286589895422322  0.8133198576284774  0.1656412809996489   T   T   T
  0.6619113707169303  0.8132653407597846  0.1656463619326804   T   T   T
  0.9953532718946081  0.8133791241953177  0.1656263715930408   T   T   T
  0.1620055484655184  0.6905238788208959  0.1909802610345113   T   T   T
  0.4952966547483970  0.6902852053780503  0.1910509723474385   T   T   T
  0.8288973260444739  0.6905278572671335  0.1910074058483386   T   T   T
  0.1619480353919245  0.9402071228368909  0.1910022515831585   T   T   T
  0.4952606217355756  0.9401465948126028  0.1910400924471186   T   T   T
  0.8286159638483871  0.9402124166406752  0.1910068894956140   T   T   T
  0.1629558752046666  0.6884532099632474  0.0849096989077043   T   T   T
  0.4963083959987623  0.6883540507416703  0.0849347648826649   T   T   T
  0.8296474824516729  0.6884250550832712  0.0849411283954982   T   T   T
  0.1631301634520617  0.9384478059487223  0.0849130018827669   T   T   T
  0.4963496561113188  0.9383734209681212  0.0849331718840723   T   T   T
  0.8295118191263993  0.9384367873097129  0.0849181828924683   T   T   T
  0.3291033363603170  0.5630703106556217  0.1121248326804455   T   T   T
  0.6622985304015820  0.5630457399756299  0.1121885099343433   T   T   T
  0.9957474408093377  0.5632160185384038  0.1121076214189905   T   T   T
  0.3291311056250059  0.8132071533256476  0.1121038285232700   T   T   T
  0.6623660989218385  0.8132150751163217  0.1121002106770832   T   T   T
  0.9956313902820816  0.8134454182668035  0.1120947064115832   T   T   T
  0.0765794760418190  0.1805797164171450  0.0268456551062685   T   T   T
  0.4097618407199178  0.1807031427482555  0.0269769169385880   T   T   T
  0.7428438619478114  0.1805647851442661  0.0269111321322942   T   T   T
  0.0765223270600491  0.4306095137938010  0.0268957798576935   T   T   T
  0.4099556024247055  0.4303758956549263  0.0267961498973506   T   T   T
  0.7425112903940677  0.4304570190157945  0.0269333217423570   T   T   T
  0.3286076581757991  0.0286738198483362  0.0441486872313467   T   T   T
  0.6611124749780148  0.0286561532685921  0.0441651662704780   T   T   T
  0.9946648412181970  0.0286424032227337  0.0440529114703914   T   T   T
  0.3277942423397191  0.2785627079393400  0.0441350599781175   T   T   T
  0.6617368701944060  0.2785319384726992  0.0441723921650041   T   T   T
  0.9946845128319379  0.2788107178374564  0.0440558804333151   T   T   T
  0.8315615085806393  0.4032937080824445  0.2063978761157080   T   T   T
  0.8322320688461921  0.1529888062915806  0.2061196608468507   T   T   T
  0.1637794872825361  0.1528824444702637  0.2059507242777751   T   T   T
  0.4976741118242181  0.1555775225622162  0.2071762770107096   T   T   T
  0.1641193667869742  0.4033738915536502  0.2061900579274767   T   T   T
  0.5384754225930058  0.4656476288177059  0.2619904237569448   T   T   T
  0.0847698543085544  0.0564578772952126  0.2232022337813353   T   T   T
  0.4178088884406340  0.0564378403168573  0.2233516439444860   T   T   T
  0.7506734545397110  0.0565387596088305  0.2234481696089922   T   T   T
  0.0945396961993986  0.2998030017083967  0.2220887887833582   T   T   T
  0.3676074444547029  0.2822494346627206  0.2302390197538795   T   T   T
  0.7823479605744784  0.2958994984503121  0.2225619156669608   T   T   T
  0.5045857269035643  0.2701369984816032  0.2659571350256889   T   T   T
  0.4725293716936640  0.2277100704464503  0.3007183645297219   T   T   T
  0.5205973779925687  0.3118053748288947  0.3087636424017680   T   T   T
  0.2891344714391226  0.1366880500520493  0.2961419727689693   T   T   T
  0.4373195699680328  0.1073867356357382  0.2878168398000601   T   T   T
  0.6375993465509523  0.3864816007823931  0.3348538311970117   T   T   T
  0.5033266186013675  0.4320125170658403  0.3269754858209116   T   T   T
  0.5065853301793816  0.4408516676857248  0.2712375589948937   T   T   T
  0.5702965821067127  0.2669371452153052  0.2403011451433206   T   T   T
  0.0763185627219407  0.6806819232164678  0.0269184511180993   T   T   T
  0.4097560440937855  0.6806331266383508  0.0269124725281625   T   T   T
  0.7430950426026106  0.6806277859896790  0.0269200285612624   T   T   T
  0.0767362602486933  0.9306499394601676  0.0268850795161316   T   T   T
  0.4095641336901555  0.9305023084041478  0.0269149129550223   T   T   T
  0.7425571068753439  0.9305309861037007  0.0269184564827600   T   T   T
  0.3281458403069971  0.5287487711489808  0.0441082020744268   T   T   T
  0.6615873347668467  0.5287274971875253  0.0441509809178136   T   T   T
  0.9947852507834100  0.5287735230690949  0.0441273439549813   T   T   T
  0.3281767092134510  0.7787815958368363  0.0441049900684500   T   T   T
  0.6613918481874012  0.7787719236171539  0.0441073637028965   T   T   T
  0.9947491761977788  0.7788793164886697  0.0440975092461256   T   T   T
  0.8312122718564361  0.9036970766702059  0.2064561018515449   T   T   T
  0.8311234723607307  0.6537230891298954  0.2063934204492454   T   T   T
  0.1652271472556232  0.6535276456339475  0.2063178699932927   T   T   T
  0.4974318211054163  0.6531246846866982  0.2063661439572683   T   T   T
  0.1644233721637927  0.9036918925670663  0.2064516083328171   T   T   T
  0.4978629903350139  0.9035227593006225  0.2064708668487234   T   T   T
  0.0906250562285319  0.5543964800672302  0.2228631122035482   T   T   T
  0.4182830967786455  0.5502223189464359  0.2239363585350983   T   T   T
  0.7571661860967424  0.5561902098438170  0.2223804245701485   T   T   T
  0.0854782731821415  0.8053564943856288  0.2234484541484165   T   T   T
  0.4184175562742012  0.8054056858740661  0.2234788401675419   T   T   T
  0.7523491590623451  0.8051780683445479  0.2234319132814831   T   T   T
  0.1720777577626659  0.1680543694878876  0.0328248984709057   T   T   T
  0.5052568567132888  0.1681991420427425  0.0329665561759055   T   T   T
  0.8384609286884622  0.1680985223279898  0.0328618011860474   T   T   T
  0.1720379816181251  0.4181518154687521  0.0328840703909055   T   T   T
  0.5054127860993797  0.4180800366134814  0.0328401285473982   T   T   T
  0.8382386627795392  0.4183634079058805  0.0329155641173882   T   T   T
  0.3219773454775087  0.0426062113505923  0.2177722810693169   T   T   T
  0.6550622873175904  0.0424079641337398  0.2178399726082521   T   T   T
  0.9886913032364878  0.0431513137319245  0.2175914201196386   T   T   T
  0.2975906027063216  0.2937239354656720  0.2176654265965802   T   T   T
  0.6800784724383434  0.2914421964356677  0.2184137242320944   T   T   T
  0.9934124652153251  0.2912086499039069  0.2173583191299056   T   T   T
  0.5284795321451422  0.2734327859250414  0.2962517855289087   T   T   T
  0.3896289062836056  0.1321771465877337  0.3007872309833603   T   T   T
  0.5355613986332447  0.3810168888269624  0.3313010134624504   T   T   T
  0.4876204171274433  0.2505107107721791  0.2501690636718444   T   T   T
  0.1718949348531763  0.6682162401417087  0.0328865977461876   T   T   T
  0.5053357138423000  0.6682469461423213  0.0328909859581593   T   T   T
  0.8386611713974044  0.6682029626326139  0.0328961171723356   T   T   T
  0.1722399824337661  0.9182406677426828  0.0328870586545522   T   T   T
  0.5052641933073546  0.9182695211008284  0.0328926054493132   T   T   T
  0.8382582478170304  0.9183893903229972  0.0329019204177265   T   T   T
  0.3218152217743341  0.5450556409767415  0.2173763862795750   T   T   T
  0.6584430070323851  0.5445712259680826  0.2177276163759057   T   T   T
  0.9921674814398888  0.5441929210139242  0.2176261646783244   T   T   T
  0.3221207316720805  0.7935432870821497  0.2176821876264647   T   T   T
  0.6558212213007830  0.7934669373122284  0.2176958860712742   T   T   T
  0.9890246400574689  0.7935895389443847  0.2176950579199885   T   T   T
  0.4972712291958102  0.1239211572818861  0.0591393796106515   T   T   T
  0.8305947299733071  0.1238285368981391  0.0590322084929407   T   T   T
  0.1639704757206047  0.3738725289089864  0.0590548746438935   T   T   T
  0.4972384745688299  0.3738504271054024  0.0590381950425189   T   T   T
  0.8304648680117365  0.3739421925372705  0.0590762570847713   T   T   T
  0.1639990812966130  0.1238203831555027  0.0590008327436859   T   T   T
  0.9952889096286983  0.0002273361422071  0.1385937561930780   T   T   T
  0.3292390259352117  0.0005758050164157  0.1387379928300149   T   T   T
  0.6617137468598226  0.0007367159534449  0.1387835161585164   T   T   T
  0.9954369927978393  0.2505022567177111  0.1386656840647986   T   T   T
  0.3286137132475397  0.2510996547316954  0.1389615525530636   T   T   T
  0.6620038494491023  0.2510659980696956  0.1389497520697236   T   T   T
  0.1617346147612811  0.1246934747905354  0.1646816600562377   T   T   T
  0.4950205953813803  0.1265592979030832  0.1654495984568588   T   T   T
  0.8288302194249896  0.1248928403865801  0.1647694296327882   T   T   T
  0.1621889278479162  0.3755338305359906  0.1650573289954483   T   T   T
  0.4950328713854549  0.3772843906414243  0.1664354528794127   T   T   T
  0.8283429669138809  0.3755664480445509  0.1651639201243220   T   T   T
  0.3342284551172223  0.4958168307263875  0.1916907701874314   T   T   T
  0.6555415023513245  0.4956527999372624  0.1919672372432046   T   T   T
  0.9955084790261817  0.4987222277537705  0.1914961761210915   T   T   T
  0.3249123715871269  0.2504269719652754  0.1919547150659509   T   T   T
  0.9954331661086822  0.2476719886885534  0.1910549664659417   T   T   T
  0.6639565672763567  0.2499287811544709  0.1917627046636654   T   T   T
  0.9963048416017948  0.0003139491892503  0.0855986026095841   T   T   T
  0.3297948852519050  0.0003702449124700  0.0856682373434092   T   T   T
  0.6629088725705365  0.0004022919153073  0.0856861821316317   T   T   T
  0.9962782367392514  0.2503511708046341  0.0856018406939084   T   T   T
  0.3296148645402109  0.2503760344085830  0.0857058598718472   T   T   T
  0.6630067199644615  0.2504128345491822  0.0857336800737470   T   T   T
  0.1624770364966147  0.1255339107145031  0.1118480603849745   T   T   T
  0.4956821550525174  0.1257747375315882  0.1121168186748977   T   T   T
  0.8289832117870169  0.1255452914996105  0.1118891424240976   T   T   T
  0.1625524079201163  0.3756465755701094  0.1119786903192319   T   T   T
  0.4956219849293423  0.3757682615508395  0.1120874077345220   T   T   T
  0.8288783700903389  0.3756465411846792  0.1120366742625730   T   T   T
  0.4973149342999639  0.6238991523404359  0.0590688173922648   T   T   T
  0.8306231857163391  0.6239274466420541  0.0590799746586491   T   T   T
  0.1640954389398834  0.8739463957235208  0.0590540326823045   T   T   T
  0.4973317738153473  0.8739192181785459  0.0590601095248868   T   T   T
  0.8305282405995155  0.8739766131742958  0.0590555680629205   T   T   T
  0.1639742370437039  0.6239251058025849  0.0590617446329852   T   T   T
  0.9954381420824340  0.5005606080602920  0.1387898807653815   T   T   T
  0.3298362231551836  0.5003424810564332  0.1389308613975171   T   T   T
  0.6609571367924442  0.5003134762396636  0.1390199239359961   T   T   T
  0.9954501175875312  0.7505101408652940  0.1386677346624084   T   T   T
  0.3289006661367198  0.7503244223492602  0.1386970629768478   T   T   T
  0.6621026982063138  0.7503219439130836  0.1386928315413202   T   T   T
  0.1626461015506352  0.6249939631647128  0.1649573584591544   T   T   T
  0.4953479044790264  0.6243243503649075  0.1650762213412141   T   T   T
  0.8279571305263468  0.6248799921737691  0.1650154802622766   T   T   T
  0.1621193696314198  0.8752277212145140  0.1649282591298336   T   T   T
  0.4953734543980166  0.8751844930750156  0.1649495235478765   T   T   T
  0.8286019590673301  0.8751971934665532  0.1649309315149125   T   T   T
  0.3284807735591747  0.9987724983420295  0.1915360386295905   T   T   T
  0.6617893993211680  0.9988031089747320  0.1915677745696291   T   T   T
  0.9951408389939329  0.9988002616798088  0.1914153051594241   T   T   T
  0.3286957312064510  0.7486780312408113  0.1915244283828563   T   T   T
  0.9953324842263550  0.7488567460408393  0.1915231622806512   T   T   T
  0.6617409212918759  0.7486152058668178  0.1915388021188339   T   T   T
  0.9963120937580483  0.5003494495991334  0.0856630210346965   T   T   T
  0.3298241635691328  0.5003136108710666  0.0856696396955737   T   T   T
  0.6627595485546125  0.5003443181107777  0.0857108408041103   T   T   T
  0.9962844751128579  0.7504532787173717  0.0856441033895086   T   T   T
  0.3297216992491676  0.7503357357505325  0.0856391360931414   T   T   T
  0.6629395255609343  0.7503481634362000  0.0856442681339802   T   T   T
  0.1626158455246314  0.6254915313337094  0.1119468724184058   T   T   T
  0.4957226371904324  0.6254181038137415  0.1119893235941935   T   T   T
  0.8288093594466853  0.6254817164414329  0.1119885849682817   T   T   T
  0.1625754494581269  0.8755880390836321  0.1119026311254290   T   T   T
  0.4957445174265817  0.8755156528656242  0.1119155631159977   T   T   T
  0.8288183369077341  0.8755773473926440  0.1119040710695463   T   T   T
 
  0.00000000E+00  0.00000000E+00  0.00000000E+00
  0.00000000E+00  0.00000000E+00  0.00000000E+00
  0.00000000E+00  0.00000000E+00  0.00000000E+00
  0.00000000E+00  0.00000000E+00  0.00000000E+00
  0.00000000E+00  0.00000000E+00  0.00000000E+00
  0.00000000E+00  0.00000000E+00  0.00000000E+00
  0.00000000E+00  0.00000000E+00  0.00000000E+00
  0.00000000E+00  0.00000000E+00  0.00000000E+00
  0.00000000E+00  0.00000000E+00  0.00000000E+00
  0.00000000E+00  0.00000000E+00  0.00000000E+00
  0.00000000E+00  0.00000000E+00  0.00000000E+00
  0.00000000E+00  0.00000000E+00  0.00000000E+00
  0.00000000E+00  0.00000000E+00  0.00000000E+00
  0.00000000E+00  0.00000000E+00  0.00000000E+00
  0.00000000E+00  0.00000000E+00  0.00000000E+00
  0.00000000E+00  0.00000000E+00  0.00000000E+00
  0.00000000E+00  0.00000000E+00  0.00000000E+00
  0.00000000E+00  0.00000000E+00  0.00000000E+00
  0.00000000E+00  0.00000000E+00  0.00000000E+00
  0.00000000E+00  0.00000000E+00  0.00000000E+00
  0.00000000E+00  0.00000000E+00  0.00000000E+00
  0.00000000E+00  0.00000000E+00  0.00000000E+00
  0.00000000E+00  0.00000000E+00  0.00000000E+00
  0.00000000E+00  0.00000000E+00  0.00000000E+00
  0.00000000E+00  0.00000000E+00  0.00000000E+00
  0.00000000E+00  0.00000000E+00  0.00000000E+00
  0.00000000E+00  0.00000000E+00  0.00000000E+00
  0.00000000E+00  0.00000000E+00  0.00000000E+00
  0.00000000E+00  0.00000000E+00  0.00000000E+00
  0.00000000E+00  0.00000000E+00  0.00000000E+00
  0.00000000E+00  0.00000000E+00  0.00000000E+00
  0.00000000E+00  0.00000000E+00  0.00000000E+00
  0.00000000E+00  0.00000000E+00  0.00000000E+00
  0.00000000E+00  0.00000000E+00  0.00000000E+00
  0.00000000E+00  0.00000000E+00  0.00000000E+00
  0.00000000E+00  0.00000000E+00  0.00000000E+00
  0.00000000E+00  0.00000000E+00  0.00000000E+00
  0.00000000E+00  0.00000000E+00  0.00000000E+00
  0.00000000E+00  0.00000000E+00  0.00000000E+00
  0.00000000E+00  0.00000000E+00  0.00000000E+00
  0.00000000E+00  0.00000000E+00  0.00000000E+00
  0.00000000E+00  0.00000000E+00  0.00000000E+00
  0.00000000E+00  0.00000000E+00  0.00000000E+00
  0.00000000E+00  0.00000000E+00  0.00000000E+00
  0.00000000E+00  0.00000000E+00  0.00000000E+00
  0.00000000E+00  0.00000000E+00  0.00000000E+00
  0.00000000E+00  0.00000000E+00  0.00000000E+00
  0.00000000E+00  0.00000000E+00  0.00000000E+00
  0.00000000E+00  0.00000000E+00  0.00000000E+00
  0.00000000E+00  0.00000000E+00  0.00000000E+00
  0.00000000E+00  0.00000000E+00  0.00000000E+00
  0.00000000E+00  0.00000000E+00  0.00000000E+00
  0.00000000E+00  0.00000000E+00  0.00000000E+00
  0.00000000E+00  0.00000000E+00  0.00000000E+00
  0.00000000E+00  0.00000000E+00  0.00000000E+00
  0.00000000E+00  0.00000000E+00  0.00000000E+00
  0.00000000E+00  0.00000000E+00  0.00000000E+00
  0.00000000E+00  0.00000000E+00  0.00000000E+00
  0.00000000E+00  0.00000000E+00  0.00000000E+00
  0.00000000E+00  0.00000000E+00  0.00000000E+00
  0.00000000E+00  0.00000000E+00  0.00000000E+00
  0.00000000E+00  0.00000000E+00  0.00000000E+00
  0.00000000E+00  0.00000000E+00  0.00000000E+00
  0.00000000E+00  0.00000000E+00  0.00000000E+00
  0.00000000E+00  0.00000000E+00  0.00000000E+00
  0.00000000E+00  0.00000000E+00  0.00000000E+00
  0.00000000E+00  0.00000000E+00  0.00000000E+00
  0.00000000E+00  0.00000000E+00  0.00000000E+00
  0.00000000E+00  0.00000000E+00  0.00000000E+00
  0.00000000E+00  0.00000000E+00  0.00000000E+00
  0.00000000E+00  0.00000000E+00  0.00000000E+00
  0.00000000E+00  0.00000000E+00  0.00000000E+00
  0.00000000E+00  0.00000000E+00  0.00000000E+00
  0.00000000E+00  0.00000000E+00  0.00000000E+00
  0.00000000E+00  0.00000000E+00  0.00000000E+00
  0.00000000E+00  0.00000000E+00  0.00000000E+00
  0.00000000E+00  0.00000000E+00  0.00000000E+00
  0.00000000E+00  0.00000000E+00  0.00000000E+00
  0.00000000E+00  0.00000000E+00  0.00000000E+00
  0.00000000E+00  0.00000000E+00  0.00000000E+00
  0.00000000E+00  0.00000000E+00  0.00000000E+00
  0.00000000E+00  0.00000000E+00  0.00000000E+00
  0.00000000E+00  0.00000000E+00  0.00000000E+00
  0.00000000E+00  0.00000000E+00  0.00000000E+00
  0.00000000E+00  0.00000000E+00  0.00000000E+00
  0.00000000E+00  0.00000000E+00  0.00000000E+00
  0.00000000E+00  0.00000000E+00  0.00000000E+00
  0.00000000E+00  0.00000000E+00  0.00000000E+00
  0.00000000E+00  0.00000000E+00  0.00000000E+00
  0.00000000E+00  0.00000000E+00  0.00000000E+00
  0.00000000E+00  0.00000000E+00  0.00000000E+00
  0.00000000E+00  0.00000000E+00  0.00000000E+00
  0.00000000E+00  0.00000000E+00  0.00000000E+00
  0.00000000E+00  0.00000000E+00  0.00000000E+00
  0.00000000E+00  0.00000000E+00  0.00000000E+00
  0.00000000E+00  0.00000000E+00  0.00000000E+00
  0.00000000E+00  0.00000000E+00  0.00000000E+00
  0.00000000E+00  0.00000000E+00  0.00000000E+00
  0.00000000E+00  0.00000000E+00  0.00000000E+00
  0.00000000E+00  0.00000000E+00  0.00000000E+00
  0.00000000E+00  0.00000000E+00  0.00000000E+00
  0.00000000E+00  0.00000000E+00  0.00000000E+00
  0.00000000E+00  0.00000000E+00  0.00000000E+00
  0.00000000E+00  0.00000000E+00  0.00000000E+00
  0.00000000E+00  0.00000000E+00  0.00000000E+00
  0.00000000E+00  0.00000000E+00  0.00000000E+00
  0.00000000E+00  0.00000000E+00  0.00000000E+00
  0.00000000E+00  0.00000000E+00  0.00000000E+00
  0.00000000E+00  0.00000000E+00  0.00000000E+00
  0.00000000E+00  0.00000000E+00  0.00000000E+00
  0.00000000E+00  0.00000000E+00  0.00000000E+00
  0.00000000E+00  0.00000000E+00  0.00000000E+00
  0.00000000E+00  0.00000000E+00  0.00000000E+00
  0.00000000E+00  0.00000000E+00  0.00000000E+00
  0.00000000E+00  0.00000000E+00  0.00000000E+00
  0.00000000E+00  0.00000000E+00  0.00000000E+00
  0.00000000E+00  0.00000000E+00  0.00000000E+00
  0.00000000E+00  0.00000000E+00  0.00000000E+00
  0.00000000E+00  0.00000000E+00  0.00000000E+00
  0.00000000E+00  0.00000000E+00  0.00000000E+00
  0.00000000E+00  0.00000000E+00  0.00000000E+00
  0.00000000E+00  0.00000000E+00  0.00000000E+00
  0.00000000E+00  0.00000000E+00  0.00000000E+00
  0.00000000E+00  0.00000000E+00  0.00000000E+00
  0.00000000E+00  0.00000000E+00  0.00000000E+00
  0.00000000E+00  0.00000000E+00  0.00000000E+00
  0.00000000E+00  0.00000000E+00  0.00000000E+00
  0.00000000E+00  0.00000000E+00  0.00000000E+00
  0.00000000E+00  0.00000000E+00  0.00000000E+00
  0.00000000E+00  0.00000000E+00  0.00000000E+00
  0.00000000E+00  0.00000000E+00  0.00000000E+00
  0.00000000E+00  0.00000000E+00  0.00000000E+00
  0.00000000E+00  0.00000000E+00  0.00000000E+00
  0.00000000E+00  0.00000000E+00  0.00000000E+00
  0.00000000E+00  0.00000000E+00  0.00000000E+00
  0.00000000E+00  0.00000000E+00  0.00000000E+00
  0.00000000E+00  0.00000000E+00  0.00000000E+00
  0.00000000E+00  0.00000000E+00  0.00000000E+00
  0.00000000E+00  0.00000000E+00  0.00000000E+00
  0.00000000E+00  0.00000000E+00  0.00000000E+00
  0.00000000E+00  0.00000000E+00  0.00000000E+00
  0.00000000E+00  0.00000000E+00  0.00000000E+00
  0.00000000E+00  0.00000000E+00  0.00000000E+00
  0.00000000E+00  0.00000000E+00  0.00000000E+00
  0.00000000E+00  0.00000000E+00  0.00000000E+00
  0.00000000E+00  0.00000000E+00  0.00000000E+00
  0.00000000E+00  0.00000000E+00  0.00000000E+00
  0.00000000E+00  0.00000000E+00  0.00000000E+00
  0.00000000E+00  0.00000000E+00  0.00000000E+00
  0.00000000E+00  0.00000000E+00  0.00000000E+00
  0.00000000E+00  0.00000000E+00  0.00000000E+00
  0.00000000E+00  0.00000000E+00  0.00000000E+00
  0.00000000E+00  0.00000000E+00  0.00000000E+00
  0.00000000E+00  0.00000000E+00  0.00000000E+00
  0.00000000E+00  0.00000000E+00  0.00000000E+00
  0.00000000E+00  0.00000000E+00  0.00000000E+00
  0.00000000E+00  0.00000000E+00  0.00000000E+00
  0.00000000E+00  0.00000000E+00  0.00000000E+00
  0.00000000E+00  0.00000000E+00  0.00000000E+00
  0.00000000E+00  0.00000000E+00  0.00000000E+00
  0.00000000E+00  0.00000000E+00  0.00000000E+00
  0.00000000E+00  0.00000000E+00  0.00000000E+00
  0.00000000E+00  0.00000000E+00  0.00000000E+00
  0.00000000E+00  0.00000000E+00  0.00000000E+00
  0.00000000E+00  0.00000000E+00  0.00000000E+00
  0.00000000E+00  0.00000000E+00  0.00000000E+00
  0.00000000E+00  0.00000000E+00  0.00000000E+00
  0.00000000E+00  0.00000000E+00  0.00000000E+00
  0.00000000E+00  0.00000000E+00  0.00000000E+00
  0.00000000E+00  0.00000000E+00  0.00000000E+00
  0.00000000E+00  0.00000000E+00  0.00000000E+00
  0.00000000E+00  0.00000000E+00  0.00000000E+00
  0.00000000E+00  0.00000000E+00  0.00000000E+00
  0.00000000E+00  0.00000000E+00  0.00000000E+00
  0.00000000E+00  0.00000000E+00  0.00000000E+00
  0.00000000E+00  0.00000000E+00  0.00000000E+00
  0.00000000E+00  0.00000000E+00  0.00000000E+00
  0.00000000E+00  0.00000000E+00  0.00000000E+00
  0.00000000E+00  0.00000000E+00  0.00000000E+00
  0.00000000E+00  0.00000000E+00  0.00000000E+00
  0.00000000E+00  0.00000000E+00  0.00000000E+00
  0.00000000E+00  0.00000000E+00  0.00000000E+00
  0.00000000E+00  0.00000000E+00  0.00000000E+00
  0.00000000E+00  0.00000000E+00  0.00000000E+00
  0.00000000E+00  0.00000000E+00  0.00000000E+00
  0.00000000E+00  0.00000000E+00  0.00000000E+00
  0.00000000E+00  0.00000000E+00  0.00000000E+00
  0.00000000E+00  0.00000000E+00  0.00000000E+00
  0.00000000E+00  0.00000000E+00  0.00000000E+00
  0.00000000E+00  0.00000000E+00  0.00000000E+00
  0.00000000E+00  0.00000000E+00  0.00000000E+00
  0.00000000E+00  0.00000000E+00  0.00000000E+00
  0.00000000E+00  0.00000000E+00  0.00000000E+00
  0.00000000E+00  0.00000000E+00  0.00000000E+00
  0.00000000E+00  0.00000000E+00  0.00000000E+00
  0.00000000E+00  0.00000000E+00  0.00000000E+00
  0.00000000E+00  0.00000000E+00  0.00000000E+00
  0.00000000E+00  0.00000000E+00  0.00000000E+00
  0.00000000E+00  0.00000000E+00  0.00000000E+00
  0.00000000E+00  0.00000000E+00  0.00000000E+00
  0.00000000E+00  0.00000000E+00  0.00000000E+00
  0.00000000E+00  0.00000000E+00  0.00000000E+00
  0.00000000E+00  0.00000000E+00  0.00000000E+00
  0.00000000E+00  0.00000000E+00  0.00000000E+00
  0.00000000E+00  0.00000000E+00  0.00000000E+00
  0.00000000E+00  0.00000000E+00  0.00000000E+00
  0.00000000E+00  0.00000000E+00  0.00000000E+00
  0.00000000E+00  0.00000000E+00  0.00000000E+00
  0.00000000E+00  0.00000000E+00  0.00000000E+00
  0.00000000E+00  0.00000000E+00  0.00000000E+00
  0.00000000E+00  0.00000000E+00  0.00000000E+00
  0.00000000E+00  0.00000000E+00  0.00000000E+00
  0.00000000E+00  0.00000000E+00  0.00000000E+00
  0.00000000E+00  0.00000000E+00  0.00000000E+00
  0.00000000E+00  0.00000000E+00  0.00000000E+00
  0.00000000E+00  0.00000000E+00  0.00000000E+00
  0.00000000E+00  0.00000000E+00  0.00000000E+00
  0.00000000E+00  0.00000000E+00  0.00000000E+00
  0.00000000E+00  0.00000000E+00  0.00000000E+00
  0.00000000E+00  0.00000000E+00  0.00000000E+00
  0.00000000E+00  0.00000000E+00  0.00000000E+00
  0.00000000E+00  0.00000000E+00  0.00000000E+00
  0.00000000E+00  0.00000000E+00  0.00000000E+00
  0.00000000E+00  0.00000000E+00  0.00000000E+00
  0.00000000E+00  0.00000000E+00  0.00000000E+00
  0.00000000E+00  0.00000000E+00  0.00000000E+00
  0.00000000E+00  0.00000000E+00  0.00000000E+00
  0.00000000E+00  0.00000000E+00  0.00000000E+00
  0.00000000E+00  0.00000000E+00  0.00000000E+00
