C H O Si                                
   1.00000000000000     
     9.2874599999999994    0.0000000000000000    0.0000000000000000
     0.0000000000000000    8.7562999999999995    0.0000000000000000
     0.0000000000000000    0.0000000000000000   58.0000000000000000
   C    H    O    Si
    36    33    16    36
Selective dynamics
Direct
  0.0014302320670523  0.1352519795913111  0.3755412890069278   T   T   T
  0.0014122221216711  0.6353592235082992  0.3755591578633125   T   T   T
  0.3347641051690581  0.1353401638955680  0.3756523164567289   T   T   T
  0.3347451441956257  0.6352148808561173  0.3756707206309969   T   T   T
  0.6678937563599350  0.1351708723001008  0.3756528755819060   T   T   T
  0.6679440365819713  0.6351160080206621  0.3756491999100990   T   T   T
  0.1682995725489997  0.3811776321317879  0.4009749906485353   T   T   T
  0.1683836117209496  0.8812083167381569  0.4009946932493690   T   T   T
  0.5016337233923284  0.3812111991119693  0.4011139334056634   T   T   T
  0.5016141237994558  0.8811422765806444  0.4010487780259954   T   T   T
  0.8350222940325908  0.3810581401870389  0.4009205413298692   T   T   T
  0.8349644058367690  0.8811170148648606  0.4009600703740731   T   T   T
  0.0017868227568161  0.1308829432120065  0.4280784416698447   T   T   T
  0.0017926840406538  0.6311319022346846  0.4280923826675263   T   T   T
  0.3351662456754086  0.1310524771692233  0.4282061093130021   T   T   T
  0.3351091096573707  0.6309307754336581  0.4282327273083937   T   T   T
  0.6682628695329997  0.1309895942532777  0.4281801879198880   T   T   T
  0.6683802738077878  0.6309543111698339  0.4281730638208118   T   T   T
  0.1685242302234408  0.3809154383881557  0.4544887908971612   T   T   T
  0.1688063634668972  0.8809787081252733  0.4545454034093000   T   T   T
  0.5017460902375084  0.3812607412886466  0.4547457182988862   T   T   T
  0.5018173826090633  0.8806898041214587  0.4546105628562875   T   T   T
  0.8351736139916693  0.3807949503505151  0.4544006054735455   T   T   T
  0.8349730967625572  0.8810264550203138  0.4544971639895364   T   T   T
  0.0019867189267035  0.1303395141035794  0.4814851289853255   T   T   T
  0.0018681411904669  0.6311226816112686  0.4815807498748959   T   T   T
  0.3356614509872798  0.1316114720299210  0.4817873600121654   T   T   T
  0.3349997314161599  0.6311038908314458  0.4818726730486009   T   T   T
  0.6677281206628305  0.1314685716078472  0.4817465223967937   T   T   T
  0.6686742752196162  0.6312991179220598  0.4817366702648860   T   T   T
  0.1683040122002211  0.3834177306880281  0.5068119756459448   T   T   T
  0.1677379041506138  0.8855825254530336  0.5070604941835299   T   T   T
  0.5020175641615977  0.3889215913170745  0.5078597512119610   T   T   T
  0.5013158401631188  0.8850321634607206  0.5071515672913046   T   T   T
  0.8360083933051031  0.3826040860837621  0.5065884215692353   T   T   T
  0.8349277472323872  0.8855255240045541  0.5069871405646129   T   T   T
  0.0044849737591101  0.0627518204268969  0.3600187165678447   T   T   T
  0.0043900572589824  0.5628897626015430  0.3600379348412376   T   T   T
  0.3378747362288012  0.0627628831790903  0.3601468411590851   T   T   T
  0.3376932270779287  0.5625184352997188  0.3601773869761857   T   T   T
  0.6703065493683760  0.0626017916402243  0.3601395717890202   T   T   T
  0.6705865999223937  0.5625807902056302  0.3601356966603889   T   T   T
  0.1700012593803028  0.3114345095273479  0.5223774459600450   T   T   T
  0.1701159773634149  0.8128480026686908  0.5225445868191441   T   T   T
  0.5054162456810157  0.3152626588047495  0.5232478601350036   T   T   T
  0.5023374576617596  0.8126203452809332  0.5226780871181113   T   T   T
  0.8387846559534897  0.3105884587346771  0.5221475900985660   T   T   T
  0.8373387465004523  0.8136810884255696  0.5225445736234233   T   T   T
  0.0848917418979988  0.1161592318943015  0.5403385238777397   T   T   T
  0.0858428304397862  0.6107215929333972  0.5399511903268326   T   T   T
  0.4181422310301071  0.1170354412056036  0.5404323356500903   T   T   T
  0.3824774287560791  0.6335335071453868  0.5435996375463583   T   T   T
  0.7535284204469475  0.1152938462070385  0.5403370083293205   T   T   T
  0.7898595398328375  0.5989510413526968  0.5382413262554250   T   T   T
  0.2533234047537212  0.3651366948008588  0.3423107196282351   T   T   T
  0.2535438372455031  0.8650522677009539  0.3423429682304474   T   T   T
  0.5859915683702522  0.3652951328393781  0.3423904802045285   T   T   T
  0.5858439480372304  0.8651513033011489  0.3423329431301670   T   T   T
  0.9177858255198958  0.3658050835121470  0.3421487955237673   T   T   T
  0.9177791228859947  0.8659239356715119  0.3421818219063869   T   T   T
  0.5431224060761661  0.6150427042736907  0.5878010612824082   T   T   T
  0.4874983345453743  0.4756768278449127  0.6066338359470274   T   T   T
  0.5667764515390677  0.6399749548072236  0.6168130760101854   T   T   T
  0.3083007744526650  0.3825978566822661  0.6220726685215070   T   T   T
  0.4236884342113074  0.2589897535331221  0.6159290525144216   T   T   T
  0.6467509113737472  0.7349154755011874  0.6468055131495916   T   T   T
  0.4823547403679074  0.7670020784049228  0.6435098226841139   T   T   T
  0.5258495171901176  0.8040406756568912  0.5672102235291528   T   T   T
  0.5916207386543129  0.6605522295396307  0.5534165829005750   T   T   T
  0.1594773524468855  0.3429275343513409  0.3491438949195633   T   T   T
  0.1596458530765922  0.8429308364256816  0.3491668865554088   T   T   T
  0.4922491884662601  0.3431676431266557  0.3492694121703253   T   T   T
  0.4921540035778617  0.8428361887732680  0.3492154711309498   T   T   T
  0.8245736366159580  0.3423560320771533  0.3490946029062670   T   T   T
  0.8245730578443369  0.8425808439637242  0.3491357751020016   T   T   T
  0.9915217300862843  0.0934613376609944  0.5333826705907332   T   T   T
  0.9909807373766299  0.5892411578220520  0.5332530484530342   T   T   T
  0.3249204045409290  0.0928121425437399  0.5335578632863662   T   T   T
  0.3059235658878505  0.5927594348359734  0.5335947884475797   T   T   T
  0.6596346246625701  0.0930179594307558  0.5335154024405923   T   T   T
  0.6876490052013723  0.5926968289364339  0.5335823059648077   T   T   T
  0.5649061578890689  0.5601167965213665  0.6033606755449673   T   T   T
  0.3795131383024589  0.3535181602102800  0.6104994401339139   T   T   T
  0.5734821379294406  0.7577114344738642  0.6352432342998827   T   T   T
  0.5161095204075312  0.6939150086984183  0.5650700285160939   T   T   T
  0.1679701942179064  0.2526684866779999  0.3748985002814361   T   T   T
  0.1680233165720298  0.7526509666101692  0.3749204197850347   T   T   T
  0.5011866217919843  0.2527286425746675  0.3750155148809976   T   T   T
  0.5011813877513430  0.7525844882267377  0.3749754958086814   T   T   T
  0.8344576127859322  0.2524246752768500  0.3748685239619531   T   T   T
  0.8344243115616234  0.7525121148107404  0.3748992577457693   T   T   T
  0.0016491174695513  0.0052938129633941  0.4015097916185388   T   T   T
  0.0016289654634239  0.5053505494110201  0.4015147422460980   T   T   T
  0.3349851342138462  0.0053988639979469  0.4016083756088617   T   T   T
  0.3349301239551564  0.5053431792214148  0.4016388799373706   T   T   T
  0.6681988571519077  0.0052742167593265  0.4015963217603946   T   T   T
  0.6682853352169279  0.5052238781490157  0.4015952044285168   T   T   T
  0.1684519042974399  0.2558564155694421  0.4278774630849174   T   T   T
  0.1686094135061026  0.7559245844986139  0.4279135398059584   T   T   T
  0.5017120441368721  0.2559450889004842  0.4280372911208933   T   T   T
  0.5017030578410472  0.7557612466151176  0.4279519889388481   T   T   T
  0.8350841392649498  0.2556842543641652  0.4278126092758703   T   T   T
  0.8350207841191714  0.7558522107341310  0.4278755911585503   T   T   T
  0.0019698308437958  0.0053734604772368  0.4546521711435473   T   T   T
  0.0018791552147850  0.5057362735747862  0.4546486414207922   T   T   T
  0.3355224962289319  0.0059997893048777  0.4548159158877573   T   T   T
  0.3349970033373844  0.5059482170978981  0.4548797944983735   T   T   T
  0.6680689048960573  0.0058807699343679  0.4547867389949222   T   T   T
  0.6685735055342688  0.5057309791911524  0.4547589273871164   T   T   T
  0.1684038695060873  0.2545744408168483  0.4809447776534054   T   T   T
  0.1684212612150884  0.7555552013056149  0.4811156034332970   T   T   T
  0.5016780338876714  0.2570221712379064  0.4814645982998914   T   T   T
  0.5015286181476607  0.7551096275211303  0.4811689839628820   T   T   T
  0.8353974944680322  0.2538340819664897  0.4807844831927509   T   T   T
  0.8353181768517417  0.7555925916326481  0.4810526136556669   T   T   T
  0.0011710447927056  0.0029480624129355  0.5076416913146848   T   T   T
  0.0018859612854064  0.5004604988125980  0.5073043708624760   T   T   T
  0.3342447144986112  0.0027896666763509  0.5077919887493767   T   T   T
  0.3326006730270167  0.5040813252802362  0.5081729958553401   T   T   T
  0.6681308192888774  0.0026931140413639  0.5077687933228288   T   T   T
  0.6714142426888530  0.5019536378293356  0.5075642491453622   T   T   T
 
  0.00000000E+00  0.00000000E+00  0.00000000E+00
  0.00000000E+00  0.00000000E+00  0.00000000E+00
  0.00000000E+00  0.00000000E+00  0.00000000E+00
  0.00000000E+00  0.00000000E+00  0.00000000E+00
  0.00000000E+00  0.00000000E+00  0.00000000E+00
  0.00000000E+00  0.00000000E+00  0.00000000E+00
  0.00000000E+00  0.00000000E+00  0.00000000E+00
  0.00000000E+00  0.00000000E+00  0.00000000E+00
  0.00000000E+00  0.00000000E+00  0.00000000E+00
  0.00000000E+00  0.00000000E+00  0.00000000E+00
  0.00000000E+00  0.00000000E+00  0.00000000E+00
  0.00000000E+00  0.00000000E+00  0.00000000E+00
  0.00000000E+00  0.00000000E+00  0.00000000E+00
  0.00000000E+00  0.00000000E+00  0.00000000E+00
  0.00000000E+00  0.00000000E+00  0.00000000E+00
  0.00000000E+00  0.00000000E+00  0.00000000E+00
  0.00000000E+00  0.00000000E+00  0.00000000E+00
  0.00000000E+00  0.00000000E+00  0.00000000E+00
  0.00000000E+00  0.00000000E+00  0.00000000E+00
  0.00000000E+00  0.00000000E+00  0.00000000E+00
  0.00000000E+00  0.00000000E+00  0.00000000E+00
  0.00000000E+00  0.00000000E+00  0.00000000E+00
  0.00000000E+00  0.00000000E+00  0.00000000E+00
  0.00000000E+00  0.00000000E+00  0.00000000E+00
  0.00000000E+00  0.00000000E+00  0.00000000E+00
  0.00000000E+00  0.00000000E+00  0.00000000E+00
  0.00000000E+00  0.00000000E+00  0.00000000E+00
  0.00000000E+00  0.00000000E+00  0.00000000E+00
  0.00000000E+00  0.00000000E+00  0.00000000E+00
  0.00000000E+00  0.00000000E+00  0.00000000E+00
  0.00000000E+00  0.00000000E+00  0.00000000E+00
  0.00000000E+00  0.00000000E+00  0.00000000E+00
  0.00000000E+00  0.00000000E+00  0.00000000E+00
  0.00000000E+00  0.00000000E+00  0.00000000E+00
  0.00000000E+00  0.00000000E+00  0.00000000E+00
  0.00000000E+00  0.00000000E+00  0.00000000E+00
  0.00000000E+00  0.00000000E+00  0.00000000E+00
  0.00000000E+00  0.00000000E+00  0.00000000E+00
  0.00000000E+00  0.00000000E+00  0.00000000E+00
  0.00000000E+00  0.00000000E+00  0.00000000E+00
  0.00000000E+00  0.00000000E+00  0.00000000E+00
  0.00000000E+00  0.00000000E+00  0.00000000E+00
  0.00000000E+00  0.00000000E+00  0.00000000E+00
  0.00000000E+00  0.00000000E+00  0.00000000E+00
  0.00000000E+00  0.00000000E+00  0.00000000E+00
  0.00000000E+00  0.00000000E+00  0.00000000E+00
  0.00000000E+00  0.00000000E+00  0.00000000E+00
  0.00000000E+00  0.00000000E+00  0.00000000E+00
  0.00000000E+00  0.00000000E+00  0.00000000E+00
  0.00000000E+00  0.00000000E+00  0.00000000E+00
  0.00000000E+00  0.00000000E+00  0.00000000E+00
  0.00000000E+00  0.00000000E+00  0.00000000E+00
  0.00000000E+00  0.00000000E+00  0.00000000E+00
  0.00000000E+00  0.00000000E+00  0.00000000E+00
  0.00000000E+00  0.00000000E+00  0.00000000E+00
  0.00000000E+00  0.00000000E+00  0.00000000E+00
  0.00000000E+00  0.00000000E+00  0.00000000E+00
  0.00000000E+00  0.00000000E+00  0.00000000E+00
  0.00000000E+00  0.00000000E+00  0.00000000E+00
  0.00000000E+00  0.00000000E+00  0.00000000E+00
  0.00000000E+00  0.00000000E+00  0.00000000E+00
  0.00000000E+00  0.00000000E+00  0.00000000E+00
  0.00000000E+00  0.00000000E+00  0.00000000E+00
  0.00000000E+00  0.00000000E+00  0.00000000E+00
  0.00000000E+00  0.00000000E+00  0.00000000E+00
  0.00000000E+00  0.00000000E+00  0.00000000E+00
  0.00000000E+00  0.00000000E+00  0.00000000E+00
  0.00000000E+00  0.00000000E+00  0.00000000E+00
  0.00000000E+00  0.00000000E+00  0.00000000E+00
  0.00000000E+00  0.00000000E+00  0.00000000E+00
  0.00000000E+00  0.00000000E+00  0.00000000E+00
  0.00000000E+00  0.00000000E+00  0.00000000E+00
  0.00000000E+00  0.00000000E+00  0.00000000E+00
  0.00000000E+00  0.00000000E+00  0.00000000E+00
  0.00000000E+00  0.00000000E+00  0.00000000E+00
  0.00000000E+00  0.00000000E+00  0.00000000E+00
  0.00000000E+00  0.00000000E+00  0.00000000E+00
  0.00000000E+00  0.00000000E+00  0.00000000E+00
  0.00000000E+00  0.00000000E+00  0.00000000E+00
  0.00000000E+00  0.00000000E+00  0.00000000E+00
  0.00000000E+00  0.00000000E+00  0.00000000E+00
  0.00000000E+00  0.00000000E+00  0.00000000E+00
  0.00000000E+00  0.00000000E+00  0.00000000E+00
  0.00000000E+00  0.00000000E+00  0.00000000E+00
  0.00000000E+00  0.00000000E+00  0.00000000E+00
  0.00000000E+00  0.00000000E+00  0.00000000E+00
  0.00000000E+00  0.00000000E+00  0.00000000E+00
  0.00000000E+00  0.00000000E+00  0.00000000E+00
  0.00000000E+00  0.00000000E+00  0.00000000E+00
  0.00000000E+00  0.00000000E+00  0.00000000E+00
  0.00000000E+00  0.00000000E+00  0.00000000E+00
  0.00000000E+00  0.00000000E+00  0.00000000E+00
  0.00000000E+00  0.00000000E+00  0.00000000E+00
  0.00000000E+00  0.00000000E+00  0.00000000E+00
  0.00000000E+00  0.00000000E+00  0.00000000E+00
  0.00000000E+00  0.00000000E+00  0.00000000E+00
  0.00000000E+00  0.00000000E+00  0.00000000E+00
  0.00000000E+00  0.00000000E+00  0.00000000E+00
  0.00000000E+00  0.00000000E+00  0.00000000E+00
  0.00000000E+00  0.00000000E+00  0.00000000E+00
  0.00000000E+00  0.00000000E+00  0.00000000E+00
  0.00000000E+00  0.00000000E+00  0.00000000E+00
  0.00000000E+00  0.00000000E+00  0.00000000E+00
  0.00000000E+00  0.00000000E+00  0.00000000E+00
  0.00000000E+00  0.00000000E+00  0.00000000E+00
  0.00000000E+00  0.00000000E+00  0.00000000E+00
  0.00000000E+00  0.00000000E+00  0.00000000E+00
  0.00000000E+00  0.00000000E+00  0.00000000E+00
  0.00000000E+00  0.00000000E+00  0.00000000E+00
  0.00000000E+00  0.00000000E+00  0.00000000E+00
  0.00000000E+00  0.00000000E+00  0.00000000E+00
  0.00000000E+00  0.00000000E+00  0.00000000E+00
  0.00000000E+00  0.00000000E+00  0.00000000E+00
  0.00000000E+00  0.00000000E+00  0.00000000E+00
  0.00000000E+00  0.00000000E+00  0.00000000E+00
  0.00000000E+00  0.00000000E+00  0.00000000E+00
  0.00000000E+00  0.00000000E+00  0.00000000E+00
  0.00000000E+00  0.00000000E+00  0.00000000E+00
  0.00000000E+00  0.00000000E+00  0.00000000E+00
  0.00000000E+00  0.00000000E+00  0.00000000E+00
  0.00000000E+00  0.00000000E+00  0.00000000E+00
