C H O Si                                
   1.00000000000000     
    18.5749199999999988    0.0000000000000000    0.0000000000000000
     0.0000000000000000   17.5126199999999983    0.0000000000000000
     0.0000000000000000    0.0000000000000000   58.0000000000000000
   C    H    O    Si
   144   105    52   144
Selective dynamics
Direct
  0.4964406023241014  0.0631296334053727  0.0605268660839932   T   T   T
  0.1630955520391243  0.0630893681129411  0.0605081256577884   T   T   T
  0.3297834263405972  0.0631225366865253  0.0605103105617997   T   T   T
  0.4963480545042207  0.3131751114732506  0.0605143394849733   T   T   T
  0.1629912413193400  0.3131684669487693  0.0605096162236284   T   T   T
  0.3296915769360246  0.3131850887239282  0.0605123286698919   T   T   T
  0.0799919683197143  0.1857757894026124  0.1393855859402189   T   T   T
  0.2466101401479572  0.1858166709449782  0.1394168249533288   T   T   T
  0.4132460850867017  0.1857981839589618  0.1394217794569396   T   T   T
  0.0799518479867742  0.4358507368870557  0.1394241860483884   T   T   T
  0.2465844361029709  0.4358640701943118  0.1394220752318420   T   T   T
  0.4132299929058599  0.4358523907034993  0.1394386741188879   T   T   T
  0.1634982781585455  0.0608530292878446  0.1665480162871692   T   T   T
  0.3300492760944301  0.0609093161258605  0.1665626517366804   T   T   T
  0.4966989811867781  0.0608616207412423  0.1665432129262966   T   T   T
  0.1633980466396125  0.3109334234551623  0.1665484195614973   T   T   T
  0.3300275942181921  0.3109493971292072  0.1665723225483888   T   T   T
  0.4966384569743185  0.3109662403360651  0.1665837684265249   T   T   T
  0.0805893676635643  0.1879137595914020  0.1918832821456584   T   T   T
  0.2469843844222087  0.1880527079569831  0.1919550483059874   T   T   T
  0.4134303116793900  0.1879226534793695  0.1919146234484239   T   T   T
  0.0801893515418433  0.4380383950283120  0.1919605349953827   T   T   T
  0.2468435201665680  0.4380496630026645  0.1919484726167236   T   T   T
  0.4134955062385950  0.4381413443246677  0.1919481603986707   T   T   T
  0.0797703596574390  0.1859778589237809  0.0858599377525797   T   T   T
  0.2464181859301159  0.1859734625117460  0.0858943271476689   T   T   T
  0.4130646245881707  0.1859861760124891  0.0858851115368374   T   T   T
  0.0797626354017747  0.4359961151846983  0.0858904816425908   T   T   T
  0.2464085736998518  0.4359809783060775  0.0859013426751697   T   T   T
  0.4130610835859808  0.4359830417410339  0.0859023022297352   T   T   T
  0.1631305303185809  0.0607991480712942  0.1130173908839417   T   T   T
  0.3297915523361608  0.0608139658815196  0.1130308448830187   T   T   T
  0.4964623977221145  0.0608508228405803  0.1130466044311379   T   T   T
  0.1631743841641980  0.3108254942679391  0.1130295742392749   T   T   T
  0.3298407240951303  0.3108144067565553  0.1130420056919875   T   T   T
  0.4964778593051180  0.3108418833420762  0.1130505946257047   T   T   T
  0.4964514942685134  0.5630971184530953  0.0605434878168155   T   T   T
  0.1630685212342895  0.5631677778756116  0.0605311410519437   T   T   T
  0.3297984380351192  0.5631550624178486  0.0605345063061913   T   T   T
  0.4963909176465939  0.8131677958737803  0.0605358959397956   T   T   T
  0.1629874919375529  0.8131074470414187  0.0605106327940731   T   T   T
  0.3297155065041311  0.8131441423181330  0.0605100189305256   T   T   T
  0.0799220578634450  0.6858705048449967  0.1394310788362811   T   T   T
  0.2465748813368414  0.6858573509400362  0.1394353580213141   T   T   T
  0.4132446448642850  0.6858843941497043  0.1394350246762825   T   T   T
  0.0800349037228553  0.9356922766254425  0.1393796507369925   T   T   T
  0.2466294441533914  0.9357906749840252  0.1394026638079467   T   T   T
  0.4132735271253795  0.9358069508096680  0.1394192429671747   T   T   T
  0.1633312902454403  0.5609780335994994  0.1665803100141073   T   T   T
  0.3300072977307700  0.5609908086268495  0.1665731344626994   T   T   T
  0.4966257959923990  0.5610758676576850  0.1665572265102914   T   T   T
  0.1633900318687945  0.8109572795533758  0.1665637779028274   T   T   T
  0.3300718937389629  0.8109859960475366  0.1665641928399616   T   T   T
  0.4967606838427300  0.8110264292077902  0.1665938937796131   T   T   T
  0.0802734698018222  0.6881653376537668  0.1919490912680036   T   T   T
  0.2469375491714953  0.6881888073926564  0.1919750902128909   T   T   T
  0.4135474934579845  0.6881636759553786  0.1919448153456405   T   T   T
  0.0803092023579761  0.9380575743815558  0.1919247526365791   T   T   T
  0.2469173726985468  0.9380396049384134  0.1919395733531702   T   T   T
  0.4135621120497252  0.9381019590224328  0.1919382034999429   T   T   T
  0.0797418011631402  0.6859973417727210  0.0859005924519691   T   T   T
  0.2464299100024959  0.6859671869461195  0.0859038885316332   T   T   T
  0.4130937409745181  0.6860081536957187  0.0859038398449981   T   T   T
  0.0797688058452586  0.9359440928706974  0.0858668209095780   T   T   T
  0.2464222611649891  0.9359459631099167  0.0858866310350317   T   T   T
  0.4130787964821812  0.9359792309549119  0.0858881517186741   T   T   T
  0.1631104112972812  0.5608482150414842  0.1130458969087872   T   T   T
  0.3297954484303977  0.5608468260978867  0.1130510115400968   T   T   T
  0.4964557774912788  0.5608416183105598  0.1130546154825066   T   T   T
  0.1631978747401051  0.8107774422895664  0.1130231786709933   T   T   T
  0.3298512261645767  0.8108134590514607  0.1130343883970761   T   T   T
  0.4965403771875482  0.8108881640086220  0.1130636947988968   T   T   T
  0.9964261432602937  0.0631114982906409  0.0604798487791468   T   T   T
  0.6630995334562902  0.0631780207292055  0.0606065462662867   T   T   T
  0.8296994368346688  0.0631778328451904  0.0605675922725135   T   T   T
  0.9963345991107909  0.3131965456669357  0.0604815637484108   T   T   T
  0.6629992889990581  0.3131200111226591  0.0606107727598937   T   T   T
  0.8296648971174675  0.3131608192476402  0.0605566459518941   T   T   T
  0.5799179709542869  0.1858573864083313  0.1394520147326876   T   T   T
  0.7465801989493779  0.1860873950969373  0.1396465462315163   T   T   T
  0.9133270429403323  0.1857475017657506  0.1393131505500862   T   T   T
  0.5798862796134802  0.4358680256797309  0.1394625343920668   T   T   T
  0.7465941178968759  0.4357783216828157  0.1394810873136451   T   T   T
  0.9132955670807099  0.4358785183685328  0.1394221128903412   T   T   T
  0.6635945021980881  0.0613254574047482  0.1667586506293955   T   T   T
  0.8298776337204334  0.0611679352574377  0.1666535136475054   T   T   T
  0.9969933406332562  0.0605550150169533  0.1664244822724331   T   T   T
  0.6632692406742794  0.3109879206426739  0.1667867885725481   T   T   T
  0.8302514919696626  0.3109952575929768  0.1666184340522557   T   T   T
  0.9968363924073377  0.3109081363537446  0.1664546051337137   T   T   T
  0.5800731205304734  0.1876884593854313  0.1918474733665428   T   T   T
  0.7470716167823831  0.1898363155147633  0.1927021742591456   T   T   T
  0.9142234893727451  0.1867579819670795  0.1914497095041438   T   T   T
  0.5800826093211814  0.4384207648902519  0.1919618893793299   T   T   T
  0.7468568847983497  0.4379582780863979  0.1919707604501331   T   T   T
  0.9136509181388356  0.4384147222405081  0.1918769239318865   T   T   T
  0.5797431326458337  0.1860134237737130  0.0859254428063073   T   T   T
  0.7463968922236474  0.1860166414432375  0.0860262666796257   T   T   T
  0.9130731806897937  0.1859885117807121  0.0858377850743123   T   T   T
  0.5797552703129910  0.4359818140895728  0.0859281442181667   T   T   T
  0.7464001701251011  0.4359598111799848  0.0859460057196540   T   T   T
  0.9130499987882275  0.4359840070062306  0.0859040133058788   T   T   T
  0.6631306058908263  0.0609440561153451  0.1131340026231407   T   T   T
  0.8297490878257510  0.0608953314860428  0.1130837776631132   T   T   T
  0.9964722567636274  0.0608002392801351  0.1129920113878333   T   T   T
  0.6631264237671931  0.3108493834674645  0.1131568857979686   T   T   T
  0.8298660696553753  0.3108443607913840  0.1130817546144288   T   T   T
  0.9965202382452502  0.3108503988953091  0.1129954735838705   T   T   T
  0.9963975550447186  0.5631316702484837  0.0605254554789248   T   T   T
  0.6630859729322353  0.5631404559139551  0.0605616617159927   T   T   T
  0.8297477237693514  0.5631401830343840  0.0605570802836058   T   T   T
  0.9962915542625190  0.8131383192830969  0.0605216960758664   T   T   T
  0.6630043001455467  0.8131678052554463  0.0605642654293110   T   T   T
  0.8296447648173091  0.8131767452553806  0.0605455215540284   T   T   T
  0.5799197196085932  0.6858773444938708  0.1394556437711757   T   T   T
  0.7465393318598681  0.6859153655775604  0.1394578238195490   T   T   T
  0.9132129574682634  0.6858421734732658  0.1394443256172203   T   T   T
  0.5800515131956289  0.9360013976015088  0.1394939790609766   T   T   T
  0.7465492330308814  0.9359054711511287  0.1394680951066683   T   T   T
  0.9131922801005148  0.9359506282924354  0.1394417043216351   T   T   T
  0.6633672179082400  0.5610244409813046  0.1665859269139145   T   T   T
  0.8299418379682422  0.5609896518397696  0.1665771488062389   T   T   T
  0.9967491940387508  0.5610535557701261  0.1665417324129543   T   T   T
  0.6633775089506596  0.8110229276358575  0.1666135281502382   T   T   T
  0.8300682410399094  0.8110302992169589  0.1665836106189538   T   T   T
  0.9967083544339294  0.8109994280701998  0.1665666404666972   T   T   T
  0.5802863872719842  0.6881568669807719  0.1919779250062267   T   T   T
  0.7469480145058516  0.6882263221566727  0.1919881113007601   T   T   T
  0.9135611211400587  0.6881161660243257  0.1919433268587261   T   T   T
  0.5803177154201425  0.9382269029014817  0.1919988832935119   T   T   T
  0.7469782465232406  0.9381619395636709  0.1919992531212301   T   T   T
  0.9135913948927710  0.9381771312497814  0.1919342281823859   T   T   T
  0.5797674938693343  0.6859878197314587  0.0859283332027277   T   T   T
  0.7463809132226250  0.6859889165660475  0.0859431205979126   T   T   T
  0.9130234437234648  0.6859859481838350  0.0859148257967884   T   T   T
  0.5797817550411163  0.9360460447152115  0.0859342473342297   T   T   T
  0.7463906250805621  0.9359972531508788  0.0859440250631318   T   T   T
  0.9130378291178906  0.9360114319606122  0.0859043481458021   T   T   T
  0.6631054392160314  0.5608198418991135  0.1130762118956353   T   T   T
  0.8297620475979341  0.5608225575545265  0.1130680701422545   T   T   T
  0.9964515153587538  0.5608593049576396  0.1130383892144671   T   T   T
  0.6631405949993248  0.8108768767263839  0.1130805751342500   T   T   T
  0.8298115385745432  0.8108579405371364  0.1130666808943889   T   T   T
  0.9964654342343089  0.8108513408302110  0.1130471141140902   T   T   T
  0.0381712896040565  0.1764512168697244  0.0267042316837106   T   T   T
  0.2044995480092586  0.1764738068929239  0.0267873740055601   T   T   T
  0.3711836851619670  0.1764031030120450  0.0267607193317531   T   T   T
  0.0379277619167582  0.4264995648513067  0.0267116027040578   T   T   T
  0.2042669048428078  0.4264196669718686  0.0267662185783473   T   T   T
  0.3708905864630550  0.4263910022704140  0.0267666918507474   T   T   T
  0.1619666541244642  0.0268670072312150  0.0449798024375304   T   T   T
  0.3285718626229099  0.0268902710387854  0.0449859491908643   T   T   T
  0.4953136647072514  0.0269235599247892  0.0449987494593366   T   T   T
  0.1618035048039532  0.2769468127689663  0.0449803483732089   T   T   T
  0.3284575485240672  0.2769443399639658  0.0449862752673497   T   T   T
  0.4951487318593675  0.2769414677798939  0.0449911383373358   T   T   T
  0.4146338747518410  0.4019491300721584  0.2074888028683942   T   T   T
  0.4145291654118340  0.1516746138381550  0.2074394184784311   T   T   T
  0.0814422310922634  0.1517049918274970  0.2074114218226007   T   T   T
  0.2480174824104632  0.1518254417783537  0.2074833572820100   T   T   T
  0.0813135644526662  0.4018114704663511  0.2074986810834405   T   T   T
  0.2479120680177275  0.4018580873116645  0.2074859836690593   T   T   T
  0.0391979146816102  0.0512419303244092  0.2257112761528045   T   T   T
  0.2058972136086481  0.0512349614908546  0.2257348552459242   T   T   T
  0.3726607407734053  0.0512901953375417  0.2257031603677857   T   T   T
  0.0343488807082622  0.3010646160112495  0.2264232371386545   T   T   T
  0.2055078314882199  0.3013217228038141  0.2258014861714958   T   T   T
  0.3732543635089952  0.3010831364650528  0.2256622720581716   T   T   T
  0.0380081510478349  0.6764805848585688  0.0267580718546218   T   T   T
  0.2046012101367573  0.6764403456400714  0.0267831283513925   T   T   T
  0.3712703233568720  0.6764038188858046  0.0267842416635170   T   T   T
  0.0377916627974427  0.9264136704977373  0.0267337014761083   T   T   T
  0.2042651859244135  0.9263674299901506  0.0267597797903734   T   T   T
  0.3710326549724000  0.9263928353003247  0.0267575932038380   T   T   T
  0.1619054377195285  0.5269124276132799  0.0450090595894954   T   T   T
  0.3286209432559524  0.5269047306809629  0.0450128302861349   T   T   T
  0.4952796645411245  0.5268952549355342  0.0450160251414860   T   T   T
  0.1618122740883930  0.7768655284711782  0.0449883276248627   T   T   T
  0.3285017801469041  0.7768952302337360  0.0449866627880666   T   T   T
  0.4952342651797103  0.7769265303469594  0.0450147580042044   T   T   T
  0.4146236281792999  0.9018936917738598  0.2074723531471828   T   T   T
  0.4146534123602608  0.6519280735950406  0.2074746441925613   T   T   T
  0.0813715784932598  0.6519482961153344  0.2074795524165478   T   T   T
  0.2480766203976104  0.6520081667882575  0.2075131325035412   T   T   T
  0.0813594888382979  0.9018527554356546  0.2074578446453552   T   T   T
  0.2480377126288427  0.9018473374809981  0.2074726781676876   T   T   T
  0.0388082772770748  0.5522509130704212  0.2257143351822447   T   T   T
  0.2057514245764140  0.5522194103162559  0.2256268774228015   T   T   T
  0.3723176419627094  0.5518867613872923  0.2256954536925027   T   T   T
  0.0390471280394287  0.8014282320821036  0.2257628193202363   T   T   T
  0.2054405429105429  0.8016757833224717  0.2258196472076813   T   T   T
  0.3731266147778688  0.8012209386379967  0.2256839208023290   T   T   T
  0.5382607902263474  0.1764245983759733  0.0267453043173081   T   T   T
  0.7044350375043920  0.1765151731356432  0.0268837112830859   T   T   T
  0.8710320613654677  0.1764059350769142  0.0267459018852516   T   T   T
  0.5381308870504475  0.4264278327438259  0.0267489566829665   T   T   T
  0.7042010547425118  0.4263478506003101  0.0268137788878040   T   T   T
  0.8707176624471455  0.4263818026982092  0.0267769028375229   T   T   T
  0.6620491323099386  0.0269294320340754  0.0450863468797401   T   T   T
  0.8283157518966676  0.0269270683755621  0.0450487494387481   T   T   T
  0.9952513400100158  0.0269032259954299  0.0449517460699337   T   T   T
  0.6617952696327579  0.2768103629623912  0.0451022446579883   T   T   T
  0.8284036845278362  0.2768903212012438  0.0450381185605931   T   T   T
  0.9951277235603437  0.2770027343188833  0.0449478750101934   T   T   T
  0.9144776153928441  0.4025845187262224  0.2074646402424268   T   T   T
  0.9153501152371409  0.1507688959502796  0.2070271798016138   T   T   T
  0.5808323728112316  0.1515295705137209  0.2073917981822621   T   T   T
  0.7484861457252824  0.1530763999197810  0.2081184055579920   T   T   T
  0.5810218694847628  0.4021654376623791  0.2074747851696971   T   T   T
  0.7469751452763231  0.4018053216489394  0.2075189112025471   T   T   T
  0.5388887016215158  0.0515424608421917  0.2257836845567462   T   T   T
  0.7062875131669251  0.0507854643880446  0.2259130314414627   T   T   T
  0.8729550669895952  0.0510811861499901  0.2257959037517120   T   T   T
  0.5414090689280486  0.3009098841207205  0.2248056960564299   T   T   T
  0.6893616580415743  0.3095035312956201  0.2290637489524201   T   T   T
  0.8912342989035672  0.2945506689484652  0.2230493642441509   T   T   T
  0.7735924438532342  0.3058626683510156  0.2739240204151579   T   T   T
  0.7469480468765711  0.2380934372497415  0.2932096476586198   T   T   T
  0.7864693894568211  0.3199264947385069  0.3030139592268508   T   T   T
  0.6578396162579291  0.1954106749355660  0.3098368957556978   T   T   T
  0.7103742968055207  0.1302584814372947  0.3022345163467011   T   T   T
  0.8250940121613124  0.3663439823494751  0.3337146338137001   T   T   T
  0.7419030890891731  0.3761852094214656  0.3308618595806148   T   T   T
  0.7592766765563796  0.3958499687979917  0.2519478329646899   T   T   T
  0.7931001340553809  0.3236853390652810  0.2388459501254161   T   T   T
  0.5381130945439798  0.6764590269030157  0.0267722989115976   T   T   T
  0.7045934369847439  0.6764491051934131  0.0268093889292024   T   T   T
  0.8710767927324856  0.6764190283048953  0.0267976360734836   T   T   T
  0.5379580259804712  0.9264488644462114  0.0267666259309967   T   T   T
  0.7042309792873496  0.9263943605551940  0.0267995518175995   T   T   T
  0.8708437409901006  0.9264362873195771  0.0267794730402658   T   T   T
  0.6619321290419391  0.5268965611817524  0.0450400711301057   T   T   T
  0.8285344601181300  0.5268923001195500  0.0450346809503731   T   T   T
  0.9951982562608680  0.5269097716917196  0.0449993500568937   T   T   T
  0.6617913576030121  0.7769299675129200  0.0450439761784596   T   T   T
  0.8283811284952608  0.7769161770253177  0.0450257931705980   T   T   T
  0.9950388950972616  0.7768877103311920  0.0450009451247263   T   T   T
  0.9147195056574902  0.9019938645595912  0.2074749496005681   T   T   T
  0.9147272243499410  0.6519702157216813  0.2074904424137231   T   T   T
  0.5813318666199575  0.6519200427264055  0.2075055175668892   T   T   T
  0.7481949747742594  0.6521021889819384  0.2075344468705327   T   T   T
  0.5813152556857787  0.9019953688827570  0.2075300744863405   T   T   T
  0.7481416760052697  0.9019318234978771  0.2075254577505544   T   T   T
  0.5385884501666877  0.5522839333873348  0.2257254023090181   T   T   T
  0.7059057013988499  0.5536138183450372  0.2254222186124192   T   T   T
  0.8722454537733538  0.5524530829490117  0.2256569931550610   T   T   T
  0.5391513956110451  0.8014182526806166  0.2257692909932049   T   T   T
  0.7055408366900208  0.8017039853306822  0.2258406182850176   T   T   T
  0.8732117105636232  0.8012216137027953  0.2256880677504078   T   T   T
  0.0845325438236475  0.1673561816654379  0.0341576218184863   T   T   T
  0.2509641517644913  0.1674439466703384  0.0341818836124048   T   T   T
  0.4176246880679652  0.1673523313109370  0.0341667565490216   T   T   T
  0.0842762763687493  0.4176197692514358  0.0341949860506185   T   T   T
  0.2507337338996760  0.4175708903861140  0.0341864851578984   T   T   T
  0.4173543399215743  0.4175676565231248  0.0341918539552218   T   T   T
  0.1594494416113924  0.0422334547100815  0.2183029762663523   T   T   T
  0.3261326222918904  0.0421246420481468  0.2183323799688956   T   T   T
  0.4925645879033126  0.0424533645861089  0.2182894294795859   T   T   T
  0.1592472207711469  0.2923831371714593  0.2182557276674303   T   T   T
  0.3266184188644651  0.2924470506806086  0.2182999279382794   T   T   T
  0.4933191837508837  0.2917239365624993  0.2183535681772107   T   T   T
  0.0843872374414958  0.6674494693911813  0.0342037396713360   T   T   T
  0.2510352078107774  0.6673713230181912  0.0341897866455807   T   T   T
  0.4176984097958946  0.6673944607961596  0.0342003926076550   T   T   T
  0.0841977567513645  0.9173098361857038  0.0341561445187217   T   T   T
  0.2507361159872644  0.9174196555720867  0.0341659865764266   T   T   T
  0.4174756353167377  0.9174146607232271  0.0341728200632094   T   T   T
  0.1592917305079133  0.5423856921922088  0.2182985006290089   T   T   T
  0.3259099828495121  0.5425238438233690  0.2182777169812199   T   T   T
  0.4923175416295374  0.5426929465374514  0.2182621664075630   T   T   T
  0.1591955292569849  0.7925227068132614  0.2182873092819777   T   T   T
  0.3265324714622077  0.7927201853923488  0.2182812428574798   T   T   T
  0.4927069937371491  0.7922561578779779  0.2183498331391806   T   T   T
  0.5846033591442763  0.1673017100107142  0.0342049550884019   T   T   T
  0.7508944818836268  0.1675914040592502  0.0342979242270381   T   T   T
  0.9174993078182034  0.1671128357315816  0.0341071909399326   T   T   T
  0.5844748248663652  0.4174075105601078  0.0342202004643466   T   T   T
  0.7506842201480669  0.4173492074192169  0.0342085683641097   T   T   T
  0.9171820810012058  0.4176030969823237  0.0342061324288294   T   T   T
  0.6597735489035411  0.0421877501314099  0.2184738430908774   T   T   T
  0.8264410573787483  0.0425623574664201  0.2183453357520898   T   T   T
  0.9928243113802697  0.0426380180074743  0.2181889801019869   T   T   T
  0.6509030943394744  0.2928990985701641  0.2184613742802281   T   T   T
  0.8400500833414936  0.2918053850513233  0.2183529039708401   T   T   T
  0.9899283673644990  0.2911658841637512  0.2179631776015943   T   T   T
  0.7857942898632796  0.2799121633321607  0.2896107122579544   T   T   T
  0.6907041539893539  0.1796215826505097  0.2975929629855473   T   T   T
  0.7873457648309082  0.3763079145841651  0.3223837117385064   T   T   T
  0.7559554089743679  0.3403581505524986  0.2506175195781965   T   T   T
  0.5844870476754207  0.6673790914930222  0.0342170712669898   T   T   T
  0.7510322800391954  0.6673452090996757  0.0342136890747535   T   T   T
  0.9175267507474510  0.6673845056783084  0.0342011585472832   T   T   T
  0.5843442776881462  0.9175090881173968  0.0342221061803410   T   T   T
  0.7507033579301851  0.9175056940378484  0.0342141405289284   T   T   T
  0.9172979305345504  0.9174968246067216  0.0341964234523511   T   T   T
  0.6594125113870963  0.5422502590890741  0.2183280883599424   T   T   T
  0.8259019603646780  0.5422888654586517  0.2182931246506568   T   T   T
  0.9925389846763871  0.5426491885594998  0.2182468642110510   T   T   T
  0.6592642486780439  0.7925248378303045  0.2183308994135279   T   T   T
  0.8265945192783491  0.7926398536531289  0.2183028356840868   T   T   T
  0.9926328749687177  0.7923383897906748  0.2183139373085016   T   T   T
  0.2464878767121688  0.1217745425719720  0.0597199990944408   T   T   T
  0.4131595496853077  0.1217872329469666  0.0597196501041693   T   T   T
  0.0797524259233007  0.3718445938317111  0.0597181552211967   T   T   T
  0.2464001692920454  0.3718406853014546  0.0597178344355023   T   T   T
  0.4130689712830348  0.3718476086679199  0.0597251040367521   T   T   T
  0.0798388006830488  0.1217414238597592  0.0597038739423473   T   T   T
  0.4965291416671264  0.4983861108969988  0.1397058010809405   T   T   T
  0.1632671079067210  0.4983860822479119  0.1396974829126843   T   T   T
  0.3299004809716176  0.4983766205191372  0.1397026113942916   T   T   T
  0.4965509990438765  0.2483437093147985  0.1397069720010033   T   T   T
  0.1633058438716046  0.2483193454559830  0.1396719950439503   T   T   T
  0.3299233777701285  0.2483295502542973  0.1396960009529803   T   T   T
  0.0802128442317294  0.1228869169656780  0.1659683861127835   T   T   T
  0.2467720870078235  0.1230957108619770  0.1660609816024506   T   T   T
  0.4133596296219647  0.1230208440978859  0.1660422866900111   T   T   T
  0.0801507227690049  0.3731443455182751  0.1660436983703181   T   T   T
  0.2467130764377399  0.3731267012719260  0.1660596231113444   T   T   T
  0.4133189665419932  0.3731277709244599  0.1660719881274576   T   T   T
  0.1634947048945055  0.4967588485589036  0.1927533809633666   T   T   T
  0.3301116354576379  0.4967840632589637  0.1927470585901556   T   T   T
  0.4966909706486157  0.4969810336082417  0.1927338048902581   T   T   T
  0.1637098217059793  0.2468058556900546  0.1927305959521976   T   T   T
  0.4966999828940273  0.2465335176027936  0.1927309541547235   T   T   T
  0.3302596835740425  0.2467613445338467  0.1927498327588630   T   T   T
  0.4964203263764689  0.4981445533527422  0.0864167866571799   T   T   T
  0.1631052429938711  0.4981734912220788  0.0864037023321413   T   T   T
  0.3297599911685860  0.4981651883212896  0.0864107332667479   T   T   T
  0.4964033294622334  0.2481725227113998  0.0864033762682828   T   T   T
  0.1631164331153150  0.2481566747819644  0.0863830535082626   T   T   T
  0.3297518059278307  0.2481637554501379  0.0863937911868117   T   T   T
  0.0798352287157254  0.1232758572509673  0.1127172537072700   T   T   T
  0.2464926896468072  0.1233046260052788  0.1127619536239684   T   T   T
  0.4131439911051836  0.1233275760448759  0.1127595240731359   T   T   T
  0.0798816853569032  0.3733644059016627  0.1127532969855053   T   T   T
  0.2465301746862684  0.3733374368229858  0.1127700484989470   T   T   T
  0.4131686346252001  0.3733491159274635  0.1127786008150663   T   T   T
  0.2465000252540455  0.6217823951992095  0.0597355079570346   T   T   T
  0.4131874002122077  0.6217951174938245  0.0597450034171353   T   T   T
  0.0797306475804923  0.8717468636989817  0.0597123201166924   T   T   T
  0.2463991799182492  0.8717733580962356  0.0597100224549768   T   T   T
  0.4130969982983769  0.8718034983763399  0.0597205844023580   T   T   T
  0.0797938091324917  0.6218040085646797  0.0597378780611461   T   T   T
  0.4965687941631196  0.9983259960669473  0.1396942909568385   T   T   T
  0.1633205352391665  0.9982489267818745  0.1396584610139999   T   T   T
  0.3299291084149571  0.9983034301220948  0.1396829085016806   T   T   T
  0.4965795038063076  0.7483915740812724  0.1397171949190947   T   T   T
  0.1632573239569985  0.7483511978718463  0.1396908342977927   T   T   T
  0.3299066503755447  0.7483662067458934  0.1396958988389644   T   T   T
  0.0800456813121036  0.6232016035169299  0.1660620841329918   T   T   T
  0.2466773532596893  0.6231699524595897  0.1660870599354392   T   T   T
  0.4133007991688658  0.6232017565235856  0.1660667172023260   T   T   T
  0.0800655880606866  0.8730805036343785  0.1660406486469364   T   T   T
  0.2467137006485965  0.8731124347676498  0.1660539199343536   T   T   T
  0.4133775724659200  0.8731334937503178  0.1660617362156582   T   T   T
  0.1635721159822044  0.9967003971696371  0.1927398701441388   T   T   T
  0.3301967975123618  0.9967153087692856  0.1927458714197312   T   T   T
  0.4968468778348937  0.9968000507137993  0.1927438057557281   T   T   T
  0.1635442944736201  0.7468394336150088  0.1927536659741672   T   T   T
  0.4968594491084927  0.7468032255440223  0.1927686298924000   T   T   T
  0.3302481019193890  0.7468914090473703  0.1927534331882210   T   T   T
  0.4964352267508896  0.9981688559365289  0.0864046175698900   T   T   T
  0.1631212924168196  0.9981140929767147  0.0863788989911131   T   T   T
  0.3297699496293364  0.9981343883935971  0.0863879553633167   T   T   T
  0.4964478087301849  0.7481906396762940  0.0864188076842515   T   T   T
  0.1631079739558524  0.7481147863995447  0.0863949856782004   T   T   T
  0.3297620432605591  0.7481472942890133  0.0863966768442805   T   T   T
  0.0798068686621386  0.6233651557573847  0.1127730037940975   T   T   T
  0.2464847258011338  0.6233458808353275  0.1127815693211759   T   T   T
  0.4131444679843373  0.6233695024786547  0.1127812897318169   T   T   T
  0.0798820020180742  0.8732450143000287  0.1127323863836029   T   T   T
  0.2465333565227713  0.8732922031154545  0.1127535126545889   T   T   T
  0.4131794983994123  0.8733306426343209  0.1127657089222730   T   T   T
  0.7464499250454184  0.1218733896178408  0.0598269926391337   T   T   T
  0.9131124296860383  0.1217391899927598  0.0596848910318452   T   T   T
  0.5797792412918206  0.3717927507221662  0.0597629279839896   T   T   T
  0.7463704420583639  0.3717872537968691  0.0597626464371355   T   T   T
  0.9130218826290460  0.3718463700366518  0.0597243343180128   T   T   T
  0.5798465633269647  0.1217850391396874  0.0597702394978899   T   T   T
  0.9966347929039734  0.4984115390586915  0.1396814123272627   T   T   T
  0.6632164817464750  0.4983331704374906  0.1397277328140116   T   T   T
  0.8298831993317751  0.4983490765881756  0.1397139641694872   T   T   T
  0.9966671500225376  0.2482416009032078  0.1395749874059581   T   T   T
  0.6631488787168507  0.2484518297091390  0.1398522264083119   T   T   T
  0.8300089661600243  0.2482969351989608  0.1397015701229723   T   T   T
  0.5799733971696064  0.1230496947015869  0.1660661713274800   T   T   T
  0.7467185038101799  0.1239547329351966  0.1664399066032585   T   T   T
  0.9136528861553520  0.1223576979585543  0.1657639056222800   T   T   T
  0.5798718010044354  0.3732491653624917  0.1661207377373478   T   T   T
  0.7466124759822196  0.3729883912534278  0.1660992450128921   T   T   T
  0.9135531702019283  0.3732843143187448  0.1660373338352800   T   T   T
  0.6633743887382995  0.4969189474310708  0.1927394589565595   T   T   T
  0.8302219839381735  0.4968646049080582  0.1927252394283736   T   T   T
  0.9969357284228488  0.4970013199552413  0.1927172893365009   T   T   T
  0.6625463996253372  0.2476131024336917  0.1932238316953325   T   T   T
  0.9971159092617805  0.2458758310500662  0.1923139572107630   T   T   T
  0.8317584268884867  0.2462993030680378  0.1925435234206307   T   T   T
  0.9964246130216114  0.4981572712079154  0.0863985520815970   T   T   T
  0.6630881527547495  0.4981533435223099  0.0864363220212088   T   T   T
  0.8297409572387257  0.4981558572977621  0.0864288459898995   T   T   T
  0.9964400230537560  0.2481531383941169  0.0863493581139074   T   T   T
  0.6630566593242584  0.2481719162486979  0.0864976592163259   T   T   T
  0.8297554877573481  0.2481559238084900  0.0864321322285677   T   T   T
  0.5797751696756963  0.1233959294870409  0.1128018583010773   T   T   T
  0.7464365766242229  0.1234213278507012  0.1129130239240711   T   T   T
  0.9131564363023195  0.1232795280307005  0.1126820001305982   T   T   T