C H O Si                                
   1.00000000000000     
    18.5749199999999988    0.0000000000000000    0.0000000000000000
     0.0000000000000000   17.5126199999999983    0.0000000000000000
     0.0000000000000000    0.0000000000000000   58.0000000000000000
   C    H    O    Si
   144   105    52   144
Selective dynamics
Direct
  0.4963864816551518  0.0631763403481824  0.0605206028178318   T   T   T
  0.1630524760078844  0.0631109922365480  0.0604999140078677   T   T   T
  0.3296925997603587  0.0631327178025693  0.0605071125544858   T   T   T
  0.4963205912484124  0.3131816728643657  0.0605178357309458   T   T   T
  0.1629764714132806  0.3131550807694966  0.0605100891823335   T   T   T
  0.3296301884418186  0.3131675417186699  0.0605142229820430   T   T   T
  0.0799911188185578  0.1857600187178659  0.1393749364405446   T   T   T
  0.2465944604142520  0.1858058432592585  0.1394175156813386   T   T   T
  0.4132345636829178  0.1858024139108234  0.1394146283526794   T   T   T
  0.0799408733033733  0.4358717823652485  0.1394134505598988   T   T   T
  0.2465771250884958  0.4358566140172956  0.1394186168756723   T   T   T
  0.4132261593670749  0.4358718168747883  0.1394285612373589   T   T   T
  0.1634464048174335  0.0608176626734208  0.1665409941859402   T   T   T
  0.3299966710653887  0.0608562884469529  0.1665563354952104   T   T   T
  0.4966657790661692  0.0608219990951612  0.1665506174243816   T   T   T
  0.1633690541550784  0.3108929529431855  0.1665488022923659   T   T   T
  0.3299797353108733  0.3109083621224487  0.1665701787718897   T   T   T
  0.4965903397313022  0.3109409781812881  0.1665797664290466   T   T   T
  0.0805561084636912  0.1879029586375393  0.1918813427337976   T   T   T
  0.2469658218782004  0.1880847991264925  0.1919668581388763   T   T   T
  0.4134433856310560  0.1879068642742728  0.1919182914195080   T   T   T
  0.0801590832696458  0.4380224982064940  0.1919654963922690   T   T   T
  0.2468196448213680  0.4380511437178177  0.1919561371434928   T   T   T
  0.4134733075280193  0.4381046695958415  0.1919523042546702   T   T   T
  0.0797708423192891  0.1859247508612766  0.0858709340763649   T   T   T
  0.2464183872616755  0.1859172776340452  0.0858952055973051   T   T   T
  0.4130795993509151  0.1859355554987409  0.0858918654708613   T   T   T
  0.0797470400982569  0.4359394001261679  0.0858919620005407   T   T   T
  0.2464000440120219  0.4359370983892969  0.0859009890910106   T   T   T
  0.4130656704896513  0.4359265103094686  0.0859088731082920   T   T   T
  0.1631184195910628  0.0608191070883005  0.1130185410437970   T   T   T
  0.3297911897725088  0.0608089463623862  0.1130262433766714   T   T   T
  0.4964668550930422  0.0608310654254415  0.1130438261534340   T   T   T
  0.1631929583734471  0.3108253655745287  0.1130349856996771   T   T   T
  0.3298541228274141  0.3108155225291711  0.1130435195191653   T   T   T
  0.4964987318311945  0.3108261482930330  0.1130532889136212   T   T   T
  0.4963868852417517  0.5631401980136067  0.0605412780988887   T   T   T
  0.1630265255309198  0.5631615188666229  0.0605293131677305   T   T   T
  0.3297059213480323  0.5631525958450743  0.0605347331722719   T   T   T
  0.4963471869433123  0.8131962941704045  0.0605344536854745   T   T   T
  0.1629742654836501  0.8130985992766210  0.0605118762339631   T   T   T
  0.3296406297000610  0.8131398774040013  0.0605095820906029   T   T   T
  0.0799134294258048  0.6858830133285783  0.1394236928180773   T   T   T
  0.2465724407967994  0.6858516234712250  0.1394353744802263   T   T   T
  0.4132365652378918  0.6859046757164836  0.1394265130006378   T   T   T
  0.0800572715215123  0.9356647184764882  0.1393599569114883   T   T   T
  0.2466268280557240  0.9357739428004558  0.1393984016028851   T   T   T
  0.4132700067249820  0.9358081750993215  0.1394089410779500   T   T   T
  0.1632931062696767  0.5609532829769865  0.1665830311232666   T   T   T
  0.3299481428760769  0.5609617497645777  0.1665811803349107   T   T   T
  0.4965756711361046  0.5610473129919679  0.1665614336341125   T   T   T
  0.1633575840716021  0.8109240611610713  0.1665657738077033   T   T   T
  0.3300143236423931  0.8109468838504945  0.1665628271942905   T   T   T
  0.4967219331038608  0.8109840275041109  0.1665947707677460   T   T   T
  0.0802296671393948  0.6881465903371614  0.1919536652022802   T   T   T
  0.2469232743863584  0.6881797902480208  0.1919807329071830   T   T   T
  0.4135489121835311  0.6881485234414861  0.1919539198865796   T   T   T
  0.0802468045149809  0.9380498564504520  0.1919292501416055   T   T   T
  0.2468918189513974  0.9380542200073039  0.1919439506944823   T   T   T
  0.4135664818212657  0.9380804713437907  0.1919431448355455   T   T   T
  0.0797274976205436  0.6859366445053500  0.0859107041091811   T   T   T
  0.2464297821363562  0.6859149543501188  0.0859095024890144   T   T   T
  0.4131085676796546  0.6859445419345331  0.0859119464329906   T   T   T
  0.0797575719207747  0.9359205574166909  0.0858830990332837   T   T   T
  0.2464449381114637  0.9359078126653967  0.0858890599039175   T   T   T
  0.4131008472796380  0.9359245880486489  0.0858958458067626   T   T   T
  0.1631233129798026  0.5608462030878538  0.1130446421643986   T   T   T
  0.3297985438709273  0.5608423035998180  0.1130501587902606   T   T   T
  0.4964475939364186  0.5608408885215929  0.1130591691430234   T   T   T
  0.1632018652950128  0.8107983650019663  0.1130297665322061   T   T   T
  0.3298498914792679  0.8108135336657983  0.1130354876147989   T   T   T
  0.4965339818783589  0.8108889520275775  0.1130690856896040   T   T   T
  0.9963588913998166  0.0631275930868212  0.0604776042119284   T   T   T
  0.6630602013125251  0.0631967034809225  0.0606043266582712   T   T   T
  0.8296190511117268  0.0631687652058558  0.0605695921227884   T   T   T
  0.9963132789185278  0.3131797117188874  0.0604890683846974   T   T   T
  0.6629797804324310  0.3131233920775848  0.0606127665670464   T   T   T
  0.8296067645583973  0.3131448345697864  0.0605611028161961   T   T   T
  0.5798997857400926  0.1858616010411967  0.1394470983546488   T   T   T
  0.7465658943156875  0.1860116690834084  0.1396414279938475   T   T   T
  0.9133299596603051  0.1857176840251635  0.1393036884121725   T   T   T
  0.5798785171711308  0.4358759485093098  0.1394504115584843   T   T   T
  0.7465885139642772  0.4357459600645526  0.1394790672882954   T   T   T
  0.9132868395695017  0.4359074102470628  0.1394155517207920   T   T   T
  0.6635992016925909  0.0613591898475590  0.1667715273190038   T   T   T
  0.8298403886896076  0.0611819158890524  0.1666599869973936   T   T   T
  0.9969783855297742  0.0605564602020957  0.1664296434076981   T   T   T
  0.6632199275988248  0.3110567592223042  0.1667926279845778   T   T   T
  0.8302106502840340  0.3109676741097404  0.1666314167675749   T   T   T
  0.9967816302299233  0.3108876200188839  0.1664576432494561   T   T   T
  0.5800696306150459  0.1876835035876903  0.1918498423668487   T   T   T
  0.7470756754137559  0.1898513968122683  0.1927107167505022   T   T   T
  0.9142194122602575  0.1868028234773153  0.1914688759587802   T   T   T
  0.5800467295520660  0.4383943819822126  0.1919611670511318   T   T   T
  0.7468292202421335  0.4379556950148031  0.1919789275697339   T   T   T
  0.9136421636948016  0.4383969446829118  0.1918776786533518   T   T   T
  0.5797265904261486  0.1859484588564785  0.0859310800055087   T   T   T
  0.7463919320321863  0.1859878635436685  0.0860271769882373   T   T   T
  0.9131007045898434  0.1859492610161410  0.0858495289278486   T   T   T
  0.5797495295952328  0.4359159387240690  0.0859278500290608   T   T   T
  0.7464115761758017  0.4359247956210308  0.0859390077063421   T   T   T
  0.9130665798079867  0.4359315173588914  0.0859108173454001   T   T   T
  0.6631198363129392  0.0609250149211325  0.1131274927795810   T   T   T
  0.8297345109622297  0.0608863031872755  0.1130865965543863   T   T   T
  0.9964654465370181  0.0608050180766854  0.1129837575640855   T   T   T
  0.6631322263490232  0.3108844630374765  0.1131404738961512   T   T   T
  0.8298534634302469  0.3108408282941728  0.1130835100086922   T   T   T
  0.9965407847543020  0.3108644993701812  0.1129970751247783   T   T   T
  0.9963368122063537  0.5631481100064318  0.0605236491657518   T   T   T
  0.6630437803910328  0.5631358465627779  0.0605629274084184   T   T   T
  0.8296661941862944  0.5631279594159986  0.0605579969871614   T   T   T
  0.9962649527049996  0.8131433272624981  0.0605213808497543   T   T   T
  0.6629620896249883  0.8131566814921000  0.0605729270708900   T   T   T
  0.8295923641068190  0.8131506165988180  0.0605498342805630   T   T   T
  0.5798993564594311  0.6858947295698068  0.1394540741487335   T   T   T
  0.7465370896970753  0.6859183709717234  0.1394554120178738   T   T   T
  0.9132002308977278  0.6858501819511280  0.1394399643961229   T   T   T
  0.5800456552656050  0.9360445154887150  0.1394743168044952   T   T   T
  0.7465330149119660  0.9358979794111700  0.1394591541181865   T   T   T
  0.9131678053094368  0.9359728673471169  0.1394255662060448   T   T   T
  0.6633275574446245  0.5610034420958899  0.1665888430496807   T   T   T
  0.8299038455867890  0.5609610217989104  0.1665832907588642   T   T   T
  0.9966971698843886  0.5610262060518290  0.1665467576412626   T   T   T
  0.6633518698418730  0.8109979290582384  0.1666191131191992   T   T   T
  0.8300024664224837  0.8109956645663011  0.1665810215159252   T   T   T
  0.9966595207947240  0.8109588689855649  0.1665676580040431   T   T   T
  0.5802454311555046  0.6881137190420461  0.1919767718531930   T   T   T
  0.7469464967790213  0.6882251006129431  0.1919942413083385   T   T   T
  0.9135595194114333  0.6880980747511611  0.1919514637497887   T   T   T
  0.5802772953076587  0.9381889182231689  0.1919973283160331   T   T   T
  0.7469650374912605  0.9381589560583140  0.1919966852506894   T   T   T
  0.9135917696445826  0.9381556854352678  0.1919389218013385   T   T   T
  0.5797463297945800  0.6859224863049604  0.0859319981798021   T   T   T
  0.7463882132399059  0.6859290865982530  0.0859362592008049   T   T   T
  0.9130374511508601  0.6859300102099012  0.0859249209998940   T   T   T
  0.5797861858150268  0.9359976913609175  0.0859362706812520   T   T   T
  0.7464076795886816  0.9359564577930267  0.0859390360426291   T   T   T
  0.9130463776220329  0.9359585100132198  0.0859137247314204   T   T   T
  0.6631210114326426  0.5608096351221026  0.1130796589473756   T   T   T
  0.8297552104061895  0.5608233322962511  0.1130738175551497   T   T   T
  0.9964603100945838  0.5608445284914907  0.1130363649459810   T   T   T
  0.6631490191358025  0.8108651381707653  0.1130872698330148   T   T   T
  0.8298108093007656  0.8108482699485947  0.1130733890712165   T   T   T
  0.9964876907443863  0.8108335310713688  0.1130521496608146   T   T   T
  0.0381487634438568  0.1763743412289595  0.0267373803596130   T   T   T
  0.2044536708601550  0.1764110517166425  0.0268137636223437   T   T   T
  0.3711401175575029  0.1763393987511852  0.0267850705583886   T   T   T
  0.0378832939333093  0.4264420207382934  0.0267339034813268   T   T   T
  0.2042111219651230  0.4263694029751421  0.0267849445081724   T   T   T
  0.3708397217069063  0.4263431290265309  0.0267842130014322   T   T   T
  0.1619792645142254  0.0268594778978680  0.0449824410011403   T   T   T
  0.3285813490925206  0.0268798823880974  0.0449882016429279   T   T   T
  0.4953245757692504  0.0269215457339439  0.0450039930735447   T   T   T
  0.1618026820370423  0.2769568480589050  0.0449837969603275   T   T   T
  0.3284526533221240  0.2769548248821312  0.0449908146362942   T   T   T
  0.4951433635934709  0.2769523584083843  0.0449959342560384   T   T   T
  0.4146334157684031  0.4019592889228501  0.2074903455781075   T   T   T
  0.4145257254989879  0.1516724869344288  0.2074355819067808   T   T   T
  0.0814483208653230  0.1517066300448787  0.2074058747325534   T   T   T
  0.2480198358875453  0.1518167819878133  0.2074813301664008   T   T   T
  0.0813134459599334  0.4018324430016542  0.2074984320262751   T   T   T
  0.2479079787792179  0.4018675810140159  0.2074873076538797   T   T   T
  0.0392196640119281  0.0512532916707473  0.2257194277249336   T   T   T
  0.2059450665864784  0.0512442436822613  0.2257431105405993   T   T   T
  0.3727086812957152  0.0513000563003109  0.2257111438736643   T   T   T
  0.0343855450365337  0.3010317324938083  0.2264048547813290   T   T   T
  0.2055116884020007  0.3013290798184243  0.2258122736088914   T   T   T
  0.3733133193200974  0.3010901380126967  0.2256675391590095   T   T   T
  0.0379731616568678  0.6764105193822272  0.0267860920709619   T   T   T
  0.2045575063841794  0.6763717699831708  0.0268113721672055   T   T   T
  0.3712267367215764  0.6763356032677029  0.0268111514523818   T   T   T
  0.0377412129090399  0.9263620136491721  0.0267554317754383   T   T   T
  0.2042110362920711  0.9263217806799946  0.0267784739245412   T   T   T
  0.3709760300985875  0.9263422922053539  0.0267781589325142   T   T   T
  0.1619179957634681  0.5269127114330200  0.0450150816522093   T   T   T
  0.3286342841998255  0.5269067650034455  0.0450189318400297   T   T   T
  0.4952922842514993  0.5268992450958385  0.0450217096435468   T   T   T
  0.1618141953662881  0.7768675853135487  0.0449904536343287   T   T   T
  0.3285015306970279  0.7769019255885984  0.0449909707816014   T   T   T
  0.4952298979907293  0.7769311250271704  0.0450197128518339   T   T   T
  0.4146245636449220  0.9019035689999693  0.2074738620511341   T   T   T
  0.4146551079252683  0.6519293044990707  0.2074752550464679   T   T   T
  0.0813702920222247  0.6519497060937762  0.2074806595663052   T   T   T
  0.2480751337244497  0.6520156123935199  0.2075132178753838   T   T   T
  0.0813622040953752  0.9018672400705058  0.2074599839965051   T   T   T
  0.2480440358291991  0.9018643931402273  0.2074717781638093   T   T   T
  0.0388320215641876  0.5522883044111765  0.2257278676616863   T   T   T
  0.2057841357578071  0.5522568852208807  0.2256319287780827   T   T   T
  0.3723426488790055  0.5519144525074556  0.2257097124937352   T   T   T
  0.0390744762859762  0.8014361877874140  0.2257714586355208   T   T   T
  0.2054677537889258  0.8016920487382021  0.2258320470502668   T   T   T
  0.3731852027333327  0.8012418394926618  0.2257008550765861   T   T   T
  0.5382333128372847  0.1763503865712665  0.0267756796548523   T   T   T
  0.7043922712132127  0.1764524017886303  0.0269078758209170   T   T   T
  0.8709903011886899  0.1763479336421033  0.0267689103826293   T   T   T
  0.5380872839029871  0.4263589085753809  0.0267784366897870   T   T   T
  0.7041457200288807  0.4263056589030997  0.0268285422256981   T   T   T
  0.8706670683400518  0.4263460435059019  0.0267877777623475   T   T   T
  0.6620647078621299  0.0269306326692810  0.0450892159035939   T   T   T
  0.8283249939639380  0.0269238345992371  0.0450500923302639   T   T   T
  0.9952653332669361  0.0269002762666441  0.0449545305166878   T   T   T
  0.6617910166189923  0.2768258223792347  0.0451082468262144   T   T   T
  0.8284008434212212  0.2769039377161465  0.0450439697000962   T   T   T
  0.9951266589047603  0.2770198598257416  0.0449532705694850   T   T   T
  0.9144710564811679  0.4026044440941434  0.2074622411356169   T   T   T
  0.9153493311721774  0.1507537886916611  0.2070279921869769   T   T   T
  0.5808213472954046  0.1515249067374826  0.2073895932936846   T   T   T
  0.7485007829300121  0.1530956186702380  0.2081199737956822   T   T   T
  0.5810244400277620  0.4021777826522667  0.2074773887860383   T   T   T
  0.7469618164888385  0.4018199122429602  0.2075179311790405   T   T   T
  0.5389285904919502  0.0515556301391993  0.2257908002264012   T   T   T
  0.7063345478571273  0.0507951828554925  0.2259201550097459   T   T   T
  0.8730140879285264  0.0510963439907876  0.2258086083531548   T   T   T
  0.5414026658799822  0.3009239107566862  0.2248094530548976   T   T   T
  0.6894114115991776  0.3095151973339984  0.2290788094674907   T   T   T
  0.8912303132771989  0.2945167759840563  0.2230243364855492   T   T   T
  0.7736356755754941  0.3058714629114822  0.2739091834937182   T   T   T
  0.7470283811145073  0.2381759538428229  0.2931984971201272   T   T   T
  0.7864812504366419  0.3199289175293407  0.3029927646892694   T   T   T
  0.6578732376282387  0.1954862143936041  0.3098353971844104   T   T   T
  0.7103596110904917  0.1302540528564896  0.3022257768186115   T   T   T
  0.8251058584798228  0.3663755028558094  0.3337233964570828   T   T   T
  0.7418498056659272  0.3761397203484244  0.3308522741147977   T   T   T
  0.7593947941800812  0.3958194083773041  0.2519141946144124   T   T   T
  0.7931658405236547  0.3236689457120983  0.2388243518211899   T   T   T
  0.5380795197397813  0.6763885258326030  0.0268001099226232   T   T   T
  0.7045614513292557  0.6763777409023082  0.0268387861019029   T   T   T
  0.8710341069174488  0.6763583262386330  0.0268202001092591   T   T   T
  0.5379110224353286  0.9263852399797090  0.0267930690596364   T   T   T
  0.7041746701538452  0.9263460538143082  0.0268170700862829   T   T   T
  0.8707902988159293  0.9263937161042149  0.0267942272551196   T   T   T
  0.6619452148777437  0.5268953360997756  0.0450441773087742   T   T   T
  0.8285447955084861  0.5268932098759139  0.0450394177114364   T   T   T
  0.9952109801130657  0.5269103932078376  0.0450055564683310   T   T   T
  0.6617930895019799  0.7769420295656692  0.0450479320539151   T   T   T
  0.8283760362543032  0.7769210905713531  0.0450285244303929   T   T   T
  0.9950347672687759  0.7768930148146634  0.0450051560352137   T   T   T
  0.9147135629740056  0.9020082075848667  0.2074756482814978   T   T   T
  0.9147264379666147  0.6519703478493126  0.2074918175946669   T   T   T
  0.5813298207684708  0.6519274853679373  0.2075051912097106   T   T   T
  0.7481896288403015  0.6521078783040225  0.2075344295549055   T   T   T
  0.5813203889244397  0.9020216095217810  0.2075297579818702   T   T   T
  0.7481381682360385  0.9019634396551917  0.2075235689149100   T   T   T
  0.5386137290690303  0.5523220541389104  0.2257405796096190   T   T   T
  0.7059484064456811  0.5536719329459224  0.2254261263829005   T   T   T
  0.8722638653851091  0.5524899839493214  0.2256736876262148   T   T   T
  0.5391874640098028  0.8014280544558223  0.2257775602112347   T   T   T
  0.7055776339935521  0.8017206734258285  0.2258515058293425   T   T   T
  0.8732565802861294  0.8012406795457513  0.2257029475391009   T   T   T
  0.0846413382172414  0.1673964093136546  0.0341332730100522   T   T   T
  0.2510694439862773  0.1674934806578611  0.0341625749012983   T   T   T
  0.4177305009157734  0.1674053259447415  0.0341438747294306   T   T   T
  0.0843566641450191  0.4176823357594597  0.0341777658237783   T   T   T
  0.2508045649273433  0.4176488099643473  0.0341624346198055   T   T   T
  0.4174191223097460  0.4176477488460252  0.0341688491380032   T   T   T
  0.1595261025843601  0.0422130673470504  0.2183152408830303   T   T   T
  0.3262271776911187  0.0421062322487636  0.2183460142932952   T   T   T
  0.4926681754882227  0.0424323701546577  0.2182840341263063   T   T   T
  0.1593470849904982  0.2923524426593991  0.2182431924654349   T   T   T
  0.3267171788335317  0.2924685466883659  0.2183107791209414   T   T   T
  0.4933423104059867  0.2917117078262306  0.2183809991710280   T   T   T
  0.0845014045286111  0.6675215653262567  0.0341759308931111   T   T   T
  0.2511556011556844  0.6674283027858262  0.0341632265968526   T   T   T
  0.4178213901812883  0.6674688023923724  0.0341761404679020   T   T   T
  0.0842857948984868  0.9173573710670971  0.0341315447647591   T   T   T
  0.2508005272767788  0.9174717782756993  0.0341427194635392   T   T   T
  0.4175645851329594  0.9174848627320099  0.0341458510488613   T   T   T
  0.1593814521912605  0.5423815896036774  0.2182991852844375   T   T   T
  0.3260236927095844  0.5425276745939850  0.2182653685863455   T   T   T
  0.4924528142982784  0.5426540690264021  0.2182369148654881   T   T   T
  0.1592892024347260  0.7925189357099811  0.2182833720665076   T   T   T
  0.3266626665004650  0.7927354985494607  0.2182727755472225   T   T   T
  0.4927997235369251  0.7922229781472238  0.2183542619724411   T   T   T
  0.5847088636931470  0.1673203584431037  0.0341848072692956   T   T   T
  0.7509978492232876  0.1676459868971699  0.0342695316435225   T   T   T
  0.9176039203957107  0.1671506470921311  0.0340815186549861   T   T   T
  0.5845821503563343  0.4174793395312553  0.0341901323185077   T   T   T
  0.7507486721960316  0.4173957351771584  0.0341825385007841   T   T   T
  0.9172319717400079  0.4176926166327405  0.0341843585867782   T   T   T
  0.6598521739901190  0.0421939791085791  0.2185001438558946   T   T   T
  0.8265480893681296  0.0425676401500688  0.2183517256963894   T   T   T
  0.9929207849697892  0.0426045208698720  0.2181854638293027   T   T   T
  0.6510551591984529  0.2928644265508560  0.2184661036791862   T   T   T
  0.8400063800583869  0.2917980012629308  0.2183793852804519   T   T   T
  0.9899774066989635  0.2911255394153720  0.2179172889355363   T   T   T
  0.7858565074603886  0.2799336951177553  0.2895785384050452   T   T   T
  0.6906743872247314  0.1796004566674061  0.2976044638806853   T   T   T
  0.7873352815015124  0.3763269328187334  0.3224314631610216   T   T   T
  0.7560070625515871  0.3403234549234430  0.2506306999419942   T   T   T
  0.5845990199844929  0.6674340042787332  0.0341925374712572   T   T   T
  0.7511461286959659  0.6673954013249420  0.0341869360536080   T   T   T
  0.9176333258700324  0.6674523578855778  0.0341751719184331   T   T   T
  0.5844492684312429  0.9175790850711742  0.0341881741060561   T   T   T
  0.7507798553527401  0.9175795936275448  0.0341816782974485   T   T   T
  0.9173633619272950  0.9175758361980680  0.0341703386249256   T   T   T
  0.6595023973720743  0.5422275151048187  0.2183300722734970   T   T   T
  0.8260364661664588  0.5422540607503911  0.2182812173701347   T   T   T
  0.9926360650601042  0.5426441678238767  0.2182371723826281   T   T   T
  0.6593479127781748  0.7925423700313238  0.2183324425785249   T   T   T
  0.8267279579869503  0.7926423170626246  0.2182964000435780   T   T   T
  0.9927314356234598  0.7923147408086669  0.2183178394077930   T   T   T
  0.2464471164718266  0.1218436075738694  0.0597022996241825   T   T   T
  0.4131011556642674  0.1218482007037812  0.0596999027598416   T   T   T
  0.0797200806335489  0.3719062406269770  0.0596939510193761   T   T   T
  0.2463543964160397  0.3718999363578940  0.0596972752052685   T   T   T
  0.4130167525603125  0.3719047387616115  0.0597015581457712   T   T   T
  0.0798103562884531  0.1218132080925671  0.0596790418859391   T   T   T
  0.4965425106660759  0.4984136619398162  0.1397058323499871   T   T   T
  0.1632923985942875  0.4984051070836178  0.1396906243147194   T   T   T
  0.3299142474972120  0.4983976507144097  0.1396972871003395   T   T   T
  0.4965649821998885  0.2483509015927734  0.1396998916249957   T   T   T
  0.1633383566770216  0.2483257502324595  0.1396682454836387   T   T   T
  0.3299541159479806  0.2483282076648240  0.1396870649512426   T   T   T
  0.0801928031230858  0.1228744582661665  0.1659637783324190   T   T   T
  0.2467211474016088  0.1231183038943057  0.1660522026406701   T   T   T
  0.4133012212927263  0.1230210621857856  0.1660306884723936   T   T   T
  0.0801142772385627  0.3731604543422928  0.1660356340425775   T   T   T
  0.2466686008757784  0.3731319286692574  0.1660469304858795   T   T   T
  0.4132579237106156  0.3731401994036516  0.1660605384005776   T   T   T
  0.1634936109468184  0.4967875734458250  0.1927533776422470   T   T   T
  0.3301248028156618  0.4967904241479159  0.1927437666491217   T   T   T
  0.4966954264767409  0.4969499989374873  0.1927226346752747   T   T   T
  0.1637159276863854  0.2468227897822098  0.1927267055934374   T   T   T
  0.4967081088699675  0.2465612815875549  0.1927366879239915   T   T   T
  0.3302724250742698  0.2467991305888138  0.1927588529886199   T   T   T
  0.4964377021987110  0.4981040441905735  0.0864347947060734   T   T   T
  0.1631104784224775  0.4981332390738568  0.0864140936129424   T   T   T
  0.3297642942359905  0.4981219824560281  0.0864231606789417   T   T   T
  0.4964280546093656  0.2481441500066843  0.0864185505267725   T   T   T
  0.1631306352969813  0.2481174809747562  0.0863984649349271   T   T   T
  0.3297807528083421  0.2481212220107884  0.0864039200983887   T   T   T
  0.0797621801935434  0.1233073629754983  0.1127326745958811   T   T   T
  0.2464172298251497  0.1233319199205423  0.1127675549963258   T   T   T
  0.4130858114689885  0.1233337558114853  0.1127695010704713   T   T   T
  0.0798733678496371  0.3733655413913706  0.1127592497725234   T   T   T
  0.2465047623309121  0.3733463905560137  0.1127734145312347   T   T   T
  0.4131429114856608  0.3733519765487874  0.1127849590384076   T   T   T
  0.2464499381185038  0.6218475701828912  0.0597212106688201   T   T   T
  0.4131272008003574  0.6218431377957456  0.0597254746589270   T   T   T
  0.0796979652427227  0.8718221382264073  0.0596949502382492   T   T   T
  0.2463509925784982  0.8718329905010920  0.0596939493337864   T   T   T
  0.4130417941590947  0.8718619203312091  0.0597000115538194   T   T   T
  0.0797614697730412  0.6218564167157224  0.0597212116324100   T   T   T
  0.4965983052044624  0.9983407571670972  0.1396879901241562   T   T   T
  0.1633520941214711  0.9982588133718630  0.1396446469664642   T   T   T
  0.3299510277599734  0.9983034445447396  0.1396682565518196   T   T   T
  0.4965952547581377  0.7484129901395512  0.1397126283253435   T   T   T
  0.1632847597446280  0.7483714670644420  0.1396886183677256   T   T   T
  0.3299312626651248  0.7483790851831814  0.1396890793637351   T   T   T
  0.0799836997326080  0.6232032851481525  0.1660563016289660   T   T   T
  0.2466230094009343  0.6231749902914652  0.1660761899695762   T   T   T
  0.4132380170471706  0.6232119708242563  0.1660611397484388   T   T   T
  0.0800239394738158  0.8730825318053711  0.1660326533491855   T   T   T
  0.2466840108544004  0.8731138808268496  0.1660449154277894   T   T   T
  0.4133411306022515  0.8731364442009093  0.1660534576549141   T   T   T
  0.1635615615407541  0.9967256219937757  0.1927380074721241   T   T   T
  0.3301980774628629  0.9967444204161369  0.1927439837278223   T   T   T
  0.4968466570194017  0.9967912443795791  0.1927436048524414   T   T   T
  0.1635475452530095  0.7468468929385137  0.1927511426048358   T   T   T
  0.4968721325311078  0.7468166530047934  0.1927706828485333   T   T   T
  0.3302595852112517  0.7469100793568457  0.1927584261798346   T   T   T
  0.4964491114046584  0.9981382473943202  0.0864171556134553   T   T   T
  0.1631437313664063  0.9980885944652921  0.0863925367536472   T   T   T
  0.3297909296696304  0.9981034445600806  0.0863974508377546   T   T   T
  0.4964688396229812  0.7481462257168174  0.0864347187634942   T   T   T
  0.1631300439762542  0.7480984226764587  0.0864068182813024   T   T   T
  0.3297914348277026  0.7481182495474793  0.0864071347499792   T   T   T
  0.0797626407151120  0.6233691396012054  0.1127832742634054   T   T   T
  0.2464308463353450  0.6233528208690561  0.1127900909198185   T   T   T
  0.4130973569222149  0.6233633268847403  0.1127886193758416   T   T   T
  0.0798763032038231  0.8732321358890976  0.1127409996669653   T   T   T
  0.2465071016814980  0.8732967860967682  0.1127612056595349   T   T   T
  0.4131444801724401  0.8733349205942798  0.1127751453435950   T   T   T
  0.7463973662531331  0.1219355277266443  0.0598083760936050   T   T   T
  0.9130560547869663  0.1218025979191127  0.0596715820606321   T   T   T
  0.5797532167477456  0.3718535604182650  0.0597414864369347   T   T   T
  0.7463309995589777  0.3718422607260615  0.0597494372043563   T   T   T
  0.9129861244749544  0.3718825722112943  0.0597117407658590   T   T   T
  0.5798047216474811  0.1218602162206063  0.0597470108025194   T   T   T
  0.9966587183758284  0.4984348210276182  0.1396794266570045   T   T   T
  0.6632345077233600  0.4983454739529350  0.1397220956850067   T   T   T
  0.8298990855915515  0.4983609191930965  0.1397073747742455   T   T   T
  0.9966995825736451  0.2482385486916875  0.1395731718104938   T   T   T
  0.6631452513861148  0.2484911514738717  0.1398467062168311   T   T   T
  0.8300422017606650  0.2482771568808142  0.1396917774832880   T   T   T
  0.5799296658240631  0.1230638075328372  0.1660573955070321   T   T   T
  0.7466966333887765  0.1239683041968233  0.1664396498732268   T   T   T
  0.9136531660906766  0.1223578333212825  0.1657659753688777   T   T   T
  0.5798091511961453  0.3732619602493880  0.1661064810994716   T   T   T
  0.7465717883740075  0.3729787972116398  0.1660940017266087   T   T   T
  0.9135237517185587  0.3732933164581752  0.1660304597928871   T   T   T
  0.6633669409558873  0.4969169121873527  0.1927415111809114   T   T   T
  0.8302268139910030  0.4968453083857116  0.1927197386342061   T   T   T
  0.9969418531146749  0.4969799951288338  0.1927117607985054   T   T   T
  0.6625447080437763  0.2476474200293926  0.1932312438709857   T   T   T
  0.9971422739170765  0.2458625843780725  0.1923065295999797   T   T   T
  0.8317647098964031  0.2463016489345142  0.1925458808219970   T   T   T
  0.9964379442598826  0.4981174615260954  0.0864118098645157   T   T   T
  0.6631006383479520  0.4981089078507537  0.0864451466730668   T   T   T
  0.8297569774294499  0.4981168578137962  0.0864383702675949   T   T   T
  0.9964793851501740  0.2481090202921817  0.0863723743672882   T   T   T
  0.6630622639269672  0.2481467595252912  0.0865079179855203   T   T   T
  0.8297715575313577  0.2481152605906704  0.0864404340421841   T   T   T
  0.5797362094404878  0.1233890158292397  0.1128069960359500   T   T   T
  0.7464040936378323  0.1234029750964396  0.1129164680941982   T   T   T
  0.9130796393481062  0.1232913379010254  0.1126914841533230   T   T   T