C H O Si                                
   1.00000000000000     
     9.2874599999999994    0.0000000000000000    0.0000000000000000
     0.0000000000000000    8.7562999999999995    0.0000000000000000
     0.0000000000000000    0.0000000000000000   58.0000000000000000
   C    H    O    Si
    36    24    12    36
Selective dynamics
Direct
  0.0006612509137214  0.1357668523954527  0.4342216751993667   T   T   T
  0.0006612509137214  0.6357668523954527  0.4342216751993667   T   T   T
  0.3339945842467231  0.1357668523954527  0.4342216751993667   T   T   T
  0.3339945842467231  0.6357668523954527  0.4342216751993667   T   T   T
  0.6673279175807196  0.1357668523954527  0.4342216751993667   T   T   T
  0.6673279175807196  0.6357668523954527  0.4342216751993667   T   T   T
  0.1676557899764903  0.3823497265017609  0.4596224012286093   T   T   T
  0.1676557899764903  0.8823497265017610  0.4596224012286093   T   T   T
  0.5009891233104870  0.3823497265017609  0.4596224012286093   T   T   T
  0.5009891233104870  0.8823497265017610  0.4596224012286093   T   T   T
  0.8343224566434887  0.3823497265017609  0.4596224012286093   T   T   T
  0.8343224566434887  0.8823497265017610  0.4596224012286093   T   T   T
  0.0010890856060840  0.1321173450040213  0.4868103548750466   T   T   T
  0.0010890856060840  0.6321173450040213  0.4868103548750466   T   T   T
  0.3344224189390858  0.1321173450040213  0.4868103548750466   T   T   T
  0.3344224189390858  0.6321173450040213  0.4868103548750466   T   T   T
  0.6677557522730895  0.1321173450040213  0.4868103548750466   T   T   T
  0.6677557522730895  0.6321173450040213  0.4868103548750466   T   T   T
  0.1677558408040853  0.3821175138130166  0.5131896451249535   T   T   T
  0.1677558408040853  0.8821175138130165  0.5131896451249535   T   T   T
  0.5010891741380890  0.3821175138130166  0.5131896451249535   T   T   T
  0.5010891741380890  0.8821175138130165  0.5131896451249535   T   T   T
  0.8344225074710907  0.3821175138130166  0.5131896451249535   T   T   T
  0.8344225074710907  0.8821175138130165  0.5131896451249535   T   T   T
  0.0009890347784891  0.1323495576927657  0.5403775987713907   T   T   T
  0.0009890347784891  0.6323495576927658  0.5403775987713907   T   T   T
  0.3343223681114837  0.1323495576927657  0.5403775987713907   T   T   T
  0.3343223681114837  0.6323495576927658  0.5403775987713907   T   T   T
  0.6676557014454875  0.1323495576927657  0.5403775987713907   T   T   T
  0.6676557014454875  0.6323495576927658  0.5403775987713907   T   T   T
  0.1673280061117297  0.3857670212044479  0.5657783248006405   T   T   T
  0.1673280061117297  0.8857670212044479  0.5657783248006405   T   T   T
  0.5006613394457191  0.3857670212044479  0.5657783248006405   T   T   T
  0.5006613394457191  0.8857670212044479  0.5657783248006405   T   T   T
  0.8339946727787209  0.3857670212044479  0.5657783248006405   T   T   T
  0.8339946727787209  0.8857670212044479  0.5657783248006405   T   T   T
  0.0032833326287436  0.0622774383247934  0.4188298533957973   T   T   T
  0.0032833326287436  0.5622774383247934  0.4188298533957973   T   T   T
  0.3366166659627472  0.0622774383247934  0.4188298533957973   T   T   T
  0.3366166659627472  0.5622774383247934  0.4188298533957973   T   T   T
  0.6699499992957489  0.0622774383247934  0.4188298533957973   T   T   T
  0.6699499992957489  0.5622774383247934  0.4188298533957973   T   T   T
  0.1699502511727464  0.3122776071337958  0.5811701466042029   T   T   T
  0.1699502511727464  0.8122776071337957  0.5811701466042029   T   T   T
  0.5032835845067429  0.3122776071337958  0.5811701466042029   T   T   T
  0.5032835845067429  0.8122776071337957  0.5811701466042029   T   T   T
  0.8366169178397447  0.3122776071337958  0.5811701466042029   T   T   T
  0.8366169178397447  0.8122776071337957  0.5811701466042029   T   T   T
  0.0902177397808109  0.1174298927817322  0.5978992633326891   T   T   T
  0.0902177397808109  0.6174298927817251  0.5978992633326891   T   T   T
  0.4235510731138126  0.1174298927817322  0.5978992633326891   T   T   T
  0.4235510731138126  0.6174298927817251  0.5978992633326891   T   T   T
  0.7568844064468073  0.1174298927817322  0.5978992633326891   T   T   T
  0.7568844064468073  0.6174298927817251  0.5978992633326891   T   T   T
  0.2568843758948126  0.3674301372187291  0.4021007366673111   T   T   T
  0.2568843758948126  0.8674301372187220  0.4021007366673111   T   T   T
  0.5902177092278073  0.3674301372187291  0.4021007366673111   T   T   T
  0.5902177092278073  0.8674301372187220  0.4021007366673111   T   T   T
  0.9235510425608090  0.3674301372187291  0.4021007366673111   T   T   T
  0.9235510425608090  0.8674301372187220  0.4021007366673111   T   T   T
  0.1602670870867385  0.3403839616840268  0.4074083697525735   T   T   T
  0.1602670870867385  0.8403839616840266  0.4074083697525735   T   T   T
  0.4936004204207350  0.3403839616840268  0.4074083697525735   T   T   T
  0.4936004204207350  0.8403839616840266  0.4074083697525735   T   T   T
  0.8269337537537367  0.3403839616840268  0.4074083697525735   T   T   T
  0.8269337537537367  0.8403839616840266  0.4074083697525735   T   T   T
  0.9936004005537398  0.0903837928750244  0.5925916302474266   T   T   T
  0.9936004005537398  0.5903837928750243  0.5925916302474266   T   T   T
  0.3269337338877364  0.0903837928750244  0.5925916302474266   T   T   T
  0.3269337338877364  0.5903837928750243  0.5925916302474266   T   T   T
  0.6602670672207380  0.0903837928750244  0.5925916302474266   T   T   T
  0.6602670672207380  0.5903837928750243  0.5925916302474266   T   T   T
  0.1670684099412523  0.2529321806677799  0.4338964614965816   T   T   T
  0.1670684099412523  0.7529321806677798  0.4338964614965816   T   T   T
  0.5004017432752488  0.2529321806677799  0.4338964614965816   T   T   T
  0.5004017432752488  0.7529321806677798  0.4338964614965816   T   T   T
  0.8337350766082505  0.2529321806677799  0.4338964614965816   T   T   T
  0.8337350766082505  0.7529321806677798  0.4338964614965816   T   T   T
  0.0009800514759323  0.0061636345204378  0.4604364134484109   T   T   T
  0.0009800514759323  0.5061636345204378  0.4604364134484109   T   T   T
  0.3343133848089340  0.0061636345204378  0.4604364134484109   T   T   T
  0.3343133848089340  0.5061636345204378  0.4604364134484109   T   T   T
  0.6676467181429306  0.0061636345204378  0.4604364134484109   T   T   T
  0.6676467181429306  0.5061636345204378  0.4604364134484109   T   T   T
  0.1677539187852375  0.2565177606450098  0.4866354097907905   T   T   T
  0.1677539187852375  0.7565177606450099  0.4866354097907905   T   T   T
  0.5010872521192342  0.2565177606450098  0.4866354097907905   T   T   T
  0.5010872521192342  0.7565177606450099  0.4866354097907905   T   T   T
  0.8344205854522360  0.2565177606450098  0.4866354097907905   T   T   T
  0.8344205854522360  0.7565177606450099  0.4866354097907905   T   T   T
  0.0010871635872364  0.0065175918350127  0.5133645902092095   T   T   T
  0.0010871635872364  0.5065175918350128  0.5133645902092095   T   T   T
  0.3344204969202381  0.0065175918350127  0.5133645902092095   T   T   T
  0.3344204969202381  0.5065175918350128  0.5133645902092095   T   T   T
  0.6677538302542347  0.0065175918350127  0.5133645902092095   T   T   T
  0.6677538302542347  0.5065175918350128  0.5133645902092095   T   T   T
  0.1676468066739335  0.2561638033304348  0.5395635865515894   T   T   T
  0.1676468066739335  0.7561638033304349  0.5395635865515894   T   T   T
  0.5009801400079301  0.2561638033304348  0.5395635865515894   T   T   T
  0.5009801400079301  0.7561638033304349  0.5395635865515894   T   T   T
  0.8343134733409319  0.2561638033304348  0.5395635865515894   T   T   T
  0.8343134733409319  0.7561638033304349  0.5395635865515894   T   T   T
  0.0004016547432510  0.0029320118577827  0.5661035385034185   T   T   T
  0.0004016547432510  0.5029320118577827  0.5661035385034185   T   T   T
  0.3337349880762527  0.0029320118577827  0.5661035385034185   T   T   T
  0.3337349880762527  0.5029320118577827  0.5661035385034185   T   T   T
  0.6670683214102493  0.0029320118577827  0.5661035385034185   T   T   T
  0.6670683214102493  0.5029320118577827  0.5661035385034185   T   T   T
 
  0.00000000E+00  0.00000000E+00  0.00000000E+00
  0.00000000E+00  0.00000000E+00  0.00000000E+00
  0.00000000E+00  0.00000000E+00  0.00000000E+00
  0.00000000E+00  0.00000000E+00  0.00000000E+00
  0.00000000E+00  0.00000000E+00  0.00000000E+00
  0.00000000E+00  0.00000000E+00  0.00000000E+00
  0.00000000E+00  0.00000000E+00  0.00000000E+00
  0.00000000E+00  0.00000000E+00  0.00000000E+00
  0.00000000E+00  0.00000000E+00  0.00000000E+00
  0.00000000E+00  0.00000000E+00  0.00000000E+00
  0.00000000E+00  0.00000000E+00  0.00000000E+00
  0.00000000E+00  0.00000000E+00  0.00000000E+00
  0.00000000E+00  0.00000000E+00  0.00000000E+00
  0.00000000E+00  0.00000000E+00  0.00000000E+00
  0.00000000E+00  0.00000000E+00  0.00000000E+00
  0.00000000E+00  0.00000000E+00  0.00000000E+00
  0.00000000E+00  0.00000000E+00  0.00000000E+00
  0.00000000E+00  0.00000000E+00  0.00000000E+00
  0.00000000E+00  0.00000000E+00  0.00000000E+00
  0.00000000E+00  0.00000000E+00  0.00000000E+00
  0.00000000E+00  0.00000000E+00  0.00000000E+00
  0.00000000E+00  0.00000000E+00  0.00000000E+00
  0.00000000E+00  0.00000000E+00  0.00000000E+00
  0.00000000E+00  0.00000000E+00  0.00000000E+00
  0.00000000E+00  0.00000000E+00  0.00000000E+00
  0.00000000E+00  0.00000000E+00  0.00000000E+00
  0.00000000E+00  0.00000000E+00  0.00000000E+00
  0.00000000E+00  0.00000000E+00  0.00000000E+00
  0.00000000E+00  0.00000000E+00  0.00000000E+00
  0.00000000E+00  0.00000000E+00  0.00000000E+00
  0.00000000E+00  0.00000000E+00  0.00000000E+00
  0.00000000E+00  0.00000000E+00  0.00000000E+00
  0.00000000E+00  0.00000000E+00  0.00000000E+00
  0.00000000E+00  0.00000000E+00  0.00000000E+00
  0.00000000E+00  0.00000000E+00  0.00000000E+00
  0.00000000E+00  0.00000000E+00  0.00000000E+00
  0.00000000E+00  0.00000000E+00  0.00000000E+00
  0.00000000E+00  0.00000000E+00  0.00000000E+00
  0.00000000E+00  0.00000000E+00  0.00000000E+00
  0.00000000E+00  0.00000000E+00  0.00000000E+00
  0.00000000E+00  0.00000000E+00  0.00000000E+00
  0.00000000E+00  0.00000000E+00  0.00000000E+00
  0.00000000E+00  0.00000000E+00  0.00000000E+00
  0.00000000E+00  0.00000000E+00  0.00000000E+00
  0.00000000E+00  0.00000000E+00  0.00000000E+00
  0.00000000E+00  0.00000000E+00  0.00000000E+00
  0.00000000E+00  0.00000000E+00  0.00000000E+00
  0.00000000E+00  0.00000000E+00  0.00000000E+00
  0.00000000E+00  0.00000000E+00  0.00000000E+00
  0.00000000E+00  0.00000000E+00  0.00000000E+00
  0.00000000E+00  0.00000000E+00  0.00000000E+00
  0.00000000E+00  0.00000000E+00  0.00000000E+00
  0.00000000E+00  0.00000000E+00  0.00000000E+00
  0.00000000E+00  0.00000000E+00  0.00000000E+00
  0.00000000E+00  0.00000000E+00  0.00000000E+00
  0.00000000E+00  0.00000000E+00  0.00000000E+00
  0.00000000E+00  0.00000000E+00  0.00000000E+00
  0.00000000E+00  0.00000000E+00  0.00000000E+00
  0.00000000E+00  0.00000000E+00  0.00000000E+00
  0.00000000E+00  0.00000000E+00  0.00000000E+00
  0.00000000E+00  0.00000000E+00  0.00000000E+00
  0.00000000E+00  0.00000000E+00  0.00000000E+00
  0.00000000E+00  0.00000000E+00  0.00000000E+00
  0.00000000E+00  0.00000000E+00  0.00000000E+00
  0.00000000E+00  0.00000000E+00  0.00000000E+00
  0.00000000E+00  0.00000000E+00  0.00000000E+00
  0.00000000E+00  0.00000000E+00  0.00000000E+00
  0.00000000E+00  0.00000000E+00  0.00000000E+00
  0.00000000E+00  0.00000000E+00  0.00000000E+00
  0.00000000E+00  0.00000000E+00  0.00000000E+00
  0.00000000E+00  0.00000000E+00  0.00000000E+00
  0.00000000E+00  0.00000000E+00  0.00000000E+00
  0.00000000E+00  0.00000000E+00  0.00000000E+00
  0.00000000E+00  0.00000000E+00  0.00000000E+00
  0.00000000E+00  0.00000000E+00  0.00000000E+00
  0.00000000E+00  0.00000000E+00  0.00000000E+00
  0.00000000E+00  0.00000000E+00  0.00000000E+00
  0.00000000E+00  0.00000000E+00  0.00000000E+00
  0.00000000E+00  0.00000000E+00  0.00000000E+00
  0.00000000E+00  0.00000000E+00  0.00000000E+00
  0.00000000E+00  0.00000000E+00  0.00000000E+00
  0.00000000E+00  0.00000000E+00  0.00000000E+00
  0.00000000E+00  0.00000000E+00  0.00000000E+00
  0.00000000E+00  0.00000000E+00  0.00000000E+00
  0.00000000E+00  0.00000000E+00  0.00000000E+00
  0.00000000E+00  0.00000000E+00  0.00000000E+00
  0.00000000E+00  0.00000000E+00  0.00000000E+00
  0.00000000E+00  0.00000000E+00  0.00000000E+00
  0.00000000E+00  0.00000000E+00  0.00000000E+00
  0.00000000E+00  0.00000000E+00  0.00000000E+00
  0.00000000E+00  0.00000000E+00  0.00000000E+00
  0.00000000E+00  0.00000000E+00  0.00000000E+00
  0.00000000E+00  0.00000000E+00  0.00000000E+00
  0.00000000E+00  0.00000000E+00  0.00000000E+00
  0.00000000E+00  0.00000000E+00  0.00000000E+00
  0.00000000E+00  0.00000000E+00  0.00000000E+00
  0.00000000E+00  0.00000000E+00  0.00000000E+00
  0.00000000E+00  0.00000000E+00  0.00000000E+00
  0.00000000E+00  0.00000000E+00  0.00000000E+00
  0.00000000E+00  0.00000000E+00  0.00000000E+00
  0.00000000E+00  0.00000000E+00  0.00000000E+00
  0.00000000E+00  0.00000000E+00  0.00000000E+00
  0.00000000E+00  0.00000000E+00  0.00000000E+00
  0.00000000E+00  0.00000000E+00  0.00000000E+00
  0.00000000E+00  0.00000000E+00  0.00000000E+00
  0.00000000E+00  0.00000000E+00  0.00000000E+00
  0.00000000E+00  0.00000000E+00  0.00000000E+00
  0.00000000E+00  0.00000000E+00  0.00000000E+00
