C H O Si                                
   1.00000000000000     
     9.2874599999999994    0.0000000000000000    0.0000000000000000
     0.0000000000000000    8.7562999999999995    0.0000000000000000
     0.0000000000000000    0.0000000000000000   58.0000000000000000
   C    H    O    Si
    36    24    12    36
Selective dynamics
Direct
  0.0005514092571669  0.1358574632694919  0.4342269575904980   T   T   T
  0.0005514092571669  0.6358574632694922  0.4342269575904980   T   T   T
  0.3338847425901688  0.1358574632694919  0.4342269575904980   T   T   T
  0.3338847425901688  0.6358574632694922  0.4342269575904980   T   T   T
  0.6672180759241652  0.1358574632694919  0.4342269575904980   T   T   T
  0.6672180759241652  0.6358574632694922  0.4342269575904980   T   T   T
  0.1677291615748503  0.3823996419923023  0.4595777003156060   T   T   T
  0.1677291615748503  0.8823996419923024  0.4595777003156060   T   T   T
  0.5010624949088470  0.3823996419923023  0.4595777003156060   T   T   T
  0.5010624949088470  0.8823996419923024  0.4595777003156060   T   T   T
  0.8343958282418488  0.3823996419923023  0.4595777003156060   T   T   T
  0.8343958282418488  0.8823996419923024  0.4595777003156060   T   T   T
  0.0011966860978243  0.1321543123734837  0.4868044137785987   T   T   T
  0.0011966860978243  0.6321543123734836  0.4868044137785987   T   T   T
  0.3345300194308261  0.1321543123734837  0.4868044137785987   T   T   T
  0.3345300194308261  0.6321543123734836  0.4868044137785987   T   T   T
  0.6678633527648297  0.1321543123734837  0.4868044137785987   T   T   T
  0.6678633527648297  0.6321543123734836  0.4868044137785987   T   T   T
  0.1678634412958255  0.3821544811824790  0.5131955862214013   T   T   T
  0.1678634412958255  0.8821544811824789  0.5131955862214013   T   T   T
  0.5011967746298291  0.3821544811824790  0.5131955862214013   T   T   T
  0.5011967746298291  0.8821544811824789  0.5131955862214013   T   T   T
  0.8345301079628309  0.3821544811824790  0.5131955862214013   T   T   T
  0.8345301079628309  0.8821544811824789  0.5131955862214013   T   T   T
  0.0010624063768492  0.1323994731833070  0.5404222996843937   T   T   T
  0.0010624063768492  0.6323994731833071  0.5404222996843937   T   T   T
  0.3343957397098438  0.1323994731833070  0.5404222996843937   T   T   T
  0.3343957397098438  0.6323994731833071  0.5404222996843937   T   T   T
  0.6677290730438475  0.1323994731833070  0.5404222996843937   T   T   T
  0.6677290730438475  0.6323994731833071  0.5404222996843937   T   T   T
  0.1672181644551752  0.3858576320784872  0.5657730424095091   T   T   T
  0.1672181644551752  0.8858576320784874  0.5657730424095091   T   T   T
  0.5005514977891646  0.3858576320784872  0.5657730424095091   T   T   T
  0.5005514977891646  0.8858576320784874  0.5657730424095091   T   T   T
  0.8338848311221664  0.3858576320784872  0.5657730424095091   T   T   T
  0.8338848311221664  0.8858576320784874  0.5657730424095091   T   T   T
  0.0034246221744187  0.0623389793659126  0.4188361314244132   T   T   T
  0.0034246221744187  0.5623389793659127  0.4188361314244132   T   T   T
  0.3367579555084223  0.0623389793659126  0.4188361314244132   T   T   T
  0.3367579555084223  0.5623389793659127  0.4188361314244132   T   T   T
  0.6700912888414240  0.0623389793659126  0.4188361314244132   T   T   T
  0.6700912888414240  0.5623389793659127  0.4188361314244132   T   T   T
  0.1700915407184215  0.3123391481749150  0.5811638685755869   T   T   T
  0.1700915407184215  0.8123391481749150  0.5811638685755869   T   T   T
  0.5034248740524180  0.3123391481749150  0.5811638685755869   T   T   T
  0.5034248740524180  0.8123391481749150  0.5811638685755869   T   T   T
  0.8367582073854197  0.3123391481749150  0.5811638685755869   T   T   T
  0.8367582073854197  0.8123391481749150  0.5811638685755869   T   T   T
  0.0900115805903330  0.1170541165001159  0.5979793624343828   T   T   T
  0.0900115805903330  0.6170541165001087  0.5979793624343828   T   T   T
  0.4233449139233348  0.1170541165001159  0.5979793624343828   T   T   T
  0.4233449139233348  0.6170541165001088  0.5979793624343828   T   T   T
  0.7566782472563296  0.1170541165001159  0.5979793624343828   T   T   T
  0.7566782472563296  0.6170541165001087  0.5979793624343828   T   T   T
  0.2566782167043348  0.3670543609371129  0.4020206375656173   T   T   T
  0.2566782167043348  0.8670543609371055  0.4020206375656173   T   T   T
  0.5900115500373295  0.3670543609371129  0.4020206375656173   T   T   T
  0.5900115500373295  0.8670543609371055  0.4020206375656173   T   T   T
  0.9233448833703313  0.3670543609371129  0.4020206375656173   T   T   T
  0.9233448833703313  0.8670543609371055  0.4020206375656173   T   T   T
  0.1601708771837987  0.3403518525428408  0.4074261751464367   T   T   T
  0.1601708771837987  0.8403518525428408  0.4074261751464367   T   T   T
  0.4935042105177952  0.3403518525428408  0.4074261751464367   T   T   T
  0.4935042105177952  0.8403518525428408  0.4074261751464367   T   T   T
  0.8268375438507971  0.3403518525428408  0.4074261751464367   T   T   T
  0.8268375438507971  0.8403518525428408  0.4074261751464367   T   T   T
  0.9935041906508002  0.0903516837338385  0.5925738248535632   T   T   T
  0.9935041906508002  0.5903516837338385  0.5925738248535632   T   T   T
  0.3268375239847965  0.0903516837338385  0.5925738248535632   T   T   T
  0.3268375239847965  0.5903516837338385  0.5925738248535632   T   T   T
  0.6601708573177985  0.0903516837338385  0.5925738248535632   T   T   T
  0.6601708573177985  0.5903516837338385  0.5925738248535632   T   T   T
  0.1669647482055580  0.2528882747735803  0.4338583190518968   T   T   T
  0.1669647482055580  0.7528882747735803  0.4338583190518968   T   T   T
  0.5002980815395545  0.2528882747735803  0.4338583190518968   T   T   T
  0.5002980815395545  0.7528882747735803  0.4338583190518968   T   T   T
  0.8336314148725562  0.2528882747735803  0.4338583190518968   T   T   T
  0.8336314148725562  0.7528882747735803  0.4338583190518968   T   T   T
  0.0010637229322861  0.0062003876704441  0.4604017206481598   T   T   T
  0.0010637229322861  0.5062003876704440  0.4604017206481598   T   T   T
  0.3343970562652878  0.0062003876704441  0.4604017206481598   T   T   T
  0.3343970562652878  0.5062003876704440  0.4604017206481598   T   T   T
  0.6677303895992844  0.0062003876704441  0.4604017206481598   T   T   T
  0.6677303895992844  0.5062003876704440  0.4604017206481598   T   T   T
  0.1678638581787604  0.2566937640368359  0.4866040520527221   T   T   T
  0.1678638581787604  0.7566937640368362  0.4866040520527221   T   T   T
  0.5011971915127572  0.2566937640368359  0.4866040520527221   T   T   T
  0.5011971915127572  0.7566937640368362  0.4866040520527221   T   T   T
  0.8345305248457590  0.2566937640368359  0.4866040520527221   T   T   T
  0.8345305248457590  0.7566937640368362  0.4866040520527221   T   T   T
  0.0011971029807592  0.0066935952268389  0.5133959479472782   T   T   T
  0.0011971029807592  0.5066935952268391  0.5133959479472782   T   T   T
  0.3345304363137609  0.0066935952268389  0.5133959479472782   T   T   T
  0.3345304363137609  0.5066935952268391  0.5133959479472782   T   T   T
  0.6678637696477577  0.0066935952268389  0.5133959479472782   T   T   T
  0.6678637696477577  0.5066935952268391  0.5133959479472782   T   T   T
  0.1677304781302874  0.2562005564804412  0.5395982793518403   T   T   T
  0.1677304781302874  0.7562005564804410  0.5395982793518403   T   T   T
  0.5010638114642839  0.2562005564804412  0.5395982793518403   T   T   T
  0.5010638114642839  0.7562005564804410  0.5395982793518403   T   T   T
  0.8343971447972857  0.2562005564804412  0.5395982793518403   T   T   T
  0.8343971447972857  0.7562005564804410  0.5395982793518403   T   T   T
  0.0002979930075568  0.0028881059635832  0.5661416809481030   T   T   T
  0.0002979930075568  0.5028881059635832  0.5661416809481030   T   T   T
  0.3336313263405585  0.0028881059635832  0.5661416809481030   T   T   T
  0.3336313263405585  0.5028881059635832  0.5661416809481030   T   T   T
  0.6669646596745550  0.0028881059635832  0.5661416809481030   T   T   T
  0.6669646596745550  0.5028881059635832  0.5661416809481030   T   T   T
 
  0.00000000E+00  0.00000000E+00  0.00000000E+00
  0.00000000E+00  0.00000000E+00  0.00000000E+00
  0.00000000E+00  0.00000000E+00  0.00000000E+00
  0.00000000E+00  0.00000000E+00  0.00000000E+00
  0.00000000E+00  0.00000000E+00  0.00000000E+00
  0.00000000E+00  0.00000000E+00  0.00000000E+00
  0.00000000E+00  0.00000000E+00  0.00000000E+00
  0.00000000E+00  0.00000000E+00  0.00000000E+00
  0.00000000E+00  0.00000000E+00  0.00000000E+00
  0.00000000E+00  0.00000000E+00  0.00000000E+00
  0.00000000E+00  0.00000000E+00  0.00000000E+00
  0.00000000E+00  0.00000000E+00  0.00000000E+00
  0.00000000E+00  0.00000000E+00  0.00000000E+00
  0.00000000E+00  0.00000000E+00  0.00000000E+00
  0.00000000E+00  0.00000000E+00  0.00000000E+00
  0.00000000E+00  0.00000000E+00  0.00000000E+00
  0.00000000E+00  0.00000000E+00  0.00000000E+00
  0.00000000E+00  0.00000000E+00  0.00000000E+00
  0.00000000E+00  0.00000000E+00  0.00000000E+00
  0.00000000E+00  0.00000000E+00  0.00000000E+00
  0.00000000E+00  0.00000000E+00  0.00000000E+00
  0.00000000E+00  0.00000000E+00  0.00000000E+00
  0.00000000E+00  0.00000000E+00  0.00000000E+00
  0.00000000E+00  0.00000000E+00  0.00000000E+00
  0.00000000E+00  0.00000000E+00  0.00000000E+00
  0.00000000E+00  0.00000000E+00  0.00000000E+00
  0.00000000E+00  0.00000000E+00  0.00000000E+00
  0.00000000E+00  0.00000000E+00  0.00000000E+00
  0.00000000E+00  0.00000000E+00  0.00000000E+00
  0.00000000E+00  0.00000000E+00  0.00000000E+00
  0.00000000E+00  0.00000000E+00  0.00000000E+00
  0.00000000E+00  0.00000000E+00  0.00000000E+00
  0.00000000E+00  0.00000000E+00  0.00000000E+00
  0.00000000E+00  0.00000000E+00  0.00000000E+00
  0.00000000E+00  0.00000000E+00  0.00000000E+00
  0.00000000E+00  0.00000000E+00  0.00000000E+00
  0.00000000E+00  0.00000000E+00  0.00000000E+00
  0.00000000E+00  0.00000000E+00  0.00000000E+00
  0.00000000E+00  0.00000000E+00  0.00000000E+00
  0.00000000E+00  0.00000000E+00  0.00000000E+00
  0.00000000E+00  0.00000000E+00  0.00000000E+00
  0.00000000E+00  0.00000000E+00  0.00000000E+00
  0.00000000E+00  0.00000000E+00  0.00000000E+00
  0.00000000E+00  0.00000000E+00  0.00000000E+00
  0.00000000E+00  0.00000000E+00  0.00000000E+00
  0.00000000E+00  0.00000000E+00  0.00000000E+00
  0.00000000E+00  0.00000000E+00  0.00000000E+00
  0.00000000E+00  0.00000000E+00  0.00000000E+00
  0.00000000E+00  0.00000000E+00  0.00000000E+00
  0.00000000E+00  0.00000000E+00  0.00000000E+00
  0.00000000E+00  0.00000000E+00  0.00000000E+00
  0.00000000E+00  0.00000000E+00  0.00000000E+00
  0.00000000E+00  0.00000000E+00  0.00000000E+00
  0.00000000E+00  0.00000000E+00  0.00000000E+00
  0.00000000E+00  0.00000000E+00  0.00000000E+00
  0.00000000E+00  0.00000000E+00  0.00000000E+00
  0.00000000E+00  0.00000000E+00  0.00000000E+00
  0.00000000E+00  0.00000000E+00  0.00000000E+00
  0.00000000E+00  0.00000000E+00  0.00000000E+00
  0.00000000E+00  0.00000000E+00  0.00000000E+00
  0.00000000E+00  0.00000000E+00  0.00000000E+00
  0.00000000E+00  0.00000000E+00  0.00000000E+00
  0.00000000E+00  0.00000000E+00  0.00000000E+00
  0.00000000E+00  0.00000000E+00  0.00000000E+00
  0.00000000E+00  0.00000000E+00  0.00000000E+00
  0.00000000E+00  0.00000000E+00  0.00000000E+00
  0.00000000E+00  0.00000000E+00  0.00000000E+00
  0.00000000E+00  0.00000000E+00  0.00000000E+00
  0.00000000E+00  0.00000000E+00  0.00000000E+00
  0.00000000E+00  0.00000000E+00  0.00000000E+00
  0.00000000E+00  0.00000000E+00  0.00000000E+00
  0.00000000E+00  0.00000000E+00  0.00000000E+00
  0.00000000E+00  0.00000000E+00  0.00000000E+00
  0.00000000E+00  0.00000000E+00  0.00000000E+00
  0.00000000E+00  0.00000000E+00  0.00000000E+00
  0.00000000E+00  0.00000000E+00  0.00000000E+00
  0.00000000E+00  0.00000000E+00  0.00000000E+00
  0.00000000E+00  0.00000000E+00  0.00000000E+00
  0.00000000E+00  0.00000000E+00  0.00000000E+00
  0.00000000E+00  0.00000000E+00  0.00000000E+00
  0.00000000E+00  0.00000000E+00  0.00000000E+00
  0.00000000E+00  0.00000000E+00  0.00000000E+00
  0.00000000E+00  0.00000000E+00  0.00000000E+00
  0.00000000E+00  0.00000000E+00  0.00000000E+00
  0.00000000E+00  0.00000000E+00  0.00000000E+00
  0.00000000E+00  0.00000000E+00  0.00000000E+00
  0.00000000E+00  0.00000000E+00  0.00000000E+00
  0.00000000E+00  0.00000000E+00  0.00000000E+00
  0.00000000E+00  0.00000000E+00  0.00000000E+00
  0.00000000E+00  0.00000000E+00  0.00000000E+00
  0.00000000E+00  0.00000000E+00  0.00000000E+00
  0.00000000E+00  0.00000000E+00  0.00000000E+00
  0.00000000E+00  0.00000000E+00  0.00000000E+00
  0.00000000E+00  0.00000000E+00  0.00000000E+00
  0.00000000E+00  0.00000000E+00  0.00000000E+00
  0.00000000E+00  0.00000000E+00  0.00000000E+00
  0.00000000E+00  0.00000000E+00  0.00000000E+00
  0.00000000E+00  0.00000000E+00  0.00000000E+00
  0.00000000E+00  0.00000000E+00  0.00000000E+00
  0.00000000E+00  0.00000000E+00  0.00000000E+00
  0.00000000E+00  0.00000000E+00  0.00000000E+00
  0.00000000E+00  0.00000000E+00  0.00000000E+00
  0.00000000E+00  0.00000000E+00  0.00000000E+00
  0.00000000E+00  0.00000000E+00  0.00000000E+00
  0.00000000E+00  0.00000000E+00  0.00000000E+00
  0.00000000E+00  0.00000000E+00  0.00000000E+00
  0.00000000E+00  0.00000000E+00  0.00000000E+00
  0.00000000E+00  0.00000000E+00  0.00000000E+00
