C H O Si                                
   1.00000000000000     
     9.2874599999999994    0.0000000000000000    0.0000000000000000
     0.0000000000000000    8.7563099999999991    0.0000000000000000
     0.0000000000000000    0.0000000000000000   58.0000000000000000
   C    H    O    Si
    36    32    16    36
Selective dynamics
Direct
  0.9942827696469201  0.1257532062208876  0.0605574074540100   T   T   T
  0.3276119621893159  0.1257576165008300  0.0605808191133783   T   T   T
  0.6611471637667422  0.1257235983654275  0.0605717379457915   T   T   T
  0.9942510260585296  0.6257199308079567  0.0605666531665907   T   T   T
  0.3276196066146061  0.6257412179095762  0.0606382217633636   T   T   T
  0.6611825511672409  0.6257562194766351  0.0605971748995056   T   T   T
  0.1603192105567488  0.3719226564506609  0.1394420639417737   T   T   T
  0.4935679819307479  0.3724099168027185  0.1393807073756884   T   T   T
  0.8268989055036488  0.3718228664594347  0.1393826745657262   T   T   T
  0.1605550690638571  0.8717564080657220  0.1395165817817870   T   T   T
  0.4936172839613480  0.8713517879776328  0.1395605705704706   T   T   T
  0.8267889244411224  0.8717884918043193  0.1394405419415729   T   T   T
  0.3273899112398280  0.1226979854792777  0.1665249075799201   T   T   T
  0.6600437824668777  0.1222721329169971  0.1665304638885602   T   T   T
  0.9939803305207848  0.1214030283161080  0.1664202049201820   T   T   T
  0.3266830161258921  0.6225000095387154  0.1668530848070441   T   T   T
  0.6608430078214689  0.6222746413247668  0.1667482093896462   T   T   T
  0.9939303887771060  0.6224174250846241  0.1665374881763511   T   T   T
  0.1597737614991865  0.3745955401314918  0.1918464111307459   T   T   T
  0.4937150698716778  0.3881047458422058  0.1906064140246323   T   T   T
  0.8284998240058834  0.3732627681631825  0.1915734338441996   T   T   T
  0.1605522572861540  0.8777980695549016  0.1921815098971815   T   T   T
  0.4934691867975224  0.8778084051074125  0.1921855108426755   T   T   T
  0.8270130354433237  0.8770487337076784  0.1918794385996611   T   T   T
  0.1605364045099817  0.3716992758556312  0.0859149483878357   T   T   T
  0.4937840627985093  0.3716331597633026  0.0859380896641766   T   T   T
  0.8271440006180119  0.3716255078525230  0.0858996825123763   T   T   T
  0.1605515113040052  0.8716353337613152  0.0859391270228082   T   T   T
  0.4937888132145541  0.8715538007945752  0.0859795383380497   T   T   T
  0.8271487118057116  0.8716249028000925  0.0859229268077064   T   T   T
  0.3270280708208452  0.1214827769598022  0.1130628946286410   T   T   T
  0.6602050475268515  0.1214969965756710  0.1130618606607425   T   T   T
  0.9936028741873266  0.1215197645476804  0.1130493804694072   T   T   T
  0.3269402978535768  0.6215080476879955  0.1131713431515717   T   T   T
  0.6603700802526229  0.6215324492750326  0.1131163524767097   T   T   T
  0.9936486496313256  0.6217612997713496  0.1130457750170482   T   T   T
  0.0801741262542394  0.3530988283299794  0.0264633053577732   T   T   T
  0.4134794972539593  0.3531489020230940  0.0264786489997491   T   T   T
  0.7463605751619146  0.3528988938186598  0.0265005180271158   T   T   T
  0.0803760900322507  0.8531075755450237  0.0264705045004712   T   T   T
  0.4130657648638462  0.8530618985034722  0.0265534208752015   T   T   T
  0.7464963139325203  0.8529609342205849  0.0265047773185248   T   T   T
  0.3248163148052516  0.0536112050807456  0.0450174349675792   T   T   T
  0.6581439459874185  0.0535202480493324  0.0450196714136394   T   T   T
  0.9915394742405997  0.0535812645320085  0.0450011783875192   T   T   T
  0.3248729252597181  0.5533239878027567  0.0450986507057941   T   T   T
  0.6581525339520437  0.5534567751232360  0.0450504321683317   T   T   T
  0.9915308693796191  0.5535674846493919  0.0450080358196126   T   T   T
  0.8287647423116626  0.8054541475432726  0.2074794274490986   T   T   T
  0.8321466691381155  0.3014453128576297  0.2071419317737554   T   T   T
  0.1601677662267794  0.3021904998979436  0.2073690851757528   T   T   T
  0.1630969109843993  0.8050293577910037  0.2076687354646354   T   T   T
  0.4937510132518200  0.8061223685051044  0.2077963260164005   T   T   T
  0.0710510754202107  0.1082827384887774  0.2260559492718027   T   T   T
  0.3990157566488985  0.1488725404092728  0.2228547932786313   T   T   T
  0.7500701971619876  0.1054028193951109  0.2250798268726668   T   T   T
  0.0723894829693262  0.6022046026821815  0.2257610915573151   T   T   T
  0.3753168589192667  0.6165201479219587  0.2296782476839018   T   T   T
  0.7797920251250474  0.5895077408276495  0.2237596345792828   T   T   T
  0.5359309005207558  0.6039299567137203  0.2748330676624381   T   T   T
  0.4850137104496054  0.4684762313233504  0.2942600821916821   T   T   T
  0.5658268077227449  0.6359906018955119  0.3035687302963561   T   T   T
  0.3072462529561930  0.3742504427666821  0.3095906844717787   T   T   T
  0.4241347842582201  0.2519533433591939  0.3033712941140726   T   T   T
  0.6535721750350666  0.7321548053953582  0.3328549019464307   T   T   T
  0.4887405193372158  0.7652742110017134  0.3305388909604882   T   T   T
  0.5007235262646076  0.7855068435140158  0.2527432703421776   T   T   T
  0.5790446458357634  0.6471384239705479  0.2397031298182948   T   T   T
  0.1717441406732775  0.3343278925094885  0.0342479558333422   T   T   T
  0.5050176103930060  0.3342680676658264  0.0342585154072756   T   T   T
  0.8380925223580118  0.3342593889106155  0.0342382955225103   T   T   T
  0.1718756450318505  0.8340846094900355  0.0342460330052858   T   T   T
  0.5047607606792888  0.8342416947856887  0.0342893023691835   T   T   T
  0.8381359009730639  0.8342843227730533  0.0342621309410540   T   T   T
  0.3144744887982408  0.0913019445333632  0.2179262113801813   T   T   T
  0.6554074512175954  0.0894871817793031  0.2180719026273065   T   T   T
  0.9804788983380834  0.0867495538738657  0.2181596079259328   T   T   T
  0.2997939732228653  0.5849991975791803  0.2186105673406052   T   T   T
  0.6782063915621754  0.5838932248117006  0.2187006130658379   T   T   T
  0.9804458939838147  0.5828275973458001  0.2180175363410413   T   T   T
  0.5613473815884511  0.5537520290046285  0.2904155000062143   T   T   T
  0.3793648258399384  0.3465262736018644  0.2980840599835750   T   T   T
  0.5777020059443944  0.7547972757670101  0.3217144837186465   T   T   T
  0.5006474762295077  0.6744415973056936  0.2509933816767897   T   T   T
  0.4944203570071667  0.2432126645539997  0.0597066961967749   T   T   T
  0.8277475298845525  0.2432073140740939  0.0596988202413971   T   T   T
  0.1610385830682173  0.7431756645266980  0.0597225940347103   T   T   T
  0.4943977677847288  0.7431168457410553  0.0597456367488788   T   T   T
  0.8277604153865183  0.7432468273899473  0.0597102239867171   T   T   T
  0.1610151181790093  0.2432431045082301  0.0597033016431263   T   T   T
  0.9936799073701598  0.9965985726096770  0.1396553324778693   T   T   T
  0.3273178958636923  0.9970054710591622  0.1397140593882249   T   T   T
  0.6597541379814015  0.9967423484969979  0.1396993909325375   T   T   T
  0.9936275989984575  0.4971291158834692  0.1396455008791991   T   T   T
  0.3268094163854224  0.4973208696437218  0.1398871539085580   T   T   T
  0.6602354409950207  0.4970676980467462  0.1397807237626892   T   T   T
  0.1602833656621085  0.2460898593754010  0.1659655325048054   T   T   T
  0.4937557252305261  0.2472938472129384  0.1662829298980342   T   T   T
  0.8272613421865985  0.2451979043977246  0.1658044176041215   T   T   T
  0.1601236150742553  0.7475429033827891  0.1662870477962415   T   T   T
  0.4934798789490992  0.7466887316198039  0.1663582372150867   T   T   T
  0.8275409977517508  0.7470085329204988  0.1661248674011413   T   T   T
  0.3266308127737460  0.9962901918809337  0.1928497862070018   T   T   T
  0.6606075718935154  0.9953032602618402  0.1928549652342853   T   T   T
  0.9932460383683721  0.9946398757126214  0.1927934719865279   T   T   T
  0.3236714836445313  0.4948469687549325  0.1935617361527986   T   T   T
  0.9937273720518860  0.4923074920638656  0.1924282862125428   T   T   T
  0.6645237510524681  0.4922654966167997  0.1930109900291451   T   T   T
  0.9938403444131895  0.9960640355312723  0.0863827173721075   T   T   T
  0.3271621634012845  0.9960482468128581  0.0864072045879450   T   T   T
  0.6604539475189947  0.9960636374184799  0.0864055811929492   T   T   T
  0.9938481483472306  0.4960757478658115  0.0863905053199328   T   T   T
  0.3271341485850655  0.4961575467184672  0.0864775778325464   T   T   T
  0.6604791464614131  0.4960974216716876  0.0864410446022821   T   T   T
  0.1603697159845528  0.2468315051014018  0.1127674043827773   T   T   T
  0.4935651260568988  0.2465975784772948  0.1127556122448974   T   T   T
  0.8268885081862637  0.2467640397336991  0.1127256268734018   T   T   T
  0.1604519109673939  0.7468012989741849  0.1128199438591045   T   T   T
  0.4935548242644266  0.7466120135547111  0.1128600531413641   T   T   T
  0.8268043592296163  0.7467862467435473  0.1127775584791885   T   T   T
 
  0.00000000E+00  0.00000000E+00  0.00000000E+00
  0.00000000E+00  0.00000000E+00  0.00000000E+00
  0.00000000E+00  0.00000000E+00  0.00000000E+00
  0.00000000E+00  0.00000000E+00  0.00000000E+00
  0.00000000E+00  0.00000000E+00  0.00000000E+00
  0.00000000E+00  0.00000000E+00  0.00000000E+00
  0.00000000E+00  0.00000000E+00  0.00000000E+00
  0.00000000E+00  0.00000000E+00  0.00000000E+00
  0.00000000E+00  0.00000000E+00  0.00000000E+00
  0.00000000E+00  0.00000000E+00  0.00000000E+00
  0.00000000E+00  0.00000000E+00  0.00000000E+00
  0.00000000E+00  0.00000000E+00  0.00000000E+00
  0.00000000E+00  0.00000000E+00  0.00000000E+00
  0.00000000E+00  0.00000000E+00  0.00000000E+00
  0.00000000E+00  0.00000000E+00  0.00000000E+00
  0.00000000E+00  0.00000000E+00  0.00000000E+00
  0.00000000E+00  0.00000000E+00  0.00000000E+00
  0.00000000E+00  0.00000000E+00  0.00000000E+00
  0.00000000E+00  0.00000000E+00  0.00000000E+00
  0.00000000E+00  0.00000000E+00  0.00000000E+00
  0.00000000E+00  0.00000000E+00  0.00000000E+00
  0.00000000E+00  0.00000000E+00  0.00000000E+00
  0.00000000E+00  0.00000000E+00  0.00000000E+00
  0.00000000E+00  0.00000000E+00  0.00000000E+00
  0.00000000E+00  0.00000000E+00  0.00000000E+00
  0.00000000E+00  0.00000000E+00  0.00000000E+00
  0.00000000E+00  0.00000000E+00  0.00000000E+00
  0.00000000E+00  0.00000000E+00  0.00000000E+00
  0.00000000E+00  0.00000000E+00  0.00000000E+00
  0.00000000E+00  0.00000000E+00  0.00000000E+00
  0.00000000E+00  0.00000000E+00  0.00000000E+00
  0.00000000E+00  0.00000000E+00  0.00000000E+00
  0.00000000E+00  0.00000000E+00  0.00000000E+00
  0.00000000E+00  0.00000000E+00  0.00000000E+00
  0.00000000E+00  0.00000000E+00  0.00000000E+00
  0.00000000E+00  0.00000000E+00  0.00000000E+00
  0.00000000E+00  0.00000000E+00  0.00000000E+00
  0.00000000E+00  0.00000000E+00  0.00000000E+00
  0.00000000E+00  0.00000000E+00  0.00000000E+00
  0.00000000E+00  0.00000000E+00  0.00000000E+00
  0.00000000E+00  0.00000000E+00  0.00000000E+00
  0.00000000E+00  0.00000000E+00  0.00000000E+00
  0.00000000E+00  0.00000000E+00  0.00000000E+00
  0.00000000E+00  0.00000000E+00  0.00000000E+00
  0.00000000E+00  0.00000000E+00  0.00000000E+00
  0.00000000E+00  0.00000000E+00  0.00000000E+00
  0.00000000E+00  0.00000000E+00  0.00000000E+00
  0.00000000E+00  0.00000000E+00  0.00000000E+00
  0.00000000E+00  0.00000000E+00  0.00000000E+00
  0.00000000E+00  0.00000000E+00  0.00000000E+00
  0.00000000E+00  0.00000000E+00  0.00000000E+00
  0.00000000E+00  0.00000000E+00  0.00000000E+00
  0.00000000E+00  0.00000000E+00  0.00000000E+00
  0.00000000E+00  0.00000000E+00  0.00000000E+00
  0.00000000E+00  0.00000000E+00  0.00000000E+00
  0.00000000E+00  0.00000000E+00  0.00000000E+00
  0.00000000E+00  0.00000000E+00  0.00000000E+00
  0.00000000E+00  0.00000000E+00  0.00000000E+00
  0.00000000E+00  0.00000000E+00  0.00000000E+00
  0.00000000E+00  0.00000000E+00  0.00000000E+00
  0.00000000E+00  0.00000000E+00  0.00000000E+00
  0.00000000E+00  0.00000000E+00  0.00000000E+00
  0.00000000E+00  0.00000000E+00  0.00000000E+00
  0.00000000E+00  0.00000000E+00  0.00000000E+00
  0.00000000E+00  0.00000000E+00  0.00000000E+00
  0.00000000E+00  0.00000000E+00  0.00000000E+00
  0.00000000E+00  0.00000000E+00  0.00000000E+00
  0.00000000E+00  0.00000000E+00  0.00000000E+00
  0.00000000E+00  0.00000000E+00  0.00000000E+00
  0.00000000E+00  0.00000000E+00  0.00000000E+00
  0.00000000E+00  0.00000000E+00  0.00000000E+00
  0.00000000E+00  0.00000000E+00  0.00000000E+00
  0.00000000E+00  0.00000000E+00  0.00000000E+00
  0.00000000E+00  0.00000000E+00  0.00000000E+00
  0.00000000E+00  0.00000000E+00  0.00000000E+00
  0.00000000E+00  0.00000000E+00  0.00000000E+00
  0.00000000E+00  0.00000000E+00  0.00000000E+00
  0.00000000E+00  0.00000000E+00  0.00000000E+00
  0.00000000E+00  0.00000000E+00  0.00000000E+00
  0.00000000E+00  0.00000000E+00  0.00000000E+00
  0.00000000E+00  0.00000000E+00  0.00000000E+00
  0.00000000E+00  0.00000000E+00  0.00000000E+00
  0.00000000E+00  0.00000000E+00  0.00000000E+00
  0.00000000E+00  0.00000000E+00  0.00000000E+00
  0.00000000E+00  0.00000000E+00  0.00000000E+00
  0.00000000E+00  0.00000000E+00  0.00000000E+00
  0.00000000E+00  0.00000000E+00  0.00000000E+00
  0.00000000E+00  0.00000000E+00  0.00000000E+00
  0.00000000E+00  0.00000000E+00  0.00000000E+00
  0.00000000E+00  0.00000000E+00  0.00000000E+00
  0.00000000E+00  0.00000000E+00  0.00000000E+00
  0.00000000E+00  0.00000000E+00  0.00000000E+00
  0.00000000E+00  0.00000000E+00  0.00000000E+00
  0.00000000E+00  0.00000000E+00  0.00000000E+00
  0.00000000E+00  0.00000000E+00  0.00000000E+00
  0.00000000E+00  0.00000000E+00  0.00000000E+00
  0.00000000E+00  0.00000000E+00  0.00000000E+00
  0.00000000E+00  0.00000000E+00  0.00000000E+00
  0.00000000E+00  0.00000000E+00  0.00000000E+00
  0.00000000E+00  0.00000000E+00  0.00000000E+00
  0.00000000E+00  0.00000000E+00  0.00000000E+00
  0.00000000E+00  0.00000000E+00  0.00000000E+00
  0.00000000E+00  0.00000000E+00  0.00000000E+00
  0.00000000E+00  0.00000000E+00  0.00000000E+00
  0.00000000E+00  0.00000000E+00  0.00000000E+00
  0.00000000E+00  0.00000000E+00  0.00000000E+00
  0.00000000E+00  0.00000000E+00  0.00000000E+00
  0.00000000E+00  0.00000000E+00  0.00000000E+00
  0.00000000E+00  0.00000000E+00  0.00000000E+00
  0.00000000E+00  0.00000000E+00  0.00000000E+00
  0.00000000E+00  0.00000000E+00  0.00000000E+00
  0.00000000E+00  0.00000000E+00  0.00000000E+00
  0.00000000E+00  0.00000000E+00  0.00000000E+00
  0.00000000E+00  0.00000000E+00  0.00000000E+00
  0.00000000E+00  0.00000000E+00  0.00000000E+00
  0.00000000E+00  0.00000000E+00  0.00000000E+00
  0.00000000E+00  0.00000000E+00  0.00000000E+00
  0.00000000E+00  0.00000000E+00  0.00000000E+00
  0.00000000E+00  0.00000000E+00  0.00000000E+00
  0.00000000E+00  0.00000000E+00  0.00000000E+00
