C H O Si                                
   1.00000000000000     
     9.2874599999999994    0.0000000000000000    0.0000000000000000
     0.0000000000000000    8.7563099999999991    0.0000000000000000
     0.0000000000000000    0.0000000000000000   58.0000000000000000
   C    H    O    Si
    36    32    16    36
Selective dynamics
Direct
  0.9942576070942881  0.1258092565228930  0.0605521220483334   T   T   T
  0.3275631871871740  0.1257948522964572  0.0605602098665979   T   T   T
  0.6608840412983626  0.1257806054634153  0.0605588341461482   T   T   T
  0.9942470807689217  0.6258084807784309  0.0605601205528282   T   T   T
  0.3276119373861929  0.6257809786882330  0.0606065039575547   T   T   T
  0.6608904911924647  0.6257907855460536  0.0605747587777336   T   T   T
  0.1602628033189151  0.3720170005884257  0.1394284207130476   T   T   T
  0.4934375355798871  0.3723420151111880  0.1394307489173482   T   T   T
  0.8268686958195075  0.3719099658648635  0.1393741336770348   T   T   T
  0.1605391865363305  0.8718777466609283  0.1394878344261901   T   T   T
  0.4934847334417073  0.8713101137598417  0.1395433199606486   T   T   T
  0.8266193384758060  0.8717659699980852  0.1394339782549105   T   T   T
  0.3273803044081401  0.1227394782171430  0.1665390888734423   T   T   T
  0.6599082525851857  0.1222221094429945  0.1665412626846142   T   T   T
  0.9938901560630816  0.1213968530236735  0.1664473071489257   T   T   T
  0.3266463454986004  0.6225409426114168  0.1669017090853569   T   T   T
  0.6606904981198618  0.6222155517342862  0.1667803821544326   T   T   T
  0.9938768950924225  0.6223490442718507  0.1665435580169211   T   T   T
  0.1596764503600942  0.3745628133714919  0.1918505240630112   T   T   T
  0.4936813497354105  0.3877298275289819  0.1906300662106944   T   T   T
  0.8286928048599558  0.3732365087031542  0.1915938590839087   T   T   T
  0.1605415000196631  0.8779735084273349  0.1921800805602918   T   T   T
  0.4935382394389756  0.8778891706248803  0.1921819534809736   T   T   T
  0.8270519723251751  0.8768884220138600  0.1918815216098035   T   T   T
  0.1603966084914634  0.3717125664442461  0.0859246196383577   T   T   T
  0.4937056536446112  0.3717557679135843  0.0859410536055783   T   T   T
  0.8270020615570083  0.3717198976484778  0.0858974274626921   T   T   T
  0.1603979999807519  0.8717050812775563  0.0859327813174278   T   T   T
  0.4936975573049308  0.8716166216659809  0.0859575994067634   T   T   T
  0.8270141562243940  0.8717361561208317  0.0859204076088220   T   T   T
  0.3266908680986716  0.1216930580285913  0.1130447675864102   T   T   T
  0.6599456440407321  0.1216286344316789  0.1130520046910682   T   T   T
  0.9933528792498483  0.1216967977285578  0.1130297521140122   T   T   T
  0.3266978452070717  0.6216746733456950  0.1131405857422697   T   T   T
  0.6600270640375125  0.6216807131149915  0.1130995325062028   T   T   T
  0.9933635779712903  0.6217888141692229  0.1130336849958107   T   T   T
  0.0804155715805170  0.3528593442729921  0.0265082200454307   T   T   T
  0.4137366971564082  0.3529188396325941  0.0265182861376853   T   T   T
  0.7466361392273562  0.3525783044452812  0.0265696117198401   T   T   T
  0.0806158317808894  0.8529001601894608  0.0265077889118367   T   T   T
  0.4133179268158436  0.8527797831634759  0.0266154066928311   T   T   T
  0.7467506872294966  0.8526679225166748  0.0265649601414994   T   T   T
  0.3247047743167463  0.0536222477485242  0.0450068022136671   T   T   T
  0.6580530655164849  0.0535091177050324  0.0450126412928058   T   T   T
  0.9914331384260703  0.0536302107608479  0.0449990550601465   T   T   T
  0.3247638761688381  0.5533141994794322  0.0450847258768411   T   T   T
  0.6580344918909913  0.5534651126368303  0.0450380255533525   T   T   T
  0.9914544298132885  0.5536073205747080  0.0450053812318812   T   T   T
  0.8287766127209325  0.8053719902997568  0.2074818209038433   T   T   T
  0.8320164561377532  0.3015053629971050  0.2071575908047667   T   T   T
  0.1603013033348710  0.3022448399916034  0.2073675460258775   T   T   T
  0.1632144764929720  0.8050581126320958  0.2076581914544112   T   T   T
  0.4936998549646519  0.8062124987954918  0.2077888402866247   T   T   T
  0.0708614079194716  0.1081849329301632  0.2260451307082756   T   T   T
  0.3986741266687457  0.1496123909107157  0.2228016085796105   T   T   T
  0.7502058074084489  0.1053095831718573  0.2250700606548747   T   T   T
  0.0721821699285859  0.6020795402277969  0.2257318520596146   T   T   T
  0.3756723428371482  0.6168553572015582  0.2297105381053053   T   T   T
  0.7801415622916944  0.5895314207020286  0.2237717103246888   T   T   T
  0.5359679454378172  0.6040415734374658  0.2748487839576637   T   T   T
  0.4850717996247726  0.4683972439836033  0.2942463812504367   T   T   T
  0.5658582113445072  0.6359483629741427  0.3035609373212578   T   T   T
  0.3073455255265081  0.3743124016582023  0.3095861335053546   T   T   T
  0.4240817444557261  0.2521424785341110  0.3033503214842214   T   T   T
  0.6534876721073664  0.7321272649075143  0.3328886274271704   T   T   T
  0.4887938602428176  0.7650704498658650  0.3305470522004378   T   T   T
  0.5007342234340756  0.7854122894180636  0.2527472164236097   T   T   T
  0.5788287276616759  0.6471957010390144  0.2396920251873595   T   T   T
  0.1721169494230902  0.3339159992166675  0.0342593242132504   T   T   T
  0.5053905036560413  0.3339043630134504  0.0342693998329040   T   T   T
  0.8385658162251710  0.3340067088856237  0.0342519432760162   T   T   T
  0.1721413169263689  0.8336197228355919  0.0342559427706676   T   T   T
  0.5052418667313670  0.8339585404872221  0.0342832483239223   T   T   T
  0.8386008219116813  0.8340311440837701  0.0342707074106317   T   T   T
  0.3145576994220141  0.0910468141846956  0.2179678897802465   T   T   T
  0.6558078046350840  0.0893772362126657  0.2179994142682578   T   T   T
  0.9802502870058890  0.0870423647294766  0.2181300688679973   T   T   T
  0.3006513384729022  0.5846939475409638  0.2186125453371139   T   T   T
  0.6785277504368762  0.5838876577740292  0.2187079512877857   T   T   T
  0.9803895969518895  0.5828907998742030  0.2179387831081204   T   T   T
  0.5614659785001780  0.5537997066586646  0.2904019368568201   T   T   T
  0.3795374105282269  0.3468233720599984  0.2980687278693774   T   T   T
  0.5778228342050301  0.7552446305866807  0.3217232093358570   T   T   T
  0.5004348157001344  0.6743519528135794  0.2509704141288459   T   T   T
  0.4944150974019945  0.2430560554027347  0.0597321809222796   T   T   T
  0.8277747176101915  0.2431246304567308  0.0597026557230589   T   T   T
  0.1611215626134849  0.7430163193319085  0.0597381126807492   T   T   T
  0.4944733872653331  0.7431000958007261  0.0597483833776964   T   T   T
  0.8277762095043245  0.7431071440752498  0.0597269471134017   T   T   T
  0.1611355657872199  0.2431626367852328  0.0597203285825517   T   T   T
  0.9936596228819338  0.9967174533255373  0.1396600349761369   T   T   T
  0.3272313372665535  0.9971570580266291  0.1397111793549747   T   T   T
  0.6598741087389020  0.9969978135932128  0.1397064051173835   T   T   T
  0.9936805745283835  0.4971433626884519  0.1396529070792827   T   T   T
  0.3267360025766443  0.4974508776258632  0.1399037949078875   T   T   T
  0.6602577822580705  0.4971324307925507  0.1397928863503337   T   T   T
  0.1602601709683087  0.2461710446072038  0.1659613784961628   T   T   T
  0.4937344147410036  0.2471351064838872  0.1662684479358834   T   T   T
  0.8272184811982889  0.2451791621220351  0.1658095788960209   T   T   T
  0.1601609081103647  0.7475946851268550  0.1662745517012534   T   T   T
  0.4935594987697052  0.7467050812692427  0.1663576407216998   T   T   T
  0.8273540410636545  0.7470078296157271  0.1661304853586861   T   T   T
  0.3266802781474918  0.9964182951832076  0.1928569198855309   T   T   T
  0.6607665246119967  0.9951624175579432  0.1928384037906560   T   T   T
  0.9932432891777702  0.9945151233053402  0.1927937533357972   T   T   T
  0.3237610592465364  0.4947345344160769  0.1935904895133650   T   T   T
  0.9938083968872649  0.4920327844301609  0.1924036088566768   T   T   T
  0.6645163519167266  0.4921213738751217  0.1930382446147860   T   T   T
  0.9938057993403226  0.9961581751197927  0.0863884148565774   T   T   T
  0.3271413701839350  0.9961132374064412  0.0863972776442825   T   T   T
  0.6604223591178168  0.9960998486711947  0.0863979737398164   T   T   T
  0.9937807939487178  0.4961505783456561  0.0863862180324176   T   T   T
  0.3271454139065643  0.4961206351072619  0.0864557248449932   T   T   T
  0.6604529858959158  0.4961163399429779  0.0864137454147533   T   T   T
  0.1600384303628530  0.2470321402087854  0.1127606605191066   T   T   T
  0.4933260103356948  0.2468543060931358  0.1127739942022782   T   T   T
  0.8266243003723981  0.2469773000595807  0.1127269463941394   T   T   T
  0.1601087037510147  0.7469550518297194  0.1127909526140770   T   T   T
  0.4933691483473442  0.7467995663855261  0.1128169407604944   T   T   T
  0.8267093642895054  0.7469659846986131  0.1127589962290554   T   T   T
 
  0.00000000E+00  0.00000000E+00  0.00000000E+00
  0.00000000E+00  0.00000000E+00  0.00000000E+00
  0.00000000E+00  0.00000000E+00  0.00000000E+00
  0.00000000E+00  0.00000000E+00  0.00000000E+00
  0.00000000E+00  0.00000000E+00  0.00000000E+00
  0.00000000E+00  0.00000000E+00  0.00000000E+00
  0.00000000E+00  0.00000000E+00  0.00000000E+00
  0.00000000E+00  0.00000000E+00  0.00000000E+00
  0.00000000E+00  0.00000000E+00  0.00000000E+00
  0.00000000E+00  0.00000000E+00  0.00000000E+00
  0.00000000E+00  0.00000000E+00  0.00000000E+00
  0.00000000E+00  0.00000000E+00  0.00000000E+00
  0.00000000E+00  0.00000000E+00  0.00000000E+00
  0.00000000E+00  0.00000000E+00  0.00000000E+00
  0.00000000E+00  0.00000000E+00  0.00000000E+00
  0.00000000E+00  0.00000000E+00  0.00000000E+00
  0.00000000E+00  0.00000000E+00  0.00000000E+00
  0.00000000E+00  0.00000000E+00  0.00000000E+00
  0.00000000E+00  0.00000000E+00  0.00000000E+00
  0.00000000E+00  0.00000000E+00  0.00000000E+00
  0.00000000E+00  0.00000000E+00  0.00000000E+00
  0.00000000E+00  0.00000000E+00  0.00000000E+00
  0.00000000E+00  0.00000000E+00  0.00000000E+00
  0.00000000E+00  0.00000000E+00  0.00000000E+00
  0.00000000E+00  0.00000000E+00  0.00000000E+00
  0.00000000E+00  0.00000000E+00  0.00000000E+00
  0.00000000E+00  0.00000000E+00  0.00000000E+00
  0.00000000E+00  0.00000000E+00  0.00000000E+00
  0.00000000E+00  0.00000000E+00  0.00000000E+00
  0.00000000E+00  0.00000000E+00  0.00000000E+00
  0.00000000E+00  0.00000000E+00  0.00000000E+00
  0.00000000E+00  0.00000000E+00  0.00000000E+00
  0.00000000E+00  0.00000000E+00  0.00000000E+00
  0.00000000E+00  0.00000000E+00  0.00000000E+00
  0.00000000E+00  0.00000000E+00  0.00000000E+00
  0.00000000E+00  0.00000000E+00  0.00000000E+00
  0.00000000E+00  0.00000000E+00  0.00000000E+00
  0.00000000E+00  0.00000000E+00  0.00000000E+00
  0.00000000E+00  0.00000000E+00  0.00000000E+00
  0.00000000E+00  0.00000000E+00  0.00000000E+00
  0.00000000E+00  0.00000000E+00  0.00000000E+00
  0.00000000E+00  0.00000000E+00  0.00000000E+00
  0.00000000E+00  0.00000000E+00  0.00000000E+00
  0.00000000E+00  0.00000000E+00  0.00000000E+00
  0.00000000E+00  0.00000000E+00  0.00000000E+00
  0.00000000E+00  0.00000000E+00  0.00000000E+00
  0.00000000E+00  0.00000000E+00  0.00000000E+00
  0.00000000E+00  0.00000000E+00  0.00000000E+00
  0.00000000E+00  0.00000000E+00  0.00000000E+00
  0.00000000E+00  0.00000000E+00  0.00000000E+00
  0.00000000E+00  0.00000000E+00  0.00000000E+00
  0.00000000E+00  0.00000000E+00  0.00000000E+00
  0.00000000E+00  0.00000000E+00  0.00000000E+00
  0.00000000E+00  0.00000000E+00  0.00000000E+00
  0.00000000E+00  0.00000000E+00  0.00000000E+00
  0.00000000E+00  0.00000000E+00  0.00000000E+00
  0.00000000E+00  0.00000000E+00  0.00000000E+00
  0.00000000E+00  0.00000000E+00  0.00000000E+00
  0.00000000E+00  0.00000000E+00  0.00000000E+00
  0.00000000E+00  0.00000000E+00  0.00000000E+00
  0.00000000E+00  0.00000000E+00  0.00000000E+00
  0.00000000E+00  0.00000000E+00  0.00000000E+00
  0.00000000E+00  0.00000000E+00  0.00000000E+00
  0.00000000E+00  0.00000000E+00  0.00000000E+00
  0.00000000E+00  0.00000000E+00  0.00000000E+00
  0.00000000E+00  0.00000000E+00  0.00000000E+00
  0.00000000E+00  0.00000000E+00  0.00000000E+00
  0.00000000E+00  0.00000000E+00  0.00000000E+00
  0.00000000E+00  0.00000000E+00  0.00000000E+00
  0.00000000E+00  0.00000000E+00  0.00000000E+00
  0.00000000E+00  0.00000000E+00  0.00000000E+00
  0.00000000E+00  0.00000000E+00  0.00000000E+00
  0.00000000E+00  0.00000000E+00  0.00000000E+00
  0.00000000E+00  0.00000000E+00  0.00000000E+00
  0.00000000E+00  0.00000000E+00  0.00000000E+00
  0.00000000E+00  0.00000000E+00  0.00000000E+00
  0.00000000E+00  0.00000000E+00  0.00000000E+00
  0.00000000E+00  0.00000000E+00  0.00000000E+00
  0.00000000E+00  0.00000000E+00  0.00000000E+00
  0.00000000E+00  0.00000000E+00  0.00000000E+00
  0.00000000E+00  0.00000000E+00  0.00000000E+00
  0.00000000E+00  0.00000000E+00  0.00000000E+00
  0.00000000E+00  0.00000000E+00  0.00000000E+00
  0.00000000E+00  0.00000000E+00  0.00000000E+00
  0.00000000E+00  0.00000000E+00  0.00000000E+00
  0.00000000E+00  0.00000000E+00  0.00000000E+00
  0.00000000E+00  0.00000000E+00  0.00000000E+00
  0.00000000E+00  0.00000000E+00  0.00000000E+00
  0.00000000E+00  0.00000000E+00  0.00000000E+00
  0.00000000E+00  0.00000000E+00  0.00000000E+00
  0.00000000E+00  0.00000000E+00  0.00000000E+00
  0.00000000E+00  0.00000000E+00  0.00000000E+00
  0.00000000E+00  0.00000000E+00  0.00000000E+00
  0.00000000E+00  0.00000000E+00  0.00000000E+00
  0.00000000E+00  0.00000000E+00  0.00000000E+00
  0.00000000E+00  0.00000000E+00  0.00000000E+00
  0.00000000E+00  0.00000000E+00  0.00000000E+00
  0.00000000E+00  0.00000000E+00  0.00000000E+00
  0.00000000E+00  0.00000000E+00  0.00000000E+00
  0.00000000E+00  0.00000000E+00  0.00000000E+00
  0.00000000E+00  0.00000000E+00  0.00000000E+00
  0.00000000E+00  0.00000000E+00  0.00000000E+00
  0.00000000E+00  0.00000000E+00  0.00000000E+00
  0.00000000E+00  0.00000000E+00  0.00000000E+00
  0.00000000E+00  0.00000000E+00  0.00000000E+00
  0.00000000E+00  0.00000000E+00  0.00000000E+00
  0.00000000E+00  0.00000000E+00  0.00000000E+00
  0.00000000E+00  0.00000000E+00  0.00000000E+00
  0.00000000E+00  0.00000000E+00  0.00000000E+00
  0.00000000E+00  0.00000000E+00  0.00000000E+00
  0.00000000E+00  0.00000000E+00  0.00000000E+00
  0.00000000E+00  0.00000000E+00  0.00000000E+00
  0.00000000E+00  0.00000000E+00  0.00000000E+00
  0.00000000E+00  0.00000000E+00  0.00000000E+00
  0.00000000E+00  0.00000000E+00  0.00000000E+00
  0.00000000E+00  0.00000000E+00  0.00000000E+00
  0.00000000E+00  0.00000000E+00  0.00000000E+00
  0.00000000E+00  0.00000000E+00  0.00000000E+00
  0.00000000E+00  0.00000000E+00  0.00000000E+00
  0.00000000E+00  0.00000000E+00  0.00000000E+00
