C H O Si                                
   1.00000000000000     
     9.2874599999999994    0.0000000000000000    0.0000000000000000
     0.0000000000000000    8.7563099999999991    0.0000000000000000
     0.0000000000000000    0.0000000000000000   58.0000000000000000
   C    H    O    Si
    36    33    16    36
Selective dynamics
Direct
  0.9931181404203434  0.1263350391177056  0.0604350775067869   T   T   T
  0.3265127833303119  0.1265009701741631  0.0605419023942245   T   T   T
  0.6597432290629428  0.1264148498425054  0.0605282074103031   T   T   T
  0.9931774422796404  0.6264991745035818  0.0604499529372546   T   T   T
  0.3265227762410550  0.6263243569477493  0.0605660762086779   T   T   T
  0.6597958751771267  0.6263943278565316  0.0605171097364398   T   T   T
  0.1595894569827900  0.3722434608773339  0.1393753957926363   T   T   T
  0.4928881138236986  0.3728321328085523  0.1396568079915514   T   T   T
  0.8262204900449769  0.3722062704964066  0.1393134931883922   T   T   T
  0.1597838389895820  0.8723602299030958  0.1394509728744459   T   T   T
  0.4928348866460491  0.8721711471853351  0.1394915400897331   T   T   T
  0.8260453565893656  0.8723986743299250  0.1394193711717623   T   T   T
  0.3269414388084773  0.1229664974250070  0.1666929102943301   T   T   T
  0.6590790884574618  0.1227487386272587  0.1666752589376249   T   T   T
  0.9933288772757451  0.1219014595042151  0.1664360732235320   T   T   T
  0.3261934501173815  0.6225591263014173  0.1668056944659764   T   T   T
  0.6602105845554295  0.6227914022241323  0.1666579005407776   T   T   T
  0.9932262552796907  0.6225861237374010  0.1665350778068612   T   T   T
  0.1597123816167087  0.3747320720276115  0.1917189406878020   T   T   T
  0.4932643870061592  0.3800269073054558  0.1927553377351548   T   T   T
  0.8270997197584011  0.3738708537904282  0.1915395110742238   T   T   T
  0.1596461070170010  0.8769567580956741  0.1920273769056554   T   T   T
  0.4930285949914233  0.8761128978136543  0.1920958220485892   T   T   T
  0.8266508749042152  0.8770929633523580  0.1919561964272459   T   T   T
  0.1596753506232264  0.3725461158727819  0.0858269508405583   T   T   T
  0.4929407984629339  0.3725603976048727  0.0859868898676092   T   T   T
  0.8261901293223627  0.3725968805413720  0.0857984035716595   T   T   T
  0.1596868810369367  0.8725404067742977  0.0858663192204421   T   T   T
  0.4929031928075688  0.8725200877635837  0.0859141539433034   T   T   T
  0.8261287678396824  0.8726040560552776  0.0858450957337553   T   T   T
  0.3262756554233371  0.1224116799881414  0.1130987696206933   T   T   T
  0.6594948487483007  0.1223886004757290  0.1130799960323975   T   T   T
  0.9929105869551991  0.1222783355232133  0.1129756195435527   T   T   T
  0.3262187144585182  0.6222798235037185  0.1131339500187330   T   T   T
  0.6595574873387446  0.6223762603176625  0.1130644401157166   T   T   T
  0.9928955004144751  0.6224827326222504  0.1129930318117029   T   T   T
  0.0724944962837310  0.3563040560422687  0.0277153582127962   T   T   T
  0.4043934459059994  0.3561776236788611  0.0279809200662750   T   T   T
  0.7373917643589125  0.3558594242634124  0.0278406430605768   T   T   T
  0.0729360123594188  0.8565268119205439  0.0277470386223418   T   T   T
  0.4042116059742997  0.8557345545755498  0.0279109317791197   T   T   T
  0.7374465461762721  0.8559585973532778  0.0278613908111034   T   T   T
  0.3246235522866998  0.0530721326980245  0.0451299923784782   T   T   T
  0.6570079641890547  0.0531136359548177  0.0451046194848373   T   T   T
  0.9907977165237991  0.0531155002812570  0.0449962501870167   T   T   T
  0.3243057283158337  0.5528749938474403  0.0451564400839897   T   T   T
  0.6573325187094522  0.5530226003095158  0.0450999157131182   T   T   T
  0.9908309214772012  0.5532556097105611  0.0450163398995863   T   T   T
  0.8285338687606955  0.8040670046128470  0.2073889960697186   T   T   T
  0.8294482267770495  0.3012122063629739  0.2070281032314557   T   T   T
  0.1612747972322956  0.3019912657953808  0.2071994081664922   T   T   T
  0.4962936102694588  0.3056015479449238  0.2080514190927843   T   T   T
  0.1615725956913387  0.8032723523685763  0.2074089692489354   T   T   T
  0.4935551247966974  0.8025510889096148  0.2075102128076992   T   T   T
  0.0813161236451704  0.1078078031512113  0.2244995078843500   T   T   T
  0.4161074645775302  0.1079630253775682  0.2244564707349807   T   T   T
  0.7497058005594551  0.1065549807708320  0.2245019755204020   T   T   T
  0.0803885163075626  0.6020647099156233  0.2242894613767884   T   T   T
  0.3787949444457425  0.6185989628514894  0.2283019886930576   T   T   T
  0.7820117912749787  0.5909467297592940  0.2227934763428747   T   T   T
  0.5510188620743781  0.6126546429141546  0.2740928338214183   T   T   T
  0.4963741036157082  0.4770499207066730  0.2934583848997246   T   T   T
  0.5745182081269858  0.6397674815174572  0.3034366543383576   T   T   T
  0.3141382145118886  0.3887233335879507  0.3093310180397533   T   T   T
  0.4206953986496785  0.2596633797767610  0.3019114534959834   T   T   T
  0.6500418312742077  0.7329600434795439  0.3344016270108600   T   T   T
  0.4846237801265111  0.7564682791689773  0.3312209648210853   T   T   T
  0.5207418570043388  0.7899800722835949  0.2521902214989346   T   T   T
  0.5877086221052861  0.6448703231685965  0.2387758379100878   T   T   T
  0.1677447677868519  0.3313681629938471  0.0338016568799885   T   T   T
  0.5002972852733627  0.3325592680954284  0.0339486972994886   T   T   T
  0.8332431665912947  0.3315877820907320  0.0337693905796103   T   T   T
  0.1681230863799071  0.8315379277578090  0.0338479719755185   T   T   T
  0.5000928682836887  0.8319766798317233  0.0338869563420484   T   T   T
  0.8332890362809562  0.8317651060761739  0.0338007041676945   T   T   T
  0.3201321668014107  0.0825877202886843  0.2186919630850295   T   T   T
  0.6535230570775767  0.0825391447455817  0.2186722358227936   T   T   T
  0.9855372777122013  0.0830470508150058  0.2185696838442420   T   T   T
  0.2986245595944294  0.5820000966050993  0.2187886101081247   T   T   T
  0.6789961818674047  0.5826672704473970  0.2187088243776586   T   T   T
  0.9837291762396827  0.5784344488396180  0.2184323207142928   T   T   T
  0.5741452962743998  0.5602010290835452  0.2900355958333291   T   T   T
  0.3823263634051290  0.3589212380530399  0.2973519865014838   T   T   T
  0.5759266626773837  0.7538886533152716  0.3228949793265457   T   T   T
  0.5167554546825700  0.6787447436479749  0.2513490779005027   T   T   T
  0.4933296683020437  0.2436028228396314  0.0601099515984656   T   T   T
  0.8265866090117058  0.2434112495096511  0.0599751526101122   T   T   T
  0.1601299550522336  0.7433573409822587  0.0600462483068833   T   T   T
  0.4932913748204301  0.7434327408714445  0.0600706835175660   T   T   T
  0.8265944993843926  0.7434918744390976  0.0600034542309079   T   T   T
  0.1599852111167104  0.2433471272399789  0.0600096903556869   T   T   T
  0.9929632546207386  0.9966573274080830  0.1395368428165790   T   T   T
  0.3264829762169968  0.9971776582153620  0.1396735121898137   T   T   T
  0.6591775126052239  0.9970591929673399  0.1396570417350653   T   T   T
  0.9929294396158007  0.4969709547878650  0.1395298338793428   T   T   T
  0.3260145196611811  0.4971337630305602  0.1397453355283907   T   T   T
  0.6597438266985687  0.4970283403340082  0.1396222664475315   T   T   T
  0.1597637939822817  0.2459031911537403  0.1657244847746183   T   T   T
  0.4930272034143202  0.2481509360056413  0.1662217555635138   T   T   T
  0.8266161642059249  0.2451377883120243  0.1655816238053210   T   T   T
  0.1597502606824772  0.7469415594223813  0.1659211108808026   T   T   T
  0.4929537813573452  0.7464205540602247  0.1659522650818047   T   T   T
  0.8268198243328194  0.7470872436520238  0.1658787765356528   T   T   T
  0.3261816661050781  0.9938431471761781  0.1925103197803782   T   T   T
  0.6596898940098751  0.9936484653269562  0.1924997430854044   T   T   T
  0.9930042402548186  0.9941216961856546  0.1923921784001256   T   T   T
  0.3239959250372549  0.4949820711751643  0.1928614572324761   T   T   T
  0.9931113540952069  0.4914137772673103  0.1920608826197192   T   T   T
  0.6624626827852910  0.4930392363480253  0.1922670691483861   T   T   T
  0.9929385735296326  0.9965249262596894  0.0865326726295878   T   T   T
  0.3263539131068349  0.9966611445609389  0.0866262390198304   T   T   T
  0.6594629056787902  0.9966260371259147  0.0866147297700231   T   T   T
  0.9929666872716667  0.4966072630598983  0.0865340391939257   T   T   T
  0.3263307048433451  0.4965832806365978  0.0866570515343951   T   T   T
  0.6595329021592052  0.4966303596114414  0.0866069031695494   T   T   T
  0.1595723247688595  0.2470121600433465  0.1127905650081255   T   T   T
  0.4928784321233911  0.2471738592909615  0.1129835508308062   T   T   T
  0.8262459449967363  0.2469656574167136  0.1127425052407957   T   T   T
  0.1596869653212632  0.7470680532840436  0.1128504688359808   T   T   T
  0.4928295324719106  0.7469704859147542  0.1128790339682193   T   T   T
  0.8261713477545644  0.7471202705482342  0.1128173647996720   T   T   T
 
  0.00000000E+00  0.00000000E+00  0.00000000E+00
  0.00000000E+00  0.00000000E+00  0.00000000E+00
  0.00000000E+00  0.00000000E+00  0.00000000E+00
  0.00000000E+00  0.00000000E+00  0.00000000E+00
  0.00000000E+00  0.00000000E+00  0.00000000E+00
  0.00000000E+00  0.00000000E+00  0.00000000E+00
  0.00000000E+00  0.00000000E+00  0.00000000E+00
  0.00000000E+00  0.00000000E+00  0.00000000E+00
  0.00000000E+00  0.00000000E+00  0.00000000E+00
  0.00000000E+00  0.00000000E+00  0.00000000E+00
  0.00000000E+00  0.00000000E+00  0.00000000E+00
  0.00000000E+00  0.00000000E+00  0.00000000E+00
  0.00000000E+00  0.00000000E+00  0.00000000E+00
  0.00000000E+00  0.00000000E+00  0.00000000E+00
  0.00000000E+00  0.00000000E+00  0.00000000E+00
  0.00000000E+00  0.00000000E+00  0.00000000E+00
  0.00000000E+00  0.00000000E+00  0.00000000E+00
  0.00000000E+00  0.00000000E+00  0.00000000E+00
  0.00000000E+00  0.00000000E+00  0.00000000E+00
  0.00000000E+00  0.00000000E+00  0.00000000E+00
  0.00000000E+00  0.00000000E+00  0.00000000E+00
  0.00000000E+00  0.00000000E+00  0.00000000E+00
  0.00000000E+00  0.00000000E+00  0.00000000E+00
  0.00000000E+00  0.00000000E+00  0.00000000E+00
  0.00000000E+00  0.00000000E+00  0.00000000E+00
  0.00000000E+00  0.00000000E+00  0.00000000E+00
  0.00000000E+00  0.00000000E+00  0.00000000E+00
  0.00000000E+00  0.00000000E+00  0.00000000E+00
  0.00000000E+00  0.00000000E+00  0.00000000E+00
  0.00000000E+00  0.00000000E+00  0.00000000E+00
  0.00000000E+00  0.00000000E+00  0.00000000E+00
  0.00000000E+00  0.00000000E+00  0.00000000E+00
  0.00000000E+00  0.00000000E+00  0.00000000E+00
  0.00000000E+00  0.00000000E+00  0.00000000E+00
  0.00000000E+00  0.00000000E+00  0.00000000E+00
  0.00000000E+00  0.00000000E+00  0.00000000E+00
  0.00000000E+00  0.00000000E+00  0.00000000E+00
  0.00000000E+00  0.00000000E+00  0.00000000E+00
  0.00000000E+00  0.00000000E+00  0.00000000E+00
  0.00000000E+00  0.00000000E+00  0.00000000E+00
  0.00000000E+00  0.00000000E+00  0.00000000E+00
  0.00000000E+00  0.00000000E+00  0.00000000E+00
  0.00000000E+00  0.00000000E+00  0.00000000E+00
  0.00000000E+00  0.00000000E+00  0.00000000E+00
  0.00000000E+00  0.00000000E+00  0.00000000E+00
  0.00000000E+00  0.00000000E+00  0.00000000E+00
  0.00000000E+00  0.00000000E+00  0.00000000E+00
  0.00000000E+00  0.00000000E+00  0.00000000E+00
  0.00000000E+00  0.00000000E+00  0.00000000E+00
  0.00000000E+00  0.00000000E+00  0.00000000E+00
  0.00000000E+00  0.00000000E+00  0.00000000E+00
  0.00000000E+00  0.00000000E+00  0.00000000E+00
  0.00000000E+00  0.00000000E+00  0.00000000E+00
  0.00000000E+00  0.00000000E+00  0.00000000E+00
  0.00000000E+00  0.00000000E+00  0.00000000E+00
  0.00000000E+00  0.00000000E+00  0.00000000E+00
  0.00000000E+00  0.00000000E+00  0.00000000E+00
  0.00000000E+00  0.00000000E+00  0.00000000E+00
  0.00000000E+00  0.00000000E+00  0.00000000E+00
  0.00000000E+00  0.00000000E+00  0.00000000E+00
  0.00000000E+00  0.00000000E+00  0.00000000E+00
  0.00000000E+00  0.00000000E+00  0.00000000E+00
  0.00000000E+00  0.00000000E+00  0.00000000E+00
  0.00000000E+00  0.00000000E+00  0.00000000E+00
  0.00000000E+00  0.00000000E+00  0.00000000E+00
  0.00000000E+00  0.00000000E+00  0.00000000E+00
  0.00000000E+00  0.00000000E+00  0.00000000E+00
  0.00000000E+00  0.00000000E+00  0.00000000E+00
  0.00000000E+00  0.00000000E+00  0.00000000E+00
  0.00000000E+00  0.00000000E+00  0.00000000E+00
  0.00000000E+00  0.00000000E+00  0.00000000E+00
  0.00000000E+00  0.00000000E+00  0.00000000E+00
  0.00000000E+00  0.00000000E+00  0.00000000E+00
  0.00000000E+00  0.00000000E+00  0.00000000E+00
  0.00000000E+00  0.00000000E+00  0.00000000E+00
  0.00000000E+00  0.00000000E+00  0.00000000E+00
  0.00000000E+00  0.00000000E+00  0.00000000E+00
  0.00000000E+00  0.00000000E+00  0.00000000E+00
  0.00000000E+00  0.00000000E+00  0.00000000E+00
  0.00000000E+00  0.00000000E+00  0.00000000E+00
  0.00000000E+00  0.00000000E+00  0.00000000E+00
  0.00000000E+00  0.00000000E+00  0.00000000E+00
  0.00000000E+00  0.00000000E+00  0.00000000E+00
  0.00000000E+00  0.00000000E+00  0.00000000E+00
  0.00000000E+00  0.00000000E+00  0.00000000E+00
  0.00000000E+00  0.00000000E+00  0.00000000E+00
  0.00000000E+00  0.00000000E+00  0.00000000E+00
  0.00000000E+00  0.00000000E+00  0.00000000E+00
  0.00000000E+00  0.00000000E+00  0.00000000E+00
  0.00000000E+00  0.00000000E+00  0.00000000E+00
  0.00000000E+00  0.00000000E+00  0.00000000E+00
  0.00000000E+00  0.00000000E+00  0.00000000E+00
  0.00000000E+00  0.00000000E+00  0.00000000E+00
  0.00000000E+00  0.00000000E+00  0.00000000E+00
  0.00000000E+00  0.00000000E+00  0.00000000E+00
  0.00000000E+00  0.00000000E+00  0.00000000E+00
  0.00000000E+00  0.00000000E+00  0.00000000E+00
  0.00000000E+00  0.00000000E+00  0.00000000E+00
  0.00000000E+00  0.00000000E+00  0.00000000E+00
  0.00000000E+00  0.00000000E+00  0.00000000E+00
  0.00000000E+00  0.00000000E+00  0.00000000E+00
  0.00000000E+00  0.00000000E+00  0.00000000E+00
  0.00000000E+00  0.00000000E+00  0.00000000E+00
  0.00000000E+00  0.00000000E+00  0.00000000E+00
  0.00000000E+00  0.00000000E+00  0.00000000E+00
  0.00000000E+00  0.00000000E+00  0.00000000E+00
  0.00000000E+00  0.00000000E+00  0.00000000E+00
  0.00000000E+00  0.00000000E+00  0.00000000E+00
  0.00000000E+00  0.00000000E+00  0.00000000E+00
  0.00000000E+00  0.00000000E+00  0.00000000E+00
  0.00000000E+00  0.00000000E+00  0.00000000E+00
  0.00000000E+00  0.00000000E+00  0.00000000E+00
  0.00000000E+00  0.00000000E+00  0.00000000E+00
  0.00000000E+00  0.00000000E+00  0.00000000E+00
  0.00000000E+00  0.00000000E+00  0.00000000E+00
  0.00000000E+00  0.00000000E+00  0.00000000E+00
  0.00000000E+00  0.00000000E+00  0.00000000E+00
  0.00000000E+00  0.00000000E+00  0.00000000E+00
  0.00000000E+00  0.00000000E+00  0.00000000E+00
  0.00000000E+00  0.00000000E+00  0.00000000E+00
  0.00000000E+00  0.00000000E+00  0.00000000E+00
