C H O Si                                
   1.00000000000000     
     9.2874599999999994    0.0000000000000000    0.0000000000000000
     0.0000000000000000    8.7563099999999991    0.0000000000000000
     0.0000000000000000    0.0000000000000000   58.0000000000000000
   C    H    O    Si
    36    33    16    36
Selective dynamics
Direct
  0.9932977798644123  0.1265600848340905  0.0604326111434444   T   T   T
  0.3267757089317433  0.1264757258920706  0.0605471985181110   T   T   T
  0.6598928951771375  0.1265501059304433  0.0605192041510701   T   T   T
  0.9932720683982071  0.6266736783825104  0.0604550319753443   T   T   T
  0.3268105520986038  0.6263158685824385  0.0605630060890364   T   T   T
  0.6599164860431669  0.6265250896118540  0.0605172001304460   T   T   T
  0.1593882149893781  0.3723683416320474  0.1393821326820097   T   T   T
  0.4926200267028653  0.3727307487440079  0.1396412189599631   T   T   T
  0.8259412301073822  0.3722271312241862  0.1393461990408071   T   T   T
  0.1596358269665186  0.8724272937038318  0.1394406157045713   T   T   T
  0.4926955448169862  0.8721651096356581  0.1394886004208440   T   T   T
  0.8258711585169937  0.8725056464062289  0.1394198653958365   T   T   T
  0.3266624200882527  0.1230145131368259  0.1667517147741233   T   T   T
  0.6588142925987220  0.1228070383442648  0.1667253023459626   T   T   T
  0.9929362247840492  0.1218420255265900  0.1664686139225063   T   T   T
  0.3260694892620358  0.6227275891961402  0.1668283692326379   T   T   T
  0.6596603437892877  0.6228733146999985  0.1666853330606332   T   T   T
  0.9928676339313270  0.6225267512254739  0.1665656676225054   T   T   T
  0.1596418550380762  0.3746261027155492  0.1917415197265038   T   T   T
  0.4931092507951580  0.3798966067287911  0.1927622808408502   T   T   T
  0.8268325880306348  0.3739200923368448  0.1915711433432453   T   T   T
  0.1597109920974752  0.8768073198028479  0.1920224379547291   T   T   T
  0.4931979629412712  0.8761667300809226  0.1920938580904355   T   T   T
  0.8267500047729349  0.8766714691600423  0.1919486706978296   T   T   T
  0.1595582402271974  0.3726919089171751  0.0857991408900965   T   T   T
  0.4929889734593043  0.3726991519737615  0.0859616042135516   T   T   T
  0.8262298544684216  0.3726781713037094  0.0857816172698706   T   T   T
  0.1596962096213497  0.8726874756676274  0.0858378133986265   T   T   T
  0.4929557768811539  0.8726726627420203  0.0858717787300197   T   T   T
  0.8262420096125063  0.8727168584468683  0.0858189389374746   T   T   T
  0.3261475903112969  0.1224372107842242  0.1131010176723508   T   T   T
  0.6593011084593565  0.1224106125074459  0.1130981121841780   T   T   T
  0.9927809526626287  0.1223066781959568  0.1129955216269846   T   T   T
  0.3260682639006846  0.6223084621811483  0.1131201936698334   T   T   T
  0.6593697358212304  0.6223822009789834  0.1130850207398181   T   T   T
  0.9927003655426365  0.6224769016314921  0.1130155505657772   T   T   T
  0.0723114289718836  0.3558923745715636  0.0277235532253352   T   T   T
  0.4041917267210637  0.3558690711743655  0.0279579808549907   T   T   T
  0.7370310590548953  0.3555983529136138  0.0278101340941469   T   T   T
  0.0729018982327790  0.8559813480591567  0.0277761941171328   T   T   T
  0.4039464682272252  0.8554569962958051  0.0278797283082995   T   T   T
  0.7371364249107024  0.8556852585642827  0.0278380986766619   T   T   T
  0.3246022656689956  0.0529720088595698  0.0451410291759214   T   T   T
  0.6570326413605240  0.0529953035942598  0.0451218671871881   T   T   T
  0.9908309685152704  0.0530409677777059  0.0450283381291375   T   T   T
  0.3242947476798995  0.5527431098347875  0.0451676332791231   T   T   T
  0.6573284201042994  0.5529400854934101  0.0451239437182365   T   T   T
  0.9908470138953904  0.5532016606892037  0.0450469809452319   T   T   T
  0.8283557014913954  0.8038523933928314  0.2074022449602516   T   T   T
  0.8295585312853971  0.3010558997313105  0.2070333659501947   T   T   T
  0.1610991194351757  0.3018359906746773  0.2072234186764537   T   T   T
  0.4962518639831691  0.3055368671101578  0.2080653779184328   T   T   T
  0.1612962341425205  0.8031659615750092  0.2074083386046280   T   T   T
  0.4932834951360489  0.8025057435122517  0.2074944169472067   T   T   T
  0.0817737299536306  0.1080084977513936  0.2245937073301492   T   T   T
  0.4166817202236032  0.1081026704733060  0.2244981716783831   T   T   T
  0.7502855825738989  0.1065780775192924  0.2245625944898405   T   T   T
  0.0804326365849909  0.6020661161965853  0.2242612680367795   T   T   T
  0.3796384993423085  0.6185015378896933  0.2284231059267769   T   T   T
  0.7821231026302370  0.5909130609604856  0.2227900988347680   T   T   T
  0.5511710796428601  0.6126552445835465  0.2740730642115605   T   T   T
  0.4971226842140701  0.4772905690523446  0.2934726322555996   T   T   T
  0.5750582147780413  0.6398676473204860  0.3034009354836509   T   T   T
  0.3141424550715908  0.3890072798518057  0.3093531533754397   T   T   T
  0.4205391397400661  0.2596283884899199  0.3018945125028303   T   T   T
  0.6500034374820345  0.7331364428384973  0.3344508143553745   T   T   T
  0.4842703511674286  0.7564631222529496  0.3312702096575501   T   T   T
  0.5206696724314464  0.7899710384536325  0.2521218137920930   T   T   T
  0.5874903326507024  0.6444730621293353  0.2387496302287722   T   T   T
  0.1680935923944858  0.3311710898212469  0.0336332466464349   T   T   T
  0.5002653070823303  0.3327196005064579  0.0339077796152195   T   T   T
  0.8331946204319203  0.3314933746321803  0.0336325034320531   T   T   T
  0.1685965025261963  0.8314428731570354  0.0337334180732176   T   T   T
  0.5001246732211743  0.8321052861947461  0.0337628782619738   T   T   T
  0.8332554230315089  0.8316080408567769  0.0336795271270945   T   T   T
  0.3206289955567616  0.0828858872382468  0.2187256301661064   T   T   T
  0.6540405431093789  0.0828618476464330  0.2187071589621197   T   T   T
  0.9863941192497361  0.0828398858649513  0.2185951796398244   T   T   T
  0.3000143714542187  0.5822106973108269  0.2187698207247499   T   T   T
  0.6791246201145184  0.5831343939853660  0.2186839727982429   T   T   T
  0.9838711134856786  0.5772286476800709  0.2184856930211228   T   T   T
  0.5746911958980122  0.5602999305744133  0.2900053216250336   T   T   T
  0.3819807113790059  0.3588412137189829  0.2973501906902151   T   T   T
  0.5756463648312354  0.7537231488992970  0.3229812963473274   T   T   T
  0.5165511206616744  0.6786897370368183  0.2513260277215472   T   T   T
  0.4935174791425953  0.2437228691967931  0.0600829334016501   T   T   T
  0.8267559666821932  0.2436277092619064  0.0599075843238955   T   T   T
  0.1604768423855613  0.7434430404288651  0.0599954084210993   T   T   T
  0.4935343187809111  0.7436432559372498  0.0600002982634904   T   T   T
  0.8267496638879083  0.7436753359638978  0.0599449614096851   T   T   T
  0.1603694087975295  0.2435156795316355  0.0599330867651963   T   T   T
  0.9928790358648402  0.9966832126676684  0.1395704341320521   T   T   T
  0.3263933275283894  0.9972781327436193  0.1397166359353601   T   T   T
  0.6590381069052904  0.9972104369434808  0.1397026104734233   T   T   T
  0.9927409437422960  0.4969764009463249  0.1395748705597101   T   T   T
  0.3258763093668220  0.4973041786410320  0.1397741621709438   T   T   T
  0.6594734300081968  0.4970915136374265  0.1396686490621540   T   T   T
  0.1594160593692985  0.2458876533647264  0.1657285827937869   T   T   T
  0.4927082303789214  0.2481746963023931  0.1662309162796206   T   T   T
  0.8262470241725443  0.2452135000296845  0.1656247490924067   T   T   T
  0.1595173359669080  0.7469418880047166  0.1659129667323149   T   T   T
  0.4926675518561985  0.7466229149566945  0.1659498230314226   T   T   T
  0.8264263252129723  0.7469335483017946  0.1658561176781380   T   T   T
  0.3263412194925582  0.9938031198516811  0.1925704279824584   T   T   T
  0.6599872848403991  0.9935184645345266  0.1925487015918795   T   T   T
  0.9931128445745152  0.9937769144692929  0.1924065192689128   T   T   T
  0.3240654652381305  0.4949447881397639  0.1928818972766935   T   T   T
  0.9930121748915430  0.4910648685087295  0.1920728852622111   T   T   T
  0.6622082382134976  0.4929637378411834  0.1922801155122463   T   T   T
  0.9929891214162982  0.9967533039308116  0.0865412608702114   T   T   T
  0.3263700660672519  0.9967554180242610  0.0866394798568180   T   T   T
  0.6595847592039974  0.9968120840118651  0.0866175501093556   T   T   T
  0.9929079058502555  0.4968174324950298  0.0865504148693077   T   T   T
  0.3263266276465221  0.4966800357296511  0.0866593360134914   T   T   T
  0.6596123730404655  0.4967704961249464  0.0866149085478651   T   T   T
  0.1594258788058596  0.2471314839126168  0.1127800449818969   T   T   T
  0.4927095854676650  0.2472306064592315  0.1129524890548259   T   T   T
  0.8260370553889070  0.2470248417657883  0.1127543166126886   T   T   T
  0.1595120491001611  0.7471342629986806  0.1128282554559003   T   T   T
  0.4926750167024818  0.7471020205990937  0.1128493355903971   T   T   T
  0.8259397760864107  0.7471760616677958  0.1128070750729029   T   T   T
 
  0.00000000E+00  0.00000000E+00  0.00000000E+00
  0.00000000E+00  0.00000000E+00  0.00000000E+00
  0.00000000E+00  0.00000000E+00  0.00000000E+00
  0.00000000E+00  0.00000000E+00  0.00000000E+00
  0.00000000E+00  0.00000000E+00  0.00000000E+00
  0.00000000E+00  0.00000000E+00  0.00000000E+00
  0.00000000E+00  0.00000000E+00  0.00000000E+00
  0.00000000E+00  0.00000000E+00  0.00000000E+00
  0.00000000E+00  0.00000000E+00  0.00000000E+00
  0.00000000E+00  0.00000000E+00  0.00000000E+00
  0.00000000E+00  0.00000000E+00  0.00000000E+00
  0.00000000E+00  0.00000000E+00  0.00000000E+00
  0.00000000E+00  0.00000000E+00  0.00000000E+00
  0.00000000E+00  0.00000000E+00  0.00000000E+00
  0.00000000E+00  0.00000000E+00  0.00000000E+00
  0.00000000E+00  0.00000000E+00  0.00000000E+00
  0.00000000E+00  0.00000000E+00  0.00000000E+00
  0.00000000E+00  0.00000000E+00  0.00000000E+00
  0.00000000E+00  0.00000000E+00  0.00000000E+00
  0.00000000E+00  0.00000000E+00  0.00000000E+00
  0.00000000E+00  0.00000000E+00  0.00000000E+00
  0.00000000E+00  0.00000000E+00  0.00000000E+00
  0.00000000E+00  0.00000000E+00  0.00000000E+00
  0.00000000E+00  0.00000000E+00  0.00000000E+00
  0.00000000E+00  0.00000000E+00  0.00000000E+00
  0.00000000E+00  0.00000000E+00  0.00000000E+00
  0.00000000E+00  0.00000000E+00  0.00000000E+00
  0.00000000E+00  0.00000000E+00  0.00000000E+00
  0.00000000E+00  0.00000000E+00  0.00000000E+00
  0.00000000E+00  0.00000000E+00  0.00000000E+00
  0.00000000E+00  0.00000000E+00  0.00000000E+00
  0.00000000E+00  0.00000000E+00  0.00000000E+00
  0.00000000E+00  0.00000000E+00  0.00000000E+00
  0.00000000E+00  0.00000000E+00  0.00000000E+00
  0.00000000E+00  0.00000000E+00  0.00000000E+00
  0.00000000E+00  0.00000000E+00  0.00000000E+00
  0.00000000E+00  0.00000000E+00  0.00000000E+00
  0.00000000E+00  0.00000000E+00  0.00000000E+00
  0.00000000E+00  0.00000000E+00  0.00000000E+00
  0.00000000E+00  0.00000000E+00  0.00000000E+00
  0.00000000E+00  0.00000000E+00  0.00000000E+00
  0.00000000E+00  0.00000000E+00  0.00000000E+00
  0.00000000E+00  0.00000000E+00  0.00000000E+00
  0.00000000E+00  0.00000000E+00  0.00000000E+00
  0.00000000E+00  0.00000000E+00  0.00000000E+00
  0.00000000E+00  0.00000000E+00  0.00000000E+00
  0.00000000E+00  0.00000000E+00  0.00000000E+00
  0.00000000E+00  0.00000000E+00  0.00000000E+00
  0.00000000E+00  0.00000000E+00  0.00000000E+00
  0.00000000E+00  0.00000000E+00  0.00000000E+00
  0.00000000E+00  0.00000000E+00  0.00000000E+00
  0.00000000E+00  0.00000000E+00  0.00000000E+00
  0.00000000E+00  0.00000000E+00  0.00000000E+00
  0.00000000E+00  0.00000000E+00  0.00000000E+00
  0.00000000E+00  0.00000000E+00  0.00000000E+00
  0.00000000E+00  0.00000000E+00  0.00000000E+00
  0.00000000E+00  0.00000000E+00  0.00000000E+00
  0.00000000E+00  0.00000000E+00  0.00000000E+00
  0.00000000E+00  0.00000000E+00  0.00000000E+00
  0.00000000E+00  0.00000000E+00  0.00000000E+00
  0.00000000E+00  0.00000000E+00  0.00000000E+00
  0.00000000E+00  0.00000000E+00  0.00000000E+00
  0.00000000E+00  0.00000000E+00  0.00000000E+00
  0.00000000E+00  0.00000000E+00  0.00000000E+00
  0.00000000E+00  0.00000000E+00  0.00000000E+00
  0.00000000E+00  0.00000000E+00  0.00000000E+00
  0.00000000E+00  0.00000000E+00  0.00000000E+00
  0.00000000E+00  0.00000000E+00  0.00000000E+00
  0.00000000E+00  0.00000000E+00  0.00000000E+00
  0.00000000E+00  0.00000000E+00  0.00000000E+00
  0.00000000E+00  0.00000000E+00  0.00000000E+00
  0.00000000E+00  0.00000000E+00  0.00000000E+00
  0.00000000E+00  0.00000000E+00  0.00000000E+00
  0.00000000E+00  0.00000000E+00  0.00000000E+00
  0.00000000E+00  0.00000000E+00  0.00000000E+00
  0.00000000E+00  0.00000000E+00  0.00000000E+00
  0.00000000E+00  0.00000000E+00  0.00000000E+00
  0.00000000E+00  0.00000000E+00  0.00000000E+00
  0.00000000E+00  0.00000000E+00  0.00000000E+00
  0.00000000E+00  0.00000000E+00  0.00000000E+00
  0.00000000E+00  0.00000000E+00  0.00000000E+00
  0.00000000E+00  0.00000000E+00  0.00000000E+00
  0.00000000E+00  0.00000000E+00  0.00000000E+00
  0.00000000E+00  0.00000000E+00  0.00000000E+00
  0.00000000E+00  0.00000000E+00  0.00000000E+00
  0.00000000E+00  0.00000000E+00  0.00000000E+00
  0.00000000E+00  0.00000000E+00  0.00000000E+00
  0.00000000E+00  0.00000000E+00  0.00000000E+00
  0.00000000E+00  0.00000000E+00  0.00000000E+00
  0.00000000E+00  0.00000000E+00  0.00000000E+00
  0.00000000E+00  0.00000000E+00  0.00000000E+00
  0.00000000E+00  0.00000000E+00  0.00000000E+00
  0.00000000E+00  0.00000000E+00  0.00000000E+00
  0.00000000E+00  0.00000000E+00  0.00000000E+00
  0.00000000E+00  0.00000000E+00  0.00000000E+00
  0.00000000E+00  0.00000000E+00  0.00000000E+00
  0.00000000E+00  0.00000000E+00  0.00000000E+00
  0.00000000E+00  0.00000000E+00  0.00000000E+00
  0.00000000E+00  0.00000000E+00  0.00000000E+00
  0.00000000E+00  0.00000000E+00  0.00000000E+00
  0.00000000E+00  0.00000000E+00  0.00000000E+00
  0.00000000E+00  0.00000000E+00  0.00000000E+00
  0.00000000E+00  0.00000000E+00  0.00000000E+00
  0.00000000E+00  0.00000000E+00  0.00000000E+00
  0.00000000E+00  0.00000000E+00  0.00000000E+00
  0.00000000E+00  0.00000000E+00  0.00000000E+00
  0.00000000E+00  0.00000000E+00  0.00000000E+00
  0.00000000E+00  0.00000000E+00  0.00000000E+00
  0.00000000E+00  0.00000000E+00  0.00000000E+00
  0.00000000E+00  0.00000000E+00  0.00000000E+00
  0.00000000E+00  0.00000000E+00  0.00000000E+00
  0.00000000E+00  0.00000000E+00  0.00000000E+00
  0.00000000E+00  0.00000000E+00  0.00000000E+00
  0.00000000E+00  0.00000000E+00  0.00000000E+00
  0.00000000E+00  0.00000000E+00  0.00000000E+00
  0.00000000E+00  0.00000000E+00  0.00000000E+00
  0.00000000E+00  0.00000000E+00  0.00000000E+00
  0.00000000E+00  0.00000000E+00  0.00000000E+00
  0.00000000E+00  0.00000000E+00  0.00000000E+00
  0.00000000E+00  0.00000000E+00  0.00000000E+00
  0.00000000E+00  0.00000000E+00  0.00000000E+00
