C H O Si                                
   1.00000000000000     
     9.2874599999999994    0.0000000000000000    0.0000000000000000
     0.0000000000000000    8.7563099999999991    0.0000000000000000
     0.0000000000000000    0.0000000000000000   58.0000000000000000
   C    H    O    Si
    36    33    16    36
Selective dynamics
Direct
  0.9958151778532284  0.1302975860328431  0.0594946496695929   T   T   T
  0.3292317279795096  0.1304989550147218  0.0595368782734702   T   T   T
  0.6624735815812463  0.1303695775003144  0.0595866542211070   T   T   T
  0.9957121513065751  0.6305679240000805  0.0595077816905058   T   T   T
  0.3291502683133580  0.6302229769358034  0.0595319382950511   T   T   T
  0.6625342694531755  0.6301845299292902  0.0595591951012834   T   T   T
  0.1617586210428746  0.3759793704902153  0.1382829778421533   T   T   T
  0.4949376580819530  0.3762423269256461  0.1386821994312460   T   T   T
  0.8283834075559604  0.3761581518973226  0.1383097545081470   T   T   T
  0.1619827325884754  0.8760911637537633  0.1384052530872803   T   T   T
  0.4950125592156448  0.8746747154554900  0.1382913106099722   T   T   T
  0.8279364725983344  0.8760883390086603  0.1384659505177095   T   T   T
  0.3284752013727227  0.1267926534630010  0.1656794164250968   T   T   T
  0.6619626554268216  0.1269489049141636  0.1657858016567505   T   T   T
  0.9949917088131073  0.1254949260634584  0.1654116402006649   T   T   T
  0.3280085349800229  0.6264549247365755  0.1656595101467991   T   T   T
  0.6623333758338907  0.6262467145724980  0.1656842111831624   T   T   T
  0.9951275895019122  0.6261589465604225  0.1654406345994235   T   T   T
  0.1620437101083276  0.3783611446664570  0.1904750984764277   T   T   T
  0.4948095837537109  0.3845557825235184  0.1917475914739753   T   T   T
  0.8291780034669756  0.3789741481245015  0.1906347016110809   T   T   T
  0.1616456770338621  0.8805456332931078  0.1908602145931087   T   T   T
  0.4954881002386563  0.8824894355962017  0.1902574360011797   T   T   T
  0.8292300823320575  0.8805055283838064  0.1910170005005290   T   T   T
  0.1619891089124875  0.3761914340313014  0.0848234833218422   T   T   T
  0.4952316178897142  0.3761315584465442  0.0849891017567367   T   T   T
  0.8286880028582893  0.3761611385665036  0.0848668350221112   T   T   T
  0.1621383862028335  0.8762664065504335  0.0848550539841738   T   T   T
  0.4952723682708283  0.8760190618539316  0.0848025049675277   T   T   T
  0.8285030200391316  0.8763385364145778  0.0849144175175624   T   T   T
  0.3285264369849235  0.1258720808756266  0.1121000304599201   T   T   T
  0.6617563864489342  0.1258589237555940  0.1121357650699347   T   T   T
  0.9950069626878617  0.1258131467836293  0.1120292406033710   T   T   T
  0.3283893812961284  0.6257010548720955  0.1120595431217676   T   T   T
  0.6618406207552808  0.6257441266352809  0.1120827167544273   T   T   T
  0.9950213152876051  0.6262139401597515  0.1120053593125578   T   T   T
  0.0787859545143629  0.3617105091194510  0.0262212831562359   T   T   T
  0.4123557367690289  0.3618843531053281  0.0263242519641172   T   T   T
  0.7444191611310250  0.3611554148808117  0.0263212446580557   T   T   T
  0.0788384232127685  0.8616855550609082  0.0262666950845474   T   T   T
  0.4121415695588840  0.8613606072383797  0.0261969024884918   T   T   T
  0.7443838490154159  0.8612796794919402  0.0263242356117813   T   T   T
  0.3270333041384245  0.0578272872907804  0.0440411107451705   T   T   T
  0.6596748844136019  0.0576691262297179  0.0441017872860912   T   T   T
  0.9932159826171626  0.0577135921985210  0.0439882860050965   T   T   T
  0.3264685033471871  0.5575458521173363  0.0440410267804573   T   T   T
  0.6601884203431737  0.5575322634669165  0.0440714246426084   T   T   T
  0.9931009556332460  0.5581278630061111  0.0439852780650025   T   T   T
  0.8314536765536152  0.8075824486590967  0.2064705476102659   T   T   T
  0.8316332248834511  0.3063595495332994  0.2061319822913660   T   T   T
  0.1640745741561906  0.3063172645059600  0.2060374255449540   T   T   T
  0.4968455542224748  0.3105329008500121  0.2071060811866799   T   T   T
  0.1637535295751610  0.8073738532663026  0.2062865262125256   T   T   T
  0.5387841243973809  0.9286922323996737  0.2611483712677251   T   T   T
  0.0861349774285753  0.1102184567509365  0.2234672071350558   T   T   T
  0.4168822048857510  0.1031120379636504  0.2241816474887788   T   T   T
  0.7531706125678859  0.1121522472217618  0.2233437123863284   T   T   T
  0.0920175780056708  0.6036562291697141  0.2224326338726760   T   T   T
  0.3671300945885441  0.5700649736348026  0.2301691015731160   T   T   T
  0.7795193770054397  0.5948370176254272  0.2226224035815927   T   T   T
  0.5001107089741339  0.5448949648807151  0.2661887600567935   T   T   T
  0.4729511361558495  0.4556728516301521  0.3006259050612932   T   T   T
  0.5215226683219656  0.6235882170982133  0.3087195147679387   T   T   T
  0.2899530506880820  0.2737677443083602  0.2967563355124559   T   T   T
  0.4389712646141470  0.2146861701108574  0.2889330932137390   T   T   T
  0.6384396622147845  0.7725489024714525  0.3350117343743566   T   T   T
  0.5022117597056938  0.8616424981025550  0.3274369293225180   T   T   T
  0.5067952296676377  0.8808545972032595  0.2705963790095205   T   T   T
  0.5669632213572097  0.5405330965670038  0.2406004669187894   T   T   T
  0.1723261470058352  0.3371875104278743  0.0329765959139326   T   T   T
  0.5058170902443504  0.3374689058249987  0.0331139043273365   T   T   T
  0.8383110248494320  0.3371490050397529  0.0329962660649383   T   T   T
  0.1723957230914578  0.8372313377953179  0.0330135310496439   T   T   T
  0.5056934411922002  0.8367239405534724  0.0329384082906186   T   T   T
  0.8382126067124245  0.8377035700249053  0.0330628841962954   T   T   T
  0.3214897447741676  0.0884886364446126  0.2174151758476660   T   T   T
  0.6567953564236285  0.0887890049526947  0.2175696002290302   T   T   T
  0.9900962420251670  0.0880142544054228  0.2174067046858331   T   T   T
  0.3024706707596682  0.5961535569499032  0.2169333858760067   T   T   T
  0.6782502274930755  0.5869091944192134  0.2178588139698797   T   T   T
  0.9923743859667310  0.5845757805380311  0.2172225100383337   T   T   T
  0.5283392058252004  0.5476083719560232  0.2960821721740912   T   T   T
  0.3905722799037575  0.2680985626686279  0.3014932898309386   T   T   T
  0.5364724850538590  0.7599355570301740  0.3315007832374784   T   T   T
  0.4828938133749381  0.5095813664302792  0.2501503040613867   T   T   T
  0.4960501704323778  0.2477346088744164  0.0589358577171748   T   T   T
  0.8292941574890071  0.2476624840752055  0.0588440341157089   T   T   T
  0.1627409946331358  0.7476820429072205  0.0588430985020998   T   T   T
  0.4960212811713976  0.7475548984473223  0.0588141605622036   T   T   T
  0.8291418589671544  0.7478391529084527  0.0588763417462511   T   T   T
  0.1626940604990567  0.2476912510033311  0.0588135617494847   T   T   T
  0.9948632032179848  0.0003205228795265  0.1387043514472036   T   T   T
  0.3294531896956169  0.0007060956105189  0.1389025272267070   T   T   T
  0.6605206476231134  0.0008284687478491  0.1389633271050301   T   T   T
  0.9950893433947985  0.5007624504594801  0.1386391601695073   T   T   T
  0.3283643303047055  0.5012740301804357  0.1388786894237423   T   T   T
  0.6615332882684000  0.5011961091821223  0.1388672581538926   T   T   T
  0.1620478199780339  0.2491598710609840  0.1648379245342929   T   T   T
  0.4949630902886109  0.2513668759586788  0.1655616516094023   T   T   T
  0.8283924468965900  0.2493725033505848  0.1648828907188589   T   T   T
  0.1620253494307425  0.7506501343083437  0.1650561493641088   T   T   T
  0.4950535715510403  0.7520764294793859  0.1658529467830561   T   T   T
  0.8283994377311694  0.7506345384541792  0.1651441992623323   T   T   T
  0.3316749699971084  0.9933532192289031  0.1918346149507417   T   T   T
  0.6588216959908857  0.9935884083695599  0.1920018725001101   T   T   T
  0.9955080725861146  0.9974622343883695  0.1915409600510427   T   T   T
  0.3258978243934231  0.5009030166067858  0.1920307890837367   T   T   T
  0.9958392029429582  0.4955050739261764  0.1912416550515798   T   T   T
  0.6638922834009383  0.4987591060432530  0.1917843820705154   T   T   T
  0.9953027349043746  0.0004416759247044  0.0854884448800027   T   T   T
  0.3288649536007526  0.0005677441604427  0.0855293689390993   T   T   T
  0.6617056342796585  0.0005405197599105  0.0855717297007048   T   T   T
  0.9952868620112869  0.5005588983673274  0.0854737822503533   T   T   T
  0.3286538806208872  0.5004475023882000  0.0855356900618640   T   T   T
  0.6619775436941320  0.5004218126290839  0.0855567127679001   T   T   T
  0.1618676470411095  0.2507530556879259  0.1118097193073625   T   T   T
  0.4950959104503354  0.2508923942994669  0.1120422029868870   T   T   T
  0.8283142594603620  0.2507387988258357  0.1118331453033922   T   T   T
  0.1619781690002332  0.7509772524816961  0.1118550823791855   T   T   T
  0.4950677887976559  0.7506993584117334  0.1118606287494774   T   T   T
  0.8281750505925433  0.7510633184087210  0.1119003004187610   T   T   T
 
  0.00000000E+00  0.00000000E+00  0.00000000E+00
  0.00000000E+00  0.00000000E+00  0.00000000E+00
  0.00000000E+00  0.00000000E+00  0.00000000E+00
  0.00000000E+00  0.00000000E+00  0.00000000E+00
  0.00000000E+00  0.00000000E+00  0.00000000E+00
  0.00000000E+00  0.00000000E+00  0.00000000E+00
  0.00000000E+00  0.00000000E+00  0.00000000E+00
  0.00000000E+00  0.00000000E+00  0.00000000E+00
  0.00000000E+00  0.00000000E+00  0.00000000E+00
  0.00000000E+00  0.00000000E+00  0.00000000E+00
  0.00000000E+00  0.00000000E+00  0.00000000E+00
  0.00000000E+00  0.00000000E+00  0.00000000E+00
  0.00000000E+00  0.00000000E+00  0.00000000E+00
  0.00000000E+00  0.00000000E+00  0.00000000E+00
  0.00000000E+00  0.00000000E+00  0.00000000E+00
  0.00000000E+00  0.00000000E+00  0.00000000E+00
  0.00000000E+00  0.00000000E+00  0.00000000E+00
  0.00000000E+00  0.00000000E+00  0.00000000E+00
  0.00000000E+00  0.00000000E+00  0.00000000E+00
  0.00000000E+00  0.00000000E+00  0.00000000E+00
  0.00000000E+00  0.00000000E+00  0.00000000E+00
  0.00000000E+00  0.00000000E+00  0.00000000E+00
  0.00000000E+00  0.00000000E+00  0.00000000E+00
  0.00000000E+00  0.00000000E+00  0.00000000E+00
  0.00000000E+00  0.00000000E+00  0.00000000E+00
  0.00000000E+00  0.00000000E+00  0.00000000E+00
  0.00000000E+00  0.00000000E+00  0.00000000E+00
  0.00000000E+00  0.00000000E+00  0.00000000E+00
  0.00000000E+00  0.00000000E+00  0.00000000E+00
  0.00000000E+00  0.00000000E+00  0.00000000E+00
  0.00000000E+00  0.00000000E+00  0.00000000E+00
  0.00000000E+00  0.00000000E+00  0.00000000E+00
  0.00000000E+00  0.00000000E+00  0.00000000E+00
  0.00000000E+00  0.00000000E+00  0.00000000E+00
  0.00000000E+00  0.00000000E+00  0.00000000E+00
  0.00000000E+00  0.00000000E+00  0.00000000E+00
  0.00000000E+00  0.00000000E+00  0.00000000E+00
  0.00000000E+00  0.00000000E+00  0.00000000E+00
  0.00000000E+00  0.00000000E+00  0.00000000E+00
  0.00000000E+00  0.00000000E+00  0.00000000E+00
  0.00000000E+00  0.00000000E+00  0.00000000E+00
  0.00000000E+00  0.00000000E+00  0.00000000E+00
  0.00000000E+00  0.00000000E+00  0.00000000E+00
  0.00000000E+00  0.00000000E+00  0.00000000E+00
  0.00000000E+00  0.00000000E+00  0.00000000E+00
  0.00000000E+00  0.00000000E+00  0.00000000E+00
  0.00000000E+00  0.00000000E+00  0.00000000E+00
  0.00000000E+00  0.00000000E+00  0.00000000E+00
  0.00000000E+00  0.00000000E+00  0.00000000E+00
  0.00000000E+00  0.00000000E+00  0.00000000E+00
  0.00000000E+00  0.00000000E+00  0.00000000E+00
  0.00000000E+00  0.00000000E+00  0.00000000E+00
  0.00000000E+00  0.00000000E+00  0.00000000E+00
  0.00000000E+00  0.00000000E+00  0.00000000E+00
  0.00000000E+00  0.00000000E+00  0.00000000E+00
  0.00000000E+00  0.00000000E+00  0.00000000E+00
  0.00000000E+00  0.00000000E+00  0.00000000E+00
  0.00000000E+00  0.00000000E+00  0.00000000E+00
  0.00000000E+00  0.00000000E+00  0.00000000E+00
  0.00000000E+00  0.00000000E+00  0.00000000E+00
  0.00000000E+00  0.00000000E+00  0.00000000E+00
  0.00000000E+00  0.00000000E+00  0.00000000E+00
  0.00000000E+00  0.00000000E+00  0.00000000E+00
  0.00000000E+00  0.00000000E+00  0.00000000E+00
  0.00000000E+00  0.00000000E+00  0.00000000E+00
  0.00000000E+00  0.00000000E+00  0.00000000E+00
  0.00000000E+00  0.00000000E+00  0.00000000E+00
  0.00000000E+00  0.00000000E+00  0.00000000E+00
  0.00000000E+00  0.00000000E+00  0.00000000E+00
  0.00000000E+00  0.00000000E+00  0.00000000E+00
  0.00000000E+00  0.00000000E+00  0.00000000E+00
  0.00000000E+00  0.00000000E+00  0.00000000E+00
  0.00000000E+00  0.00000000E+00  0.00000000E+00
  0.00000000E+00  0.00000000E+00  0.00000000E+00
  0.00000000E+00  0.00000000E+00  0.00000000E+00
  0.00000000E+00  0.00000000E+00  0.00000000E+00
  0.00000000E+00  0.00000000E+00  0.00000000E+00
  0.00000000E+00  0.00000000E+00  0.00000000E+00
  0.00000000E+00  0.00000000E+00  0.00000000E+00
  0.00000000E+00  0.00000000E+00  0.00000000E+00
  0.00000000E+00  0.00000000E+00  0.00000000E+00
  0.00000000E+00  0.00000000E+00  0.00000000E+00
  0.00000000E+00  0.00000000E+00  0.00000000E+00
  0.00000000E+00  0.00000000E+00  0.00000000E+00
  0.00000000E+00  0.00000000E+00  0.00000000E+00
  0.00000000E+00  0.00000000E+00  0.00000000E+00
  0.00000000E+00  0.00000000E+00  0.00000000E+00
  0.00000000E+00  0.00000000E+00  0.00000000E+00
  0.00000000E+00  0.00000000E+00  0.00000000E+00
  0.00000000E+00  0.00000000E+00  0.00000000E+00
  0.00000000E+00  0.00000000E+00  0.00000000E+00
  0.00000000E+00  0.00000000E+00  0.00000000E+00
  0.00000000E+00  0.00000000E+00  0.00000000E+00
  0.00000000E+00  0.00000000E+00  0.00000000E+00
  0.00000000E+00  0.00000000E+00  0.00000000E+00
  0.00000000E+00  0.00000000E+00  0.00000000E+00
  0.00000000E+00  0.00000000E+00  0.00000000E+00
  0.00000000E+00  0.00000000E+00  0.00000000E+00
  0.00000000E+00  0.00000000E+00  0.00000000E+00
  0.00000000E+00  0.00000000E+00  0.00000000E+00
  0.00000000E+00  0.00000000E+00  0.00000000E+00
  0.00000000E+00  0.00000000E+00  0.00000000E+00
  0.00000000E+00  0.00000000E+00  0.00000000E+00
  0.00000000E+00  0.00000000E+00  0.00000000E+00
  0.00000000E+00  0.00000000E+00  0.00000000E+00
  0.00000000E+00  0.00000000E+00  0.00000000E+00
  0.00000000E+00  0.00000000E+00  0.00000000E+00
  0.00000000E+00  0.00000000E+00  0.00000000E+00
  0.00000000E+00  0.00000000E+00  0.00000000E+00
  0.00000000E+00  0.00000000E+00  0.00000000E+00
  0.00000000E+00  0.00000000E+00  0.00000000E+00
  0.00000000E+00  0.00000000E+00  0.00000000E+00
  0.00000000E+00  0.00000000E+00  0.00000000E+00
  0.00000000E+00  0.00000000E+00  0.00000000E+00
  0.00000000E+00  0.00000000E+00  0.00000000E+00
  0.00000000E+00  0.00000000E+00  0.00000000E+00
  0.00000000E+00  0.00000000E+00  0.00000000E+00
  0.00000000E+00  0.00000000E+00  0.00000000E+00
  0.00000000E+00  0.00000000E+00  0.00000000E+00
  0.00000000E+00  0.00000000E+00  0.00000000E+00
  0.00000000E+00  0.00000000E+00  0.00000000E+00
