C H O Si                                
   1.00000000000000     
     9.2874599999999994    0.0000000000000000    0.0000000000000000
     0.0000000000000000    8.7563099999999991    0.0000000000000000
     0.0000000000000000    0.0000000000000000   58.0000000000000000
   C    H    O    Si
    36    33    16    36
Selective dynamics
Direct
  0.9958316972915697  0.1304902876799410  0.0594901386023100   T   T   T
  0.3292692538051000  0.1304684138638043  0.0595493560181171   T   T   T
  0.6624734899112381  0.1303458577730032  0.0595806661018639   T   T   T
  0.9957657333806791  0.6306586002540594  0.0595036173676952   T   T   T
  0.3292092633543439  0.6302300012487291  0.0595282531762121   T   T   T
  0.6624566408319377  0.6302202375565150  0.0595495628642137   T   T   T
  0.1614667587250882  0.3760825887114857  0.1383082439608908   T   T   T
  0.4949432275766735  0.3762199820596719  0.1386788175153774   T   T   T
  0.8285455180271217  0.3760384760167816  0.1383554953718471   T   T   T
  0.1618513905426177  0.8760048364921621  0.1384014344954623   T   T   T
  0.4949292310784584  0.8746035531605892  0.1383313135802913   T   T   T
  0.8280279594981403  0.8759417904879097  0.1384981825612978   T   T   T
  0.3281959232290281  0.1264316598049925  0.1657025628443486   T   T   T
  0.6617485939651793  0.1268636159230257  0.1657770557140069   T   T   T
  0.9948936762697272  0.1256661868703559  0.1654220766993353   T   T   T
  0.3279031636542117  0.6263544999605843  0.1656494955096838   T   T   T
  0.6619413886081306  0.6262510556142623  0.1656816010306121   T   T   T
  0.9949508756075199  0.6260446877542343  0.1654575638967279   T   T   T
  0.1618325132902377  0.3782698620168159  0.1904790979608126   T   T   T
  0.4946708025328435  0.3845728734207641  0.1917467455929242   T   T   T
  0.8292040158062294  0.3790471226351916  0.1906306299329517   T   T   T
  0.1618021019472959  0.8806771817118679  0.1908599552018837   T   T   T
  0.4956313584077539  0.8823646258325679  0.1902984622370912   T   T   T
  0.8291674667768918  0.8805413253302060  0.1910339873618115   T   T   T
  0.1618389891946280  0.3761708332178066  0.0848314481465944   T   T   T
  0.4952329269366544  0.3762511235381010  0.0850099817152936   T   T   T
  0.8285114271277035  0.3761980315931416  0.0848555322157464   T   T   T
  0.1619156735694530  0.8763344238877712  0.0848835857067028   T   T   T
  0.4951080356130041  0.8760473994226465  0.0848111270769812   T   T   T
  0.8283433490386556  0.8763312344360807  0.0849297082597861   T   T   T
  0.3284346229102405  0.1256692636304404  0.1121037978665798   T   T   T
  0.6613373570639063  0.1256865252641377  0.1121545167341551   T   T   T
  0.9948567706317579  0.1258257492398622  0.1120015177985289   T   T   T
  0.3282799295819105  0.6256966544304124  0.1120827720774824   T   T   T
  0.6616054674221971  0.6256339340964931  0.1120914892928887   T   T   T
  0.9948447677370552  0.6263151525918357  0.1119933888920473   T   T   T
  0.0789043002287752  0.3617212209899399  0.0262228882544998   T   T   T
  0.4124892579220669  0.3619112574112506  0.0263177833677202   T   T   T
  0.7445863474697775  0.3611107602736459  0.0263375649792461   T   T   T
  0.0789635719154481  0.8616691321867257  0.0262754558431743   T   T   T
  0.4123251516761736  0.8613725513878838  0.0261945298510724   T   T   T
  0.7445791755512796  0.8612902157710220  0.0263160142651418   T   T   T
  0.3270959169481755  0.0579197508065872  0.0440408403999858   T   T   T
  0.6597768729373816  0.0576691254172112  0.0440939189840242   T   T   T
  0.9933359606021943  0.0577755128218690  0.0440079654572498   T   T   T
  0.3265894614742251  0.5575780125738891  0.0440317008845355   T   T   T
  0.6602692430847522  0.5575002446746875  0.0440612784929663   T   T   T
  0.9931974550499930  0.5581397043596752  0.0439873469193073   T   T   T
  0.8314867325259736  0.8076237541772686  0.2064863583174118   T   T   T
  0.8315867374955221  0.3064095985484964  0.2061201672324646   T   T   T
  0.1640053996022413  0.3062642782195469  0.2060369755700746   T   T   T
  0.4967937651622529  0.3105919296220929  0.2071095279325902   T   T   T
  0.1637657626353702  0.8075404323124182  0.2062836994696830   T   T   T
  0.5387847670721241  0.9286519032664442  0.2611118846543112   T   T   T
  0.0864331004853949  0.1103344660804033  0.2234460342087282   T   T   T
  0.4172299746251722  0.1030298742567138  0.2241709367324325   T   T   T
  0.7534947425408484  0.1123557407712241  0.2233430941113502   T   T   T
  0.0921091964169360  0.6036319950117740  0.2223950433280375   T   T   T
  0.3671381676881102  0.5702125636546506  0.2301785141487636   T   T   T
  0.7794915696498637  0.5946828333927243  0.2226128357402961   T   T   T
  0.5001324713883344  0.5450407362756267  0.2661717066553346   T   T   T
  0.4727409799848726  0.4557602424723691  0.3006311306851203   T   T   T
  0.5212723666130086  0.6235186090266567  0.3087167601345552   T   T   T
  0.2898504595263202  0.2737331639567408  0.2967369747473895   T   T   T
  0.4392907626236287  0.2147145425476829  0.2888824620294949   T   T   T
  0.6386143605286535  0.7724246479028349  0.3349998574632025   T   T   T
  0.5022951140891007  0.8616854755204837  0.3274482756544247   T   T   T
  0.5066739509444138  0.8806799827289615  0.2705332258966477   T   T   T
  0.5669098894725506  0.5406814510039961  0.2405804959965089   T   T   T
  0.1724996661572704  0.3372570312352034  0.0329651951288848   T   T   T
  0.5060023526906692  0.3373283923519309  0.0330778308543163   T   T   T
  0.8385490371562357  0.3370939929799871  0.0329850135956534   T   T   T
  0.1725841991818375  0.8372012840229341  0.0330010244993584   T   T   T
  0.5058581851367571  0.8366937665442624  0.0329348446665651   T   T   T
  0.8383327115122197  0.8376249943513713  0.0330677215971563   T   T   T
  0.3218255909620888  0.0881491573598674  0.2174228729789887   T   T   T
  0.6572007078260232  0.0886855368006883  0.2175610545339194   T   T   T
  0.9902011598517610  0.0878327436654075  0.2174749556579031   T   T   T
  0.3029628358729755  0.5966096157150684  0.2168820187772212   T   T   T
  0.6781733878553942  0.5871428473112298  0.2178626994092793   T   T   T
  0.9924413864556474  0.5847355728368506  0.2172038362352861   T   T   T
  0.5282979254222170  0.5475651412318419  0.2960845405481602   T   T   T
  0.3906048872026468  0.2681375158231391  0.3014077307914482   T   T   T
  0.5366101921203174  0.7599768226368716  0.3315027005804224   T   T   T
  0.4829049491689435  0.5096376969200406  0.2501396982220999   T   T   T
  0.4961209982366842  0.2478179982860447  0.0589254409617378   T   T   T
  0.8292462006089710  0.2475969398942343  0.0588327147132680   T   T   T
  0.1628322792195205  0.7477511333004085  0.0588438491269671   T   T   T
  0.4960270077000678  0.7476194421135895  0.0588131939888421   T   T   T
  0.8291141106600646  0.7478734826735776  0.0588822768653021   T   T   T
  0.1627807580059932  0.2476746878515153  0.0587965070873635   T   T   T
  0.9950658173871503  0.0004284500615549  0.1386892147247769   T   T   T
  0.3294150643494224  0.0005857685090605  0.1389101607837965   T   T   T
  0.6605309938033165  0.0006822763122606  0.1389787432450315   T   T   T
  0.9950320114559033  0.5010015717880756  0.1386380437788396   T   T   T
  0.3282878489996012  0.5012987712593961  0.1389031850020173   T   T   T
  0.6618037106228596  0.5010985809368349  0.1388707929990349   T   T   T
  0.1619880658981605  0.2491326081699970  0.1648441470277119   T   T   T
  0.4946828061150469  0.2512697684479580  0.1655720290526460   T   T   T
  0.8282716052682597  0.2493503031919887  0.1648966807366200   T   T   T
  0.1620085809126701  0.7506323099184966  0.1650531873613159   T   T   T
  0.4949354445066316  0.7520545142704758  0.1658785162221362   T   T   T
  0.8281491681286491  0.7506378118074175  0.1651624606945905   T   T   T
  0.3318704664766250  0.9933381691350684  0.1918378042235084   T   T   T
  0.6589633663378495  0.9936202128807957  0.1919753259214136   T   T   T
  0.9955326858620969  0.9974656883061132  0.1915628039942087   T   T   T
  0.3257024220335248  0.5009334391293930  0.1920190546560100   T   T   T
  0.9958568157010297  0.4954442140842052  0.1912488281918016   T   T   T
  0.6638776672397602  0.4988234591168794  0.1917877942066378   T   T   T
  0.9952605605521027  0.0005536227810031  0.0854817398949753   T   T   T
  0.3288245997102168  0.0004683666521066  0.0855385923576586   T   T   T
  0.6616986723758000  0.0004787054122998  0.0855758081303570   T   T   T
  0.9952943948392896  0.5005555551189955  0.0854715814734904   T   T   T
  0.3286684785572632  0.5005024377668920  0.0855532102590487   T   T   T
  0.6619710383453095  0.5004713754067760  0.0855565781066029   T   T   T
  0.1617929449398640  0.2506940749026369  0.1118066199784508   T   T   T
  0.4948970645822932  0.2509228195522151  0.1120415559583133   T   T   T
  0.8280584814904239  0.2506908976506425  0.1118504192347364   T   T   T
  0.1619114622977278  0.7509154255989912  0.1118606914444321   T   T   T
  0.4949454612056540  0.7508550707786726  0.1118696099953278   T   T   T
  0.8278920268890301  0.7509131173989869  0.1119163480569863   T   T   T
 
  0.00000000E+00  0.00000000E+00  0.00000000E+00
  0.00000000E+00  0.00000000E+00  0.00000000E+00
  0.00000000E+00  0.00000000E+00  0.00000000E+00
  0.00000000E+00  0.00000000E+00  0.00000000E+00
  0.00000000E+00  0.00000000E+00  0.00000000E+00
  0.00000000E+00  0.00000000E+00  0.00000000E+00
  0.00000000E+00  0.00000000E+00  0.00000000E+00
  0.00000000E+00  0.00000000E+00  0.00000000E+00
  0.00000000E+00  0.00000000E+00  0.00000000E+00
  0.00000000E+00  0.00000000E+00  0.00000000E+00
  0.00000000E+00  0.00000000E+00  0.00000000E+00
  0.00000000E+00  0.00000000E+00  0.00000000E+00
  0.00000000E+00  0.00000000E+00  0.00000000E+00
  0.00000000E+00  0.00000000E+00  0.00000000E+00
  0.00000000E+00  0.00000000E+00  0.00000000E+00
  0.00000000E+00  0.00000000E+00  0.00000000E+00
  0.00000000E+00  0.00000000E+00  0.00000000E+00
  0.00000000E+00  0.00000000E+00  0.00000000E+00
  0.00000000E+00  0.00000000E+00  0.00000000E+00
  0.00000000E+00  0.00000000E+00  0.00000000E+00
  0.00000000E+00  0.00000000E+00  0.00000000E+00
  0.00000000E+00  0.00000000E+00  0.00000000E+00
  0.00000000E+00  0.00000000E+00  0.00000000E+00
  0.00000000E+00  0.00000000E+00  0.00000000E+00
  0.00000000E+00  0.00000000E+00  0.00000000E+00
  0.00000000E+00  0.00000000E+00  0.00000000E+00
  0.00000000E+00  0.00000000E+00  0.00000000E+00
  0.00000000E+00  0.00000000E+00  0.00000000E+00
  0.00000000E+00  0.00000000E+00  0.00000000E+00
  0.00000000E+00  0.00000000E+00  0.00000000E+00
  0.00000000E+00  0.00000000E+00  0.00000000E+00
  0.00000000E+00  0.00000000E+00  0.00000000E+00
  0.00000000E+00  0.00000000E+00  0.00000000E+00
  0.00000000E+00  0.00000000E+00  0.00000000E+00
  0.00000000E+00  0.00000000E+00  0.00000000E+00
  0.00000000E+00  0.00000000E+00  0.00000000E+00
  0.00000000E+00  0.00000000E+00  0.00000000E+00
  0.00000000E+00  0.00000000E+00  0.00000000E+00
  0.00000000E+00  0.00000000E+00  0.00000000E+00
  0.00000000E+00  0.00000000E+00  0.00000000E+00
  0.00000000E+00  0.00000000E+00  0.00000000E+00
  0.00000000E+00  0.00000000E+00  0.00000000E+00
  0.00000000E+00  0.00000000E+00  0.00000000E+00
  0.00000000E+00  0.00000000E+00  0.00000000E+00
  0.00000000E+00  0.00000000E+00  0.00000000E+00
  0.00000000E+00  0.00000000E+00  0.00000000E+00
  0.00000000E+00  0.00000000E+00  0.00000000E+00
  0.00000000E+00  0.00000000E+00  0.00000000E+00
  0.00000000E+00  0.00000000E+00  0.00000000E+00
  0.00000000E+00  0.00000000E+00  0.00000000E+00
  0.00000000E+00  0.00000000E+00  0.00000000E+00
  0.00000000E+00  0.00000000E+00  0.00000000E+00
  0.00000000E+00  0.00000000E+00  0.00000000E+00
  0.00000000E+00  0.00000000E+00  0.00000000E+00
  0.00000000E+00  0.00000000E+00  0.00000000E+00
  0.00000000E+00  0.00000000E+00  0.00000000E+00
  0.00000000E+00  0.00000000E+00  0.00000000E+00
  0.00000000E+00  0.00000000E+00  0.00000000E+00
  0.00000000E+00  0.00000000E+00  0.00000000E+00
  0.00000000E+00  0.00000000E+00  0.00000000E+00
  0.00000000E+00  0.00000000E+00  0.00000000E+00
  0.00000000E+00  0.00000000E+00  0.00000000E+00
  0.00000000E+00  0.00000000E+00  0.00000000E+00
  0.00000000E+00  0.00000000E+00  0.00000000E+00
  0.00000000E+00  0.00000000E+00  0.00000000E+00
  0.00000000E+00  0.00000000E+00  0.00000000E+00
  0.00000000E+00  0.00000000E+00  0.00000000E+00
  0.00000000E+00  0.00000000E+00  0.00000000E+00
  0.00000000E+00  0.00000000E+00  0.00000000E+00
  0.00000000E+00  0.00000000E+00  0.00000000E+00
  0.00000000E+00  0.00000000E+00  0.00000000E+00
  0.00000000E+00  0.00000000E+00  0.00000000E+00
  0.00000000E+00  0.00000000E+00  0.00000000E+00
  0.00000000E+00  0.00000000E+00  0.00000000E+00
  0.00000000E+00  0.00000000E+00  0.00000000E+00
  0.00000000E+00  0.00000000E+00  0.00000000E+00
  0.00000000E+00  0.00000000E+00  0.00000000E+00
  0.00000000E+00  0.00000000E+00  0.00000000E+00
  0.00000000E+00  0.00000000E+00  0.00000000E+00
  0.00000000E+00  0.00000000E+00  0.00000000E+00
  0.00000000E+00  0.00000000E+00  0.00000000E+00
  0.00000000E+00  0.00000000E+00  0.00000000E+00
  0.00000000E+00  0.00000000E+00  0.00000000E+00
  0.00000000E+00  0.00000000E+00  0.00000000E+00
  0.00000000E+00  0.00000000E+00  0.00000000E+00
  0.00000000E+00  0.00000000E+00  0.00000000E+00
  0.00000000E+00  0.00000000E+00  0.00000000E+00
  0.00000000E+00  0.00000000E+00  0.00000000E+00
  0.00000000E+00  0.00000000E+00  0.00000000E+00
  0.00000000E+00  0.00000000E+00  0.00000000E+00
  0.00000000E+00  0.00000000E+00  0.00000000E+00
  0.00000000E+00  0.00000000E+00  0.00000000E+00
  0.00000000E+00  0.00000000E+00  0.00000000E+00
  0.00000000E+00  0.00000000E+00  0.00000000E+00
  0.00000000E+00  0.00000000E+00  0.00000000E+00
  0.00000000E+00  0.00000000E+00  0.00000000E+00
  0.00000000E+00  0.00000000E+00  0.00000000E+00
  0.00000000E+00  0.00000000E+00  0.00000000E+00
  0.00000000E+00  0.00000000E+00  0.00000000E+00
  0.00000000E+00  0.00000000E+00  0.00000000E+00
  0.00000000E+00  0.00000000E+00  0.00000000E+00
  0.00000000E+00  0.00000000E+00  0.00000000E+00
  0.00000000E+00  0.00000000E+00  0.00000000E+00
  0.00000000E+00  0.00000000E+00  0.00000000E+00
  0.00000000E+00  0.00000000E+00  0.00000000E+00
  0.00000000E+00  0.00000000E+00  0.00000000E+00
  0.00000000E+00  0.00000000E+00  0.00000000E+00
  0.00000000E+00  0.00000000E+00  0.00000000E+00
  0.00000000E+00  0.00000000E+00  0.00000000E+00
  0.00000000E+00  0.00000000E+00  0.00000000E+00
  0.00000000E+00  0.00000000E+00  0.00000000E+00
  0.00000000E+00  0.00000000E+00  0.00000000E+00
  0.00000000E+00  0.00000000E+00  0.00000000E+00
  0.00000000E+00  0.00000000E+00  0.00000000E+00
  0.00000000E+00  0.00000000E+00  0.00000000E+00
  0.00000000E+00  0.00000000E+00  0.00000000E+00
  0.00000000E+00  0.00000000E+00  0.00000000E+00
  0.00000000E+00  0.00000000E+00  0.00000000E+00
  0.00000000E+00  0.00000000E+00  0.00000000E+00
  0.00000000E+00  0.00000000E+00  0.00000000E+00
  0.00000000E+00  0.00000000E+00  0.00000000E+00
