C H O Si                                
   1.00000000000000     
     9.2874599999999994    0.0000000000000000    0.0000000000000000
     0.0000000000000000   17.5126199999999983    0.0000000000000000
     0.0000000000000000    0.0000000000000000   58.0000000000000000
   C    H    O    Si
    72    57    28    72
Selective dynamics
Direct
  0.9935437562167900  0.0631391010013683  0.0604531411541136   T   T   T
  0.3268829169068120  0.0631450656886321  0.0605472475365646   T   T   T
  0.6601990882892920  0.0631594287209185  0.0605221393096911   T   T   T
  0.9933506282430218  0.3131985166551121  0.0604498443248334   T   T   T
  0.3267334311075774  0.3131171012654481  0.0605536228318561   T   T   T
  0.6600727196761338  0.3131635379436126  0.0605137239292172   T   T   T
  0.1599666916793712  0.1860109400701915  0.1393879534676163   T   T   T
  0.4932006785596424  0.1863487519156007  0.1396365896954682   T   T   T
  0.8266504187022571  0.1859965936294870  0.1393231277281435   T   T   T
  0.1598168109626757  0.4361589433398616  0.1394387213409888   T   T   T
  0.4931626744735091  0.4360660096907136  0.1394812949139025   T   T   T
  0.8265749667452092  0.4361557051185810  0.1394253889757891   T   T   T
  0.3272189216926483  0.0613902845576541  0.1667060700242300   T   T   T
  0.6595574039571122  0.0613765152481823  0.1666761243615603   T   T   T
  0.9936149171908346  0.0606926113636629  0.1664594978700713   T   T   T
  0.3264275116304405  0.3112684316069662  0.1667817009970291   T   T   T
  0.6603817155480394  0.3113519271737690  0.1666514832748796   T   T   T
  0.9934285559269078  0.3112169894516179  0.1665153108585705   T   T   T
  0.1602845914386781  0.1872224465329853  0.1917192904465286   T   T   T
  0.4936826945305880  0.1899479575826746  0.1927497547006144   T   T   T
  0.8275628303311965  0.1868381340688791  0.1915399148191644   T   T   T
  0.1597157074757336  0.4384389717694732  0.1919867872815760   T   T   T
  0.4932611890955897  0.4380065445587811  0.1920198128769939   T   T   T
  0.8268102931422074  0.4384866585210201  0.1919385170699567   T   T   T
  0.1598966279508350  0.1862407310561592  0.0858210568591162   T   T   T
  0.4931953176178821  0.1862749265773875  0.0859557383514445   T   T   T
  0.8265234214868655  0.1862207602852296  0.0857821649886828   T   T   T
  0.1599518133906119  0.4362346348453157  0.0858508361240283   T   T   T
  0.4932222385999713  0.4362241420064321  0.0858896172544338   T   T   T
  0.8265226682839170  0.4362265063439488  0.0858452910453619   T   T   T
  0.3265634781054509  0.0611469650831643  0.1130915676982965   T   T   T
  0.6597524096623577  0.0611568764426305  0.1130793203975129   T   T   T
  0.9931831703118873  0.0610506885576076  0.1130069637898707   T   T   T
  0.3264967930167241  0.3111052812652068  0.1131349358596751   T   T   T
  0.6599357406615576  0.3111254767826550  0.1130879031320120   T   T   T
  0.9931990464294412  0.3111214168023997  0.1129986953886302   T   T   T
  0.9935804039490479  0.5630935567717608  0.0605089341593475   T   T   T
  0.3268345758418890  0.5631237647723307  0.0605220294930000   T   T   T
  0.6602871284719973  0.5631201378665434  0.0605132873686736   T   T   T
  0.9933707957498844  0.8131608533297110  0.0605016854599369   T   T   T
  0.3267028142127739  0.8131027639439335  0.0605072146683275   T   T   T
  0.6600738565047511  0.8131501549133845  0.0604931140161653   T   T   T
  0.1598180511039686  0.6861636620268579  0.1394314544694601   T   T   T
  0.4931003098476953  0.6861470135647475  0.1394443723093841   T   T   T
  0.8263944625560582  0.6861507443556094  0.1394267003648731   T   T   T
  0.1602446434442854  0.9361078613209579  0.1394420120804567   T   T   T
  0.4931466824155069  0.9360700528888438  0.1394476925043145   T   T   T
  0.8263075337860852  0.9361353364851175  0.1394348299323283   T   T   T
  0.3264855379384518  0.5612398922528515  0.1666066215425178   T   T   T
  0.6597482059813355  0.5612318960085073  0.1666066751579433   T   T   T
  0.9932109378225672  0.5614428511487660  0.1665773756995571   T   T   T
  0.3265662295715544  0.8111923977114346  0.1666293539236604   T   T   T
  0.6599748765270740  0.8112311930734809  0.1666064316233510   T   T   T
  0.9932733163962969  0.8112937374577416  0.1666019744172935   T   T   T
  0.1601463426984633  0.6881820272092762  0.1919937159183897   T   T   T
  0.4934355749006435  0.6881831628280844  0.1920106555084489   T   T   T
  0.8266344650088066  0.6881750113967243  0.1919766376765484   T   T   T
  0.1603314379805905  0.9381294463684915  0.1920088031028933   T   T   T
  0.4935271750065491  0.9380760914513753  0.1920209581626121   T   T   T
  0.8267628879185065  0.9381345985554589  0.1919827726025659   T   T   T
  0.1598806242163402  0.6862565508369202  0.0858554736488702   T   T   T
  0.4931957624873057  0.6862093171106264  0.0858606101722510   T   T   T
  0.8265006637180913  0.6862449986144814  0.0858490895204670   T   T   T
  0.1599988963349842  0.9362336313263502  0.0858387611766294   T   T   T
  0.4932108461597478  0.9362274227392635  0.0858642947541987   T   T   T
  0.8264741973629223  0.9362388514911590  0.0858365615959224   T   T   T
  0.3264519905207685  0.5611169133918381  0.1130644790220330   T   T   T
  0.6598165671276085  0.5611181046334139  0.1130643696158081   T   T   T
  0.9931391753395030  0.5611515352925327  0.1130520576310180   T   T   T
  0.3265314576310415  0.8110947077581560  0.1130488827580596   T   T   T
  0.6597878095430409  0.8111195516094257  0.1130437922957701   T   T   T
  0.9931622693449087  0.8112008845086510  0.1130607680616971   T   T   T
  0.0734019417147785  0.1778799854251321  0.0276421074575053   T   T   T
  0.4056641036051492  0.1778643335599135  0.0278120096043347   T   T   T
  0.7388855656659027  0.1778033589337624  0.0276740101546102   T   T   T
  0.0731575866051404  0.4279195170995667  0.0276676090284471   T   T   T
  0.4052445979112834  0.4277525740918260  0.0277555777329957   T   T   T
  0.7382882520529674  0.4277862537391778  0.0277228876412322   T   T   T
  0.3245779935975742  0.0265474268675856  0.0451103389910807   T   T   T
  0.6571092463536083  0.0265440252486521  0.0450953949502011   T   T   T
  0.9910103965645205  0.0265703490098995  0.0450163817222920   T   T   T
  0.3240716795586332  0.2764404130386623  0.0451358931873524   T   T   T
  0.6573188432505858  0.2764961508998566  0.0450896336086982   T   T   T
  0.9907476220975483  0.2766318984885262  0.0450097873832058   T   T   T
  0.8285804178851455  0.4021879644321550  0.2074249154967945   T   T   T
  0.8302031439580458  0.1505075550602205  0.2070248364382596   T   T   T
  0.1617600627587129  0.1509541679467096  0.2072250128043828   T   T   T
  0.4966545027578487  0.1527362658791784  0.2080603008052750   T   T   T
  0.1617012801764943  0.4017205308639761  0.2073963131577527   T   T   T
  0.4939253400699880  0.4015103071239525  0.2074932875022877   T   T   T
  0.0816484470726069  0.0527552714928755  0.2247498727767670   T   T   T
  0.4154060531306041  0.0522974580694040  0.2248807879182086   T   T   T
  0.7488604482064986  0.0524913131674916  0.2248054650655594   T   T   T
  0.0799914106888316  0.3010877924517731  0.2243912419808556   T   T   T
  0.3778811812465777  0.3104007582780438  0.2283407174251705   T   T   T
  0.7823720386435918  0.2953972139201848  0.2228536740943643   T   T   T
  0.5474262750500423  0.3057541106529928  0.2738423479769847   T   T   T
  0.4932190233311525  0.2380451942706499  0.2932981891888546   T   T   T
  0.5721521769970651  0.3198426175904435  0.3030142265789681   T   T   T
  0.3146432472692778  0.1942822067372987  0.3097483676319248   T   T   T
  0.4221328530149447  0.1300927053078101  0.3022730473380401   T   T   T
  0.6505504484453013  0.3661940480787264  0.3335659579917750   T   T   T
  0.4846838927659751  0.3775464823102608  0.3308724228540687   T   T   T
  0.5188916766842289  0.3953846795018209  0.2521465303762003   T   T   T
  0.5862743295877116  0.3231713598298304  0.2386449225365196   T   T   T
  0.0729528117782597  0.6779042106321406  0.0277069336732061   T   T   T
  0.4059957932764555  0.6778386958125232  0.0277278536613705   T   T   T
  0.7391936024069354  0.6778253835786443  0.0277291200908719   T   T   T
  0.0726658978249211  0.9278612826691194  0.0276982430428096   T   T   T
  0.4053356734476469  0.9277710985438939  0.0277339889298802   T   T   T
  0.7387196048428951  0.9278418897375149  0.0277185363809813   T   T   T
  0.3242257526655896  0.5265296054229837  0.0450838952638272   T   T   T
  0.6576154000469550  0.5265325140315849  0.0450788839427906   T   T   T
  0.9908915774290967  0.5265368348124682  0.0450653917115194   T   T   T
  0.3241009982734761  0.7764989409187225  0.0450731442077193   T   T   T
  0.6573271342183329  0.7765203577247455  0.0450676409143608   T   T   T
  0.9907230714595459  0.7765379369339094  0.0450741400169900   T   T   T
  0.8291418965946173  0.9014966453427038  0.2074184268138276   T   T   T
  0.8290491616750071  0.6515466781259176  0.2074153465248929   T   T   T
  0.1623317997495656  0.6515386047104931  0.2074239139819266   T   T   T
  0.4958495056778100  0.6516197912121433  0.2074565267734204   T   T   T
  0.1624514761166704  0.9014893429717148  0.2074410389997616   T   T   T
  0.4959834594848952  0.9014258379823215  0.2074488240790337   T   T   T
  0.0808020904733143  0.5536930373654205  0.2247481540494577   T   T   T
  0.4148533222122920  0.5540782770178649  0.2245919447060870   T   T   T
  0.7481628438060628  0.5535495361056352  0.2246758130333507   T   T   T
  0.0816125657725300  0.8027985684076813  0.2247664956746166   T   T   T
  0.4143920784921005  0.8030998816544496  0.2248347632996164   T   T   T
  0.7491906484754981  0.8025581469367208  0.2247004464328691   T   T   T
  0.1686034847224959  0.1657792511784085  0.0338169551418264   T   T   T
  0.5011944681984661  0.1660044630037103  0.0339084051544292   T   T   T
  0.8343272569549819  0.1656720552653945  0.0337441369643609   T   T   T
  0.1683744800639642  0.4158116721705702  0.0338342575160000   T   T   T
  0.5007981036416642  0.4159571074576062  0.0338522681420332   T   T   T
  0.8338753855147382  0.4160125965887290  0.0338109797789399   T   T   T
  0.3197839694208495  0.0411212935340456  0.2187011932229606   T   T   T
  0.6531618145693006  0.0411750850887071  0.2186712831172603   T   T   T
  0.9862391843296031  0.0412634313276013  0.2185619767575412   T   T   T
  0.2988896310051471  0.2911041923688733  0.2187284761848842   T   T   T
  0.6794034949568016  0.2914492383332332  0.2186911417454345   T   T   T
  0.9837287674933243  0.2890597351782601  0.2184180557989404   T   T   T
  0.5708711422136059  0.2797389049170185  0.2897331800569752   T   T   T
  0.3811707059925297  0.1790041583493873  0.2975723141943696   T   T   T
  0.5752561694798630  0.3774371326835151  0.3223199194551185   T   T   T
  0.5138654891103742  0.3398563733622786  0.2509653921459100   T   T   T
  0.1682595839869164  0.6658187338704916  0.0338435544619151   T   T   T
  0.5014264112391035  0.6657950927870433  0.0338246535023864   T   T   T
  0.8346430319164069  0.6658110471589781  0.0338254179140607   T   T   T
  0.1680074639071189  0.9157823765086457  0.0338212768644434   T   T   T
  0.5008682539653140  0.9159355709917082  0.0338297273580669   T   T   T
  0.8341899109949568  0.9158556665880964  0.0338059873540131   T   T   T
  0.3194725909023742  0.5411400341102217  0.2186483437370694   T   T   T
  0.6527107944310551  0.5411991308294103  0.2186389986290098   T   T   T
  0.9855317598720043  0.5412935598515410  0.2186581892152543   T   T   T
  0.3191079066826247  0.7910198878221963  0.2186931323444755   T   T   T
  0.6533791822640987  0.7911894903336667  0.2186298284945524   T   T   T
  0.9861173719298691  0.7910899517276021  0.2186417295424352   T   T   T
  0.4936990731472167  0.1217533707645663  0.0600562925450581   T   T   T
  0.8269878498775763  0.1216948931763343  0.0599198722836621   T   T   T
  0.1603362162568558  0.3716934054638011  0.0599894214013606   T   T   T
  0.4935769356115508  0.3717084788182948  0.0599993009381722   T   T   T
  0.8268691992054567  0.3717668492881576  0.0599614464607718   T   T   T
  0.1604520254972209  0.1216769399687799  0.0599744887226108   T   T   T
  0.9932079135106154  0.4985205311598306  0.1396307607101143   T   T   T
  0.3264957295134699  0.4984438933394096  0.1396426370253996   T   T   T
  0.6597998448121681  0.4984365146627346  0.1396433175766966   T   T   T
  0.9932722380621918  0.2483343623648316  0.1395347275021449   T   T   T
  0.3263884418385316  0.2484912311420297  0.1397525014507527   T   T   T
  0.6600597226016272  0.2483926192393676  0.1396413477607914   T   T   T
  0.1600661002713378  0.1228187252210445  0.1657603152401028   T   T   T
  0.4933574103001766  0.1240401193087893  0.1662585456982764   T   T   T
  0.8269804354509346  0.1225007751482419  0.1656270207216294   T   T   T
  0.1598838699628163  0.3734116065737459  0.1659167345074250   T   T   T
  0.4931648096682479  0.3731553028153187  0.1659424072353803   T   T   T
  0.8270197053263216  0.3734233327825310  0.1658867440142809   T   T   T
  0.3262351178663286  0.4968991806235291  0.1924919447983240   T   T   T
  0.6598683455051544  0.4968760436404027  0.1924927878376922   T   T   T
  0.9931018489194835  0.4971050849913611  0.1924722202612211   T   T   T
  0.3244399770495758  0.2474919087606472  0.1928826814594192   T   T   T
  0.9935779888757902  0.2456082691554660  0.1920786079590951   T   T   T
  0.6628308108873175  0.2465008846480573  0.1923080630376284   T   T   T
  0.9932272396235078  0.4982193753197716  0.0865710004271012   T   T   T
  0.3265858682677791  0.4982246391287210  0.0865865599254164   T   T   T
  0.6598877348455001  0.4982195072352066  0.0865829224294827   T   T   T
  0.9931929165244588  0.2482277902177074  0.0865145072714584   T   T   T
  0.3265480697166060  0.2482264875623901  0.0866385423674916   T   T   T
  0.6598583312130587  0.2482430134747399  0.0865918930799217   T   T   T
  0.1598896473768272  0.1234621706993797  0.1127978902271824   T   T   T
  0.4931601492456780  0.1235750402249789  0.1129564054439587   T   T   T
  0.8265554905851332  0.1234025883306251  0.1127461524857068   T   T   T
  0.1598509372494184  0.3734900836372502  0.1128452557868847   T   T   T
  0.4931995519577989  0.3734651550809505  0.1128695224676266   T   T   T
  0.8266138685821602  0.3734914366168897  0.1128295819773028   T   T   T
  0.4937611242496085  0.6216718319857510  0.0599861454937278   T   T   T
  0.8270589366113577  0.6216944440505678  0.0599873465327496   T   T   T
  0.1603278145254928  0.8716742055259699  0.0599825249002263   T   T   T
  0.4936053193548716  0.8717109147214034  0.0599803148834802   T   T   T
  0.8268845738788710  0.8717270646062483  0.0599675642521860   T   T   T
  0.1603769969078400  0.6216858023456424  0.0599907142920882   T   T   T
  0.9932900356592755  0.9981719667581465  0.1395515462045263   T   T   T
  0.3269115958302515  0.9985592882794717  0.1396848224203200   T   T   T
  0.6595024281004972  0.9985136880103689  0.1396636882711222   T   T   T
  0.9931261809216337  0.7484693600887907  0.1396324022763682   T   T   T
  0.3264659043879227  0.7484713001743566  0.1396426557086376   T   T   T
  0.6597505782478091  0.7484703697705962  0.1396306047901891   T   T   T
  0.1598607987407049  0.6233469578081932  0.1658952090017800   T   T   T
  0.4931620120720834  0.6233104800677739  0.1659095753561365   T   T   T
  0.8264587338359658  0.6233231941574309  0.1658891135895679   T   T   T
  0.1600126018413679  0.8732587317046565  0.1659097944699177   T   T   T
  0.4932886859049789  0.8732372581749768  0.1659230740900005   T   T   T
  0.8265748199546165  0.8732541071172509  0.1658965774548992   T   T   T
  0.3267364602767798  0.9967390428997897  0.1925605066064324   T   T   T
  0.6599812827413446  0.9967367564481061  0.1925331922106245   T   T   T
  0.9933635880171078  0.9966605562610962  0.1924548294534685   T   T   T
  0.3265310848579095  0.7467919241624429  0.1925165265601086   T   T   T
  0.9931971752095549  0.7467839224280030  0.1924937887956776   T   T   T
  0.6598394383835650  0.7468244627827939  0.1925051724285995   T   T   T
  0.9932537083853424  0.9982113739504659  0.0865223033336603   T   T   T
  0.3266312359405720  0.9982287832994013  0.0866050696638426   T   T   T
  0.6598134205422966  0.9982500721343683  0.0865863606694506   T   T   T
  0.9931756302058852  0.7482579389851542  0.0865813940156988   T   T   T
  0.3265450722451529  0.7482112999577646  0.0865803720298991   T   T   T
  0.6598372309794780  0.7482247292755424  0.0865726811857644   T   T   T
  0.1598298573265489  0.6235090515128213  0.1128408634342646   T   T   T
  0.4931643986564248  0.6234911331466850  0.1128466095989427   T   T   T
  0.8265013210706215  0.6235111720053006  0.1128378912168075   T   T   T
  0.1599937941966281  0.8734851252591931  0.1128382680650278   T   T   T
  0.4931858714143387  0.8734723780770358  0.1128408227382065   T   T   T
  0.8264187885351368  0.8735087629958102  0.1128325037021018   T   T   T
 
  0.00000000E+00  0.00000000E+00  0.00000000E+00
  0.00000000E+00  0.00000000E+00  0.00000000E+00
  0.00000000E+00  0.00000000E+00  0.00000000E+00
  0.00000000E+00  0.00000000E+00  0.00000000E+00
  0.00000000E+00  0.00000000E+00  0.00000000E+00
  0.00000000E+00  0.00000000E+00  0.00000000E+00
  0.00000000E+00  0.00000000E+00  0.00000000E+00
  0.00000000E+00  0.00000000E+00  0.00000000E+00
  0.00000000E+00  0.00000000E+00  0.00000000E+00
  0.00000000E+00  0.00000000E+00  0.00000000E+00
  0.00000000E+00  0.00000000E+00  0.00000000E+00
  0.00000000E+00  0.00000000E+00  0.00000000E+00
  0.00000000E+00  0.00000000E+00  0.00000000E+00
  0.00000000E+00  0.00000000E+00  0.00000000E+00
  0.00000000E+00  0.00000000E+00  0.00000000E+00
  0.00000000E+00  0.00000000E+00  0.00000000E+00
  0.00000000E+00  0.00000000E+00  0.00000000E+00
  0.00000000E+00  0.00000000E+00  0.00000000E+00
  0.00000000E+00  0.00000000E+00  0.00000000E+00
  0.00000000E+00  0.00000000E+00  0.00000000E+00
  0.00000000E+00  0.00000000E+00  0.00000000E+00
  0.00000000E+00  0.00000000E+00  0.00000000E+00
  0.00000000E+00  0.00000000E+00  0.00000000E+00
  0.00000000E+00  0.00000000E+00  0.00000000E+00
  0.00000000E+00  0.00000000E+00  0.00000000E+00
  0.00000000E+00  0.00000000E+00  0.00000000E+00
  0.00000000E+00  0.00000000E+00  0.00000000E+00
  0.00000000E+00  0.00000000E+00  0.00000000E+00
  0.00000000E+00  0.00000000E+00  0.00000000E+00
  0.00000000E+00  0.00000000E+00  0.00000000E+00
  0.00000000E+00  0.00000000E+00  0.00000000E+00
  0.00000000E+00  0.00000000E+00  0.00000000E+00
  0.00000000E+00  0.00000000E+00  0.00000000E+00
  0.00000000E+00  0.00000000E+00  0.00000000E+00
  0.00000000E+00  0.00000000E+00  0.00000000E+00
  0.00000000E+00  0.00000000E+00  0.00000000E+00
  0.00000000E+00  0.00000000E+00  0.00000000E+00
  0.00000000E+00  0.00000000E+00  0.00000000E+00
  0.00000000E+00  0.00000000E+00  0.00000000E+00
  0.00000000E+00  0.00000000E+00  0.00000000E+00
  0.00000000E+00  0.00000000E+00  0.00000000E+00
  0.00000000E+00  0.00000000E+00  0.00000000E+00
  0.00000000E+00  0.00000000E+00  0.00000000E+00
  0.00000000E+00  0.00000000E+00  0.00000000E+00
  0.00000000E+00  0.00000000E+00  0.00000000E+00
  0.00000000E+00  0.00000000E+00  0.00000000E+00
  0.00000000E+00  0.00000000E+00  0.00000000E+00
  0.00000000E+00  0.00000000E+00  0.00000000E+00
  0.00000000E+00  0.00000000E+00  0.00000000E+00
  0.00000000E+00  0.00000000E+00  0.00000000E+00
  0.00000000E+00  0.00000000E+00  0.00000000E+00
  0.00000000E+00  0.00000000E+00  0.00000000E+00
  0.00000000E+00  0.00000000E+00  0.00000000E+00
  0.00000000E+00  0.00000000E+00  0.00000000E+00
  0.00000000E+00  0.00000000E+00  0.00000000E+00
  0.00000000E+00  0.00000000E+00  0.00000000E+00
  0.00000000E+00  0.00000000E+00  0.00000000E+00
  0.00000000E+00  0.00000000E+00  0.00000000E+00
  0.00000000E+00  0.00000000E+00  0.00000000E+00
  0.00000000E+00  0.00000000E+00  0.00000000E+00
  0.00000000E+00  0.00000000E+00  0.00000000E+00
  0.00000000E+00  0.00000000E+00  0.00000000E+00
  0.00000000E+00  0.00000000E+00  0.00000000E+00
  0.00000000E+00  0.00000000E+00  0.00000000E+00
  0.00000000E+00  0.00000000E+00  0.00000000E+00
  0.00000000E+00  0.00000000E+00  0.00000000E+00
  0.00000000E+00  0.00000000E+00  0.00000000E+00
  0.00000000E+00  0.00000000E+00  0.00000000E+00
  0.00000000E+00  0.00000000E+00  0.00000000E+00
  0.00000000E+00  0.00000000E+00  0.00000000E+00
  0.00000000E+00  0.00000000E+00  0.00000000E+00
  0.00000000E+00  0.00000000E+00  0.00000000E+00
  0.00000000E+00  0.00000000E+00  0.00000000E+00
  0.00000000E+00  0.00000000E+00  0.00000000E+00
  0.00000000E+00  0.00000000E+00  0.00000000E+00
  0.00000000E+00  0.00000000E+00  0.00000000E+00
  0.00000000E+00  0.00000000E+00  0.00000000E+00
  0.00000000E+00  0.00000000E+00  0.00000000E+00
  0.00000000E+00  0.00000000E+00  0.00000000E+00
  0.00000000E+00  0.00000000E+00  0.00000000E+00
  0.00000000E+00  0.00000000E+00  0.00000000E+00
  0.00000000E+00  0.00000000E+00  0.00000000E+00
  0.00000000E+00  0.00000000E+00  0.00000000E+00
  0.00000000E+00  0.00000000E+00  0.00000000E+00
  0.00000000E+00  0.00000000E+00  0.00000000E+00
  0.00000000E+00  0.00000000E+00  0.00000000E+00
  0.00000000E+00  0.00000000E+00  0.00000000E+00
  0.00000000E+00  0.00000000E+00  0.00000000E+00
  0.00000000E+00  0.00000000E+00  0.00000000E+00
  0.00000000E+00  0.00000000E+00  0.00000000E+00
  0.00000000E+00  0.00000000E+00  0.00000000E+00
  0.00000000E+00  0.00000000E+00  0.00000000E+00
  0.00000000E+00  0.00000000E+00  0.00000000E+00
  0.00000000E+00  0.00000000E+00  0.00000000E+00
  0.00000000E+00  0.00000000E+00  0.00000000E+00
  0.00000000E+00  0.00000000E+00  0.00000000E+00
  0.00000000E+00  0.00000000E+00  0.00000000E+00
  0.00000000E+00  0.00000000E+00  0.00000000E+00
  0.00000000E+00  0.00000000E+00  0.00000000E+00
  0.00000000E+00  0.00000000E+00  0.00000000E+00
  0.00000000E+00  0.00000000E+00  0.00000000E+00
  0.00000000E+00  0.00000000E+00  0.00000000E+00
  0.00000000E+00  0.00000000E+00  0.00000000E+00
  0.00000000E+00  0.00000000E+00  0.00000000E+00
  0.00000000E+00  0.00000000E+00  0.00000000E+00
  0.00000000E+00  0.00000000E+00  0.00000000E+00
  0.00000000E+00  0.00000000E+00  0.00000000E+00
  0.00000000E+00  0.00000000E+00  0.00000000E+00
  0.00000000E+00  0.00000000E+00  0.00000000E+00
  0.00000000E+00  0.00000000E+00  0.00000000E+00
  0.00000000E+00  0.00000000E+00  0.00000000E+00
  0.00000000E+00  0.00000000E+00  0.00000000E+00
  0.00000000E+00  0.00000000E+00  0.00000000E+00
  0.00000000E+00  0.00000000E+00  0.00000000E+00
  0.00000000E+00  0.00000000E+00  0.00000000E+00
  0.00000000E+00  0.00000000E+00  0.00000000E+00
  0.00000000E+00  0.00000000E+00  0.00000000E+00
  0.00000000E+00  0.00000000E+00  0.00000000E+00
  0.00000000E+00  0.00000000E+00  0.00000000E+00
  0.00000000E+00  0.00000000E+00  0.00000000E+00
  0.00000000E+00  0.00000000E+00  0.00000000E+00
  0.00000000E+00  0.00000000E+00  0.00000000E+00
  0.00000000E+00  0.00000000E+00  0.00000000E+00
  0.00000000E+00  0.00000000E+00  0.00000000E+00
  0.00000000E+00  0.00000000E+00  0.00000000E+00
  0.00000000E+00  0.00000000E+00  0.00000000E+00
  0.00000000E+00  0.00000000E+00  0.00000000E+00
  0.00000000E+00  0.00000000E+00  0.00000000E+00
  0.00000000E+00  0.00000000E+00  0.00000000E+00
  0.00000000E+00  0.00000000E+00  0.00000000E+00
  0.00000000E+00  0.00000000E+00  0.00000000E+00
  0.00000000E+00  0.00000000E+00  0.00000000E+00
  0.00000000E+00  0.00000000E+00  0.00000000E+00
  0.00000000E+00  0.00000000E+00  0.00000000E+00
  0.00000000E+00  0.00000000E+00  0.00000000E+00
  0.00000000E+00  0.00000000E+00  0.00000000E+00
  0.00000000E+00  0.00000000E+00  0.00000000E+00
  0.00000000E+00  0.00000000E+00  0.00000000E+00
  0.00000000E+00  0.00000000E+00  0.00000000E+00
  0.00000000E+00  0.00000000E+00  0.00000000E+00
  0.00000000E+00  0.00000000E+00  0.00000000E+00
  0.00000000E+00  0.00000000E+00  0.00000000E+00
  0.00000000E+00  0.00000000E+00  0.00000000E+00
  0.00000000E+00  0.00000000E+00  0.00000000E+00
  0.00000000E+00  0.00000000E+00  0.00000000E+00
  0.00000000E+00  0.00000000E+00  0.00000000E+00
  0.00000000E+00  0.00000000E+00  0.00000000E+00
  0.00000000E+00  0.00000000E+00  0.00000000E+00
  0.00000000E+00  0.00000000E+00  0.00000000E+00
  0.00000000E+00  0.00000000E+00  0.00000000E+00
  0.00000000E+00  0.00000000E+00  0.00000000E+00
  0.00000000E+00  0.00000000E+00  0.00000000E+00
  0.00000000E+00  0.00000000E+00  0.00000000E+00
  0.00000000E+00  0.00000000E+00  0.00000000E+00
  0.00000000E+00  0.00000000E+00  0.00000000E+00
  0.00000000E+00  0.00000000E+00  0.00000000E+00
  0.00000000E+00  0.00000000E+00  0.00000000E+00
  0.00000000E+00  0.00000000E+00  0.00000000E+00
  0.00000000E+00  0.00000000E+00  0.00000000E+00
  0.00000000E+00  0.00000000E+00  0.00000000E+00
  0.00000000E+00  0.00000000E+00  0.00000000E+00
  0.00000000E+00  0.00000000E+00  0.00000000E+00
  0.00000000E+00  0.00000000E+00  0.00000000E+00
  0.00000000E+00  0.00000000E+00  0.00000000E+00
  0.00000000E+00  0.00000000E+00  0.00000000E+00
  0.00000000E+00  0.00000000E+00  0.00000000E+00
  0.00000000E+00  0.00000000E+00  0.00000000E+00
  0.00000000E+00  0.00000000E+00  0.00000000E+00
  0.00000000E+00  0.00000000E+00  0.00000000E+00
  0.00000000E+00  0.00000000E+00  0.00000000E+00
  0.00000000E+00  0.00000000E+00  0.00000000E+00
  0.00000000E+00  0.00000000E+00  0.00000000E+00
  0.00000000E+00  0.00000000E+00  0.00000000E+00
  0.00000000E+00  0.00000000E+00  0.00000000E+00
  0.00000000E+00  0.00000000E+00  0.00000000E+00
  0.00000000E+00  0.00000000E+00  0.00000000E+00
  0.00000000E+00  0.00000000E+00  0.00000000E+00
  0.00000000E+00  0.00000000E+00  0.00000000E+00
  0.00000000E+00  0.00000000E+00  0.00000000E+00
  0.00000000E+00  0.00000000E+00  0.00000000E+00
  0.00000000E+00  0.00000000E+00  0.00000000E+00
  0.00000000E+00  0.00000000E+00  0.00000000E+00
  0.00000000E+00  0.00000000E+00  0.00000000E+00
  0.00000000E+00  0.00000000E+00  0.00000000E+00
  0.00000000E+00  0.00000000E+00  0.00000000E+00
  0.00000000E+00  0.00000000E+00  0.00000000E+00
  0.00000000E+00  0.00000000E+00  0.00000000E+00
  0.00000000E+00  0.00000000E+00  0.00000000E+00
  0.00000000E+00  0.00000000E+00  0.00000000E+00
  0.00000000E+00  0.00000000E+00  0.00000000E+00
  0.00000000E+00  0.00000000E+00  0.00000000E+00
  0.00000000E+00  0.00000000E+00  0.00000000E+00
  0.00000000E+00  0.00000000E+00  0.00000000E+00
  0.00000000E+00  0.00000000E+00  0.00000000E+00
  0.00000000E+00  0.00000000E+00  0.00000000E+00
  0.00000000E+00  0.00000000E+00  0.00000000E+00
  0.00000000E+00  0.00000000E+00  0.00000000E+00
  0.00000000E+00  0.00000000E+00  0.00000000E+00
  0.00000000E+00  0.00000000E+00  0.00000000E+00
  0.00000000E+00  0.00000000E+00  0.00000000E+00
  0.00000000E+00  0.00000000E+00  0.00000000E+00
  0.00000000E+00  0.00000000E+00  0.00000000E+00
  0.00000000E+00  0.00000000E+00  0.00000000E+00
  0.00000000E+00  0.00000000E+00  0.00000000E+00
  0.00000000E+00  0.00000000E+00  0.00000000E+00
  0.00000000E+00  0.00000000E+00  0.00000000E+00
  0.00000000E+00  0.00000000E+00  0.00000000E+00
  0.00000000E+00  0.00000000E+00  0.00000000E+00
  0.00000000E+00  0.00000000E+00  0.00000000E+00
  0.00000000E+00  0.00000000E+00  0.00000000E+00
  0.00000000E+00  0.00000000E+00  0.00000000E+00
  0.00000000E+00  0.00000000E+00  0.00000000E+00
  0.00000000E+00  0.00000000E+00  0.00000000E+00
  0.00000000E+00  0.00000000E+00  0.00000000E+00
  0.00000000E+00  0.00000000E+00  0.00000000E+00
  0.00000000E+00  0.00000000E+00  0.00000000E+00
  0.00000000E+00  0.00000000E+00  0.00000000E+00
  0.00000000E+00  0.00000000E+00  0.00000000E+00
  0.00000000E+00  0.00000000E+00  0.00000000E+00
  0.00000000E+00  0.00000000E+00  0.00000000E+00
  0.00000000E+00  0.00000000E+00  0.00000000E+00
  0.00000000E+00  0.00000000E+00  0.00000000E+00
  0.00000000E+00  0.00000000E+00  0.00000000E+00
  0.00000000E+00  0.00000000E+00  0.00000000E+00
  0.00000000E+00  0.00000000E+00  0.00000000E+00
  0.00000000E+00  0.00000000E+00  0.00000000E+00
  0.00000000E+00  0.00000000E+00  0.00000000E+00
  0.00000000E+00  0.00000000E+00  0.00000000E+00
  0.00000000E+00  0.00000000E+00  0.00000000E+00
