C H O Si                                
   1.00000000000000     
     9.2874599999999994    0.0000000000000000    0.0000000000000000
     0.0000000000000000   17.5126199999999983    0.0000000000000000
     0.0000000000000000    0.0000000000000000   58.0000000000000000
   C    H    O    Si
    72    57    28    72
Selective dynamics
Direct
  0.9935212730967158  0.0631220851750920  0.0604738725206736   T   T   T
  0.3268934259296999  0.0631155783028979  0.0605542513879873   T   T   T
  0.6600919224002424  0.0631385959869369  0.0605353654044433   T   T   T
  0.9934280268365427  0.3131467930094302  0.0604723979575844   T   T   T
  0.3267828374092373  0.3130743406941553  0.0605643187477522   T   T   T
  0.6600885961167399  0.3131154257659901  0.0605256298170647   T   T   T
  0.1599258694353501  0.1860723001795510  0.1393966495444787   T   T   T
  0.4932335300107697  0.1862997522297920  0.1396323333587606   T   T   T
  0.8266515334366725  0.1859967902054204  0.1393369448707159   T   T   T
  0.1598368561061203  0.4362196361827840  0.1394327769527032   T   T   T
  0.4932246304426288  0.4361181452238100  0.1394777247420021   T   T   T
  0.8265842463767417  0.4362223365006407  0.1394255923301859   T   T   T
  0.3272131324832086  0.0614286953359708  0.1667523833376692   T   T   T
  0.6594145840022118  0.0614076105428352  0.1667139808340496   T   T   T
  0.9934908250491600  0.0606843197096616  0.1664832870014238   T   T   T
  0.3263802177489678  0.3113110266252347  0.1668019969111632   T   T   T
  0.6602255256082465  0.3112969229568394  0.1666832506559623   T   T   T
  0.9932934147269186  0.3111697896132241  0.1665216694078556   T   T   T
  0.1601035741517082  0.1872101831140917  0.1917287101262160   T   T   T
  0.4936097169778650  0.1899411033171691  0.1927602728792384   T   T   T
  0.8275442983530452  0.1868657233012262  0.1915373746849114   T   T   T
  0.1594936868724159  0.4383716021139947  0.1919774372556135   T   T   T
  0.4931587993288281  0.4379933415488684  0.1920224868640419   T   T   T
  0.8267199099375607  0.4383753761243180  0.1919265581359969   T   T   T
  0.1598759644140744  0.1862046786050970  0.0858236148146577   T   T   T
  0.4931769612804909  0.1862834968889945  0.0859393012983732   T   T   T
  0.8264708725500877  0.1862084060261162  0.0857832590694819   T   T   T
  0.1599041828039674  0.4362237522748361  0.0858484603605654   T   T   T
  0.4932235220565386  0.4361950985984691  0.0858667062194022   T   T   T
  0.8265490248606386  0.4362181189181248  0.0858366408589163   T   T   T
  0.3265074830137846  0.0611756525276284  0.1130733406748515   T   T   T
  0.6596954670800343  0.0611724253682701  0.1130645788264166   T   T   T
  0.9931714499722574  0.0610654092173330  0.1129807676970896   T   T   T
  0.3264634447892368  0.3111287049369885  0.1131168855502774   T   T   T
  0.6598994947297381  0.3111488515449015  0.1130769474639772   T   T   T
  0.9932147282742484  0.3111183479487787  0.1129871954735869   T   T   T
  0.9935096030110433  0.5631021709349734  0.0605148056616664   T   T   T
  0.3268608479337227  0.5631027338868070  0.0605274670729800   T   T   T
  0.6601805122971134  0.5631064535423568  0.0605235594487148   T   T   T
  0.9934407421072334  0.8131399273479554  0.0605171856604818   T   T   T
  0.3268146357263015  0.8130600677245027  0.0605212229566962   T   T   T
  0.6600805071992012  0.8130967257402145  0.0605146212861087   T   T   T
  0.1598135904078713  0.6862349605137569  0.1394345131688128   T   T   T
  0.4931115966549179  0.6862110944553548  0.1394417699130537   T   T   T
  0.8263879560356469  0.6862312385328853  0.1394338695510157   T   T   T
  0.1602311779881209  0.9361722190565506  0.1394374092299188   T   T   T
  0.4932022072013844  0.9361559600902901  0.1394371826221484   T   T   T
  0.8262716599488835  0.9362253963126340  0.1394306308613382   T   T   T
  0.3264163432272469  0.5612927036070521  0.1666342028020436   T   T   T
  0.6595414847073783  0.5612762554457108  0.1666336137343625   T   T   T
  0.9929976144761350  0.5614399103926127  0.1666059623892849   T   T   T
  0.3265182974760272  0.8112314906845621  0.1666523218952278   T   T   T
  0.6597816177170629  0.8112231568739733  0.1666285911055106   T   T   T
  0.9931445075531955  0.8112605907766597  0.1666316262156977   T   T   T
  0.1599522769183592  0.6880902675991735  0.1919815989569343   T   T   T
  0.4932517430602500  0.6881129763895141  0.1920052133842840   T   T   T
  0.8266051064272251  0.6880635383121930  0.1919693401935256   T   T   T
  0.1600782672538520  0.9380425078594862  0.1919980221808076   T   T   T
  0.4933911471907568  0.9380320700528224  0.1920144350832608   T   T   T
  0.8266696352948005  0.9380329425480454  0.1919733762213426   T   T   T
  0.1598280395743642  0.6862147450402728  0.0858490362346972   T   T   T
  0.4931953014266059  0.6861847190997022  0.0858467247614255   T   T   T
  0.8265080796273925  0.6862174481504143  0.0858464730007074   T   T   T
  0.1599589835470343  0.9362149807678766  0.0858422284639613   T   T   T
  0.4932101342166013  0.9362108332757376  0.0858490163589753   T   T   T
  0.8264939451074306  0.9362375010419319  0.0858358097052942   T   T   T
  0.3264650776466724  0.5611427641937128  0.1130507696736581   T   T   T
  0.6597676465860350  0.5611375320303124  0.1130504619826302   T   T   T
  0.9931010649514308  0.5611788670276915  0.1130355938948402   T   T   T
  0.3265152708924109  0.8111121613312698  0.1130408970045274   T   T   T
  0.6597770968770982  0.8111205188599004  0.1130343137860405   T   T   T
  0.9931505814800698  0.8112129693769127  0.1130497191111273   T   T   T
  0.0734100773524381  0.1777731103847050  0.0276488706028733   T   T   T
  0.4056469819432040  0.1777984909496184  0.0278016674146013   T   T   T
  0.7388237345586678  0.1777385435686428  0.0276663314250102   T   T   T
  0.0731352779376613  0.4278330076184707  0.0276659550100929   T   T   T
  0.4051762136788932  0.4277091200454256  0.0277333461444870   T   T   T
  0.7381870744139662  0.4277522489997931  0.0276962380524697   T   T   T
  0.3245364963441785  0.0265583211682846  0.0451108173410289   T   T   T
  0.6570828985504162  0.0265597055773141  0.0450984403582724   T   T   T
  0.9909785464630898  0.0265958452139547  0.0450230973999179   T   T   T
  0.3239955179984528  0.2764548204514671  0.0451351285035173   T   T   T
  0.6572349365432968  0.2765234331907406  0.0450934164223463   T   T   T
  0.9906609929742359  0.2766569407143836  0.0450127243329801   T   T   T
  0.8286031269754818  0.4022308710657936  0.2074284025034712   T   T   T
  0.8302548933887989  0.1505237081032070  0.2070191861819670   T   T   T
  0.1618087375775382  0.1509543543056981  0.2072306085228094   T   T   T
  0.4967518839956589  0.1527606968558599  0.2080642887051152   T   T   T
  0.1617433723540115  0.4017559161812025  0.2074002630148411   T   T   T
  0.4939571640023410  0.4015596174919581  0.2074943515887284   T   T   T
  0.0817520916618088  0.0527978866984943  0.2248229997650338   T   T   T
  0.4154755038880665  0.0523126275935023  0.2249451991819552   T   T   T
  0.7489835551693791  0.0525241834200674  0.2248706828038831   T   T   T
  0.0799051519093102  0.3011352424343001  0.2244288687027361   T   T   T
  0.3780448189741184  0.3104651809582282  0.2283918390938143   T   T   T
  0.7823358242390449  0.2954073082308136  0.2228719407671464   T   T   T
  0.5475491345827211  0.3057333310685676  0.2738443192277581   T   T   T
  0.4932760900445671  0.2380309843704545  0.2932985872020489   T   T   T
  0.5721673852005632  0.3197935942100497  0.3030326289382186   T   T   T
  0.3147619441851283  0.1943289306701541  0.3097534754368875   T   T   T
  0.4220895316836563  0.1301454498956801  0.3022741025625220   T   T   T
  0.6505427943763129  0.3661404767277280  0.3335739259453223   T   T   T
  0.4845760007095225  0.3774284501316662  0.3308695642142211   T   T   T
  0.5189135297685820  0.3953494224316615  0.2521515239677408   T   T   T
  0.5865091192567000  0.3231524399624783  0.2386596409735230   T   T   T
  0.0729650833485363  0.6778162949606195  0.0277048673590714   T   T   T
  0.4059721104793967  0.6777587220929572  0.0277247932254330   T   T   T
  0.7391892831228147  0.6777459591653214  0.0277261359745157   T   T   T
  0.0726334984059091  0.9277960866257033  0.0276889673066424   T   T   T
  0.4052589939324895  0.9277273814170455  0.0277138098185216   T   T   T
  0.7386392120444850  0.9277962720307372  0.0277003401524894   T   T   T
  0.3241954051138651  0.5265510385677246  0.0450869290443557   T   T   T
  0.6575766552033523  0.5265517546696191  0.0450810274959368   T   T   T
  0.9908585827651046  0.5265616439265542  0.0450688369343703   T   T   T
  0.3240213489517527  0.7765222004584021  0.0450758233580863   T   T   T
  0.6572428117969490  0.7765403607550863  0.0450719644204476   T   T   T
  0.9906361603894204  0.7765608867623656  0.0450780862997530   T   T   T
  0.8291862013445171  0.9015283692390060  0.2074203702174806   T   T   T
  0.8290491219563242  0.6515621933787364  0.2074174657667885   T   T   T
  0.1623357315692330  0.6515588198241501  0.2074253798015826   T   T   T
  0.4958389768645907  0.6516439590777902  0.2074598737249868   T   T   T
  0.1624701599717934  0.9015200667847423  0.2074430690677955   T   T   T
  0.4960089964913797  0.9014657116518702  0.2074494946369430   T   T   T
  0.0808653812964286  0.5537567314014562  0.2248135070016676   T   T   T
  0.4149451410483526  0.5541536282567397  0.2246584074960776   T   T   T
  0.7482292438900898  0.5536150291388972  0.2247459738771980   T   T   T
  0.0816814565633823  0.8028353539289779  0.2248335980891231   T   T   T
  0.4144295612171083  0.8031416446375160  0.2249013583078131   T   T   T
  0.7493347026962456  0.8025790096702935  0.2247617122399397   T   T   T
  0.1688823568449457  0.1658408058142161  0.0337653075642941   T   T   T
  0.5012566120423636  0.1659915195668518  0.0338817705466267   T   T   T
  0.8345039392580286  0.1657377432515703  0.0336771978689764   T   T   T
  0.1685696126292600  0.4158637837415712  0.0337889629066829   T   T   T
  0.5008266965335082  0.4160090132920740  0.0338176758537472   T   T   T
  0.8338660308807311  0.4160878701876420  0.0337751636116089   T   T   T
  0.3200993207189711  0.0411602616165198  0.2186646966127875   T   T   T
  0.6535219961067386  0.0411912636899318  0.2186434164724779   T   T   T
  0.9865977405635559  0.0412792542687339  0.2185521367760682   T   T   T
  0.2994761078377238  0.2910941912184258  0.2187181648917818   T   T   T
  0.6795115514239822  0.2915192819380599  0.2186640886814793   T   T   T
  0.9839599924703274  0.2888477283406543  0.2184018836936842   T   T   T
  0.5711469824827311  0.2797044603237324  0.2897124138179489   T   T   T
  0.3812018414292998  0.1790575837380178  0.2975596973063239   T   T   T
  0.5752575395202595  0.3776934356581122  0.3223694655667776   T   T   T
  0.5134014919260196  0.3398407044570558  0.2509012281662226   T   T   T
  0.1684749089000797  0.6658690493631746  0.0338046831773233   T   T   T
  0.5015669844933330  0.6658209226379073  0.0337849367609425   T   T   T
  0.8347981997892893  0.6658455751585824  0.0337868216265753   T   T   T
  0.1681335120472506  0.9158129664126523  0.0337795018751656   T   T   T
  0.5008857510946803  0.9159803887630905  0.0337940574672723   T   T   T
  0.8342299652022075  0.9159028662733424  0.0337637638022265   T   T   T
  0.3198223471933329  0.5411478899400356  0.2186278260975436   T   T   T
  0.6530977593292590  0.5412014950207131  0.2186108229162615   T   T   T
  0.9859027334072846  0.5412268011831151  0.2186469244473985   T   T   T
  0.3194233678496387  0.7910090558230519  0.2186714710527368   T   T   T
  0.6536972679227901  0.7912406510922027  0.2186095440511459   T   T   T
  0.9864565413390872  0.7910950321583291  0.2186202362247387   T   T   T
  0.4936976234461598  0.1217658139134034  0.0600508746293694   T   T   T
  0.8269961976447334  0.1217278045844333  0.0598984441777163   T   T   T
  0.1603978736405098  0.3717103312200640  0.0599744259935483   T   T   T
  0.4935976163599819  0.3717201919718128  0.0599864390639514   T   T   T
  0.8268803409710809  0.3717801375175599  0.0599381821601928   T   T   T
  0.1604897025391311  0.1217067397804757  0.0599510633008079   T   T   T
  0.9932087554156860  0.4985983309618148  0.1396408329276858   T   T   T
  0.3265444945142029  0.4985225583365877  0.1396543623600516   T   T   T
  0.6598362806081197  0.4985240715284496  0.1396535208421336   T   T   T
  0.9933353552525703  0.2483776602214747  0.1395318660167337   T   T   T
  0.3264147082004578  0.2485353496204604  0.1397543674540983   T   T   T
  0.6601707678860727  0.2484120607439753  0.1396507896372811   T   T   T
  0.1599399276557015  0.1227717701067343  0.1657713777953553   T   T   T
  0.4932299742090429  0.1240632592956996  0.1662612146097487   T   T   T
  0.8269423393468079  0.1224593875436214  0.1656299457656568   T   T   T
  0.1597308670840744  0.3734270261507157  0.1659061294100442   T   T   T
  0.4930745568532332  0.3731571239608866  0.1659318615930550   T   T   T
  0.8268279125562630  0.3734212556924705  0.1658791909076671   T   T   T
  0.3262080290190578  0.4967775272630141  0.1924848786941734   T   T   T
  0.6598359500273375  0.4967639555906844  0.1924833250128216   T   T   T
  0.9929651948751439  0.4970519450619323  0.1924771933112845   T   T   T
  0.3244018187716854  0.2474700135930267  0.1928873249682156   T   T   T
  0.9936018226782968  0.2455260491445970  0.1920540117617799   T   T   T
  0.6628303355523688  0.2463992780706059  0.1923197292428241   T   T   T
  0.9932541697604035  0.4981629664431830  0.0865917507055466   T   T   T
  0.3266231356090904  0.4981719778138090  0.0865999989759056   T   T   T
  0.6599182942857048  0.4981671145997054  0.0865976335846566   T   T   T
  0.9932067063540049  0.2481318575570249  0.0865391051507582   T   T   T
  0.3265079079055113  0.2481938687904649  0.0866431575964380   T   T   T
  0.6599088182761770  0.2481982727511972  0.0866073486773166   T   T   T
  0.1597451269292246  0.1235044862743410  0.1128010822788422   T   T   T
  0.4930458362926543  0.1235813685487764  0.1129437242746043   T   T   T
  0.8264348644133257  0.1234702878387523  0.1127528549837006   T   T   T
  0.1598374867554073  0.3735577282274833  0.1128386439779955   T   T   T
  0.4931013819643802  0.3735089562743302  0.1128605294036753   T   T   T
  0.8265343007767246  0.3735540218568440  0.1128254926800798   T   T   T
  0.4937425334709974  0.6216904046555030  0.0599729072959964   T   T   T
  0.8270740511395328  0.6217041807316036  0.0599704435399622   T   T   T
  0.1603920078142638  0.8716918238510756  0.0599707283152578   T   T   T
  0.4935986198787802  0.8717242069984824  0.0599688564403877   T   T   T
  0.8269001020836688  0.8717382095232359  0.0599527876574258   T   T   T
  0.1604217356408806  0.6216968293660776  0.0599836319887760   T   T   T
  0.9933654669604240  0.9982293240788921  0.1395497041343797   T   T   T
  0.3269345779979450  0.9986274673655626  0.1396879755910061   T   T   T
  0.6595174614201941  0.9986080909276570  0.1396758727895249   T   T   T
  0.9931336887149759  0.7485570802340470  0.1396460017772418   T   T   T
  0.3265010013077753  0.7485455841211052  0.1396537866626236   T   T   T
  0.6597831777804879  0.7485443410878353  0.1396445680364241   T   T   T
  0.1596995220994655  0.6233309350214731  0.1658831229210950   T   T   T
  0.4929564836836228  0.6233276110253069  0.1659060166933659   T   T   T
  0.8262552742113918  0.6233066141789677  0.1658813004012064   T   T   T
  0.1598568656312183  0.8732355150861711  0.1659015546944523   T   T   T
  0.4931199176304381  0.8732422675042094  0.1659078716569093   T   T   T
  0.8263923567867739  0.8732390390235354  0.1658816457730947   T   T   T
  0.3266573732629264  0.9966202097122667  0.1925555490544129   T   T   T
  0.6599509584022967  0.9966162932610643  0.1925265556079589   T   T   T
  0.9932816300542551  0.9965598214008355  0.1924462807511606   T   T   T
  0.3264817452990937  0.7466842399739123  0.1925263478987634   T   T   T
  0.9931707916753854  0.7466526893437422  0.1924827697997910   T   T   T
  0.6599197577111751  0.7466698900233750  0.1924849447558728   T   T   T
  0.9932821642842661  0.9981194901452802  0.0865465506225555   T   T   T
  0.3266505086361433  0.9981872348053302  0.0866117096027382   T   T   T
  0.6598613620513702  0.9981860897654126  0.0866067612726727   T   T   T
  0.9931901112165871  0.7481951334033258  0.0865926262638428   T   T   T
  0.3265815161940379  0.7481296791180843  0.0865900226653824   T   T   T
  0.6598444237927702  0.7481544336777619  0.0865852827986220   T   T   T
  0.1597260409087544  0.6235586788390067  0.1128417028691821   T   T   T
  0.4930528587851736  0.6235418700257558  0.1128450854782315   T   T   T
  0.8263525390661732  0.6235574081640407  0.1128400454814229   T   T   T
  0.1599578784137051  0.8735429216956720  0.1128344275793306   T   T   T
  0.4930976791403228  0.8735247881114993  0.1128337470163287   T   T   T
  0.8263029539657801  0.8735631988291466  0.1128286610445803   T   T   T
 
  0.00000000E+00  0.00000000E+00  0.00000000E+00
  0.00000000E+00  0.00000000E+00  0.00000000E+00
  0.00000000E+00  0.00000000E+00  0.00000000E+00
  0.00000000E+00  0.00000000E+00  0.00000000E+00
  0.00000000E+00  0.00000000E+00  0.00000000E+00
  0.00000000E+00  0.00000000E+00  0.00000000E+00
  0.00000000E+00  0.00000000E+00  0.00000000E+00
  0.00000000E+00  0.00000000E+00  0.00000000E+00
  0.00000000E+00  0.00000000E+00  0.00000000E+00
  0.00000000E+00  0.00000000E+00  0.00000000E+00
  0.00000000E+00  0.00000000E+00  0.00000000E+00
  0.00000000E+00  0.00000000E+00  0.00000000E+00
  0.00000000E+00  0.00000000E+00  0.00000000E+00
  0.00000000E+00  0.00000000E+00  0.00000000E+00
  0.00000000E+00  0.00000000E+00  0.00000000E+00
  0.00000000E+00  0.00000000E+00  0.00000000E+00
  0.00000000E+00  0.00000000E+00  0.00000000E+00
  0.00000000E+00  0.00000000E+00  0.00000000E+00
  0.00000000E+00  0.00000000E+00  0.00000000E+00
  0.00000000E+00  0.00000000E+00  0.00000000E+00
  0.00000000E+00  0.00000000E+00  0.00000000E+00
  0.00000000E+00  0.00000000E+00  0.00000000E+00
  0.00000000E+00  0.00000000E+00  0.00000000E+00
  0.00000000E+00  0.00000000E+00  0.00000000E+00
  0.00000000E+00  0.00000000E+00  0.00000000E+00
  0.00000000E+00  0.00000000E+00  0.00000000E+00
  0.00000000E+00  0.00000000E+00  0.00000000E+00
  0.00000000E+00  0.00000000E+00  0.00000000E+00
  0.00000000E+00  0.00000000E+00  0.00000000E+00
  0.00000000E+00  0.00000000E+00  0.00000000E+00
  0.00000000E+00  0.00000000E+00  0.00000000E+00
  0.00000000E+00  0.00000000E+00  0.00000000E+00
  0.00000000E+00  0.00000000E+00  0.00000000E+00
  0.00000000E+00  0.00000000E+00  0.00000000E+00
  0.00000000E+00  0.00000000E+00  0.00000000E+00
  0.00000000E+00  0.00000000E+00  0.00000000E+00
  0.00000000E+00  0.00000000E+00  0.00000000E+00
  0.00000000E+00  0.00000000E+00  0.00000000E+00
  0.00000000E+00  0.00000000E+00  0.00000000E+00
  0.00000000E+00  0.00000000E+00  0.00000000E+00
  0.00000000E+00  0.00000000E+00  0.00000000E+00
  0.00000000E+00  0.00000000E+00  0.00000000E+00
  0.00000000E+00  0.00000000E+00  0.00000000E+00
  0.00000000E+00  0.00000000E+00  0.00000000E+00
  0.00000000E+00  0.00000000E+00  0.00000000E+00
  0.00000000E+00  0.00000000E+00  0.00000000E+00
  0.00000000E+00  0.00000000E+00  0.00000000E+00
  0.00000000E+00  0.00000000E+00  0.00000000E+00
  0.00000000E+00  0.00000000E+00  0.00000000E+00
  0.00000000E+00  0.00000000E+00  0.00000000E+00
  0.00000000E+00  0.00000000E+00  0.00000000E+00
  0.00000000E+00  0.00000000E+00  0.00000000E+00
  0.00000000E+00  0.00000000E+00  0.00000000E+00
  0.00000000E+00  0.00000000E+00  0.00000000E+00
  0.00000000E+00  0.00000000E+00  0.00000000E+00
  0.00000000E+00  0.00000000E+00  0.00000000E+00
  0.00000000E+00  0.00000000E+00  0.00000000E+00
  0.00000000E+00  0.00000000E+00  0.00000000E+00
  0.00000000E+00  0.00000000E+00  0.00000000E+00
  0.00000000E+00  0.00000000E+00  0.00000000E+00
  0.00000000E+00  0.00000000E+00  0.00000000E+00
  0.00000000E+00  0.00000000E+00  0.00000000E+00
  0.00000000E+00  0.00000000E+00  0.00000000E+00
  0.00000000E+00  0.00000000E+00  0.00000000E+00
  0.00000000E+00  0.00000000E+00  0.00000000E+00
  0.00000000E+00  0.00000000E+00  0.00000000E+00
  0.00000000E+00  0.00000000E+00  0.00000000E+00
  0.00000000E+00  0.00000000E+00  0.00000000E+00
  0.00000000E+00  0.00000000E+00  0.00000000E+00
  0.00000000E+00  0.00000000E+00  0.00000000E+00
  0.00000000E+00  0.00000000E+00  0.00000000E+00
  0.00000000E+00  0.00000000E+00  0.00000000E+00
  0.00000000E+00  0.00000000E+00  0.00000000E+00
  0.00000000E+00  0.00000000E+00  0.00000000E+00
  0.00000000E+00  0.00000000E+00  0.00000000E+00
  0.00000000E+00  0.00000000E+00  0.00000000E+00
  0.00000000E+00  0.00000000E+00  0.00000000E+00
  0.00000000E+00  0.00000000E+00  0.00000000E+00
  0.00000000E+00  0.00000000E+00  0.00000000E+00
  0.00000000E+00  0.00000000E+00  0.00000000E+00
  0.00000000E+00  0.00000000E+00  0.00000000E+00
  0.00000000E+00  0.00000000E+00  0.00000000E+00
  0.00000000E+00  0.00000000E+00  0.00000000E+00
  0.00000000E+00  0.00000000E+00  0.00000000E+00
  0.00000000E+00  0.00000000E+00  0.00000000E+00
  0.00000000E+00  0.00000000E+00  0.00000000E+00
  0.00000000E+00  0.00000000E+00  0.00000000E+00
  0.00000000E+00  0.00000000E+00  0.00000000E+00
  0.00000000E+00  0.00000000E+00  0.00000000E+00
  0.00000000E+00  0.00000000E+00  0.00000000E+00
  0.00000000E+00  0.00000000E+00  0.00000000E+00
  0.00000000E+00  0.00000000E+00  0.00000000E+00
  0.00000000E+00  0.00000000E+00  0.00000000E+00
  0.00000000E+00  0.00000000E+00  0.00000000E+00
  0.00000000E+00  0.00000000E+00  0.00000000E+00
  0.00000000E+00  0.00000000E+00  0.00000000E+00
  0.00000000E+00  0.00000000E+00  0.00000000E+00
  0.00000000E+00  0.00000000E+00  0.00000000E+00
  0.00000000E+00  0.00000000E+00  0.00000000E+00
  0.00000000E+00  0.00000000E+00  0.00000000E+00
  0.00000000E+00  0.00000000E+00  0.00000000E+00
  0.00000000E+00  0.00000000E+00  0.00000000E+00
  0.00000000E+00  0.00000000E+00  0.00000000E+00
  0.00000000E+00  0.00000000E+00  0.00000000E+00
  0.00000000E+00  0.00000000E+00  0.00000000E+00
  0.00000000E+00  0.00000000E+00  0.00000000E+00
  0.00000000E+00  0.00000000E+00  0.00000000E+00
  0.00000000E+00  0.00000000E+00  0.00000000E+00
  0.00000000E+00  0.00000000E+00  0.00000000E+00
  0.00000000E+00  0.00000000E+00  0.00000000E+00
  0.00000000E+00  0.00000000E+00  0.00000000E+00
  0.00000000E+00  0.00000000E+00  0.00000000E+00
  0.00000000E+00  0.00000000E+00  0.00000000E+00
  0.00000000E+00  0.00000000E+00  0.00000000E+00
  0.00000000E+00  0.00000000E+00  0.00000000E+00
  0.00000000E+00  0.00000000E+00  0.00000000E+00
  0.00000000E+00  0.00000000E+00  0.00000000E+00
  0.00000000E+00  0.00000000E+00  0.00000000E+00
  0.00000000E+00  0.00000000E+00  0.00000000E+00
  0.00000000E+00  0.00000000E+00  0.00000000E+00
  0.00000000E+00  0.00000000E+00  0.00000000E+00
  0.00000000E+00  0.00000000E+00  0.00000000E+00
  0.00000000E+00  0.00000000E+00  0.00000000E+00
  0.00000000E+00  0.00000000E+00  0.00000000E+00
  0.00000000E+00  0.00000000E+00  0.00000000E+00
  0.00000000E+00  0.00000000E+00  0.00000000E+00
  0.00000000E+00  0.00000000E+00  0.00000000E+00
  0.00000000E+00  0.00000000E+00  0.00000000E+00
  0.00000000E+00  0.00000000E+00  0.00000000E+00
  0.00000000E+00  0.00000000E+00  0.00000000E+00
  0.00000000E+00  0.00000000E+00  0.00000000E+00
  0.00000000E+00  0.00000000E+00  0.00000000E+00
  0.00000000E+00  0.00000000E+00  0.00000000E+00
  0.00000000E+00  0.00000000E+00  0.00000000E+00
  0.00000000E+00  0.00000000E+00  0.00000000E+00
  0.00000000E+00  0.00000000E+00  0.00000000E+00
  0.00000000E+00  0.00000000E+00  0.00000000E+00
  0.00000000E+00  0.00000000E+00  0.00000000E+00
  0.00000000E+00  0.00000000E+00  0.00000000E+00
  0.00000000E+00  0.00000000E+00  0.00000000E+00
  0.00000000E+00  0.00000000E+00  0.00000000E+00
  0.00000000E+00  0.00000000E+00  0.00000000E+00
  0.00000000E+00  0.00000000E+00  0.00000000E+00
  0.00000000E+00  0.00000000E+00  0.00000000E+00
  0.00000000E+00  0.00000000E+00  0.00000000E+00
  0.00000000E+00  0.00000000E+00  0.00000000E+00
  0.00000000E+00  0.00000000E+00  0.00000000E+00
  0.00000000E+00  0.00000000E+00  0.00000000E+00
  0.00000000E+00  0.00000000E+00  0.00000000E+00
  0.00000000E+00  0.00000000E+00  0.00000000E+00
  0.00000000E+00  0.00000000E+00  0.00000000E+00
  0.00000000E+00  0.00000000E+00  0.00000000E+00
  0.00000000E+00  0.00000000E+00  0.00000000E+00
  0.00000000E+00  0.00000000E+00  0.00000000E+00
  0.00000000E+00  0.00000000E+00  0.00000000E+00
  0.00000000E+00  0.00000000E+00  0.00000000E+00
  0.00000000E+00  0.00000000E+00  0.00000000E+00
  0.00000000E+00  0.00000000E+00  0.00000000E+00
  0.00000000E+00  0.00000000E+00  0.00000000E+00
  0.00000000E+00  0.00000000E+00  0.00000000E+00
  0.00000000E+00  0.00000000E+00  0.00000000E+00
  0.00000000E+00  0.00000000E+00  0.00000000E+00
  0.00000000E+00  0.00000000E+00  0.00000000E+00
  0.00000000E+00  0.00000000E+00  0.00000000E+00
  0.00000000E+00  0.00000000E+00  0.00000000E+00
  0.00000000E+00  0.00000000E+00  0.00000000E+00
  0.00000000E+00  0.00000000E+00  0.00000000E+00
  0.00000000E+00  0.00000000E+00  0.00000000E+00
  0.00000000E+00  0.00000000E+00  0.00000000E+00
  0.00000000E+00  0.00000000E+00  0.00000000E+00
  0.00000000E+00  0.00000000E+00  0.00000000E+00
  0.00000000E+00  0.00000000E+00  0.00000000E+00
  0.00000000E+00  0.00000000E+00  0.00000000E+00
  0.00000000E+00  0.00000000E+00  0.00000000E+00
  0.00000000E+00  0.00000000E+00  0.00000000E+00
  0.00000000E+00  0.00000000E+00  0.00000000E+00
  0.00000000E+00  0.00000000E+00  0.00000000E+00
  0.00000000E+00  0.00000000E+00  0.00000000E+00
  0.00000000E+00  0.00000000E+00  0.00000000E+00
  0.00000000E+00  0.00000000E+00  0.00000000E+00
  0.00000000E+00  0.00000000E+00  0.00000000E+00
  0.00000000E+00  0.00000000E+00  0.00000000E+00
  0.00000000E+00  0.00000000E+00  0.00000000E+00
  0.00000000E+00  0.00000000E+00  0.00000000E+00
  0.00000000E+00  0.00000000E+00  0.00000000E+00
  0.00000000E+00  0.00000000E+00  0.00000000E+00
  0.00000000E+00  0.00000000E+00  0.00000000E+00
  0.00000000E+00  0.00000000E+00  0.00000000E+00
  0.00000000E+00  0.00000000E+00  0.00000000E+00
  0.00000000E+00  0.00000000E+00  0.00000000E+00
  0.00000000E+00  0.00000000E+00  0.00000000E+00
  0.00000000E+00  0.00000000E+00  0.00000000E+00
  0.00000000E+00  0.00000000E+00  0.00000000E+00
  0.00000000E+00  0.00000000E+00  0.00000000E+00
  0.00000000E+00  0.00000000E+00  0.00000000E+00
  0.00000000E+00  0.00000000E+00  0.00000000E+00
  0.00000000E+00  0.00000000E+00  0.00000000E+00
  0.00000000E+00  0.00000000E+00  0.00000000E+00
  0.00000000E+00  0.00000000E+00  0.00000000E+00
  0.00000000E+00  0.00000000E+00  0.00000000E+00
  0.00000000E+00  0.00000000E+00  0.00000000E+00
  0.00000000E+00  0.00000000E+00  0.00000000E+00
  0.00000000E+00  0.00000000E+00  0.00000000E+00
  0.00000000E+00  0.00000000E+00  0.00000000E+00
  0.00000000E+00  0.00000000E+00  0.00000000E+00
  0.00000000E+00  0.00000000E+00  0.00000000E+00
  0.00000000E+00  0.00000000E+00  0.00000000E+00
  0.00000000E+00  0.00000000E+00  0.00000000E+00
  0.00000000E+00  0.00000000E+00  0.00000000E+00
  0.00000000E+00  0.00000000E+00  0.00000000E+00
  0.00000000E+00  0.00000000E+00  0.00000000E+00
  0.00000000E+00  0.00000000E+00  0.00000000E+00
  0.00000000E+00  0.00000000E+00  0.00000000E+00
  0.00000000E+00  0.00000000E+00  0.00000000E+00
  0.00000000E+00  0.00000000E+00  0.00000000E+00
  0.00000000E+00  0.00000000E+00  0.00000000E+00
  0.00000000E+00  0.00000000E+00  0.00000000E+00
  0.00000000E+00  0.00000000E+00  0.00000000E+00
  0.00000000E+00  0.00000000E+00  0.00000000E+00
  0.00000000E+00  0.00000000E+00  0.00000000E+00
  0.00000000E+00  0.00000000E+00  0.00000000E+00
  0.00000000E+00  0.00000000E+00  0.00000000E+00
  0.00000000E+00  0.00000000E+00  0.00000000E+00
  0.00000000E+00  0.00000000E+00  0.00000000E+00
  0.00000000E+00  0.00000000E+00  0.00000000E+00
  0.00000000E+00  0.00000000E+00  0.00000000E+00
  0.00000000E+00  0.00000000E+00  0.00000000E+00
  0.00000000E+00  0.00000000E+00  0.00000000E+00
  0.00000000E+00  0.00000000E+00  0.00000000E+00
