C H O Si                                
   1.00000000000000     
     9.2874599999999994    0.0000000000000000    0.0000000000000000
     0.0000000000000000    8.7562999999999995    0.0000000000000000
     0.0000000000000000    0.0000000000000000   58.0000000000000000
   C    H    O    Si
    36    33    16    36
Selective dynamics
Direct
  0.0019357397018195  0.1353741700504677  0.3755601155192571   T   T   T
  0.0019628067979983  0.6354875756226033  0.3755771276211049   T   T   T
  0.3353159129710789  0.1354709392177266  0.3756700783094953   T   T   T
  0.3353064879148293  0.6352860176730657  0.3756877916054142   T   T   T
  0.6684110160242648  0.1352735295911069  0.3756721002359633   T   T   T
  0.6684329333055505  0.6352198842719456  0.3756687956821234   T   T   T
  0.1686979942246638  0.3811698482257914  0.4009759533722395   T   T   T
  0.1687560662208972  0.8811534445385466  0.4009933143707594   T   T   T
  0.5020418684270702  0.3811385101032528  0.4011180129922230   T   T   T
  0.5020612395691898  0.8811114877995780  0.4010491007232271   T   T   T
  0.8353532618398103  0.3810141260941853  0.4009186202844184   T   T   T
  0.8353137345013955  0.8810637742129710  0.4009582076245605   T   T   T
  0.0020862709090507  0.1306763741586157  0.4280669626412172   T   T   T
  0.0020531377345208  0.6309861690005097  0.4280919613620821   T   T   T
  0.3354621546852605  0.1309205296820526  0.4282057838799633   T   T   T
  0.3353800929778292  0.6308015047698581  0.4282176557668435   T   T   T
  0.6685903575559581  0.1308362485450968  0.4281704924949584   T   T   T
  0.6686913358780565  0.6307796883325028  0.4281562989618048   T   T   T
  0.1687409056605411  0.3808144079148819  0.4544886932196007   T   T   T
  0.1690973943313988  0.8808050002062522  0.4545472657361306   T   T   T
  0.5020688407724839  0.3811167301927459  0.4547421166226341   T   T   T
  0.5021262252604448  0.8804724321333509  0.4546096005642818   T   T   T
  0.8354553645077207  0.3806124740226060  0.4543948435430629   T   T   T
  0.8353116954656364  0.8808048013922007  0.4544970131854349   T   T   T
  0.0024008371432784  0.1302826600309889  0.4814809687436372   T   T   T
  0.0022374321283120  0.6309304645492630  0.4815905621974491   T   T   T
  0.3360994444346866  0.1315996133636897  0.4817836775670682   T   T   T
  0.3354330877004417  0.6309906558226269  0.4818550794604521   T   T   T
  0.6681660075735475  0.1314196373793029  0.4817379936494423   T   T   T
  0.6691051657725038  0.6311336624313241  0.4817226362212935   T   T   T
  0.1688087318473397  0.3836349121523801  0.5068202723019742   T   T   T
  0.1682622756711409  0.8857333987146351  0.5070361868434101   T   T   T
  0.5025401920954764  0.3890090387919575  0.5078118642454321   T   T   T
  0.5019147941816204  0.8850814506877234  0.5071092673869544   T   T   T
  0.8364017223576210  0.3826854864204702  0.5065779729359600   T   T   T
  0.8354457496371306  0.8856577441019580  0.5069590864580900   T   T   T
  0.0045969960032374  0.0630718629150158  0.3600205650176528   T   T   T
  0.0045008899674248  0.5631720741289441  0.3600371558083302   T   T   T
  0.3379613736506654  0.0630388491424742  0.3601456027465021   T   T   T
  0.3377538544260862  0.5627799049493099  0.3601702918374797   T   T   T
  0.6703099212672168  0.0629472190747319  0.3601352892033650   T   T   T
  0.6705971814128986  0.5628448215066513  0.3601381842858495   T   T   T
  0.1702875007237047  0.3116241050334106  0.5223857232803937   T   T   T
  0.1703158726189923  0.8131785885868924  0.5225439461533696   T   T   T
  0.5055761013578718  0.3154025638938887  0.5232097006769881   T   T   T
  0.5025361116069202  0.8128791905695451  0.5226604900963170   T   T   T
  0.8389296839799059  0.3106069149905549  0.5221317287290929   T   T   T
  0.8374272215252325  0.8140620928200603  0.5225482752109902   T   T   T
  0.0831070974439247  0.1146865548901222  0.5408630929269197   T   T   T
  0.0832332489902366  0.6108006293949692  0.5404662052518480   T   T   T
  0.4166106589415832  0.1158260368531439  0.5409177649640501   T   T   T
  0.3824161634217979  0.6328209496062189  0.5438925012524258   T   T   T
  0.7515848568015906  0.1141435232294634  0.5408289539559100   T   T   T
  0.7894041529131101  0.5988307036701876  0.5384421784042438   T   T   T
  0.2517959145416681  0.3638321662496570  0.3418262182754748   T   T   T
  0.2520640950043563  0.8637278947137037  0.3418631679795706   T   T   T
  0.5843442526384618  0.3640064607065966  0.3419007553573608   T   T   T
  0.5841989666194130  0.8638263049508126  0.3418409377302784   T   T   T
  0.9162628426757893  0.3642987454513660  0.3416421780094353   T   T   T
  0.9162221557734240  0.8644193119656760  0.3416718261713045   T   T   T
  0.5419476404438353  0.6142119976367958  0.5879960758071210   T   T   T
  0.4869581486309595  0.4751540198147697  0.6067638235556408   T   T   T
  0.5663738644597412  0.6400969046720425  0.6169286748360072   T   T   T
  0.3078587819589292  0.3821504844572418  0.6220399088057394   T   T   T
  0.4235995266485776  0.2587054774451832  0.6159794843759363   T   T   T
  0.6469616021872551  0.7348940597797694  0.6467763228089870   T   T   T
  0.4825542391495576  0.7673184851295303  0.6435172058044806   T   T   T
  0.5212677808420965  0.8036065609500698  0.5672628762338169   T   T   T
  0.5903731217020144  0.6616353066098715  0.5536709717260544   T   T   T
  0.1593309382874309  0.3436933976873855  0.3492468935363197   T   T   T
  0.1595104962288651  0.8437570711431304  0.3492697611642703   T   T   T
  0.4920221346206123  0.3441416969147427  0.3493873359017259   T   T   T
  0.4919319227924170  0.8437029260500493  0.3493273408731741   T   T   T
  0.8244621335592879  0.3433383671166907  0.3492052765282322   T   T   T
  0.8244427044345032  0.8434958518867807  0.3492424681072077   T   T   T
  0.9912750003222870  0.0943755109853946  0.5332642713321489   T   T   T
  0.9900483201047482  0.5900857158837860  0.5331781215418909   T   T   T
  0.3248006957455488  0.0934939557366151  0.5334560063380471   T   T   T
  0.3068050813944596  0.5941696649083039  0.5334472493386103   T   T   T
  0.6591827156143056  0.0938407760907296  0.5333904596751393   T   T   T
  0.6876861595412949  0.5937682029412342  0.5334761061543221   T   T   T
  0.5643452916297743  0.5598455797222008  0.6034752292514248   T   T   T
  0.3794412399625890  0.3531260344040710  0.6105153814636125   T   T   T
  0.5735557305108456  0.7575931011674825  0.6352287175504469   T   T   T
  0.5131164665146157  0.6933711727777183  0.5650061679000287   T   T   T
  0.1685435084960982  0.2527819545018306  0.3747825475891927   T   T   T
  0.1686402556916269  0.7527656541356221  0.3748035257561312   T   T   T
  0.5017837570475208  0.2528641098156836  0.3749002508107906   T   T   T
  0.5017525647526251  0.7526921536800223  0.3748611638781886   T   T   T
  0.8349999054031025  0.2525438240902051  0.3747426146950488   T   T   T
  0.8349860192249433  0.7526145626051179  0.3747756717133767   T   T   T
  0.0020189569863531  0.0053493836850417  0.4014316830191457   T   T   T
  0.0019986449672283  0.5054438001883758  0.4014455419565624   T   T   T
  0.3353920917635415  0.0055097943668939  0.4015356414321170   T   T   T
  0.3353231691829701  0.5054250350834718  0.4015635833322148   T   T   T
  0.6686086761885972  0.0053678318869949  0.4015257456622767   T   T   T
  0.6686438117616172  0.5052919793661643  0.4015215409147484   T   T   T
  0.1687367916787871  0.2558590819017823  0.4278293236588123   T   T   T
  0.1688726231186650  0.7559341380572847  0.4278646589084468   T   T   T
  0.5020173620560776  0.2559496730607083  0.4279941138310541   T   T   T
  0.5020019995332463  0.7557715735213713  0.4278988072505613   T   T   T
  0.8353958030373380  0.2556956817189688  0.4277572985596534   T   T   T
  0.8352980707187754  0.7558765169368418  0.4278232647276232   T   T   T
  0.0022913110248820  0.0053474072132195  0.4546880411167242   T   T   T
  0.0020994810205287  0.5057459372992349  0.4546908800330031   T   T   T
  0.3358412950179382  0.0060160054119856  0.4548609675676832   T   T   T
  0.3353238683509655  0.5059757097311238  0.4549095755529139   T   T   T
  0.6683903216336231  0.0058860126279048  0.4548241853683076   T   T   T
  0.6688886549943215  0.5057717819034440  0.4547898787295342   T   T   T
  0.1687994004993943  0.2547253779344603  0.4810186314516087   T   T   T
  0.1688326921819080  0.7555622953745712  0.4811855951979236   T   T   T
  0.5021513506369560  0.2571631858536600  0.4815259571314265   T   T   T
  0.5019609673336870  0.7550684303452407  0.4812242520368241   T   T   T
  0.8358022464608209  0.2539521483128868  0.4808523222677470   T   T   T
  0.8357006217420559  0.7555875554382466  0.4811187418374849   T   T   T
  0.0017502938410796  0.0031153430245778  0.5077560342156753   T   T   T
  0.0023287975730804  0.5005376697766840  0.5074504799854205   T   T   T
  0.3348559140137702  0.0029090744845745  0.5079017523434520   T   T   T
  0.3331651047567509  0.5042778454788643  0.5082945834366783   T   T   T
  0.6687218111171972  0.0028094144975412  0.5078722690370689   T   T   T
  0.6719255721492127  0.5020716568831042  0.5076869454738958   T   T   T
 
  0.00000000E+00  0.00000000E+00  0.00000000E+00
  0.00000000E+00  0.00000000E+00  0.00000000E+00
  0.00000000E+00  0.00000000E+00  0.00000000E+00
  0.00000000E+00  0.00000000E+00  0.00000000E+00
  0.00000000E+00  0.00000000E+00  0.00000000E+00
  0.00000000E+00  0.00000000E+00  0.00000000E+00
  0.00000000E+00  0.00000000E+00  0.00000000E+00
  0.00000000E+00  0.00000000E+00  0.00000000E+00
  0.00000000E+00  0.00000000E+00  0.00000000E+00
  0.00000000E+00  0.00000000E+00  0.00000000E+00
  0.00000000E+00  0.00000000E+00  0.00000000E+00
  0.00000000E+00  0.00000000E+00  0.00000000E+00
  0.00000000E+00  0.00000000E+00  0.00000000E+00
  0.00000000E+00  0.00000000E+00  0.00000000E+00
  0.00000000E+00  0.00000000E+00  0.00000000E+00
  0.00000000E+00  0.00000000E+00  0.00000000E+00
  0.00000000E+00  0.00000000E+00  0.00000000E+00
  0.00000000E+00  0.00000000E+00  0.00000000E+00
  0.00000000E+00  0.00000000E+00  0.00000000E+00
  0.00000000E+00  0.00000000E+00  0.00000000E+00
  0.00000000E+00  0.00000000E+00  0.00000000E+00
  0.00000000E+00  0.00000000E+00  0.00000000E+00
  0.00000000E+00  0.00000000E+00  0.00000000E+00
  0.00000000E+00  0.00000000E+00  0.00000000E+00
  0.00000000E+00  0.00000000E+00  0.00000000E+00
  0.00000000E+00  0.00000000E+00  0.00000000E+00
  0.00000000E+00  0.00000000E+00  0.00000000E+00
  0.00000000E+00  0.00000000E+00  0.00000000E+00
  0.00000000E+00  0.00000000E+00  0.00000000E+00
  0.00000000E+00  0.00000000E+00  0.00000000E+00
  0.00000000E+00  0.00000000E+00  0.00000000E+00
  0.00000000E+00  0.00000000E+00  0.00000000E+00
  0.00000000E+00  0.00000000E+00  0.00000000E+00
  0.00000000E+00  0.00000000E+00  0.00000000E+00
  0.00000000E+00  0.00000000E+00  0.00000000E+00
  0.00000000E+00  0.00000000E+00  0.00000000E+00
  0.00000000E+00  0.00000000E+00  0.00000000E+00
  0.00000000E+00  0.00000000E+00  0.00000000E+00
  0.00000000E+00  0.00000000E+00  0.00000000E+00
  0.00000000E+00  0.00000000E+00  0.00000000E+00
  0.00000000E+00  0.00000000E+00  0.00000000E+00
  0.00000000E+00  0.00000000E+00  0.00000000E+00
  0.00000000E+00  0.00000000E+00  0.00000000E+00
  0.00000000E+00  0.00000000E+00  0.00000000E+00
  0.00000000E+00  0.00000000E+00  0.00000000E+00
  0.00000000E+00  0.00000000E+00  0.00000000E+00
  0.00000000E+00  0.00000000E+00  0.00000000E+00
  0.00000000E+00  0.00000000E+00  0.00000000E+00
  0.00000000E+00  0.00000000E+00  0.00000000E+00
  0.00000000E+00  0.00000000E+00  0.00000000E+00
  0.00000000E+00  0.00000000E+00  0.00000000E+00
  0.00000000E+00  0.00000000E+00  0.00000000E+00
  0.00000000E+00  0.00000000E+00  0.00000000E+00
  0.00000000E+00  0.00000000E+00  0.00000000E+00
  0.00000000E+00  0.00000000E+00  0.00000000E+00
  0.00000000E+00  0.00000000E+00  0.00000000E+00
  0.00000000E+00  0.00000000E+00  0.00000000E+00
  0.00000000E+00  0.00000000E+00  0.00000000E+00
  0.00000000E+00  0.00000000E+00  0.00000000E+00
  0.00000000E+00  0.00000000E+00  0.00000000E+00
  0.00000000E+00  0.00000000E+00  0.00000000E+00
  0.00000000E+00  0.00000000E+00  0.00000000E+00
  0.00000000E+00  0.00000000E+00  0.00000000E+00
  0.00000000E+00  0.00000000E+00  0.00000000E+00
  0.00000000E+00  0.00000000E+00  0.00000000E+00
  0.00000000E+00  0.00000000E+00  0.00000000E+00
  0.00000000E+00  0.00000000E+00  0.00000000E+00
  0.00000000E+00  0.00000000E+00  0.00000000E+00
  0.00000000E+00  0.00000000E+00  0.00000000E+00
  0.00000000E+00  0.00000000E+00  0.00000000E+00
  0.00000000E+00  0.00000000E+00  0.00000000E+00
  0.00000000E+00  0.00000000E+00  0.00000000E+00
  0.00000000E+00  0.00000000E+00  0.00000000E+00
  0.00000000E+00  0.00000000E+00  0.00000000E+00
  0.00000000E+00  0.00000000E+00  0.00000000E+00
  0.00000000E+00  0.00000000E+00  0.00000000E+00
  0.00000000E+00  0.00000000E+00  0.00000000E+00
  0.00000000E+00  0.00000000E+00  0.00000000E+00
  0.00000000E+00  0.00000000E+00  0.00000000E+00
  0.00000000E+00  0.00000000E+00  0.00000000E+00
  0.00000000E+00  0.00000000E+00  0.00000000E+00
  0.00000000E+00  0.00000000E+00  0.00000000E+00
  0.00000000E+00  0.00000000E+00  0.00000000E+00
  0.00000000E+00  0.00000000E+00  0.00000000E+00
  0.00000000E+00  0.00000000E+00  0.00000000E+00
  0.00000000E+00  0.00000000E+00  0.00000000E+00
  0.00000000E+00  0.00000000E+00  0.00000000E+00
  0.00000000E+00  0.00000000E+00  0.00000000E+00
  0.00000000E+00  0.00000000E+00  0.00000000E+00
  0.00000000E+00  0.00000000E+00  0.00000000E+00
  0.00000000E+00  0.00000000E+00  0.00000000E+00
  0.00000000E+00  0.00000000E+00  0.00000000E+00
  0.00000000E+00  0.00000000E+00  0.00000000E+00
  0.00000000E+00  0.00000000E+00  0.00000000E+00
  0.00000000E+00  0.00000000E+00  0.00000000E+00
  0.00000000E+00  0.00000000E+00  0.00000000E+00
  0.00000000E+00  0.00000000E+00  0.00000000E+00
  0.00000000E+00  0.00000000E+00  0.00000000E+00
  0.00000000E+00  0.00000000E+00  0.00000000E+00
  0.00000000E+00  0.00000000E+00  0.00000000E+00
  0.00000000E+00  0.00000000E+00  0.00000000E+00
  0.00000000E+00  0.00000000E+00  0.00000000E+00
  0.00000000E+00  0.00000000E+00  0.00000000E+00
  0.00000000E+00  0.00000000E+00  0.00000000E+00
  0.00000000E+00  0.00000000E+00  0.00000000E+00
  0.00000000E+00  0.00000000E+00  0.00000000E+00
  0.00000000E+00  0.00000000E+00  0.00000000E+00
  0.00000000E+00  0.00000000E+00  0.00000000E+00
  0.00000000E+00  0.00000000E+00  0.00000000E+00
  0.00000000E+00  0.00000000E+00  0.00000000E+00
  0.00000000E+00  0.00000000E+00  0.00000000E+00
  0.00000000E+00  0.00000000E+00  0.00000000E+00
  0.00000000E+00  0.00000000E+00  0.00000000E+00
  0.00000000E+00  0.00000000E+00  0.00000000E+00
  0.00000000E+00  0.00000000E+00  0.00000000E+00
  0.00000000E+00  0.00000000E+00  0.00000000E+00
  0.00000000E+00  0.00000000E+00  0.00000000E+00
  0.00000000E+00  0.00000000E+00  0.00000000E+00
  0.00000000E+00  0.00000000E+00  0.00000000E+00
  0.00000000E+00  0.00000000E+00  0.00000000E+00
  0.00000000E+00  0.00000000E+00  0.00000000E+00
