C H O Si                                
   1.00000000000000     
     9.2874599999999994    0.0000000000000000    0.0000000000000000
     0.0000000000000000    8.7562999999999995    0.0000000000000000
     0.0000000000000000    0.0000000000000000   58.0000000000000000
   C    H    O    Si
    36    33    16    36
Selective dynamics
Direct
  0.0012328171610633  0.1347267420151826  0.3756671460252756   T   T   T
  0.0012082847317837  0.6348470579674104  0.3756804443588611   T   T   T
  0.3345903840910473  0.1348167412825360  0.3757653433964694   T   T   T
  0.3345703977689014  0.6347062265777047  0.3757768881399834   T   T   T
  0.6677409392972891  0.1347384693985553  0.3757679152860634   T   T   T
  0.6677558495315596  0.6346703459867973  0.3757625832974288   T   T   T
  0.1678366454677540  0.3808165182927565  0.4010453554733420   T   T   T
  0.1678862895583179  0.8808138187942063  0.4010738054157819   T   T   T
  0.5011692746269830  0.3808121775956081  0.4011976654492879   T   T   T
  0.5011454754878784  0.8807590072656479  0.4011290432781305   T   T   T
  0.8345234852246942  0.3807166107232007  0.4010095228759201   T   T   T
  0.8344530734646793  0.8807349338934862  0.4010433291671121   T   T   T
  0.0011560943361046  0.1306294189804052  0.4281029416738885   T   T   T
  0.0011432099242441  0.6308664478161374  0.4281206056408136   T   T   T
  0.3346341152174292  0.1308099876642048  0.4282274652909892   T   T   T
  0.3345604254979678  0.6307069256026686  0.4282518954327357   T   T   T
  0.6676753111786198  0.1307835865393927  0.4282133103066531   T   T   T
  0.6677532549740340  0.6307441075846877  0.4282048439467850   T   T   T
  0.1678791027353595  0.3806690371404381  0.4544629860858305   T   T   T
  0.1682028760705257  0.8808047171212289  0.4545339712363369   T   T   T
  0.5011645603177808  0.3811256411229093  0.4547461328316578   T   T   T
  0.5012537451120078  0.8805205664894045  0.4546043148715715   T   T   T
  0.8344741785745851  0.3805699270221315  0.4544053661495249   T   T   T
  0.8343511090738757  0.8808366167293575  0.4544962922518751   T   T   T
  0.0014037403104250  0.1300965344355465  0.4814160766008644   T   T   T
  0.0013239658377163  0.6307550536867332  0.4815075674185917   T   T   T
  0.3352206895783692  0.1312959127561372  0.4817263722050130   T   T   T
  0.3344609043157498  0.6308817367412954  0.4818158007306111   T   T   T
  0.6672274006827874  0.1312098433558922  0.4817101266334626   T   T   T
  0.6681646471622114  0.6309931256523418  0.4816871746930583   T   T   T
  0.1679040553283077  0.3830360037704434  0.5066983497291155   T   T   T
  0.1675088962531506  0.8852546189527879  0.5069601819195035   T   T   T
  0.5015217977302553  0.3886878727786545  0.5077733623419076   T   T   T
  0.5011572330243074  0.8845999567280011  0.5070696698624720   T   T   T
  0.8356616276241455  0.3823102768311338  0.5065291179197260   T   T   T
  0.8348086106338707  0.8851380344939899  0.5069062512859148   T   T   T
  0.0037661132336878  0.0629752363782003  0.3600891414817856   T   T   T
  0.0036979304417858  0.5630643674619572  0.3601046942364632   T   T   T
  0.3372094797610960  0.0628898336214510  0.3602084309348475   T   T   T
  0.3370261261016493  0.5626770256277941  0.3602306875523688   T   T   T
  0.6697467643579991  0.0628211251186943  0.3602071353348764   T   T   T
  0.6699529111133932  0.5627364244681602  0.3602038530603816   T   T   T
  0.1693879021864493  0.3115958746955390  0.5223015050774308   T   T   T
  0.1691529199223201  0.8131772228189362  0.5224987527463512   T   T   T
  0.5044772987228970  0.3156362129033099  0.5232125051894306   T   T   T
  0.5017970278560990  0.8126836813617218  0.5226386056239672   T   T   T
  0.8381696108992323  0.3110666000526156  0.5221552651259806   T   T   T
  0.8368214580313657  0.8138698420526017  0.5225100551765409   T   T   T
  0.0860487153854888  0.1180432237636328  0.5399689465649095   T   T   T
  0.0876975224624663  0.6113719250588160  0.5395839785672817   T   T   T
  0.4193485741773044  0.1184376039854041  0.5400929648204477   T   T   T
  0.3819142003246281  0.6351946284835457  0.5433592528468297   T   T   T
  0.7549678094546076  0.1168914706320501  0.5399568482686788   T   T   T
  0.7897857989357585  0.5996836749625235  0.5381895402954993   T   T   T
  0.2544147908432207  0.3666012658023106  0.3426799135411963   T   T   T
  0.2546051166428633  0.8665450472992596  0.3427107067358423   T   T   T
  0.5870825569326371  0.3667728891282266  0.3427460485555889   T   T   T
  0.5869635120505694  0.8666266604661778  0.3426988653329238   T   T   T
  0.9189592168872343  0.3672663779429350  0.3425347609988822   T   T   T
  0.9189089313642956  0.8673949467719958  0.3425638740887625   T   T   T
  0.5453785315592032  0.6154966424032899  0.5875237525209674   T   T   T
  0.4883521482528985  0.4765653510766545  0.6063058768715304   T   T   T
  0.5675505568721962  0.6400191494558573  0.6165693721906129   T   T   T
  0.3096266302991251  0.3840345615220115  0.6222799117381219   T   T   T
  0.4239231451376237  0.2599946236537488  0.6159127868238596   T   T   T
  0.6460977114050765  0.7346190389838598  0.6467186961421242   T   T   T
  0.4816300245223669  0.7657008381548502  0.6433627425899303   T   T   T
  0.5311658670277558  0.8044321330843356  0.5671991804755876   T   T   T
  0.5932152000630817  0.6600224008162338  0.5533722868271043   T   T   T
  0.1607650785776797  0.3424043680672813  0.3493256230365366   T   T   T
  0.1609014784143790  0.8425239743330163  0.3493572073420911   T   T   T
  0.4935627740382156  0.3428330714706241  0.3494634907347433   T   T   T
  0.4934694406328879  0.8424857628195742  0.3494075696753259   T   T   T
  0.8259269866552506  0.3421918422555985  0.3493088038026153   T   T   T
  0.8258943143682126  0.8422918492569779  0.3493362752335137   T   T   T
  0.9929091043709929  0.0935900155276860  0.5331779622277475   T   T   T
  0.9924081191378462  0.5894143068075128  0.5330492400943941   T   T   T
  0.3263738173679642  0.0925795268153673  0.5333852990944942   T   T   T
  0.3058910175172680  0.5925520079347257  0.5334608785454470   T   T   T
  0.6611486446877213  0.0928195044536023  0.5333431931270103   T   T   T
  0.6880263267257740  0.5925907261663479  0.5333365998904225   T   T   T
  0.5662930412353220  0.5603299107444584  0.6030848819501817   T   T   T
  0.3795060568784107  0.3544759225137482  0.6105181122492440   T   T   T
  0.5728993649515597  0.7572633794548013  0.6351253105523492   T   T   T
  0.5181530399670147  0.6948533766762669  0.5648870317302255   T   T   T
  0.1678301174798086  0.2520776992150473  0.3748784136466137   T   T   T
  0.1678766947266352  0.7520877157241465  0.3749000606750199   T   T   T
  0.5010541055036859  0.2521820776948012  0.3749950743807791   T   T   T
  0.5010359227412501  0.7520431831074149  0.3749546524736367   T   T   T
  0.8343159385277061  0.2519344930962470  0.3748614389551171   T   T   T
  0.8342678337945072  0.7519748539672708  0.3748857818056339   T   T   T
  0.0011716582893645  0.0049615415331306  0.4015013702665263   T   T   T
  0.0011722708434062  0.5050627519033728  0.4015050973077467   T   T   T
  0.3345539438346918  0.0050868612191859  0.4015914979335855   T   T   T
  0.3344993504750549  0.5050444830661240  0.4016171360997819   T   T   T
  0.6677295892410364  0.0050155247087582  0.4015859766888250   T   T   T
  0.6678212877498293  0.5049750836025563  0.4015846978753303   T   T   T
  0.1678532404714161  0.2557006967892835  0.4278450222746554   T   T   T
  0.1680085073518112  0.7557828039343452  0.4278955203217797   T   T   T
  0.5011488934259720  0.2558599507371638  0.4280297985102327   T   T   T
  0.5011353629520103  0.7556763766112310  0.4279409695745852   T   T   T
  0.8344951667986010  0.2555929150223037  0.4278044694726483   T   T   T
  0.8343864362523870  0.7557593105170231  0.4278667336581346   T   T   T
  0.0013307093662578  0.0053433352203555  0.4546791280242775   T   T   T
  0.0012093344379761  0.5056251058071749  0.4546724035205592   T   T   T
  0.3349536840796470  0.0059562761854898  0.4548430543131936   T   T   T
  0.3343606756612622  0.5058989494234838  0.4549057250438521   T   T   T
  0.6674891529663783  0.0058944619314285  0.4548293008710413   T   T   T
  0.6679436890430481  0.5057367468408430  0.4547944751198545   T   T   T
  0.1679066551731305  0.2543314667675322  0.4809574567169909   T   T   T
  0.1679046593514079  0.7553706734171536  0.4811433207988821   T   T   T
  0.5011774753904399  0.2569094576993992  0.4815071095742229   T   T   T
  0.5010803456453304  0.7549092434103233  0.4811999305786805   T   T   T
  0.8348848103252533  0.2537101030427191  0.4808409737490377   T   T   T
  0.8348825438435855  0.7553936179915935  0.4810929642216382   T   T   T
  0.0010416773720342  0.0026278505387142  0.5076719857667773   T   T   T
  0.0016017752553445  0.5001559677210291  0.5073522415784179   T   T   T
  0.3341099220896663  0.0023441517930112  0.5078281571716825   T   T   T
  0.3321020043397541  0.5037207117630382  0.5082071942125587   T   T   T
  0.6680538882644141  0.0022243484363402  0.5078152894494046   T   T   T
  0.6711163456051498  0.5016449480626116  0.5076343492671581   T   T   T
 
  0.00000000E+00  0.00000000E+00  0.00000000E+00
  0.00000000E+00  0.00000000E+00  0.00000000E+00
  0.00000000E+00  0.00000000E+00  0.00000000E+00
  0.00000000E+00  0.00000000E+00  0.00000000E+00
  0.00000000E+00  0.00000000E+00  0.00000000E+00
  0.00000000E+00  0.00000000E+00  0.00000000E+00
  0.00000000E+00  0.00000000E+00  0.00000000E+00
  0.00000000E+00  0.00000000E+00  0.00000000E+00
  0.00000000E+00  0.00000000E+00  0.00000000E+00
  0.00000000E+00  0.00000000E+00  0.00000000E+00
  0.00000000E+00  0.00000000E+00  0.00000000E+00
  0.00000000E+00  0.00000000E+00  0.00000000E+00
  0.00000000E+00  0.00000000E+00  0.00000000E+00
  0.00000000E+00  0.00000000E+00  0.00000000E+00
  0.00000000E+00  0.00000000E+00  0.00000000E+00
  0.00000000E+00  0.00000000E+00  0.00000000E+00
  0.00000000E+00  0.00000000E+00  0.00000000E+00
  0.00000000E+00  0.00000000E+00  0.00000000E+00
  0.00000000E+00  0.00000000E+00  0.00000000E+00
  0.00000000E+00  0.00000000E+00  0.00000000E+00
  0.00000000E+00  0.00000000E+00  0.00000000E+00
  0.00000000E+00  0.00000000E+00  0.00000000E+00
  0.00000000E+00  0.00000000E+00  0.00000000E+00
  0.00000000E+00  0.00000000E+00  0.00000000E+00
  0.00000000E+00  0.00000000E+00  0.00000000E+00
  0.00000000E+00  0.00000000E+00  0.00000000E+00
  0.00000000E+00  0.00000000E+00  0.00000000E+00
  0.00000000E+00  0.00000000E+00  0.00000000E+00
  0.00000000E+00  0.00000000E+00  0.00000000E+00
  0.00000000E+00  0.00000000E+00  0.00000000E+00
  0.00000000E+00  0.00000000E+00  0.00000000E+00
  0.00000000E+00  0.00000000E+00  0.00000000E+00
  0.00000000E+00  0.00000000E+00  0.00000000E+00
  0.00000000E+00  0.00000000E+00  0.00000000E+00
  0.00000000E+00  0.00000000E+00  0.00000000E+00
  0.00000000E+00  0.00000000E+00  0.00000000E+00
  0.00000000E+00  0.00000000E+00  0.00000000E+00
  0.00000000E+00  0.00000000E+00  0.00000000E+00
  0.00000000E+00  0.00000000E+00  0.00000000E+00
  0.00000000E+00  0.00000000E+00  0.00000000E+00
  0.00000000E+00  0.00000000E+00  0.00000000E+00
  0.00000000E+00  0.00000000E+00  0.00000000E+00
  0.00000000E+00  0.00000000E+00  0.00000000E+00
  0.00000000E+00  0.00000000E+00  0.00000000E+00
  0.00000000E+00  0.00000000E+00  0.00000000E+00
  0.00000000E+00  0.00000000E+00  0.00000000E+00
  0.00000000E+00  0.00000000E+00  0.00000000E+00
  0.00000000E+00  0.00000000E+00  0.00000000E+00
  0.00000000E+00  0.00000000E+00  0.00000000E+00
  0.00000000E+00  0.00000000E+00  0.00000000E+00
  0.00000000E+00  0.00000000E+00  0.00000000E+00
  0.00000000E+00  0.00000000E+00  0.00000000E+00
  0.00000000E+00  0.00000000E+00  0.00000000E+00
  0.00000000E+00  0.00000000E+00  0.00000000E+00
  0.00000000E+00  0.00000000E+00  0.00000000E+00
  0.00000000E+00  0.00000000E+00  0.00000000E+00
  0.00000000E+00  0.00000000E+00  0.00000000E+00
  0.00000000E+00  0.00000000E+00  0.00000000E+00
  0.00000000E+00  0.00000000E+00  0.00000000E+00
  0.00000000E+00  0.00000000E+00  0.00000000E+00
  0.00000000E+00  0.00000000E+00  0.00000000E+00
  0.00000000E+00  0.00000000E+00  0.00000000E+00
  0.00000000E+00  0.00000000E+00  0.00000000E+00
  0.00000000E+00  0.00000000E+00  0.00000000E+00
  0.00000000E+00  0.00000000E+00  0.00000000E+00
  0.00000000E+00  0.00000000E+00  0.00000000E+00
  0.00000000E+00  0.00000000E+00  0.00000000E+00
  0.00000000E+00  0.00000000E+00  0.00000000E+00
  0.00000000E+00  0.00000000E+00  0.00000000E+00
  0.00000000E+00  0.00000000E+00  0.00000000E+00
  0.00000000E+00  0.00000000E+00  0.00000000E+00
  0.00000000E+00  0.00000000E+00  0.00000000E+00
  0.00000000E+00  0.00000000E+00  0.00000000E+00
  0.00000000E+00  0.00000000E+00  0.00000000E+00
  0.00000000E+00  0.00000000E+00  0.00000000E+00
  0.00000000E+00  0.00000000E+00  0.00000000E+00
  0.00000000E+00  0.00000000E+00  0.00000000E+00
  0.00000000E+00  0.00000000E+00  0.00000000E+00
  0.00000000E+00  0.00000000E+00  0.00000000E+00
  0.00000000E+00  0.00000000E+00  0.00000000E+00
  0.00000000E+00  0.00000000E+00  0.00000000E+00
  0.00000000E+00  0.00000000E+00  0.00000000E+00
  0.00000000E+00  0.00000000E+00  0.00000000E+00
  0.00000000E+00  0.00000000E+00  0.00000000E+00
  0.00000000E+00  0.00000000E+00  0.00000000E+00
  0.00000000E+00  0.00000000E+00  0.00000000E+00
  0.00000000E+00  0.00000000E+00  0.00000000E+00
  0.00000000E+00  0.00000000E+00  0.00000000E+00
  0.00000000E+00  0.00000000E+00  0.00000000E+00
  0.00000000E+00  0.00000000E+00  0.00000000E+00
  0.00000000E+00  0.00000000E+00  0.00000000E+00
  0.00000000E+00  0.00000000E+00  0.00000000E+00
  0.00000000E+00  0.00000000E+00  0.00000000E+00
  0.00000000E+00  0.00000000E+00  0.00000000E+00
  0.00000000E+00  0.00000000E+00  0.00000000E+00
  0.00000000E+00  0.00000000E+00  0.00000000E+00
  0.00000000E+00  0.00000000E+00  0.00000000E+00
  0.00000000E+00  0.00000000E+00  0.00000000E+00
  0.00000000E+00  0.00000000E+00  0.00000000E+00
  0.00000000E+00  0.00000000E+00  0.00000000E+00
  0.00000000E+00  0.00000000E+00  0.00000000E+00
  0.00000000E+00  0.00000000E+00  0.00000000E+00
  0.00000000E+00  0.00000000E+00  0.00000000E+00
  0.00000000E+00  0.00000000E+00  0.00000000E+00
  0.00000000E+00  0.00000000E+00  0.00000000E+00
  0.00000000E+00  0.00000000E+00  0.00000000E+00
  0.00000000E+00  0.00000000E+00  0.00000000E+00
  0.00000000E+00  0.00000000E+00  0.00000000E+00
  0.00000000E+00  0.00000000E+00  0.00000000E+00
  0.00000000E+00  0.00000000E+00  0.00000000E+00
  0.00000000E+00  0.00000000E+00  0.00000000E+00
  0.00000000E+00  0.00000000E+00  0.00000000E+00
  0.00000000E+00  0.00000000E+00  0.00000000E+00
  0.00000000E+00  0.00000000E+00  0.00000000E+00
  0.00000000E+00  0.00000000E+00  0.00000000E+00
  0.00000000E+00  0.00000000E+00  0.00000000E+00
  0.00000000E+00  0.00000000E+00  0.00000000E+00
  0.00000000E+00  0.00000000E+00  0.00000000E+00
  0.00000000E+00  0.00000000E+00  0.00000000E+00
  0.00000000E+00  0.00000000E+00  0.00000000E+00
  0.00000000E+00  0.00000000E+00  0.00000000E+00
