C H O Si                                
   1.00000000000000     
     9.2874599999999994    0.0000000000000000    0.0000000000000000
     0.0000000000000000   17.5126199999999983    0.0000000000000000
     0.0000000000000000    0.0000000000000000   58.0000000000000000
   C    H    O    Si
    72    57    28    72
Selective dynamics
Direct
  0.9964294842074680  0.0652337729352548  0.0595397397198148   T   T   T
  0.3298677347746140  0.0652875504137043  0.0596288904223111   T   T   T
  0.6630871839672269  0.0652682266875383  0.0596548294353558   T   T   T
  0.9964918902666339  0.3152818476606363  0.0595508854014196   T   T   T
  0.3298757682195690  0.3151438185319158  0.0595661071438676   T   T   T
  0.6632344907290727  0.3151006074956502  0.0596100683073212   T   T   T
  0.1628065051499579  0.1880488410291498  0.1383551240556294   T   T   T
  0.4959206670383670  0.1884781813686988  0.1387473271964968   T   T   T
  0.8292714324636189  0.1881221480626923  0.1383823856172315   T   T   T
  0.1627497504649854  0.4382300075574744  0.1384535061269255   T   T   T
  0.4958836730559477  0.4372951408456563  0.1384076859226222   T   T   T
  0.8293139167630214  0.4381909360046909  0.1385259398417729   T   T   T
  0.3300846118724685  0.0633986591970480  0.1657398008157834   T   T   T
  0.6619765595813153  0.0635819428975208  0.1657766171558461   T   T   T
  0.9957986728034556  0.0626260683309692  0.1654557456782703   T   T   T
  0.3286995242502924  0.3135327474659046  0.1657895048165378   T   T   T
  0.6630092420434284  0.3135044135228566  0.1658003390517077   T   T   T
  0.9958090429362149  0.3132397918954907  0.1654914773265604   T   T   T
  0.1623624378906027  0.1890517754787361  0.1904419635025881   T   T   T
  0.4951882741351908  0.1928059132406381  0.1918516960888372   T   T   T
  0.8294790993188529  0.1894883843779130  0.1906403544997454   T   T   T
  0.1624014080689571  0.4405631110553822  0.1908863906185792   T   T   T
  0.4956176255792528  0.4388633558057595  0.1913547558359111   T   T   T
  0.8293209686060667  0.4405646983487057  0.1910921259424209   T   T   T
  0.1628906077330991  0.1881546581223134  0.0848806297462755   T   T   T
  0.4959986024201252  0.1882423408561151  0.0850621096158305   T   T   T
  0.8294747865962609  0.1881699298558695  0.0849037717187704   T   T   T
  0.1628425378320054  0.4382167910601442  0.0849112551705815   T   T   T
  0.4959932996813473  0.4381330137988751  0.0848098757151791   T   T   T
  0.8293506400124451  0.4382410135311838  0.0849420118418465   T   T   T
  0.3295096889421166  0.0631323717524581  0.1121759996691643   T   T   T
  0.6625889895063805  0.0631271954569417  0.1121853252187825   T   T   T
  0.9958810152541415  0.0629908884337317  0.1120819670405614   T   T   T
  0.3293039827005543  0.3130642775193102  0.1121380074446782   T   T   T
  0.6627984835778623  0.3130342966710603  0.1121505094208969   T   T   T
  0.9959270890668835  0.3131010191754575  0.1120632914315546   T   T   T
  0.9964408909303949  0.5653233228569003  0.0595981456689943   T   T   T
  0.3298245434956735  0.5653326480208826  0.0595622255780981   T   T   T
  0.6631905703684430  0.5652831324215797  0.0596052474986912   T   T   T
  0.9964934259998750  0.8153809908946720  0.0595939140377339   T   T   T
  0.3298741463013203  0.8152726327474890  0.0596108587463445   T   T   T
  0.6631679293467125  0.8152413101200719  0.0596208603010545   T   T   T
  0.1625556659239671  0.6882484476929722  0.1384675154440441   T   T   T
  0.4959825386882984  0.6879687005404295  0.1385225573369947   T   T   T
  0.8295557162685232  0.6882140562871826  0.1384847726899598   T   T   T
  0.1630840085961771  0.9380813130987793  0.1384965612575611   T   T   T
  0.4960377975477618  0.9379833764841023  0.1385099226660154   T   T   T
  0.8290846361957459  0.9380952295070519  0.1384975996907109   T   T   T
  0.3285888238331351  0.5633379247670344  0.1656926110205290   T   T   T
  0.6633399359949950  0.5631345799939800  0.1658244263035653   T   T   T
  0.9958476416617595  0.5634476155387530  0.1656399529061924   T   T   T
  0.3295978696724969  0.8131234013151440  0.1656688973865834   T   T   T
  0.6629223745999342  0.8130836168024407  0.1656626510233590   T   T   T
  0.9961039092470786  0.8132432490797022  0.1656589199901760   T   T   T
  0.1629522529729630  0.6903365914970441  0.1909860545916968   T   T   T
  0.4964398232982035  0.6902129450871451  0.1910408531763575   T   T   T
  0.8298059791795199  0.6903493351972582  0.1910088338743139   T   T   T
  0.1629968082659836  0.9402787995694692  0.1910000676885078   T   T   T
  0.4963499347099696  0.9402543498512455  0.1910381455803821   T   T   T
  0.8295550305009407  0.9403345687296931  0.1910170896145454   T   T   T
  0.1627854300302184  0.6882404337031682  0.0849438576751002   T   T   T
  0.4960869836824969  0.6881948525801843  0.0849430813559593   T   T   T
  0.8295069156138246  0.6882471151284849  0.0849506531040481   T   T   T
  0.1628760353898253  0.9382516866386201  0.0849490229796690   T   T   T
  0.4959925171075469  0.9382219567357268  0.0849666223906531   T   T   T
  0.8292796402756702  0.9382697220332743  0.0849492405511428   T   T   T
  0.3293186035800627  0.5629999887310976  0.1121135505613000   T   T   T
  0.6627105256502301  0.5629247905278361  0.1121616855895688   T   T   T
  0.9958596278358290  0.5630775489562814  0.1121262070018093   T   T   T
  0.3294037578017215  0.8130296763657734  0.1121332709517317   T   T   T
  0.6627332510312605  0.8129915675911420  0.1121351360941985   T   T   T
  0.9958612132678101  0.8132573911133264  0.1121233390866040   T   T   T
  0.0783732572305186  0.1792398175621833  0.0261090402580384   T   T   T
  0.4114180676878084  0.1793424947607749  0.0262893026529315   T   T   T
  0.7442468018323045  0.1792077220968206  0.0261905996469103   T   T   T
  0.0781113722367237  0.4292500108567746  0.0261651802557891   T   T   T
  0.4115564845785567  0.4289439257153826  0.0260684704221909   T   T   T
  0.7438183491491879  0.4290182470306741  0.0262453461115789   T   T   T
  0.3280154103337602  0.0289141125484236  0.0441328519294027   T   T   T
  0.6604738581492413  0.0289155379012940  0.0441518608184376   T   T   T
  0.9941168481768392  0.0288528948743713  0.0440492101926640   T   T   T
  0.3272340243596789  0.2786727893960934  0.0440966167033535   T   T   T
  0.6613686292136597  0.2786714540942992  0.0441222694637825   T   T   T
  0.9941817742518333  0.2789564940024873  0.0440513024957212   T   T   T
  0.8319342592178550  0.4037334488388220  0.2064712159014864   T   T   T
  0.8325462775747132  0.1534379069105465  0.2061878369081036   T   T   T
  0.1644996350653057  0.1534530947759450  0.2060955879816064   T   T   T
  0.4980622458730005  0.1560421527860795  0.2072485793374750   T   T   T
  0.1651151338069088  0.4038051762496473  0.2062723560559072   T   T   T
  0.5390166930396796  0.4646472973180850  0.2614258331140088   T   T   T
  0.0823292807043910  0.0553468461937095  0.2240961019970322   T   T   T
  0.4154591874285372  0.0553433226456776  0.2242371143692760   T   T   T
  0.7480562661322994  0.0554372667200569  0.2243331667658555   T   T   T
  0.0914696297889632  0.3015025232393283  0.2225463966087851   T   T   T
  0.3656729090905613  0.2835930394444717  0.2305054448684865   T   T   T
  0.7814105848263384  0.2967654021486245  0.2228825591020678   T   T   T
  0.4976941278695007  0.2708053007711079  0.2660290629884962   T   T   T
  0.4699919095681062  0.2284292394300467  0.3004992277687740   T   T   T
  0.5182577661701053  0.3127074425589448  0.3084407554943730   T   T   T
  0.2889081728759176  0.1365133378711912  0.2958614149283377   T   T   T
  0.4375785052690287  0.1083245211418687  0.2874006267370607   T   T   T
  0.6376898556302402  0.3858913270241566  0.3348277300946028   T   T   T
  0.5035935000572479  0.4323401645460841  0.3272816049002578   T   T   T
  0.5044592301596117  0.4391333894868642  0.2702443214258474   T   T   T
  0.5667837827971323  0.2676912876868118  0.2406365710688917   T   T   T
  0.0778290830652126  0.6793029408991096  0.0261860711658576   T   T   T
  0.4113104291937526  0.6792826497421981  0.0261906188215203   T   T   T
  0.7445429301821747  0.6792378698196881  0.0261943954580270   T   T   T
  0.0787023371698287  0.9292561819935583  0.0261137233731115   T   T   T
  0.4114339546052970  0.9291357574940093  0.0261844336669437   T   T   T
  0.7443082154864928  0.9291124583503034  0.0261905827908882   T   T   T
  0.3276170508835940  0.5290442916554960  0.0440524776585772   T   T   T
  0.6609665358660473  0.5290225935552794  0.0440878408523815   T   T   T
  0.9942119327688556  0.5290379966901614  0.0440874697548491   T   T   T
  0.3276337771787246  0.7789043905231203  0.0441140049298600   T   T   T
  0.6608075534201068  0.7789002591974248  0.0441153859819893   T   T   T
  0.9942255255829570  0.7789894866882774  0.0441030006138899   T   T   T
  0.8319122001722353  0.9040251594775043  0.2065140994182367   T   T   T
  0.8317861604525713  0.6537116050447298  0.2064321140820214   T   T   T
  0.1661358206507537  0.6536321088193209  0.2063893688780857   T   T   T
  0.4984098754749454  0.6533712829111568  0.2064351626869427   T   T   T
  0.1653853590358694  0.9039731372502713  0.2064953098014763   T   T   T
  0.4988712279071136  0.9038959674653493  0.2065267097757679   T   T   T
  0.0877869111506938  0.5535842862263535  0.2237124002821705   T   T   T
  0.4162787963859615  0.5497811856160923  0.2244425885109492   T   T   T
  0.7548026007229665  0.5543531087150937  0.2233300928326178   T   T   T
  0.0828961838151218  0.8041461056613983  0.2243189233241833   T   T   T
  0.4153507481598191  0.8043014156149368  0.2244070899194712   T   T   T
  0.7508830526923737  0.8037380552793500  0.2242392716274748   T   T   T
  0.1721726888550718  0.1686843289778638  0.0330452551763387   T   T   T
  0.5053576941788380  0.1688153809768849  0.0331806722823439   T   T   T
  0.8382859440559223  0.1686930651557867  0.0330473154223229   T   T   T
  0.1720609173061581  0.4187582964899664  0.0330555207277446   T   T   T
  0.5055511702056932  0.4183979996496803  0.0329416560502987   T   T   T
  0.8380584612362383  0.4187798111123867  0.0330789527456438   T   T   T
  0.3213337699757679  0.0434932928958054  0.2176113862627116   T   T   T
  0.6541962239688837  0.0435118365763828  0.2176274842677595   T   T   T
  0.9881480644061276  0.0438625959560195  0.2174266477934811   T   T   T
  0.2981121319677233  0.2953386172276428  0.2174657850062410   T   T   T
  0.6799320318310215  0.2917247502429025  0.2183134947608321   T   T   T
  0.9919410177967247  0.2920468425702706  0.2172458230174112   T   T   T
  0.5245485314986036  0.2745045397766072  0.2958470221340625   T   T   T
  0.3896418066918990  0.1326354241157887  0.3004442366032115   T   T   T
  0.5357095928595237  0.3808898667893624  0.3311297814774488   T   T   T
  0.4818254174040950  0.2524358332104011  0.2500250237923742   T   T   T
  0.1718321190353414  0.6688188359624330  0.0330645770868362   T   T   T
  0.5053314598439349  0.6688066326711458  0.0330662084536309   T   T   T
  0.8385946143181475  0.6688288730758013  0.0330701610734722   T   T   T
  0.1723954490322567  0.9188419837438174  0.0330960471843073   T   T   T
  0.5053192399957394  0.9188771958965815  0.0331239880744251   T   T   T
  0.8383331678194679  0.9188266138924183  0.0330855620175600   T   T   T
  0.3218611484033671  0.5459830935759228  0.2170836388013929   T   T   T
  0.6576184896341815  0.5453688934800124  0.2174924092371877   T   T   T
  0.9912147611498852  0.5443898943313934  0.2175484105140381   T   T   T
  0.3213149464726330  0.7938886398664605  0.2175347541295747   T   T   T
  0.6560872373445314  0.7941862483789826  0.2175060659198927   T   T   T
  0.9884998919612517  0.7939477341438332  0.2175303417847473   T   T   T
  0.4966396340663445  0.1240093122309457  0.0589933813250740   T   T   T
  0.8298942416015859  0.1239324646574601  0.0588685121821047   T   T   T
  0.1633999512527793  0.3739245539673555  0.0588865155097681   T   T   T
  0.4967066136864393  0.3738676756266879  0.0588337428576185   T   T   T
  0.8298713012481894  0.3739331225519936  0.0589084573888365   T   T   T
  0.1632578125312771  0.1239081785901596  0.0588572037234202   T   T   T
  0.9960347862907051  0.0002807258812923  0.1387106691854182   T   T   T
  0.3299194841582513  0.0006593351308458  0.1388450095052607   T   T   T
  0.6623244956238670  0.0007427569343165  0.1388660873319909   T   T   T
  0.9960424894040429  0.2507066537775988  0.1387560925673909   T   T   T
  0.3292627633518647  0.2513097866383930  0.1390408266590722   T   T   T
  0.6626579424260349  0.2512887804277743  0.1390257994252455   T   T   T
  0.1624688373848557  0.1249101187353844  0.1648608173014754   T   T   T
  0.4956360534144260  0.1268705623312829  0.1656140808191619   T   T   T
  0.8293034007407003  0.1251363155192787  0.1649276379957093   T   T   T
  0.1628499603966836  0.3756252529069322  0.1651721003838970   T   T   T
  0.4956071657045808  0.3772532129701302  0.1664568739020736   T   T   T
  0.8288966114011035  0.3756880404623357  0.1652865345480116   T   T   T
  0.3348664316152400  0.4957609356671669  0.1918313269686817   T   T   T
  0.6562447678830945  0.4957182646089356  0.1921244706042802   T   T   T
  0.9959808012688123  0.4987771955883351  0.1917156596177120   T   T   T
  0.3256372253065506  0.2509567702812382  0.1921846692593085   T   T   T
  0.9961543583242277  0.2479443787220169  0.1912498089822789   T   T   T
  0.6645791009465498  0.2501307940150763  0.1919460266318793   T   T   T
  0.9960665054158861  0.0003759114765525  0.0855146050044614   T   T   T
  0.3295013538003622  0.0004253000033304  0.0855831852229786   T   T   T
  0.6626795527200526  0.0004390004535163  0.0855933816971845   T   T   T
  0.9961684800975479  0.2504433343169869  0.0855289818626034   T   T   T
  0.3294342016520551  0.2505127647505529  0.0856152984063838   T   T   T
  0.6628804321575174  0.2504913379773976  0.0856286834601983   T   T   T
  0.1626380207986241  0.1256719937778096  0.1118474831824497   T   T   T
  0.4959103805917964  0.1258999917664688  0.1120943524570372   T   T   T
  0.8292107289764478  0.1256621971752813  0.1118764353236832   T   T   T
  0.1627835305551297  0.3756898389787390  0.1119473295553166   T   T   T
  0.4959365633610782  0.3758314989718726  0.1119989089043551   T   T   T
  0.8291306371174577  0.3756773898453543  0.1119863756118648   T   T   T
  0.4966644181181002  0.6238912838875826  0.0588894869462540   T   T   T
  0.8299287192770126  0.6239250020622229  0.0588997693673355   T   T   T
  0.1633956226232443  0.8739337174387892  0.0588840230414908   T   T   T
  0.4966627508583921  0.8738952623061631  0.0589029619681025   T   T   T
  0.8298547178442464  0.8739413588817984  0.0588852833509894   T   T   T
  0.1632843224254201  0.6239285476350863  0.0588855323927576   T   T   T
  0.9960308906283016  0.5004922983007758  0.1388760467626504   T   T   T
  0.3304793190750691  0.5003047919440380  0.1389801789011748   T   T   T
  0.6615214004437124  0.5002791996729410  0.1390587359035274   T   T   T
  0.9960589288926047  0.7503739458682751  0.1387759120454412   T   T   T
  0.3295185039124678  0.7501760952508764  0.1388007451865224   T   T   T
  0.6627317220606025  0.7501696114607325  0.1388009569596901   T   T   T
  0.1632745040867232  0.6248299185235366  0.1651101291498780   T   T   T
  0.4960246639326207  0.6242602582399938  0.1651951106095543   T   T   T
  0.8284769183262591  0.6247525425768258  0.1651508556696123   T   T   T
  0.1628508800731740  0.8751632846445335  0.1651051909323835   T   T   T
  0.4961299006067554  0.8751422400673537  0.1651328348282633   T   T   T
  0.8292703089697304  0.8751901054927314  0.1651182134361989   T   T   T
  0.3295103908616158  0.9989788387665831  0.1917624975308635   T   T   T
  0.6627534200982600  0.9990189335723542  0.1917775933623441   T   T   T
  0.9961549417493217  0.9989060962260221  0.1916331188872513   T   T   T
  0.3297077665726572  0.7485071956916757  0.1917459582516739   T   T   T
  0.9962895436435287  0.7486326153667565  0.1917357403996192   T   T   T
  0.6628570569373672  0.7485617705049474  0.1917617747286330   T   T   T
  0.9960663490865190  0.5003498061970832  0.0855720439450375   T   T   T
  0.3295591199873721  0.5003353643819607  0.0855522258781552   T   T   T
  0.6625784386107995  0.5003119379503425  0.0855828125630262   T   T   T
  0.9961543052552205  0.7503400788824512  0.0855523244507582   T   T   T
  0.3295206785084726  0.7502221276140696  0.0855490043333991   T   T   T
  0.6628229748636101  0.7502278545824058  0.0855518396808885   T   T   T
  0.1627613305783667  0.6253740751586727  0.1119297959293687   T   T   T
  0.4959710494001704  0.6252808947695839  0.1119389937614933   T   T   T
  0.8290674491800756  0.6253563257476307  0.1119437616075426   T   T   T
  0.1628162166626151  0.8754846090327316  0.1118871376833731   T   T   T
  0.4960017858467271  0.8754019832477867  0.1118947415512894   T   T   T
  0.8290679604975274  0.8754922026472507  0.1118865613568503   T   T   T
 
  0.00000000E+00  0.00000000E+00  0.00000000E+00
  0.00000000E+00  0.00000000E+00  0.00000000E+00
  0.00000000E+00  0.00000000E+00  0.00000000E+00
  0.00000000E+00  0.00000000E+00  0.00000000E+00
  0.00000000E+00  0.00000000E+00  0.00000000E+00
  0.00000000E+00  0.00000000E+00  0.00000000E+00
  0.00000000E+00  0.00000000E+00  0.00000000E+00
  0.00000000E+00  0.00000000E+00  0.00000000E+00
  0.00000000E+00  0.00000000E+00  0.00000000E+00
  0.00000000E+00  0.00000000E+00  0.00000000E+00
  0.00000000E+00  0.00000000E+00  0.00000000E+00
  0.00000000E+00  0.00000000E+00  0.00000000E+00
  0.00000000E+00  0.00000000E+00  0.00000000E+00
  0.00000000E+00  0.00000000E+00  0.00000000E+00
  0.00000000E+00  0.00000000E+00  0.00000000E+00
  0.00000000E+00  0.00000000E+00  0.00000000E+00
  0.00000000E+00  0.00000000E+00  0.00000000E+00
  0.00000000E+00  0.00000000E+00  0.00000000E+00
  0.00000000E+00  0.00000000E+00  0.00000000E+00
  0.00000000E+00  0.00000000E+00  0.00000000E+00
  0.00000000E+00  0.00000000E+00  0.00000000E+00
  0.00000000E+00  0.00000000E+00  0.00000000E+00
  0.00000000E+00  0.00000000E+00  0.00000000E+00
  0.00000000E+00  0.00000000E+00  0.00000000E+00
  0.00000000E+00  0.00000000E+00  0.00000000E+00
  0.00000000E+00  0.00000000E+00  0.00000000E+00
  0.00000000E+00  0.00000000E+00  0.00000000E+00
  0.00000000E+00  0.00000000E+00  0.00000000E+00
  0.00000000E+00  0.00000000E+00  0.00000000E+00
  0.00000000E+00  0.00000000E+00  0.00000000E+00
  0.00000000E+00  0.00000000E+00  0.00000000E+00
  0.00000000E+00  0.00000000E+00  0.00000000E+00
  0.00000000E+00  0.00000000E+00  0.00000000E+00
  0.00000000E+00  0.00000000E+00  0.00000000E+00
  0.00000000E+00  0.00000000E+00  0.00000000E+00
  0.00000000E+00  0.00000000E+00  0.00000000E+00
  0.00000000E+00  0.00000000E+00  0.00000000E+00
  0.00000000E+00  0.00000000E+00  0.00000000E+00
  0.00000000E+00  0.00000000E+00  0.00000000E+00
  0.00000000E+00  0.00000000E+00  0.00000000E+00
  0.00000000E+00  0.00000000E+00  0.00000000E+00
  0.00000000E+00  0.00000000E+00  0.00000000E+00
  0.00000000E+00  0.00000000E+00  0.00000000E+00
  0.00000000E+00  0.00000000E+00  0.00000000E+00
  0.00000000E+00  0.00000000E+00  0.00000000E+00
  0.00000000E+00  0.00000000E+00  0.00000000E+00
  0.00000000E+00  0.00000000E+00  0.00000000E+00
  0.00000000E+00  0.00000000E+00  0.00000000E+00
  0.00000000E+00  0.00000000E+00  0.00000000E+00
  0.00000000E+00  0.00000000E+00  0.00000000E+00
  0.00000000E+00  0.00000000E+00  0.00000000E+00
  0.00000000E+00  0.00000000E+00  0.00000000E+00
  0.00000000E+00  0.00000000E+00  0.00000000E+00
  0.00000000E+00  0.00000000E+00  0.00000000E+00
  0.00000000E+00  0.00000000E+00  0.00000000E+00
  0.00000000E+00  0.00000000E+00  0.00000000E+00
  0.00000000E+00  0.00000000E+00  0.00000000E+00
  0.00000000E+00  0.00000000E+00  0.00000000E+00
  0.00000000E+00  0.00000000E+00  0.00000000E+00
  0.00000000E+00  0.00000000E+00  0.00000000E+00
  0.00000000E+00  0.00000000E+00  0.00000000E+00
  0.00000000E+00  0.00000000E+00  0.00000000E+00
  0.00000000E+00  0.00000000E+00  0.00000000E+00
  0.00000000E+00  0.00000000E+00  0.00000000E+00
  0.00000000E+00  0.00000000E+00  0.00000000E+00
  0.00000000E+00  0.00000000E+00  0.00000000E+00
  0.00000000E+00  0.00000000E+00  0.00000000E+00
  0.00000000E+00  0.00000000E+00  0.00000000E+00
  0.00000000E+00  0.00000000E+00  0.00000000E+00
  0.00000000E+00  0.00000000E+00  0.00000000E+00
  0.00000000E+00  0.00000000E+00  0.00000000E+00
  0.00000000E+00  0.00000000E+00  0.00000000E+00
  0.00000000E+00  0.00000000E+00  0.00000000E+00
  0.00000000E+00  0.00000000E+00  0.00000000E+00
  0.00000000E+00  0.00000000E+00  0.00000000E+00
  0.00000000E+00  0.00000000E+00  0.00000000E+00
  0.00000000E+00  0.00000000E+00  0.00000000E+00
  0.00000000E+00  0.00000000E+00  0.00000000E+00
  0.00000000E+00  0.00000000E+00  0.00000000E+00
  0.00000000E+00  0.00000000E+00  0.00000000E+00
  0.00000000E+00  0.00000000E+00  0.00000000E+00
  0.00000000E+00  0.00000000E+00  0.00000000E+00
  0.00000000E+00  0.00000000E+00  0.00000000E+00
  0.00000000E+00  0.00000000E+00  0.00000000E+00
  0.00000000E+00  0.00000000E+00  0.00000000E+00
  0.00000000E+00  0.00000000E+00  0.00000000E+00
  0.00000000E+00  0.00000000E+00  0.00000000E+00
  0.00000000E+00  0.00000000E+00  0.00000000E+00
  0.00000000E+00  0.00000000E+00  0.00000000E+00
  0.00000000E+00  0.00000000E+00  0.00000000E+00
  0.00000000E+00  0.00000000E+00  0.00000000E+00
  0.00000000E+00  0.00000000E+00  0.00000000E+00
  0.00000000E+00  0.00000000E+00  0.00000000E+00
  0.00000000E+00  0.00000000E+00  0.00000000E+00
  0.00000000E+00  0.00000000E+00  0.00000000E+00
  0.00000000E+00  0.00000000E+00  0.00000000E+00
  0.00000000E+00  0.00000000E+00  0.00000000E+00
  0.00000000E+00  0.00000000E+00  0.00000000E+00
  0.00000000E+00  0.00000000E+00  0.00000000E+00
  0.00000000E+00  0.00000000E+00  0.00000000E+00
  0.00000000E+00  0.00000000E+00  0.00000000E+00
  0.00000000E+00  0.00000000E+00  0.00000000E+00
  0.00000000E+00  0.00000000E+00  0.00000000E+00
  0.00000000E+00  0.00000000E+00  0.00000000E+00
  0.00000000E+00  0.00000000E+00  0.00000000E+00
  0.00000000E+00  0.00000000E+00  0.00000000E+00
  0.00000000E+00  0.00000000E+00  0.00000000E+00
  0.00000000E+00  0.00000000E+00  0.00000000E+00
  0.00000000E+00  0.00000000E+00  0.00000000E+00
  0.00000000E+00  0.00000000E+00  0.00000000E+00
  0.00000000E+00  0.00000000E+00  0.00000000E+00
  0.00000000E+00  0.00000000E+00  0.00000000E+00
  0.00000000E+00  0.00000000E+00  0.00000000E+00
  0.00000000E+00  0.00000000E+00  0.00000000E+00
  0.00000000E+00  0.00000000E+00  0.00000000E+00
  0.00000000E+00  0.00000000E+00  0.00000000E+00
  0.00000000E+00  0.00000000E+00  0.00000000E+00
  0.00000000E+00  0.00000000E+00  0.00000000E+00
  0.00000000E+00  0.00000000E+00  0.00000000E+00
  0.00000000E+00  0.00000000E+00  0.00000000E+00
  0.00000000E+00  0.00000000E+00  0.00000000E+00
  0.00000000E+00  0.00000000E+00  0.00000000E+00
  0.00000000E+00  0.00000000E+00  0.00000000E+00
  0.00000000E+00  0.00000000E+00  0.00000000E+00
  0.00000000E+00  0.00000000E+00  0.00000000E+00
  0.00000000E+00  0.00000000E+00  0.00000000E+00
  0.00000000E+00  0.00000000E+00  0.00000000E+00
  0.00000000E+00  0.00000000E+00  0.00000000E+00
  0.00000000E+00  0.00000000E+00  0.00000000E+00
  0.00000000E+00  0.00000000E+00  0.00000000E+00
  0.00000000E+00  0.00000000E+00  0.00000000E+00
  0.00000000E+00  0.00000000E+00  0.00000000E+00
  0.00000000E+00  0.00000000E+00  0.00000000E+00
  0.00000000E+00  0.00000000E+00  0.00000000E+00
  0.00000000E+00  0.00000000E+00  0.00000000E+00
  0.00000000E+00  0.00000000E+00  0.00000000E+00
  0.00000000E+00  0.00000000E+00  0.00000000E+00
  0.00000000E+00  0.00000000E+00  0.00000000E+00
  0.00000000E+00  0.00000000E+00  0.00000000E+00
  0.00000000E+00  0.00000000E+00  0.00000000E+00
  0.00000000E+00  0.00000000E+00  0.00000000E+00
  0.00000000E+00  0.00000000E+00  0.00000000E+00
  0.00000000E+00  0.00000000E+00  0.00000000E+00
  0.00000000E+00  0.00000000E+00  0.00000000E+00
  0.00000000E+00  0.00000000E+00  0.00000000E+00
  0.00000000E+00  0.00000000E+00  0.00000000E+00
  0.00000000E+00  0.00000000E+00  0.00000000E+00
  0.00000000E+00  0.00000000E+00  0.00000000E+00
  0.00000000E+00  0.00000000E+00  0.00000000E+00
  0.00000000E+00  0.00000000E+00  0.00000000E+00
  0.00000000E+00  0.00000000E+00  0.00000000E+00
  0.00000000E+00  0.00000000E+00  0.00000000E+00
  0.00000000E+00  0.00000000E+00  0.00000000E+00
  0.00000000E+00  0.00000000E+00  0.00000000E+00
  0.00000000E+00  0.00000000E+00  0.00000000E+00
  0.00000000E+00  0.00000000E+00  0.00000000E+00
  0.00000000E+00  0.00000000E+00  0.00000000E+00
  0.00000000E+00  0.00000000E+00  0.00000000E+00
  0.00000000E+00  0.00000000E+00  0.00000000E+00
  0.00000000E+00  0.00000000E+00  0.00000000E+00
  0.00000000E+00  0.00000000E+00  0.00000000E+00
  0.00000000E+00  0.00000000E+00  0.00000000E+00
  0.00000000E+00  0.00000000E+00  0.00000000E+00
  0.00000000E+00  0.00000000E+00  0.00000000E+00
  0.00000000E+00  0.00000000E+00  0.00000000E+00
  0.00000000E+00  0.00000000E+00  0.00000000E+00
  0.00000000E+00  0.00000000E+00  0.00000000E+00
  0.00000000E+00  0.00000000E+00  0.00000000E+00
  0.00000000E+00  0.00000000E+00  0.00000000E+00
  0.00000000E+00  0.00000000E+00  0.00000000E+00
  0.00000000E+00  0.00000000E+00  0.00000000E+00
  0.00000000E+00  0.00000000E+00  0.00000000E+00
  0.00000000E+00  0.00000000E+00  0.00000000E+00
  0.00000000E+00  0.00000000E+00  0.00000000E+00
  0.00000000E+00  0.00000000E+00  0.00000000E+00
  0.00000000E+00  0.00000000E+00  0.00000000E+00
  0.00000000E+00  0.00000000E+00  0.00000000E+00
  0.00000000E+00  0.00000000E+00  0.00000000E+00
  0.00000000E+00  0.00000000E+00  0.00000000E+00
  0.00000000E+00  0.00000000E+00  0.00000000E+00
  0.00000000E+00  0.00000000E+00  0.00000000E+00
  0.00000000E+00  0.00000000E+00  0.00000000E+00
  0.00000000E+00  0.00000000E+00  0.00000000E+00
  0.00000000E+00  0.00000000E+00  0.00000000E+00
  0.00000000E+00  0.00000000E+00  0.00000000E+00
  0.00000000E+00  0.00000000E+00  0.00000000E+00
  0.00000000E+00  0.00000000E+00  0.00000000E+00
  0.00000000E+00  0.00000000E+00  0.00000000E+00
  0.00000000E+00  0.00000000E+00  0.00000000E+00
  0.00000000E+00  0.00000000E+00  0.00000000E+00
  0.00000000E+00  0.00000000E+00  0.00000000E+00
  0.00000000E+00  0.00000000E+00  0.00000000E+00
  0.00000000E+00  0.00000000E+00  0.00000000E+00
  0.00000000E+00  0.00000000E+00  0.00000000E+00
  0.00000000E+00  0.00000000E+00  0.00000000E+00
  0.00000000E+00  0.00000000E+00  0.00000000E+00
  0.00000000E+00  0.00000000E+00  0.00000000E+00
  0.00000000E+00  0.00000000E+00  0.00000000E+00
  0.00000000E+00  0.00000000E+00  0.00000000E+00
  0.00000000E+00  0.00000000E+00  0.00000000E+00
  0.00000000E+00  0.00000000E+00  0.00000000E+00
  0.00000000E+00  0.00000000E+00  0.00000000E+00
  0.00000000E+00  0.00000000E+00  0.00000000E+00
  0.00000000E+00  0.00000000E+00  0.00000000E+00
  0.00000000E+00  0.00000000E+00  0.00000000E+00
  0.00000000E+00  0.00000000E+00  0.00000000E+00
  0.00000000E+00  0.00000000E+00  0.00000000E+00
  0.00000000E+00  0.00000000E+00  0.00000000E+00
  0.00000000E+00  0.00000000E+00  0.00000000E+00
  0.00000000E+00  0.00000000E+00  0.00000000E+00
  0.00000000E+00  0.00000000E+00  0.00000000E+00
  0.00000000E+00  0.00000000E+00  0.00000000E+00
  0.00000000E+00  0.00000000E+00  0.00000000E+00
  0.00000000E+00  0.00000000E+00  0.00000000E+00
  0.00000000E+00  0.00000000E+00  0.00000000E+00
  0.00000000E+00  0.00000000E+00  0.00000000E+00
  0.00000000E+00  0.00000000E+00  0.00000000E+00
  0.00000000E+00  0.00000000E+00  0.00000000E+00
  0.00000000E+00  0.00000000E+00  0.00000000E+00
  0.00000000E+00  0.00000000E+00  0.00000000E+00
  0.00000000E+00  0.00000000E+00  0.00000000E+00
  0.00000000E+00  0.00000000E+00  0.00000000E+00
  0.00000000E+00  0.00000000E+00  0.00000000E+00
  0.00000000E+00  0.00000000E+00  0.00000000E+00
  0.00000000E+00  0.00000000E+00  0.00000000E+00
  0.00000000E+00  0.00000000E+00  0.00000000E+00
  0.00000000E+00  0.00000000E+00  0.00000000E+00
  0.00000000E+00  0.00000000E+00  0.00000000E+00
  0.00000000E+00  0.00000000E+00  0.00000000E+00
