C H O Si                                
   1.00000000000000     
     9.2874599999999994    0.0000000000000000    0.0000000000000000
     0.0000000000000000   17.5126199999999983    0.0000000000000000
     0.0000000000000000    0.0000000000000000   58.0000000000000000
   C    H    O    Si
    72    57    28    72
Selective dynamics
Direct
  0.9964199699463997  0.0651823710400352  0.0595427566181759   T   T   T
  0.3298777289839240  0.0653246970730995  0.0596137390747856   T   T   T
  0.6630651468854857  0.0653313967717989  0.0596272006041972   T   T   T
  0.9965398399756553  0.3152760579836436  0.0595581211825650   T   T   T
  0.3298708160396963  0.3151498101828101  0.0595572422823992   T   T   T
  0.6632577160164941  0.3151338089396164  0.0595851533318228   T   T   T
  0.1629285645921336  0.1880278316513160  0.1383727087416863   T   T   T
  0.4961942531670351  0.1885310304110130  0.1387451566874759   T   T   T
  0.8293101670186906  0.1880693115644246  0.1384098170269904   T   T   T
  0.1628667559852712  0.4382303767326562  0.1384780589907036   T   T   T
  0.4962238117704130  0.4373139119143835  0.1384408233217844   T   T   T
  0.8293780957284943  0.4381492027789890  0.1385377848028387   T   T   T
  0.3297988742651672  0.0633611836767886  0.1657282784078859   T   T   T
  0.6617400897697673  0.0635300172457080  0.1657786760681066   T   T   T
  0.9955000655341955  0.0626300239825384  0.1654701045250125   T   T   T
  0.3286021985202927  0.3134428914979596  0.1657797174043607   T   T   T
  0.6627174045826804  0.3134688769958590  0.1658150051118029   T   T   T
  0.9956694494670983  0.3132428431692816  0.1655130042792577   T   T   T
  0.1622914433675182  0.1890243545492791  0.1904380320208438   T   T   T
  0.4952919838285557  0.1928159540076414  0.1918264809381768   T   T   T
  0.8295078167321885  0.1895263115300877  0.1906308134522995   T   T   T
  0.1624799226093424  0.4406526942832705  0.1908764371390090   T   T   T
  0.4954910499304354  0.4388264970768985  0.1913645244374876   T   T   T
  0.8292204483355951  0.4406729623093690  0.1911002377179677   T   T   T
  0.1627647208953423  0.1881177515633680  0.0848801594203141   T   T   T
  0.4961041263944511  0.1881880968488252  0.0850663504361675   T   T   T
  0.8294066922703697  0.1881062310132776  0.0849148285534959   T   T   T
  0.1626496975136473  0.4381919099229217  0.0849077913618721   T   T   T
  0.4958780307645907  0.4381083885994636  0.0847929175315214   T   T   T
  0.8293089826399873  0.4381733068269084  0.0849478791209499   T   T   T
  0.3292212886031917  0.0631144547724787  0.1121896025672645   T   T   T
  0.6623165565514385  0.0631485244007004  0.1122041847399714   T   T   T
  0.9958276858817408  0.0629864053031309  0.1121091644059427   T   T   T
  0.3291963535899913  0.3130704958758131  0.1121512684727117   T   T   T
  0.6624779332093299  0.3130707228294054  0.1121522248662680   T   T   T
  0.9958994004730620  0.3130897642282719  0.1120754858309380   T   T   T
  0.9965202554136212  0.5653652653310689  0.0595937649727582   T   T   T
  0.3297931027379229  0.5653688080562442  0.0595583451602670   T   T   T
  0.6632282242105915  0.5653713046375763  0.0595828837152643   T   T   T
  0.9965165177655828  0.8153933599952959  0.0595809801064939   T   T   T
  0.3298725659180701  0.8152829294519857  0.0596009452330982   T   T   T
  0.6631768140049979  0.8152758983140231  0.0596008305219210   T   T   T
  0.1626289834040807  0.6882510351124104  0.1385024091620028   T   T   T
  0.4962681046773383  0.6879273768648739  0.1385425518200035   T   T   T
  0.8296777951612466  0.6881661518061335  0.1385129714369748   T   T   T
  0.1632714225307044  0.9380769685066558  0.1385205751327692   T   T   T
  0.4963828032157779  0.9379323367206941  0.1385265267979944   T   T   T
  0.8291847230831629  0.9380933184320573  0.1385172181647590   T   T   T
  0.3284258418515301  0.5632738372689483  0.1656916369221322   T   T   T
  0.6630065689528035  0.5631024092768525  0.1658296486843961   T   T   T
  0.9957140473458322  0.5634666144162717  0.1656431089348882   T   T   T
  0.3293106550607762  0.8131483623545622  0.1656694726012745   T   T   T
  0.6626118198665444  0.8131255664974297  0.1656744294598130   T   T   T
  0.9958962583122777  0.8132268346503779  0.1656642216095399   T   T   T
  0.1630260734071791  0.6903997527021486  0.1909767635079182   T   T   T
  0.4964372656855476  0.6902224740904320  0.1910392156639918   T   T   T
  0.8298565036316146  0.6903916243417081  0.1909990101880104   T   T   T
  0.1631126208809598  0.9403353880853954  0.1909921423031924   T   T   T
  0.4964184096205886  0.9402828679644066  0.1910314560805164   T   T   T
  0.8296284694796718  0.9403613409758079  0.1910117650635685   T   T   T
  0.1626927183378344  0.6882236602367033  0.0849470917219023   T   T   T
  0.4961198513451521  0.6881553326518792  0.0849469609963889   T   T   T
  0.8294931494822289  0.6882084156571223  0.0849590032933972   T   T   T
  0.1627582662663817  0.9382513198947665  0.0849659033952193   T   T   T
  0.4960134674447801  0.9381827611846173  0.0849856778488229   T   T   T
  0.8292108649864004  0.9382556134085648  0.0849606441902738   T   T   T
  0.3291488945747133  0.5630170002686904  0.1121196042168277   T   T   T
  0.6624633324377107  0.5629363443838569  0.1121589434015654   T   T   T
  0.9957794041084067  0.5631003218555009  0.1121430165198277   T   T   T
  0.3291999900574584  0.8130212989239187  0.1121314972054927   T   T   T
  0.6625168121554519  0.8130123769257546  0.1121304786869480   T   T   T
  0.9958426440642555  0.8132125571130648  0.1121415999673084   T   T   T
  0.0783431422883428  0.1791772837463817  0.0261217553962117   T   T   T
  0.4114052102957914  0.1792751402938432  0.0263063620438258   T   T   T
  0.7442145599985769  0.1791509433904232  0.0262025357857695   T   T   T
  0.0780838523475833  0.4291912533994239  0.0261745765536664   T   T   T
  0.4115249833443475  0.4288741113202392  0.0260804170880859   T   T   T
  0.7437752822197625  0.4289638486136942  0.0262527595447611   T   T   T
  0.3280621699074215  0.0289309147909291  0.0441362987153084   T   T   T
  0.6605350470353086  0.0289301686759919  0.0441541130923972   T   T   T
  0.9941772373024039  0.0288653365170050  0.0440454039439904   T   T   T
  0.3272844574918494  0.2786736259536408  0.0440986565174880   T   T   T
  0.6614499723451337  0.2786706598896900  0.0441249703048790   T   T   T
  0.9942352193658932  0.2789824631705425  0.0440600839662739   T   T   T
  0.8319494570378250  0.4037560123883031  0.2064573215682377   T   T   T
  0.8325547209672700  0.1534925475110401  0.2061806918423026   T   T   T
  0.1646145603403743  0.1535049922423324  0.2060935170083153   T   T   T
  0.4980924566850261  0.1561297945432535  0.2072344010173424   T   T   T
  0.1651925964345501  0.4038553359052358  0.2062543579977428   T   T   T
  0.5390306103716490  0.4645993300832295  0.2614010797776605   T   T   T
  0.0823628476638504  0.0553158033123854  0.2240998684259345   T   T   T
  0.4155401549100297  0.0553235518283416  0.2242381949431470   T   T   T
  0.7481487181651042  0.0554094709210549  0.2243384091032779   T   T   T
  0.0914262557458795  0.3015701147545215  0.2225329580685745   T   T   T
  0.3656553008138291  0.2835935906469431  0.2304938949078996   T   T   T
  0.7813821523237086  0.2968132358426475  0.2228641807922344   T   T   T
  0.4976078961244425  0.2707523364581945  0.2660133145495732   T   T   T
  0.4698818330794352  0.2284869772412113  0.3004748841262052   T   T   T
  0.5181782420678169  0.3127603071461519  0.3084282719198201   T   T   T
  0.2889818803055611  0.1365096841078297  0.2958371090966088   T   T   T
  0.4376004824518040  0.1084033394110482  0.2873692539081550   T   T   T
  0.6377062442724316  0.3858867719617126  0.3348202065282298   T   T   T
  0.5037103343630248  0.4323385911197820  0.3272996736013631   T   T   T
  0.5044040521527834  0.4390696182846463  0.2701962268974709   T   T   T
  0.5667816790791600  0.2676146503172021  0.2406288425682172   T   T   T
  0.0778228770328664  0.6792531366963898  0.0261961061896354   T   T   T
  0.4113011313800757  0.6792306463029156  0.0262047673109017   T   T   T
  0.7445273897614706  0.6791868226230455  0.0262063248841367   T   T   T
  0.0786709933605638  0.9291959790601999  0.0261245522368320   T   T   T
  0.4114128691733365  0.9290751264513416  0.0261968531318809   T   T   T
  0.7442965209802344  0.9290422236399531  0.0262081363076533   T   T   T
  0.3276899921721490  0.5290697979474076  0.0440569142477432   T   T   T
  0.6610083257173097  0.5290322397387017  0.0440879846566564   T   T   T
  0.9942545353075556  0.5290778178308144  0.0440922857000337   T   T   T
  0.3276997307093486  0.7788926143330988  0.0441188598564302   T   T   T
  0.6608611398134467  0.7788890530054274  0.0441185335284456   T   T   T
  0.9942765168335519  0.7789698802158826  0.0441020079759856   T   T   T
  0.8319313190101045  0.9040407483155686  0.2065092960400831   T   T   T
  0.8318291011460807  0.6537187882892261  0.2064181091876756   T   T   T
  0.1661949149469936  0.6536529924476900  0.2063756185462806   T   T   T
  0.4984646242975541  0.6533882323335256  0.2064280371189551   T   T   T
  0.1654477662415568  0.9039884569172794  0.2064850559014371   T   T   T
  0.4989173298350332  0.9039186324544302  0.2065183395589794   T   T   T
  0.0878315045402630  0.5535799259329532  0.2237221297325024   T   T   T
  0.4163906487930271  0.5497964632860246  0.2244477969248997   T   T   T
  0.7548493631088021  0.5543119888046972  0.2233437400140621   T   T   T
  0.0829429152865111  0.8041407511097893  0.2243284605969607   T   T   T
  0.4153968652735402  0.8043082136642506  0.2244219238800369   T   T   T
  0.7509980359466031  0.8037206487891617  0.2242495424679289   T   T   T
  0.1722861345090404  0.1687408059457662  0.0330329723000649   T   T   T
  0.5054743949344049  0.1687827604758919  0.0331589722178564   T   T   T
  0.8384093119377765  0.1687248669503935  0.0330244173613151   T   T   T
  0.1721716588939124  0.4188067899150588  0.0330373331897078   T   T   T
  0.5057008056283888  0.4184680557660265  0.0329209888253243   T   T   T
  0.8381742713260985  0.4187968789709057  0.0330528426228719   T   T   T
  0.3213280539056283  0.0435176193792551  0.2176318453443605   T   T   T
  0.6542532426733940  0.0435487850224188  0.2176335123646629   T   T   T
  0.9882257550655589  0.0438796403580186  0.2174123425616270   T   T   T
  0.2980497480859449  0.2953509653118221  0.2174948953835361   T   T   T
  0.6797259697319646  0.2917836357918442  0.2183753713112478   T   T   T
  0.9918122912748856  0.2921180961003891  0.2172429741222477   T   T   T
  0.5245190525660614  0.2745225474606880  0.2958692871187260   T   T   T
  0.3896180426912383  0.1325142397062976  0.3004258670364469   T   T   T
  0.5358131592718113  0.3809178977400705  0.3311192922842850   T   T   T
  0.4817521779726663  0.2525303270913007  0.2500083194672587   T   T   T
  0.1719096555848743  0.6687942395819129  0.0330518891244526   T   T   T
  0.5054186717195912  0.6687629992038918  0.0330487097008773   T   T   T
  0.8386638466999008  0.6687930678445543  0.0330548917808162   T   T   T
  0.1725023372959248  0.9188505738008661  0.0330734647623952   T   T   T
  0.5054242256139658  0.9188727589012138  0.0330985749739783   T   T   T
  0.8384704036498453  0.9188168681728373  0.0330640908871397   T   T   T
  0.3221842461510895  0.5458322725994333  0.2170450338981811   T   T   T
  0.6576114854560912  0.5453836114689422  0.2175105442931124   T   T   T
  0.9911976297885937  0.5444060434227890  0.2175758429617322   T   T   T
  0.3214547189684381  0.7938214927034190  0.2175310078132377   T   T   T
  0.6562152280830327  0.7942127421484143  0.2175086983124969   T   T   T
  0.9885997334778319  0.7938948197917217  0.2175279429456078   T   T   T
  0.4966354756643818  0.1240374955197302  0.0589767693699855   T   T   T
  0.8299376745856590  0.1239626787738572  0.0588459476696869   T   T   T
  0.1634257426217844  0.3739416307725105  0.0588569722300966   T   T   T
  0.4967351995085302  0.3738787450751888  0.0588045565141343   T   T   T
  0.8299384928256660  0.3739417817561370  0.0588883505341560   T   T   T
  0.1632712868215283  0.1239249822477889  0.0588341280752212   T   T   T
  0.9961627546382109  0.0002841058618684  0.1387278034120652   T   T   T
  0.3301441586162854  0.0006598841907862  0.1388531142545568   T   T   T
  0.6624459405913276  0.0007493623001628  0.1388699539254624   T   T   T
  0.9961741345942258  0.2506844661810537  0.1387526514173815   T   T   T
  0.3294750651584902  0.2513050805431617  0.1390388725283965   T   T   T
  0.6628551024138314  0.2513001541735947  0.1390171728569973   T   T   T
  0.1622965027118512  0.1248878267908070  0.1648462541695983   T   T   T
  0.4955353246179365  0.1268691575253889  0.1656016182887266   T   T   T
  0.8291379872068031  0.1250962639885518  0.1649127900726556   T   T   T
  0.1628427888211963  0.3756057438507330  0.1651696921283286   T   T   T
  0.4956455941488613  0.3772318942498882  0.1664629056243848   T   T   T
  0.8287144373184485  0.3756932833837527  0.1652810918543213   T   T   T
  0.3349612281749622  0.4957583895631796  0.1918148014994536   T   T   T
  0.6560164477771014  0.4957127668202526  0.1921476583954091   T   T   T
  0.9959638101228571  0.4988121665886949  0.1917102001948111   T   T   T
  0.3256388169878315  0.2509817602636366  0.1921910920749567   T   T   T
  0.9962403066445327  0.2479103796964548  0.1912478252435754   T   T   T
  0.6646356073703444  0.2501775550578900  0.1919737579923189   T   T   T
  0.9960278329387159  0.0003685140914757  0.0855495307980805   T   T   T
  0.3294837669551460  0.0004519061133205  0.0855950123363121   T   T   T
  0.6625825361987077  0.0004556338274126  0.0856066245831500   T   T   T
  0.9961633245965726  0.2503808059194181  0.0855514460979331   T   T   T
  0.3295239215898929  0.2505122346843018  0.0856213352672886   T   T   T
  0.6627808999083649  0.2504578859130290  0.0856323242178573   T   T   T
  0.1625443128749558  0.1257060859073578  0.1118589518829535   T   T   T
  0.4958020391733958  0.1259184260674127  0.1121139620248564   T   T   T
  0.8291570469539713  0.1256650714258432  0.1118800128226023   T   T   T
  0.1627700029895823  0.3757284018734378  0.1119600788960149   T   T   T
  0.4958482864431897  0.3758818901215736  0.1120069251006968   T   T   T
  0.8290309308051981  0.3756684931265720  0.1119891893748605   T   T   T
  0.4966719417955875  0.6239145811924085  0.0588672335806008   T   T   T
  0.8300095076510194  0.6239562244289901  0.0588703732577494   T   T   T
  0.1634319588666899  0.8739806929969254  0.0588702822547057   T   T   T
  0.4966756788456520  0.8739169796146847  0.0588902255031528   T   T   T
  0.8299086385536105  0.8739622008008870  0.0588618259666587   T   T   T
  0.1633334223478836  0.6239527647735321  0.0588666667440260   T   T   T
  0.9961016007358122  0.5004822694168206  0.1388778353236506   T   T   T
  0.3307176096697571  0.5003433259646428  0.1389803966978605   T   T   T
  0.6616714277885336  0.5003102940651660  0.1390525767004058   T   T   T
  0.9961305287664176  0.7503547719321843  0.1387744512346087   T   T   T
  0.3296752169281246  0.7501567333873135  0.1387858909602740   T   T   T
  0.6627978507192143  0.7501741362450904  0.1387889555236446   T   T   T
  0.1632792369094410  0.6247803429125932  0.1651158001920648   T   T   T
  0.4959085430249640  0.6241603462283446  0.1651998310871286   T   T   T
  0.8282826831281355  0.6247133640598708  0.1651524619868801   T   T   T
  0.1627516394560712  0.8751580757944420  0.1650940410184396   T   T   T
  0.4960409980122952  0.8750894461957841  0.1651234345772517   T   T   T
  0.8292260950708192  0.8751874759587241  0.1651059724615748   T   T   T
  0.3295874909374636  0.9989925596272420  0.1917681394119995   T   T   T
  0.6628295457787753  0.9990270747253706  0.1917835742789179   T   T   T
  0.9962028506328717  0.9989462619363952  0.1916331923273518   T   T   T
  0.3297487474671861  0.7485274460159969  0.1917463408663940   T   T   T
  0.9963280728109961  0.7486575537299599  0.1917357351183390   T   T   T
  0.6628883695401422  0.7485610957531550  0.1917614814892231   T   T   T
  0.9960531822220017  0.5003333143868102  0.0855842534135983   T   T   T
  0.3294635193463813  0.5003639065787329  0.0855608415310665   T   T   T
  0.6624851705378141  0.5003074601954378  0.0855851606306453   T   T   T
  0.9961284380937685  0.7503540583510130  0.0855604179818784   T   T   T
  0.3294824377703758  0.7502015463223710  0.0855609129350184   T   T   T
  0.6628358690987604  0.7501889888083713  0.0855605907995110   T   T   T
  0.1626225150612201  0.6254299148157563  0.1119480427062180   T   T   T
  0.4958922262391720  0.6252921895190563  0.1119457221630259   T   T   T
  0.8289879812025761  0.6253652747438094  0.1119542256476437   T   T   T
  0.1626774630120700  0.8755059281071732  0.1118934830176551   T   T   T
  0.4958974196447106  0.8753907845262821  0.1119003635035792   T   T   T
  0.8290051562815923  0.8755329571478800  0.1118914767143002   T   T   T
 
  0.00000000E+00  0.00000000E+00  0.00000000E+00
  0.00000000E+00  0.00000000E+00  0.00000000E+00
  0.00000000E+00  0.00000000E+00  0.00000000E+00
  0.00000000E+00  0.00000000E+00  0.00000000E+00
  0.00000000E+00  0.00000000E+00  0.00000000E+00
  0.00000000E+00  0.00000000E+00  0.00000000E+00
  0.00000000E+00  0.00000000E+00  0.00000000E+00
  0.00000000E+00  0.00000000E+00  0.00000000E+00
  0.00000000E+00  0.00000000E+00  0.00000000E+00
  0.00000000E+00  0.00000000E+00  0.00000000E+00
  0.00000000E+00  0.00000000E+00  0.00000000E+00
  0.00000000E+00  0.00000000E+00  0.00000000E+00
  0.00000000E+00  0.00000000E+00  0.00000000E+00
  0.00000000E+00  0.00000000E+00  0.00000000E+00
  0.00000000E+00  0.00000000E+00  0.00000000E+00
  0.00000000E+00  0.00000000E+00  0.00000000E+00
  0.00000000E+00  0.00000000E+00  0.00000000E+00
  0.00000000E+00  0.00000000E+00  0.00000000E+00
  0.00000000E+00  0.00000000E+00  0.00000000E+00
  0.00000000E+00  0.00000000E+00  0.00000000E+00
  0.00000000E+00  0.00000000E+00  0.00000000E+00
  0.00000000E+00  0.00000000E+00  0.00000000E+00
  0.00000000E+00  0.00000000E+00  0.00000000E+00
  0.00000000E+00  0.00000000E+00  0.00000000E+00
  0.00000000E+00  0.00000000E+00  0.00000000E+00
  0.00000000E+00  0.00000000E+00  0.00000000E+00
  0.00000000E+00  0.00000000E+00  0.00000000E+00
  0.00000000E+00  0.00000000E+00  0.00000000E+00
  0.00000000E+00  0.00000000E+00  0.00000000E+00
  0.00000000E+00  0.00000000E+00  0.00000000E+00
  0.00000000E+00  0.00000000E+00  0.00000000E+00
  0.00000000E+00  0.00000000E+00  0.00000000E+00
  0.00000000E+00  0.00000000E+00  0.00000000E+00
  0.00000000E+00  0.00000000E+00  0.00000000E+00
  0.00000000E+00  0.00000000E+00  0.00000000E+00
  0.00000000E+00  0.00000000E+00  0.00000000E+00
  0.00000000E+00  0.00000000E+00  0.00000000E+00
  0.00000000E+00  0.00000000E+00  0.00000000E+00
  0.00000000E+00  0.00000000E+00  0.00000000E+00
  0.00000000E+00  0.00000000E+00  0.00000000E+00
  0.00000000E+00  0.00000000E+00  0.00000000E+00
  0.00000000E+00  0.00000000E+00  0.00000000E+00
  0.00000000E+00  0.00000000E+00  0.00000000E+00
  0.00000000E+00  0.00000000E+00  0.00000000E+00
  0.00000000E+00  0.00000000E+00  0.00000000E+00
  0.00000000E+00  0.00000000E+00  0.00000000E+00
  0.00000000E+00  0.00000000E+00  0.00000000E+00
  0.00000000E+00  0.00000000E+00  0.00000000E+00
  0.00000000E+00  0.00000000E+00  0.00000000E+00
  0.00000000E+00  0.00000000E+00  0.00000000E+00
  0.00000000E+00  0.00000000E+00  0.00000000E+00
  0.00000000E+00  0.00000000E+00  0.00000000E+00
  0.00000000E+00  0.00000000E+00  0.00000000E+00
  0.00000000E+00  0.00000000E+00  0.00000000E+00
  0.00000000E+00  0.00000000E+00  0.00000000E+00
  0.00000000E+00  0.00000000E+00  0.00000000E+00
  0.00000000E+00  0.00000000E+00  0.00000000E+00
  0.00000000E+00  0.00000000E+00  0.00000000E+00
  0.00000000E+00  0.00000000E+00  0.00000000E+00
  0.00000000E+00  0.00000000E+00  0.00000000E+00
  0.00000000E+00  0.00000000E+00  0.00000000E+00
  0.00000000E+00  0.00000000E+00  0.00000000E+00
  0.00000000E+00  0.00000000E+00  0.00000000E+00
  0.00000000E+00  0.00000000E+00  0.00000000E+00
  0.00000000E+00  0.00000000E+00  0.00000000E+00
  0.00000000E+00  0.00000000E+00  0.00000000E+00
  0.00000000E+00  0.00000000E+00  0.00000000E+00
  0.00000000E+00  0.00000000E+00  0.00000000E+00
  0.00000000E+00  0.00000000E+00  0.00000000E+00
  0.00000000E+00  0.00000000E+00  0.00000000E+00
  0.00000000E+00  0.00000000E+00  0.00000000E+00
  0.00000000E+00  0.00000000E+00  0.00000000E+00
  0.00000000E+00  0.00000000E+00  0.00000000E+00
  0.00000000E+00  0.00000000E+00  0.00000000E+00
  0.00000000E+00  0.00000000E+00  0.00000000E+00
  0.00000000E+00  0.00000000E+00  0.00000000E+00
  0.00000000E+00  0.00000000E+00  0.00000000E+00
  0.00000000E+00  0.00000000E+00  0.00000000E+00
  0.00000000E+00  0.00000000E+00  0.00000000E+00
  0.00000000E+00  0.00000000E+00  0.00000000E+00
  0.00000000E+00  0.00000000E+00  0.00000000E+00
  0.00000000E+00  0.00000000E+00  0.00000000E+00
  0.00000000E+00  0.00000000E+00  0.00000000E+00
  0.00000000E+00  0.00000000E+00  0.00000000E+00
  0.00000000E+00  0.00000000E+00  0.00000000E+00
  0.00000000E+00  0.00000000E+00  0.00000000E+00
  0.00000000E+00  0.00000000E+00  0.00000000E+00
  0.00000000E+00  0.00000000E+00  0.00000000E+00
  0.00000000E+00  0.00000000E+00  0.00000000E+00
  0.00000000E+00  0.00000000E+00  0.00000000E+00
  0.00000000E+00  0.00000000E+00  0.00000000E+00
  0.00000000E+00  0.00000000E+00  0.00000000E+00
  0.00000000E+00  0.00000000E+00  0.00000000E+00
  0.00000000E+00  0.00000000E+00  0.00000000E+00
  0.00000000E+00  0.00000000E+00  0.00000000E+00
  0.00000000E+00  0.00000000E+00  0.00000000E+00
  0.00000000E+00  0.00000000E+00  0.00000000E+00
  0.00000000E+00  0.00000000E+00  0.00000000E+00
  0.00000000E+00  0.00000000E+00  0.00000000E+00
  0.00000000E+00  0.00000000E+00  0.00000000E+00
  0.00000000E+00  0.00000000E+00  0.00000000E+00
  0.00000000E+00  0.00000000E+00  0.00000000E+00
  0.00000000E+00  0.00000000E+00  0.00000000E+00
  0.00000000E+00  0.00000000E+00  0.00000000E+00
  0.00000000E+00  0.00000000E+00  0.00000000E+00
  0.00000000E+00  0.00000000E+00  0.00000000E+00
  0.00000000E+00  0.00000000E+00  0.00000000E+00
  0.00000000E+00  0.00000000E+00  0.00000000E+00
  0.00000000E+00  0.00000000E+00  0.00000000E+00
  0.00000000E+00  0.00000000E+00  0.00000000E+00
  0.00000000E+00  0.00000000E+00  0.00000000E+00
  0.00000000E+00  0.00000000E+00  0.00000000E+00
  0.00000000E+00  0.00000000E+00  0.00000000E+00
  0.00000000E+00  0.00000000E+00  0.00000000E+00
  0.00000000E+00  0.00000000E+00  0.00000000E+00
  0.00000000E+00  0.00000000E+00  0.00000000E+00
  0.00000000E+00  0.00000000E+00  0.00000000E+00
  0.00000000E+00  0.00000000E+00  0.00000000E+00
  0.00000000E+00  0.00000000E+00  0.00000000E+00
  0.00000000E+00  0.00000000E+00  0.00000000E+00
  0.00000000E+00  0.00000000E+00  0.00000000E+00
  0.00000000E+00  0.00000000E+00  0.00000000E+00
  0.00000000E+00  0.00000000E+00  0.00000000E+00
  0.00000000E+00  0.00000000E+00  0.00000000E+00
  0.00000000E+00  0.00000000E+00  0.00000000E+00
  0.00000000E+00  0.00000000E+00  0.00000000E+00
  0.00000000E+00  0.00000000E+00  0.00000000E+00
  0.00000000E+00  0.00000000E+00  0.00000000E+00
  0.00000000E+00  0.00000000E+00  0.00000000E+00
  0.00000000E+00  0.00000000E+00  0.00000000E+00
  0.00000000E+00  0.00000000E+00  0.00000000E+00
  0.00000000E+00  0.00000000E+00  0.00000000E+00
  0.00000000E+00  0.00000000E+00  0.00000000E+00
  0.00000000E+00  0.00000000E+00  0.00000000E+00
  0.00000000E+00  0.00000000E+00  0.00000000E+00
  0.00000000E+00  0.00000000E+00  0.00000000E+00
  0.00000000E+00  0.00000000E+00  0.00000000E+00
  0.00000000E+00  0.00000000E+00  0.00000000E+00
  0.00000000E+00  0.00000000E+00  0.00000000E+00
  0.00000000E+00  0.00000000E+00  0.00000000E+00
  0.00000000E+00  0.00000000E+00  0.00000000E+00
  0.00000000E+00  0.00000000E+00  0.00000000E+00
  0.00000000E+00  0.00000000E+00  0.00000000E+00
  0.00000000E+00  0.00000000E+00  0.00000000E+00
  0.00000000E+00  0.00000000E+00  0.00000000E+00
  0.00000000E+00  0.00000000E+00  0.00000000E+00
  0.00000000E+00  0.00000000E+00  0.00000000E+00
  0.00000000E+00  0.00000000E+00  0.00000000E+00
  0.00000000E+00  0.00000000E+00  0.00000000E+00
  0.00000000E+00  0.00000000E+00  0.00000000E+00
  0.00000000E+00  0.00000000E+00  0.00000000E+00
  0.00000000E+00  0.00000000E+00  0.00000000E+00
  0.00000000E+00  0.00000000E+00  0.00000000E+00
  0.00000000E+00  0.00000000E+00  0.00000000E+00
  0.00000000E+00  0.00000000E+00  0.00000000E+00
  0.00000000E+00  0.00000000E+00  0.00000000E+00
  0.00000000E+00  0.00000000E+00  0.00000000E+00
  0.00000000E+00  0.00000000E+00  0.00000000E+00
  0.00000000E+00  0.00000000E+00  0.00000000E+00
  0.00000000E+00  0.00000000E+00  0.00000000E+00
  0.00000000E+00  0.00000000E+00  0.00000000E+00
  0.00000000E+00  0.00000000E+00  0.00000000E+00
  0.00000000E+00  0.00000000E+00  0.00000000E+00
  0.00000000E+00  0.00000000E+00  0.00000000E+00
  0.00000000E+00  0.00000000E+00  0.00000000E+00
  0.00000000E+00  0.00000000E+00  0.00000000E+00
  0.00000000E+00  0.00000000E+00  0.00000000E+00
  0.00000000E+00  0.00000000E+00  0.00000000E+00
  0.00000000E+00  0.00000000E+00  0.00000000E+00
  0.00000000E+00  0.00000000E+00  0.00000000E+00
  0.00000000E+00  0.00000000E+00  0.00000000E+00
  0.00000000E+00  0.00000000E+00  0.00000000E+00
  0.00000000E+00  0.00000000E+00  0.00000000E+00
  0.00000000E+00  0.00000000E+00  0.00000000E+00
  0.00000000E+00  0.00000000E+00  0.00000000E+00
  0.00000000E+00  0.00000000E+00  0.00000000E+00
  0.00000000E+00  0.00000000E+00  0.00000000E+00
  0.00000000E+00  0.00000000E+00  0.00000000E+00
  0.00000000E+00  0.00000000E+00  0.00000000E+00
  0.00000000E+00  0.00000000E+00  0.00000000E+00
  0.00000000E+00  0.00000000E+00  0.00000000E+00
  0.00000000E+00  0.00000000E+00  0.00000000E+00
  0.00000000E+00  0.00000000E+00  0.00000000E+00
  0.00000000E+00  0.00000000E+00  0.00000000E+00
  0.00000000E+00  0.00000000E+00  0.00000000E+00
  0.00000000E+00  0.00000000E+00  0.00000000E+00
  0.00000000E+00  0.00000000E+00  0.00000000E+00
  0.00000000E+00  0.00000000E+00  0.00000000E+00
  0.00000000E+00  0.00000000E+00  0.00000000E+00
  0.00000000E+00  0.00000000E+00  0.00000000E+00
  0.00000000E+00  0.00000000E+00  0.00000000E+00
  0.00000000E+00  0.00000000E+00  0.00000000E+00
  0.00000000E+00  0.00000000E+00  0.00000000E+00
  0.00000000E+00  0.00000000E+00  0.00000000E+00
  0.00000000E+00  0.00000000E+00  0.00000000E+00
  0.00000000E+00  0.00000000E+00  0.00000000E+00
  0.00000000E+00  0.00000000E+00  0.00000000E+00
  0.00000000E+00  0.00000000E+00  0.00000000E+00
  0.00000000E+00  0.00000000E+00  0.00000000E+00
  0.00000000E+00  0.00000000E+00  0.00000000E+00
  0.00000000E+00  0.00000000E+00  0.00000000E+00
  0.00000000E+00  0.00000000E+00  0.00000000E+00
  0.00000000E+00  0.00000000E+00  0.00000000E+00
  0.00000000E+00  0.00000000E+00  0.00000000E+00
  0.00000000E+00  0.00000000E+00  0.00000000E+00
  0.00000000E+00  0.00000000E+00  0.00000000E+00
  0.00000000E+00  0.00000000E+00  0.00000000E+00
  0.00000000E+00  0.00000000E+00  0.00000000E+00
  0.00000000E+00  0.00000000E+00  0.00000000E+00
  0.00000000E+00  0.00000000E+00  0.00000000E+00
  0.00000000E+00  0.00000000E+00  0.00000000E+00
  0.00000000E+00  0.00000000E+00  0.00000000E+00
  0.00000000E+00  0.00000000E+00  0.00000000E+00
  0.00000000E+00  0.00000000E+00  0.00000000E+00
  0.00000000E+00  0.00000000E+00  0.00000000E+00
  0.00000000E+00  0.00000000E+00  0.00000000E+00
  0.00000000E+00  0.00000000E+00  0.00000000E+00
  0.00000000E+00  0.00000000E+00  0.00000000E+00
  0.00000000E+00  0.00000000E+00  0.00000000E+00
  0.00000000E+00  0.00000000E+00  0.00000000E+00
  0.00000000E+00  0.00000000E+00  0.00000000E+00
  0.00000000E+00  0.00000000E+00  0.00000000E+00
  0.00000000E+00  0.00000000E+00  0.00000000E+00
  0.00000000E+00  0.00000000E+00  0.00000000E+00
  0.00000000E+00  0.00000000E+00  0.00000000E+00
  0.00000000E+00  0.00000000E+00  0.00000000E+00
  0.00000000E+00  0.00000000E+00  0.00000000E+00
  0.00000000E+00  0.00000000E+00  0.00000000E+00
  0.00000000E+00  0.00000000E+00  0.00000000E+00
