C H O Si                                
   1.00000000000000     
     9.2874599999999994    0.0000000000000000    0.0000000000000000
     0.0000000000000000   17.5126199999999983    0.0000000000000000
     0.0000000000000000    0.0000000000000000   58.0000000000000000
   C    H    O    Si
    72    57    28    72
Selective dynamics
Direct
  0.9969780248067178  0.0652177908520850  0.0594708599914173   T   T   T
  0.3304542839530720  0.0652234225940433  0.0595702087062462   T   T   T
  0.6635460975463198  0.0651787893224112  0.0595949250423093   T   T   T
  0.9968389697316345  0.3152452164514741  0.0595051553125925   T   T   T
  0.3302217477742702  0.3151587815948299  0.0595736785135352   T   T   T
  0.6635428292489925  0.3151025558723469  0.0596114049454884   T   T   T
  0.1626251755093868  0.1880254840198181  0.1382909997011928   T   T   T
  0.4957161443389129  0.1884054774998538  0.1386944092947844   T   T   T
  0.8289974777789084  0.1880883019021951  0.1383340524080100   T   T   T
  0.1625282956540723  0.4381604457034927  0.1384205355187839   T   T   T
  0.4956589730869357  0.4372788936227804  0.1384717419919836   T   T   T
  0.8291028256549868  0.4381893918184576  0.1384881126164363   T   T   T
  0.3297808383124654  0.0632882310089333  0.1656347728008356   T   T   T
  0.6617167701998075  0.0634936764016226  0.1656896178893636   T   T   T
  0.9954293802914715  0.0625328733603709  0.1653767981043837   T   T   T
  0.3286405424923196  0.3134263442630401  0.1657761373456185   T   T   T
  0.6626724861302949  0.3135340560316088  0.1657801686624454   T   T   T
  0.9955370101024499  0.3131328449565183  0.1654584840880115   T   T   T
  0.1620822142058123  0.1886213377438718  0.1903135940262454   T   T   T
  0.4950127062567492  0.1923981200306435  0.1917966238477958   T   T   T
  0.8291647557785923  0.1891474329678407  0.1905840194517894   T   T   T
  0.1618839539209966  0.4401987866089377  0.1908155204332335   T   T   T
  0.4950448029605757  0.4387477731233376  0.1915205935461616   T   T   T
  0.8288804644130725  0.4404819890815322  0.1910355839761815   T   T   T
  0.1631467839223213  0.1882620473670002  0.0848419790674546   T   T   T
  0.4963307369939223  0.1883712107970933  0.0850378594533891   T   T   T
  0.8297375360368141  0.1882766140033455  0.0848762251457778   T   T   T
  0.1630905906665776  0.4382907472296788  0.0849059771437201   T   T   T
  0.4963387798996611  0.4382286066303751  0.0848612574495870   T   T   T
  0.8296924723064826  0.4382911821563606  0.0849349704874519   T   T   T
  0.3296120437992665  0.0631721246154620  0.1121042520422939   T   T   T
  0.6627210572982841  0.0631500216945242  0.1121218989520992   T   T   T
  0.9960007830715372  0.0630522505195524  0.1120210882822925   T   T   T
  0.3294276444887742  0.3130609901693878  0.1121404587629916   T   T   T
  0.6628765792047496  0.3130508428795895  0.1121567723649214   T   T   T
  0.9960183791679604  0.3130983981141437  0.1120373397165492   T   T   T
  0.9969325585942305  0.5652323558285380  0.0595500104864168   T   T   T
  0.3303157693114072  0.5652209643641362  0.0595387842203284   T   T   T
  0.6636865881016655  0.5651843833598684  0.0595884346923601   T   T   T
  0.9969307508905013  0.8152669416869114  0.0595169138939224   T   T   T
  0.3303364745334069  0.8151819397035053  0.0595289476709665   T   T   T
  0.6635717275722903  0.8151562546185406  0.0595451944538988   T   T   T
  0.1623423673740072  0.6883038439392859  0.1384076541550407   T   T   T
  0.4956949050943512  0.6880036367045063  0.1384774320707719   T   T   T
  0.8293307603748676  0.6882937632125172  0.1384300069601560   T   T   T
  0.1628101513847373  0.9381302109165531  0.1384129630992978   T   T   T
  0.4957373453540095  0.9380063492697005  0.1384234709712484   T   T   T
  0.8287711248700780  0.9381242123115172  0.1384018205524037   T   T   T
  0.3281238122358677  0.5633371136859076  0.1656909833249177   T   T   T
  0.6631064279707597  0.5631943637520285  0.1658066601479895   T   T   T
  0.9955797916402415  0.5635417362000740  0.1655725678577873   T   T   T
  0.3291306841490341  0.8132209882325364  0.1655726246915379   T   T   T
  0.6624426083764473  0.8131830431248726  0.1655875720877559   T   T   T
  0.9956568341836656  0.8133827571189669  0.1655508047254785   T   T   T
  0.1620559153313541  0.6903951889140743  0.1909235193238952   T   T   T
  0.4955785977990845  0.6901092906489750  0.1909856795316537   T   T   T
  0.8290902155187431  0.6904340634431375  0.1909542623760682   T   T   T
  0.1621993682029576  0.9400193985344227  0.1909261709023677   T   T   T
  0.4956024534009650  0.9400107398844120  0.1909651959869084   T   T   T
  0.8287953813710128  0.9400686694359102  0.1909443928972594   T   T   T
  0.1631325952479265  0.6883153465915817  0.0849052163705106   T   T   T
  0.4964172095916888  0.6882865733977076  0.0849184533514277   T   T   T
  0.8298237034530871  0.6883441342759770  0.0849270923291238   T   T   T
  0.1632160780883134  0.9383519736321241  0.0848910998416122   T   T   T
  0.4963692246402039  0.9383098101138206  0.0849083482390572   T   T   T
  0.8296995994632056  0.9383588013332244  0.0848963663841830   T   T   T
  0.3294633955194318  0.5630194790159099  0.1121142200987421   T   T   T
  0.6628366839506201  0.5629744160237433  0.1121629909058218   T   T   T
  0.9960025750321018  0.5631596134439407  0.1120918013505942   T   T   T
  0.3295937849761321  0.8131132576668980  0.1120591687549314   T   T   T
  0.6628604498613280  0.8130870377551012  0.1120746183242620   T   T   T
  0.9960619631055514  0.8132961799803355  0.1120524367204925   T   T   T
  0.0755718241603957  0.1814076650755943  0.0271918001532323   T   T   T
  0.4081728567915178  0.1814481040542693  0.0273864737881462   T   T   T
  0.7408302468037262  0.1812705970424501  0.0272850930512123   T   T   T
  0.0749918014611818  0.4313155487994488  0.0272431369759153   T   T   T
  0.4083554625692403  0.4311452277454255  0.0271962704254467   T   T   T
  0.7406449344972882  0.4310330144850232  0.0273167687073264   T   T   T
  0.3284932909386156  0.0286682081023365  0.0441294060347392   T   T   T
  0.6607929218887474  0.0286557310925002  0.0441519286546340   T   T   T
  0.9945011633070541  0.0286811643807878  0.0440298994174689   T   T   T
  0.3277521797157497  0.2784988892107739  0.0441568464943396   T   T   T
  0.6613702865059295  0.2784975209273352  0.0441852589266385   T   T   T
  0.9944363369473411  0.2787092419515105  0.0440603072299629   T   T   T
  0.8313237162286005  0.4032788465311083  0.2063280994014621   T   T   T
  0.8325611435388078  0.1528979873728757  0.2060855087306856   T   T   T
  0.1641952585072199  0.1528925785376117  0.2059264204117103   T   T   T
  0.4982305537485664  0.1555022595395421  0.2071637299422761   T   T   T
  0.1638645901985951  0.4031406877600963  0.2061370576736203   T   T   T
  0.5368588992752554  0.4668626363914806  0.2627747870861091   T   T   T
  0.0849359163519978  0.0574320887823448  0.2228377986357458   T   T   T
  0.4174322071328927  0.0576691360728668  0.2229816915144449   T   T   T
  0.7508072868107599  0.0575784643563016  0.2230268760898602   T   T   T
  0.0955949989440233  0.2989344585753043  0.2220606574795439   T   T   T
  0.3683796316688928  0.2819680491190090  0.2301558351304673   T   T   T
  0.7834395391079478  0.2951841921465277  0.2224134114305685   T   T   T
  0.5070135707781849  0.2695921193832013  0.2660930706065738   T   T   T
  0.4732504454379849  0.2276626651864188  0.3008293688331052   T   T   T
  0.5212296622955557  0.3116091311782476  0.3089616238380004   T   T   T
  0.2874049709896004  0.1378888262234785  0.2965779923958344   T   T   T
  0.4356070642177398  0.1072459341568395  0.2887230585838976   T   T   T
  0.6347596569968177  0.3872427424730078  0.3349920639871947   T   T   T
  0.5010247699234280  0.4322582755344592  0.3266161983946665   T   T   T
  0.5079778533849277  0.4427799213246665  0.2724325422953528   T   T   T
  0.5711298757711430  0.2660984892978804  0.2402792928062518   T   T   T
  0.0746358941693379  0.6813983337950533  0.0272980715385309   T   T   T
  0.4084132489467190  0.6814069446801599  0.0272784261115162   T   T   T
  0.7415244534113720  0.6813948774348901  0.0272951654300126   T   T   T
  0.0751820724581745  0.9314081412679854  0.0272322115728547   T   T   T
  0.4079547153662477  0.9312046203962502  0.0272589975281975   T   T   T
  0.7410882767729083  0.9312355702956954  0.0272599500883698   T   T   T
  0.3279367469955201  0.5286157134177981  0.0441120267824505   T   T   T
  0.6613521864431610  0.5286068557826599  0.0441507983368322   T   T   T
  0.9945394018836264  0.5286409138165081  0.0441175382668971   T   T   T
  0.3279743225765709  0.7786387821789623  0.0440888263080887   T   T   T
  0.6611619179484233  0.7786456037363858  0.0440998903475164   T   T   T
  0.9945655135244329  0.7786955506294801  0.0440809652013885   T   T   T
  0.8314336320667944  0.9035232443081708  0.2063799721220709   T   T   T
  0.8315003985452927  0.6537871244163121  0.2063707628208860   T   T   T
  0.1651974679295592  0.6535280503031541  0.2062865537309662   T   T   T
  0.4974795360937255  0.6530119300324703  0.2063113122902881   T   T   T
  0.1647741958310312  0.9035020470128549  0.2063671789577128   T   T   T
  0.4981347288562517  0.9034344051491281  0.2063958078263335   T   T   T
  0.0919547210633385  0.5548335001215458  0.2224924131804143   T   T   T
  0.4165028754383358  0.5513354820991843  0.2237661418914758   T   T   T
  0.7575012146540252  0.5578307861355923  0.2219157509750727   T   T   T
  0.0855784650803556  0.8064363025219002  0.2230842558305688   T   T   T
  0.4184451626566429  0.8063960377390761  0.2231097955449913   T   T   T
  0.7521519962690928  0.8063610026526223  0.2230753881408785   T   T   T
  0.1714295108584334  0.1680211843372331  0.0328589921720561   T   T   T
  0.5042479038422738  0.1683256870709545  0.0330249280986078   T   T   T
  0.8370150902518073  0.1679686913379231  0.0328387675032435   T   T   T
  0.1709590237707880  0.4181294829500574  0.0329061567195267   T   T   T
  0.5043363718728371  0.4178028015196262  0.0328350091672184   T   T   T
  0.8368887974271112  0.4180257545023855  0.0329043216844382   T   T   T
  0.3217084442792035  0.0424965149471187  0.2176706980414303   T   T   T
  0.6550617919752524  0.0425079008707717  0.2177061210483034   T   T   T
  0.9888593978369686  0.0427804789406419  0.2175429214307272   T   T   T
  0.2980280665741510  0.2934956305518325  0.2176777131932181   T   T   T
  0.6810360926382054  0.2908459441399990  0.2183389059814722   T   T   T
  0.9942258448653720  0.2905154474655797  0.2174116658155179   T   T   T
  0.5307590328324727  0.2731051509955004  0.2965278275098197   T   T   T
  0.3877983800692330  0.1338718884458375  0.3013457676021424   T   T   T
  0.5328310525544413  0.3816485029725014  0.3314038252179626   T   T   T
  0.4892372887681126  0.2499035400435819  0.2503480268274030   T   T   T
  0.1707286833316896  0.6681443366747244  0.0329067920945047   T   T   T
  0.5044160174974821  0.6681698036685615  0.0329229742427966   T   T   T
  0.8375765341366445  0.6681867726400009  0.0329290076052123   T   T   T
  0.1711210075361877  0.9181521388389267  0.0328960227487552   T   T   T
  0.5040929677814532  0.9181707822245135  0.0328992447950709   T   T   T
  0.8372313154830472  0.9180762105785721  0.0328716951765266   T   T   T
  0.3200261512025104  0.5450069418112644  0.2173058013099451   T   T   T
  0.6588674428041055  0.5444700888754169  0.2176523631073306   T   T   T
  0.9931433008063956  0.5437871608292973  0.2175668487213079   T   T   T
  0.3221044223519453  0.7932298653815595  0.2175924905167564   T   T   T
  0.6556646563483453  0.7932295475475656  0.2176158833707688   T   T   T
  0.9890974656368879  0.7934668620833105  0.2175745645598766   T   T   T
  0.4971937081427247  0.1238794587676052  0.0592369387151489   T   T   T
  0.8303966767791926  0.1237825465219171  0.0590936353249917   T   T   T
  0.1638137955872732  0.3738031579499287  0.0591317809107674   T   T   T
  0.4971032921511233  0.3737772477557875  0.0591300891628044   T   T   T
  0.8302688491860443  0.3737942446200294  0.0591516306364559   T   T   T
  0.1639548723149147  0.1237619886427429  0.0590882327215114   T   T   T
  0.9957282390365372  0.0000534157951065  0.1385456422447125   T   T   T
  0.3296220128004154  0.0004448519417653  0.1386718195009037   T   T   T
  0.6620762718655641  0.0005012025240852  0.1387002300836158   T   T   T
  0.9958341338644530  0.2503853518472343  0.1386334943516258   T   T   T
  0.3291007192367073  0.2509911302535626  0.1389390948817201   T   T   T
  0.6624680826734755  0.2509904619346143  0.1389344832381695   T   T   T
  0.1622273236772065  0.1245237711538972  0.1645976870353118   T   T   T
  0.4954736746116172  0.1264663440324594  0.1653799317030684   T   T   T
  0.8291364907697993  0.1248271663375787  0.1647015521865027   T   T   T
  0.1626086075438551  0.3753355905879863  0.1649878992452351   T   T   T
  0.4953799595724581  0.3772205459350606  0.1664040692775513   T   T   T
  0.8287859016366251  0.3755420698794041  0.1651044903979751   T   T   T
  0.3340851487250965  0.4955987885813850  0.1915958622204001   T   T   T
  0.6556714653309466  0.4956342026449984  0.1918504536811990   T   T   T
  0.9955831712573507  0.4985287730052489  0.1913737743119315   T   T   T
  0.3254912430875291  0.2503166027525729  0.1918826696629210   T   T   T
  0.9959488991843735  0.2474750627864763  0.1909709291954655   T   T   T
  0.6642643998782334  0.2497103154068733  0.1916362378191133   T   T   T
  0.9964191565748078  0.0002598336744192  0.0855995487902484   T   T   T
  0.3298366471639455  0.0002934766584655  0.0856754898871684   T   T   T
  0.6629975376119290  0.0002621690967758  0.0856904829521974   T   T   T
  0.9963951672869210  0.2502785354009753  0.0856250318158793   T   T   T
  0.3296769832874896  0.2503539879262056  0.0857425104233187   T   T   T
  0.6630521550099077  0.2503226639665529  0.0857594123925660   T   T   T
  0.1627683035792740  0.1254280512685882  0.1118411445520759   T   T   T
  0.4960992031522263  0.1256387533398343  0.1120962705839770   T   T   T
  0.8293347805066196  0.1254481637242944  0.1118724471073191   T   T   T
  0.1628685622741854  0.3754794900834176  0.1119695256074049   T   T   T
  0.4960715970111271  0.3756364695467940  0.1120811133423728   T   T   T
  0.8292353562422884  0.3755202042777474  0.1120153571056644   T   T   T
  0.4972246921274933  0.6237750071779498  0.0591451288690559   T   T   T
  0.8304663339569522  0.6238212313339840  0.0591519705930181   T   T   T
  0.1639011380038048  0.8738021045631168  0.0591152578450919   T   T   T
  0.4971451213682969  0.8737916722852173  0.0591221040283887   T   T   T
  0.8303585797313715  0.8738083436822665  0.0591118298855548   T   T   T
  0.1638472651401450  0.6238033167253573  0.0591284099225231   T   T   T
  0.9958420786549500  0.5004039533792534  0.1387511624210664   T   T   T
  0.3301693795419809  0.5002072984434073  0.1389013357360674   T   T   T
  0.6613292205805081  0.5001922594735010  0.1389764672466368   T   T   T
  0.9958536352660139  0.7503744104210165  0.1386098193665807   T   T   T
  0.3292583555055684  0.7501786851051118  0.1386326784326590   T   T   T
  0.6624238500687244  0.7501484230089500  0.1386451686848054   T   T   T
  0.1629244960476208  0.6248897768368163  0.1649062352394809   T   T   T
  0.4956761863711848  0.6242207424923764  0.1649983770310957   T   T   T
  0.8283125847286775  0.6248310519369861  0.1649426332881652   T   T   T
  0.1625038047962445  0.8751071219153659  0.1648381481772981   T   T   T
  0.4957403943423275  0.8750626605213013  0.1648686566749578   T   T   T
  0.8289181097417738  0.8751356792357626  0.1648402710603482   T   T   T
  0.3286679791194425  0.9986067584870765  0.1913861093880779   T   T   T
  0.6619475714824810  0.9986603054729803  0.1914186777335943   T   T   T
  0.9953019025523483  0.9985688210671427  0.1912918372115912   T   T   T
  0.3288062274217562  0.7484605344023300  0.1913774589686264   T   T   T
  0.9954395349709677  0.7487429483521760  0.1913640543177927   T   T   T
  0.6618720019811554  0.7484657733531394  0.1914070679351358   T   T   T
  0.9963447836716641  0.5002899501969468  0.0856806488063989   T   T   T
  0.3298385300186724  0.5002787497296003  0.0856968501631021   T   T   T
  0.6628887263731015  0.5002508247853282  0.0857329672770000   T   T   T
  0.9964561130265732  0.7503072182150704  0.0856442498630726   T   T   T
  0.3297870925935925  0.7502144038221683  0.0856452003063228   T   T   T
  0.6630871892136395  0.7502125197093819  0.0856555060039440   T   T   T
  0.1629123304073152  0.6253522212294154  0.1119403162983879   T   T   T
  0.4960921591180983  0.6252686065381313  0.1119638906511700   T   T   T
  0.8291959760494004  0.6253688056699113  0.1119648441437165   T   T   T
  0.1629614285794325  0.8754015700024703  0.1118743746949609   T   T   T
  0.4961737415829201  0.8753332075519753  0.1118848334567752   T   T   T
  0.8292513580302636  0.8754106631659120  0.1118752282226269   T   T   T
 
  0.00000000E+00  0.00000000E+00  0.00000000E+00
  0.00000000E+00  0.00000000E+00  0.00000000E+00
  0.00000000E+00  0.00000000E+00  0.00000000E+00
  0.00000000E+00  0.00000000E+00  0.00000000E+00
  0.00000000E+00  0.00000000E+00  0.00000000E+00
  0.00000000E+00  0.00000000E+00  0.00000000E+00
  0.00000000E+00  0.00000000E+00  0.00000000E+00
  0.00000000E+00  0.00000000E+00  0.00000000E+00
  0.00000000E+00  0.00000000E+00  0.00000000E+00
  0.00000000E+00  0.00000000E+00  0.00000000E+00
  0.00000000E+00  0.00000000E+00  0.00000000E+00
  0.00000000E+00  0.00000000E+00  0.00000000E+00
  0.00000000E+00  0.00000000E+00  0.00000000E+00
  0.00000000E+00  0.00000000E+00  0.00000000E+00
  0.00000000E+00  0.00000000E+00  0.00000000E+00
  0.00000000E+00  0.00000000E+00  0.00000000E+00
  0.00000000E+00  0.00000000E+00  0.00000000E+00
  0.00000000E+00  0.00000000E+00  0.00000000E+00
  0.00000000E+00  0.00000000E+00  0.00000000E+00
  0.00000000E+00  0.00000000E+00  0.00000000E+00
  0.00000000E+00  0.00000000E+00  0.00000000E+00
  0.00000000E+00  0.00000000E+00  0.00000000E+00
  0.00000000E+00  0.00000000E+00  0.00000000E+00
  0.00000000E+00  0.00000000E+00  0.00000000E+00
  0.00000000E+00  0.00000000E+00  0.00000000E+00
  0.00000000E+00  0.00000000E+00  0.00000000E+00
  0.00000000E+00  0.00000000E+00  0.00000000E+00
  0.00000000E+00  0.00000000E+00  0.00000000E+00
  0.00000000E+00  0.00000000E+00  0.00000000E+00
  0.00000000E+00  0.00000000E+00  0.00000000E+00
  0.00000000E+00  0.00000000E+00  0.00000000E+00
  0.00000000E+00  0.00000000E+00  0.00000000E+00
  0.00000000E+00  0.00000000E+00  0.00000000E+00
  0.00000000E+00  0.00000000E+00  0.00000000E+00
  0.00000000E+00  0.00000000E+00  0.00000000E+00
  0.00000000E+00  0.00000000E+00  0.00000000E+00
  0.00000000E+00  0.00000000E+00  0.00000000E+00
  0.00000000E+00  0.00000000E+00  0.00000000E+00
  0.00000000E+00  0.00000000E+00  0.00000000E+00
  0.00000000E+00  0.00000000E+00  0.00000000E+00
  0.00000000E+00  0.00000000E+00  0.00000000E+00
  0.00000000E+00  0.00000000E+00  0.00000000E+00
  0.00000000E+00  0.00000000E+00  0.00000000E+00
  0.00000000E+00  0.00000000E+00  0.00000000E+00
  0.00000000E+00  0.00000000E+00  0.00000000E+00
  0.00000000E+00  0.00000000E+00  0.00000000E+00
  0.00000000E+00  0.00000000E+00  0.00000000E+00
  0.00000000E+00  0.00000000E+00  0.00000000E+00
  0.00000000E+00  0.00000000E+00  0.00000000E+00
  0.00000000E+00  0.00000000E+00  0.00000000E+00
  0.00000000E+00  0.00000000E+00  0.00000000E+00
  0.00000000E+00  0.00000000E+00  0.00000000E+00
  0.00000000E+00  0.00000000E+00  0.00000000E+00
  0.00000000E+00  0.00000000E+00  0.00000000E+00
  0.00000000E+00  0.00000000E+00  0.00000000E+00
  0.00000000E+00  0.00000000E+00  0.00000000E+00
  0.00000000E+00  0.00000000E+00  0.00000000E+00
  0.00000000E+00  0.00000000E+00  0.00000000E+00
  0.00000000E+00  0.00000000E+00  0.00000000E+00
  0.00000000E+00  0.00000000E+00  0.00000000E+00
  0.00000000E+00  0.00000000E+00  0.00000000E+00
  0.00000000E+00  0.00000000E+00  0.00000000E+00
  0.00000000E+00  0.00000000E+00  0.00000000E+00
  0.00000000E+00  0.00000000E+00  0.00000000E+00
  0.00000000E+00  0.00000000E+00  0.00000000E+00
  0.00000000E+00  0.00000000E+00  0.00000000E+00
  0.00000000E+00  0.00000000E+00  0.00000000E+00
  0.00000000E+00  0.00000000E+00  0.00000000E+00
  0.00000000E+00  0.00000000E+00  0.00000000E+00
  0.00000000E+00  0.00000000E+00  0.00000000E+00
  0.00000000E+00  0.00000000E+00  0.00000000E+00
  0.00000000E+00  0.00000000E+00  0.00000000E+00
  0.00000000E+00  0.00000000E+00  0.00000000E+00
  0.00000000E+00  0.00000000E+00  0.00000000E+00
  0.00000000E+00  0.00000000E+00  0.00000000E+00
  0.00000000E+00  0.00000000E+00  0.00000000E+00
  0.00000000E+00  0.00000000E+00  0.00000000E+00
  0.00000000E+00  0.00000000E+00  0.00000000E+00
  0.00000000E+00  0.00000000E+00  0.00000000E+00
  0.00000000E+00  0.00000000E+00  0.00000000E+00
  0.00000000E+00  0.00000000E+00  0.00000000E+00
  0.00000000E+00  0.00000000E+00  0.00000000E+00
  0.00000000E+00  0.00000000E+00  0.00000000E+00
  0.00000000E+00  0.00000000E+00  0.00000000E+00
  0.00000000E+00  0.00000000E+00  0.00000000E+00
  0.00000000E+00  0.00000000E+00  0.00000000E+00
  0.00000000E+00  0.00000000E+00  0.00000000E+00
  0.00000000E+00  0.00000000E+00  0.00000000E+00
  0.00000000E+00  0.00000000E+00  0.00000000E+00
  0.00000000E+00  0.00000000E+00  0.00000000E+00
  0.00000000E+00  0.00000000E+00  0.00000000E+00
  0.00000000E+00  0.00000000E+00  0.00000000E+00
  0.00000000E+00  0.00000000E+00  0.00000000E+00
  0.00000000E+00  0.00000000E+00  0.00000000E+00
  0.00000000E+00  0.00000000E+00  0.00000000E+00
  0.00000000E+00  0.00000000E+00  0.00000000E+00
  0.00000000E+00  0.00000000E+00  0.00000000E+00
  0.00000000E+00  0.00000000E+00  0.00000000E+00
  0.00000000E+00  0.00000000E+00  0.00000000E+00
  0.00000000E+00  0.00000000E+00  0.00000000E+00
  0.00000000E+00  0.00000000E+00  0.00000000E+00
  0.00000000E+00  0.00000000E+00  0.00000000E+00
  0.00000000E+00  0.00000000E+00  0.00000000E+00
  0.00000000E+00  0.00000000E+00  0.00000000E+00
  0.00000000E+00  0.00000000E+00  0.00000000E+00
  0.00000000E+00  0.00000000E+00  0.00000000E+00
  0.00000000E+00  0.00000000E+00  0.00000000E+00
  0.00000000E+00  0.00000000E+00  0.00000000E+00
  0.00000000E+00  0.00000000E+00  0.00000000E+00
  0.00000000E+00  0.00000000E+00  0.00000000E+00
  0.00000000E+00  0.00000000E+00  0.00000000E+00
  0.00000000E+00  0.00000000E+00  0.00000000E+00
  0.00000000E+00  0.00000000E+00  0.00000000E+00
  0.00000000E+00  0.00000000E+00  0.00000000E+00
  0.00000000E+00  0.00000000E+00  0.00000000E+00
  0.00000000E+00  0.00000000E+00  0.00000000E+00
  0.00000000E+00  0.00000000E+00  0.00000000E+00
  0.00000000E+00  0.00000000E+00  0.00000000E+00
  0.00000000E+00  0.00000000E+00  0.00000000E+00
  0.00000000E+00  0.00000000E+00  0.00000000E+00
  0.00000000E+00  0.00000000E+00  0.00000000E+00
  0.00000000E+00  0.00000000E+00  0.00000000E+00
  0.00000000E+00  0.00000000E+00  0.00000000E+00
  0.00000000E+00  0.00000000E+00  0.00000000E+00
  0.00000000E+00  0.00000000E+00  0.00000000E+00
  0.00000000E+00  0.00000000E+00  0.00000000E+00
  0.00000000E+00  0.00000000E+00  0.00000000E+00
  0.00000000E+00  0.00000000E+00  0.00000000E+00
  0.00000000E+00  0.00000000E+00  0.00000000E+00
  0.00000000E+00  0.00000000E+00  0.00000000E+00
  0.00000000E+00  0.00000000E+00  0.00000000E+00
  0.00000000E+00  0.00000000E+00  0.00000000E+00
  0.00000000E+00  0.00000000E+00  0.00000000E+00
  0.00000000E+00  0.00000000E+00  0.00000000E+00
  0.00000000E+00  0.00000000E+00  0.00000000E+00
  0.00000000E+00  0.00000000E+00  0.00000000E+00
  0.00000000E+00  0.00000000E+00  0.00000000E+00
  0.00000000E+00  0.00000000E+00  0.00000000E+00
  0.00000000E+00  0.00000000E+00  0.00000000E+00
  0.00000000E+00  0.00000000E+00  0.00000000E+00
  0.00000000E+00  0.00000000E+00  0.00000000E+00
  0.00000000E+00  0.00000000E+00  0.00000000E+00
  0.00000000E+00  0.00000000E+00  0.00000000E+00
  0.00000000E+00  0.00000000E+00  0.00000000E+00
  0.00000000E+00  0.00000000E+00  0.00000000E+00
  0.00000000E+00  0.00000000E+00  0.00000000E+00
  0.00000000E+00  0.00000000E+00  0.00000000E+00
  0.00000000E+00  0.00000000E+00  0.00000000E+00
  0.00000000E+00  0.00000000E+00  0.00000000E+00
  0.00000000E+00  0.00000000E+00  0.00000000E+00
  0.00000000E+00  0.00000000E+00  0.00000000E+00
  0.00000000E+00  0.00000000E+00  0.00000000E+00
  0.00000000E+00  0.00000000E+00  0.00000000E+00
  0.00000000E+00  0.00000000E+00  0.00000000E+00
  0.00000000E+00  0.00000000E+00  0.00000000E+00
  0.00000000E+00  0.00000000E+00  0.00000000E+00
  0.00000000E+00  0.00000000E+00  0.00000000E+00
  0.00000000E+00  0.00000000E+00  0.00000000E+00
  0.00000000E+00  0.00000000E+00  0.00000000E+00
  0.00000000E+00  0.00000000E+00  0.00000000E+00
  0.00000000E+00  0.00000000E+00  0.00000000E+00
  0.00000000E+00  0.00000000E+00  0.00000000E+00
  0.00000000E+00  0.00000000E+00  0.00000000E+00
  0.00000000E+00  0.00000000E+00  0.00000000E+00
  0.00000000E+00  0.00000000E+00  0.00000000E+00
  0.00000000E+00  0.00000000E+00  0.00000000E+00
  0.00000000E+00  0.00000000E+00  0.00000000E+00
  0.00000000E+00  0.00000000E+00  0.00000000E+00
  0.00000000E+00  0.00000000E+00  0.00000000E+00
  0.00000000E+00  0.00000000E+00  0.00000000E+00
  0.00000000E+00  0.00000000E+00  0.00000000E+00
  0.00000000E+00  0.00000000E+00  0.00000000E+00
  0.00000000E+00  0.00000000E+00  0.00000000E+00
  0.00000000E+00  0.00000000E+00  0.00000000E+00
  0.00000000E+00  0.00000000E+00  0.00000000E+00
  0.00000000E+00  0.00000000E+00  0.00000000E+00
  0.00000000E+00  0.00000000E+00  0.00000000E+00
  0.00000000E+00  0.00000000E+00  0.00000000E+00
  0.00000000E+00  0.00000000E+00  0.00000000E+00
  0.00000000E+00  0.00000000E+00  0.00000000E+00
  0.00000000E+00  0.00000000E+00  0.00000000E+00
  0.00000000E+00  0.00000000E+00  0.00000000E+00
  0.00000000E+00  0.00000000E+00  0.00000000E+00
  0.00000000E+00  0.00000000E+00  0.00000000E+00
  0.00000000E+00  0.00000000E+00  0.00000000E+00
  0.00000000E+00  0.00000000E+00  0.00000000E+00
  0.00000000E+00  0.00000000E+00  0.00000000E+00
  0.00000000E+00  0.00000000E+00  0.00000000E+00
  0.00000000E+00  0.00000000E+00  0.00000000E+00
  0.00000000E+00  0.00000000E+00  0.00000000E+00
  0.00000000E+00  0.00000000E+00  0.00000000E+00
  0.00000000E+00  0.00000000E+00  0.00000000E+00
  0.00000000E+00  0.00000000E+00  0.00000000E+00
  0.00000000E+00  0.00000000E+00  0.00000000E+00
  0.00000000E+00  0.00000000E+00  0.00000000E+00
  0.00000000E+00  0.00000000E+00  0.00000000E+00
  0.00000000E+00  0.00000000E+00  0.00000000E+00
  0.00000000E+00  0.00000000E+00  0.00000000E+00
  0.00000000E+00  0.00000000E+00  0.00000000E+00
  0.00000000E+00  0.00000000E+00  0.00000000E+00
  0.00000000E+00  0.00000000E+00  0.00000000E+00
  0.00000000E+00  0.00000000E+00  0.00000000E+00
  0.00000000E+00  0.00000000E+00  0.00000000E+00
  0.00000000E+00  0.00000000E+00  0.00000000E+00
  0.00000000E+00  0.00000000E+00  0.00000000E+00
  0.00000000E+00  0.00000000E+00  0.00000000E+00
  0.00000000E+00  0.00000000E+00  0.00000000E+00
  0.00000000E+00  0.00000000E+00  0.00000000E+00
  0.00000000E+00  0.00000000E+00  0.00000000E+00
  0.00000000E+00  0.00000000E+00  0.00000000E+00
  0.00000000E+00  0.00000000E+00  0.00000000E+00
  0.00000000E+00  0.00000000E+00  0.00000000E+00
  0.00000000E+00  0.00000000E+00  0.00000000E+00
  0.00000000E+00  0.00000000E+00  0.00000000E+00
  0.00000000E+00  0.00000000E+00  0.00000000E+00
  0.00000000E+00  0.00000000E+00  0.00000000E+00
  0.00000000E+00  0.00000000E+00  0.00000000E+00
  0.00000000E+00  0.00000000E+00  0.00000000E+00
  0.00000000E+00  0.00000000E+00  0.00000000E+00
  0.00000000E+00  0.00000000E+00  0.00000000E+00
  0.00000000E+00  0.00000000E+00  0.00000000E+00
  0.00000000E+00  0.00000000E+00  0.00000000E+00
  0.00000000E+00  0.00000000E+00  0.00000000E+00
  0.00000000E+00  0.00000000E+00  0.00000000E+00
  0.00000000E+00  0.00000000E+00  0.00000000E+00
  0.00000000E+00  0.00000000E+00  0.00000000E+00
  0.00000000E+00  0.00000000E+00  0.00000000E+00
  0.00000000E+00  0.00000000E+00  0.00000000E+00
  0.00000000E+00  0.00000000E+00  0.00000000E+00
