C H O Si                                
   1.00000000000000     
     9.2874599999999994    0.0000000000000000    0.0000000000000000
     0.0000000000000000   17.5126199999999983    0.0000000000000000
     0.0000000000000000    0.0000000000000000   58.0000000000000000
   C    H    O    Si
    72    57    28    72
Selective dynamics
Direct
  0.9969703893507368  0.0651970671734815  0.0594875019561078   T   T   T
  0.3304404824732740  0.0652531585592339  0.0595871985778009   T   T   T
  0.6635823437746047  0.0652271227237954  0.0595943603290696   T   T   T
  0.9969116110023265  0.3151823708971742  0.0595133713297030   T   T   T
  0.3302272487489517  0.3151731894960714  0.0595821639810522   T   T   T
  0.6635448337724973  0.3151652528271902  0.0595928445102605   T   T   T
  0.1627640503524686  0.1879633532200179  0.1383137934810050   T   T   T
  0.4961093464065766  0.1884182677511461  0.1387102953516986   T   T   T
  0.8291800045953016  0.1880437441282535  0.1383721415179169   T   T   T
  0.1625620727534893  0.4381456262187440  0.1384496257919219   T   T   T
  0.4960846391138389  0.4373210299721008  0.1385114655174636   T   T   T
  0.8292837773519317  0.4381535357732550  0.1385227442735009   T   T   T
  0.3294035994464300  0.0632953958802069  0.1656321358490987   T   T   T
  0.6614786729797394  0.0634121469185432  0.1656928617231635   T   T   T
  0.9952954902952523  0.0625719937954273  0.1654228586978245   T   T   T
  0.3284252624901958  0.3133930209745666  0.1657623968310652   T   T   T
  0.6624697555231429  0.3134545093605540  0.1657980597797898   T   T   T
  0.9953903108620830  0.3131308381873526  0.1654890795666793   T   T   T
  0.1618384600066220  0.1885769806284822  0.1903009934426358   T   T   T
  0.4950309160807568  0.1923912388353267  0.1917456109418939   T   T   T
  0.8291027921777259  0.1891583477648803  0.1905688960423050   T   T   T
  0.1621527043678426  0.4402783217942494  0.1908053261521112   T   T   T
  0.4950624780415736  0.4388218862783900  0.1915383088886198   T   T   T
  0.8288562624620541  0.4405949357495750  0.1910208562076720   T   T   T
  0.1629955399667058  0.1882625926178625  0.0848356022962868   T   T   T
  0.4963959290749332  0.1882730633738201  0.0850334080435705   T   T   T
  0.8296630881381228  0.1882704993185099  0.0848571326263251   T   T   T
  0.1629536653857568  0.4382695330947886  0.0849110447946835   T   T   T
  0.4961724478148196  0.4381694283035840  0.0848666083572090   T   T   T
  0.8296359291417815  0.4382592406919337  0.0849436619882150   T   T   T
  0.3292976763008580  0.0631601183095840  0.1121171364774458   T   T   T
  0.6623978415589665  0.0631295630535753  0.1121312318227765   T   T   T
  0.9958432984721750  0.0630524275539700  0.1120134145907752   T   T   T
  0.3291895507501813  0.3130142870847137  0.1121368236395866   T   T   T
  0.6625278320980925  0.3130652628567574  0.1121398868902830   T   T   T
  0.9958751249552767  0.3130674614763045  0.1120372206189217   T   T   T
  0.9969581493342891  0.5652231635181922  0.0595644887504005   T   T   T
  0.3302859747235731  0.5652165576852771  0.0595534222576691   T   T   T
  0.6636677390323089  0.5652213912311034  0.0595873920482738   T   T   T
  0.9969819374884109  0.8152173828346196  0.0595303883553918   T   T   T
  0.3303376154716219  0.8151814746967421  0.0595376210548438   T   T   T
  0.6636087184757823  0.8151710568837642  0.0595410760049668   T   T   T
  0.1624133871413042  0.6882948466689701  0.1384438640947919   T   T   T
  0.4960566393933795  0.6879936625101679  0.1385133402504325   T   T   T
  0.8294760332473325  0.6882845765062132  0.1384731353802454   T   T   T
  0.1629340797932657  0.9380714996513057  0.1384469095338725   T   T   T
  0.4960941672664840  0.9379927735710399  0.1384510068943838   T   T   T
  0.8290459523488768  0.9380742337203349  0.1384375714133413   T   T   T
  0.3279378027751677  0.5632775539879156  0.1656879303875138   T   T   T
  0.6626579899677053  0.5632287704002776  0.1658133528059547   T   T   T
  0.9953988778734536  0.5634648969662992  0.1655746976361571   T   T   T
  0.3288252542768151  0.8132045773071046  0.1655738961799250   T   T   T
  0.6620482821760569  0.8131686955638621  0.1655954065915868   T   T   T
  0.9954542277793652  0.8132708196122853  0.1655606739360105   T   T   T
  0.1622011129950972  0.6904567152367356  0.1908978621139978   T   T   T
  0.4955479740406356  0.6901115079967505  0.1909574884830118   T   T   T
  0.8291065430459400  0.6904879408883934  0.1909142943573701   T   T   T
  0.1622234047184231  0.9400193103250946  0.1908962935876546   T   T   T
  0.4955099671870636  0.9400062550620710  0.1909360321493899   T   T   T
  0.8287621370683346  0.9400152816783973  0.1909168263057200   T   T   T
  0.1631000130361048  0.6883018409949904  0.0849072220447923   T   T   T
  0.4964127090803260  0.6882437763508651  0.0849186066926252   T   T   T
  0.8297817012372920  0.6883055647390787  0.0849228934358502   T   T   T
  0.1630926298351420  0.9383568541228913  0.0848942064021222   T   T   T
  0.4963813009509037  0.9382929255180233  0.0849097367762619   T   T   T
  0.8295752727245107  0.9383217507942372  0.0848874003351201   T   T   T
  0.3292047506480792  0.5630139647238728  0.1121130281496809   T   T   T
  0.6625176088003171  0.5629798259382011  0.1121465948555220   T   T   T
  0.9958212383700639  0.5631510909019160  0.1121044706631671   T   T   T
  0.3293567170699181  0.8130830398173868  0.1120645711359459   T   T   T
  0.6626123944541394  0.8130533964340957  0.1120691348874274   T   T   T
  0.9960710074964912  0.8132826753282703  0.1120554170180461   T   T   T
  0.0755414133458477  0.1812873819376440  0.0272315430500101   T   T   T
  0.4081111625644198  0.1813687265754204  0.0274098269160434   T   T   T
  0.7407776274102278  0.1812068887773407  0.0273049330580769   T   T   T
  0.0749352424153274  0.4312343443893318  0.0272594224631761   T   T   T
  0.4082908769549858  0.4310678655047086  0.0272068226711578   T   T   T
  0.7405804898424460  0.4309672528049148  0.0273313361809694   T   T   T
  0.3286531491299944  0.0287190755022293  0.0441498163556959   T   T   T
  0.6609327099797389  0.0286804254563508  0.0441637275204956   T   T   T
  0.9946447200066612  0.0287071446307130  0.0440430052606472   T   T   T
  0.3279409836323454  0.2785070263466776  0.0441744586569066   T   T   T
  0.6615511171333301  0.2784718397131680  0.0441889318375164   T   T   T
  0.9945819679504061  0.2787029682156693  0.0440614996513587   T   T   T
  0.8313665444470654  0.4033441845264541  0.2062975321368772   T   T   T
  0.8326182440453394  0.1529836096196615  0.2060733945175488   T   T   T
  0.1642473624373317  0.1529734872705298  0.2059296207455535   T   T   T
  0.4982952187790318  0.1556729475401235  0.2071388826585976   T   T   T
  0.1639380708718563  0.4032220345834485  0.2061196155617135   T   T   T
  0.5369357669786102  0.4667839761286087  0.2627199795634582   T   T   T
  0.0851025903802703  0.0574365564299028  0.2228363814032353   T   T   T
  0.4175812249008240  0.0576546915319237  0.2229856818291844   T   T   T
  0.7510001405173707  0.0575859330508205  0.2230308059984115   T   T   T
  0.0956365958933547  0.2989594893031436  0.2220533043867605   T   T   T
  0.3683285425876794  0.2820405045114442  0.2301587431673692   T   T   T
  0.7833518382612163  0.2951290555372618  0.2223807160849674   T   T   T
  0.5070985086664037  0.2696444120093423  0.2660536310210239   T   T   T
  0.4731304078476504  0.2276943255859922  0.3008402251165320   T   T   T
  0.5211228772866529  0.3115371376733244  0.3089407996675181   T   T   T
  0.2874440206876280  0.1377948411311676  0.2965377725045834   T   T   T
  0.4356673289467097  0.1073165209735516  0.2886642186040200   T   T   T
  0.6348839574443695  0.3871707728589743  0.3349651841637638   T   T   T
  0.5011574358742943  0.4322987307353833  0.3266271482770732   T   T   T
  0.5078718312657955  0.4426432264641438  0.2723504662105851   T   T   T
  0.5710527062731172  0.2661106784597342  0.2402947453453663   T   T   T
  0.0745756018565384  0.6813142814355383  0.0273264223271674   T   T   T
  0.4083716281990397  0.6813103179936726  0.0273095430347891   T   T   T
  0.7414982657833444  0.6812959419375906  0.0273272614952368   T   T   T
  0.0751397743217308  0.9313261651842998  0.0272519138795680   T   T   T
  0.4078764043693959  0.9311331829224812  0.0272745452358675   T   T   T
  0.7410253488333037  0.9311668740704477  0.0272752654129618   T   T   T
  0.3280798183446031  0.5286488420941385  0.0441256737760679   T   T   T
  0.6614994635398972  0.5286312634706787  0.0441618446443391   T   T   T
  0.9946869783654095  0.5286772081347817  0.0441292123462619   T   T   T
  0.3281444541590549  0.7786449275409477  0.0440990165641697   T   T   T
  0.6613268007526510  0.7786484809578343  0.0441008879674375   T   T   T
  0.9946981285160201  0.7787056678786916  0.0440886382805354   T   T   T
  0.8314951547460075  0.9035751810487148  0.2063660865956606   T   T   T
  0.8315372478442553  0.6539024705021967  0.2063325549232534   T   T   T
  0.1652221556858909  0.6536285142076654  0.2062600077309119   T   T   T
  0.4974949262050671  0.6530789931042985  0.2062903091565433   T   T   T
  0.1647961007169168  0.9035585099206382  0.2063411436965869   T   T   T
  0.4981949988713891  0.9034928051542677  0.2063734529794310   T   T   T
  0.0919898214771333  0.5548577490755268  0.2224927931351756   T   T   T
  0.4166048950308089  0.5512898934145374  0.2237575750246692   T   T   T
  0.7575730722183565  0.5577356595798862  0.2218677326116666   T   T   T
  0.0856939235312847  0.8064138340095823  0.2230768806304709   T   T   T
  0.4185631312423849  0.8063772302224359  0.2230988442297515   T   T   T
  0.7523148466378983  0.8063251907742864  0.2230667513527561   T   T   T
  0.1716956943881787  0.1682165587123990  0.0328471096263846   T   T   T
  0.5043775484840082  0.1684661002591924  0.0330165604088344   T   T   T
  0.8370869006290298  0.1680610278741918  0.0328386182569477   T   T   T
  0.1711094497444169  0.4183179721988767  0.0328999790796076   T   T   T
  0.5044370413464286  0.4179771852371177  0.0328369833472666   T   T   T
  0.8369548788837133  0.4180979507196788  0.0328947766366938   T   T   T
  0.3218619373134741  0.0425110700680128  0.2176626780580692   T   T   T
  0.6552792602239216  0.0425308386620953  0.2176938972269346   T   T   T
  0.9889829593512416  0.0428230893909098  0.2175446974386514   T   T   T
  0.2981403538812193  0.2933711963267038  0.2176370429421239   T   T   T
  0.6806898370251944  0.2910697818151643  0.2184307176851821   T   T   T
  0.9943297666143683  0.2904809864643228  0.2173812894751334   T   T   T
  0.5304101601750677  0.2731414599987112  0.2964782904433075   T   T   T
  0.3878196999069090  0.1339098098670414  0.3012987514521799   T   T   T
  0.5328399629867827  0.3816784703280386  0.3314006135756201   T   T   T
  0.4889793756569986  0.2499165931150755  0.2503293126352523   T   T   T
  0.1709474945918479  0.6683451922395249  0.0328899935538413   T   T   T
  0.5046223266907733  0.6683668252520121  0.0329159677880494   T   T   T
  0.8378185362556544  0.6683770248661749  0.0329164773132296   T   T   T
  0.1712653520033812  0.9183198893890292  0.0328941549304457   T   T   T
  0.5041808080267425  0.9183212124315289  0.0328936212695881   T   T   T
  0.8372932527281725  0.9181647125927663  0.0328719722844591   T   T   T
  0.3202054504715574  0.5447852412365929  0.2172904199370571   T   T   T
  0.6587171242682748  0.5444042592413156  0.2177117796988536   T   T   T
  0.9932338612299821  0.5437614762556259  0.2175510996105185   T   T   T
  0.3221738534697406  0.7932564603032988  0.2175939989127519   T   T   T
  0.6557397342057686  0.7933309360013036  0.2176111661003404   T   T   T
  0.9891346735415050  0.7935832787583880  0.2175646499356552   T   T   T
  0.4972297167055739  0.1238478396468900  0.0592166550150370   T   T   T
  0.8304386159771734  0.1237806558098842  0.0590740372996926   T   T   T
  0.1637854880927415  0.3738055525301275  0.0591170887697257   T   T   T
  0.4970668526679124  0.3737869254558344  0.0591153730476671   T   T   T
  0.8303546356278585  0.3737706933420027  0.0591395429564568   T   T   T
  0.1639576174082910  0.1237674924351523  0.0590666605577157   T   T   T
  0.9959499162282027  0.0000973841543381  0.1385756391667244   T   T   T
  0.3297931701283242  0.0004152226426868  0.1386922605903677   T   T   T
  0.6623094608162334  0.0004626638351986  0.1387151262947296   T   T   T
  0.9960552287863882  0.2503778990495612  0.1386594776716061   T   T   T
  0.3293869053654570  0.2509670732565419  0.1389459789605918   T   T   T
  0.6627089257002788  0.2510043021760315  0.1389302523071732   T   T   T
  0.1620504273036451  0.1245280304276866  0.1646074109701279   T   T   T
  0.4953668365663958  0.1263954237777252  0.1653743307372798   T   T   T
  0.8289565243805436  0.1247310189912699  0.1647005920832591   T   T   T
  0.1625433865721508  0.3753216319318441  0.1649925594685609   T   T   T
  0.4954831552080992  0.3772460548386654  0.1664333911212798   T   T   T
  0.8286556293598536  0.3754806476377809  0.1651214474253421   T   T   T
  0.3341903197320084  0.4956072898230086  0.1915761933505055   T   T   T
  0.6555264716250093  0.4956602147314010  0.1918712089996203   T   T   T
  0.9957407632654949  0.4984944288471923  0.1913661757526064   T   T   T
  0.3253566884870328  0.2502014866274159  0.1918358788767308   T   T   T
  0.9959280985333560  0.2474142732771532  0.1909678987605350   T   T   T
  0.6642597488570526  0.2497209079869442  0.1916840473178944   T   T   T
  0.9963075313512235  0.0002101488374870  0.0856173389815047   T   T   T
  0.3297948852485048  0.0002659358232481  0.0856953672507885   T   T   T
  0.6629359499936608  0.0002428116961402  0.0856957832544029   T   T   T
  0.9963624813006778  0.2502309899660644  0.0856404714436443   T   T   T
  0.3297524816758695  0.2502819584501123  0.0857339585755909   T   T   T
  0.6630390118212419  0.2503074817806657  0.0857404482142725   T   T   T
  0.1626133276888435  0.1254829710242649  0.1118355720786785   T   T   T
  0.4958967969545282  0.1256832564112797  0.1121136580380939   T   T   T
  0.8291222875897383  0.1254743948382440  0.1118695189266855   T   T   T
  0.1627712803055932  0.3755237033168533  0.1119795626524806   T   T   T
  0.4958647111917438  0.3756725912220245  0.1120981072720453   T   T   T
  0.8291051179409299  0.3755288731697293  0.1120240646418333   T   T   T
  0.4971930828468403  0.6237776974375862  0.0591194679306228   T   T   T
  0.8305142319660368  0.6238142592840444  0.0591220995692762   T   T   T
  0.1638934271072408  0.8738005503612035  0.0590981341589649   T   T   T
  0.4971637178671165  0.8738054601389248  0.0591003995908322   T   T   T
  0.8304322877671202  0.8737728759352534  0.0590859906941889   T   T   T
  0.1638670971717375  0.6238079249579541  0.0591046110535998   T   T   T
  0.9959382955929574  0.5003856123031336  0.1387590487497932   T   T   T
  0.3303888716492686  0.5002084675579024  0.1389089723589420   T   T   T
  0.6616511409190748  0.5002658414039249  0.1389813704563606   T   T   T
  0.9960124591939548  0.7503786637322671  0.1386315898478567   T   T   T
  0.3294683697340082  0.7501521240503612  0.1386523682926599   T   T   T
  0.6625806902011557  0.7501845494712872  0.1386675471714714   T   T   T
  0.1627701591605139  0.6248405405773600  0.1648963050897890   T   T   T
  0.4954784949198041  0.6241709253419940  0.1649907078467617   T   T   T
  0.8281113852682995  0.6247553998546561  0.1649319376230597   T   T   T
  0.1622158467090199  0.8750007838678217  0.1648407400768700   T   T   T
  0.4954922910016051  0.8750033829287341  0.1648636376295078   T   T   T
  0.8287751176359051  0.8750079557887748  0.1648444570647168   T   T   T
  0.3286534835711821  0.9986143731829160  0.1913803150619845   T   T   T
  0.6619314826009634  0.9986112151538209  0.1914208570245430   T   T   T
  0.9952862281116739  0.9985375577543640  0.1913007914594839   T   T   T
  0.3289038394273255  0.7484926379398625  0.1913791932800238   T   T   T
  0.9955136395674439  0.7487157414065275  0.1913743573493147   T   T   T
  0.6618326688917221  0.7484882862384636  0.1914071245326430   T   T   T
  0.9963432632292912  0.5002551841921307  0.0857042958226255   T   T   T
  0.3297815313567273  0.5002314344791571  0.0857095111531350   T   T   T
  0.6628033544073370  0.5001861548958426  0.0857305763923111   T   T   T
  0.9964901875130242  0.7502451018757054  0.0856609577995568   T   T   T
  0.3298609461764825  0.7501856960410056  0.0856562308671560   T   T   T
  0.6630763447359407  0.7501621668223549  0.0856633050576246   T   T   T
  0.1627625386949521  0.6254107115316913  0.1119487679926822   T   T   T
  0.4959731315490819  0.6253283983967781  0.1119690921378713   T   T   T
  0.8290230220790320  0.6254297174978553  0.1119645578905563   T   T   T
  0.1628998420453107  0.8754605222192556  0.1118784218535977   T   T   T
  0.4960499198693084  0.8753723520882196  0.1118892221005530   T   T   T
  0.8291799250529963  0.8754201317138482  0.1118749951531012   T   T   T
 
  0.00000000E+00  0.00000000E+00  0.00000000E+00
  0.00000000E+00  0.00000000E+00  0.00000000E+00
  0.00000000E+00  0.00000000E+00  0.00000000E+00
  0.00000000E+00  0.00000000E+00  0.00000000E+00
  0.00000000E+00  0.00000000E+00  0.00000000E+00
  0.00000000E+00  0.00000000E+00  0.00000000E+00
  0.00000000E+00  0.00000000E+00  0.00000000E+00
  0.00000000E+00  0.00000000E+00  0.00000000E+00
  0.00000000E+00  0.00000000E+00  0.00000000E+00
  0.00000000E+00  0.00000000E+00  0.00000000E+00
  0.00000000E+00  0.00000000E+00  0.00000000E+00
  0.00000000E+00  0.00000000E+00  0.00000000E+00
  0.00000000E+00  0.00000000E+00  0.00000000E+00
  0.00000000E+00  0.00000000E+00  0.00000000E+00
  0.00000000E+00  0.00000000E+00  0.00000000E+00
  0.00000000E+00  0.00000000E+00  0.00000000E+00
  0.00000000E+00  0.00000000E+00  0.00000000E+00
  0.00000000E+00  0.00000000E+00  0.00000000E+00
  0.00000000E+00  0.00000000E+00  0.00000000E+00
  0.00000000E+00  0.00000000E+00  0.00000000E+00
  0.00000000E+00  0.00000000E+00  0.00000000E+00
  0.00000000E+00  0.00000000E+00  0.00000000E+00
  0.00000000E+00  0.00000000E+00  0.00000000E+00
  0.00000000E+00  0.00000000E+00  0.00000000E+00
  0.00000000E+00  0.00000000E+00  0.00000000E+00
  0.00000000E+00  0.00000000E+00  0.00000000E+00
  0.00000000E+00  0.00000000E+00  0.00000000E+00
  0.00000000E+00  0.00000000E+00  0.00000000E+00
  0.00000000E+00  0.00000000E+00  0.00000000E+00
  0.00000000E+00  0.00000000E+00  0.00000000E+00
  0.00000000E+00  0.00000000E+00  0.00000000E+00
  0.00000000E+00  0.00000000E+00  0.00000000E+00
  0.00000000E+00  0.00000000E+00  0.00000000E+00
  0.00000000E+00  0.00000000E+00  0.00000000E+00
  0.00000000E+00  0.00000000E+00  0.00000000E+00
  0.00000000E+00  0.00000000E+00  0.00000000E+00
  0.00000000E+00  0.00000000E+00  0.00000000E+00
  0.00000000E+00  0.00000000E+00  0.00000000E+00
  0.00000000E+00  0.00000000E+00  0.00000000E+00
  0.00000000E+00  0.00000000E+00  0.00000000E+00
  0.00000000E+00  0.00000000E+00  0.00000000E+00
  0.00000000E+00  0.00000000E+00  0.00000000E+00
  0.00000000E+00  0.00000000E+00  0.00000000E+00
  0.00000000E+00  0.00000000E+00  0.00000000E+00
  0.00000000E+00  0.00000000E+00  0.00000000E+00
  0.00000000E+00  0.00000000E+00  0.00000000E+00
  0.00000000E+00  0.00000000E+00  0.00000000E+00
  0.00000000E+00  0.00000000E+00  0.00000000E+00
  0.00000000E+00  0.00000000E+00  0.00000000E+00
  0.00000000E+00  0.00000000E+00  0.00000000E+00
  0.00000000E+00  0.00000000E+00  0.00000000E+00
  0.00000000E+00  0.00000000E+00  0.00000000E+00
  0.00000000E+00  0.00000000E+00  0.00000000E+00
  0.00000000E+00  0.00000000E+00  0.00000000E+00
  0.00000000E+00  0.00000000E+00  0.00000000E+00
  0.00000000E+00  0.00000000E+00  0.00000000E+00
  0.00000000E+00  0.00000000E+00  0.00000000E+00
  0.00000000E+00  0.00000000E+00  0.00000000E+00
  0.00000000E+00  0.00000000E+00  0.00000000E+00
  0.00000000E+00  0.00000000E+00  0.00000000E+00
  0.00000000E+00  0.00000000E+00  0.00000000E+00
  0.00000000E+00  0.00000000E+00  0.00000000E+00
  0.00000000E+00  0.00000000E+00  0.00000000E+00
  0.00000000E+00  0.00000000E+00  0.00000000E+00
  0.00000000E+00  0.00000000E+00  0.00000000E+00
  0.00000000E+00  0.00000000E+00  0.00000000E+00
  0.00000000E+00  0.00000000E+00  0.00000000E+00
  0.00000000E+00  0.00000000E+00  0.00000000E+00
  0.00000000E+00  0.00000000E+00  0.00000000E+00
  0.00000000E+00  0.00000000E+00  0.00000000E+00
  0.00000000E+00  0.00000000E+00  0.00000000E+00
  0.00000000E+00  0.00000000E+00  0.00000000E+00
  0.00000000E+00  0.00000000E+00  0.00000000E+00
  0.00000000E+00  0.00000000E+00  0.00000000E+00
  0.00000000E+00  0.00000000E+00  0.00000000E+00
  0.00000000E+00  0.00000000E+00  0.00000000E+00
  0.00000000E+00  0.00000000E+00  0.00000000E+00
  0.00000000E+00  0.00000000E+00  0.00000000E+00
  0.00000000E+00  0.00000000E+00  0.00000000E+00
  0.00000000E+00  0.00000000E+00  0.00000000E+00
  0.00000000E+00  0.00000000E+00  0.00000000E+00
  0.00000000E+00  0.00000000E+00  0.00000000E+00
  0.00000000E+00  0.00000000E+00  0.00000000E+00
  0.00000000E+00  0.00000000E+00  0.00000000E+00
  0.00000000E+00  0.00000000E+00  0.00000000E+00
  0.00000000E+00  0.00000000E+00  0.00000000E+00
  0.00000000E+00  0.00000000E+00  0.00000000E+00
  0.00000000E+00  0.00000000E+00  0.00000000E+00
  0.00000000E+00  0.00000000E+00  0.00000000E+00
  0.00000000E+00  0.00000000E+00  0.00000000E+00
  0.00000000E+00  0.00000000E+00  0.00000000E+00
  0.00000000E+00  0.00000000E+00  0.00000000E+00
  0.00000000E+00  0.00000000E+00  0.00000000E+00
  0.00000000E+00  0.00000000E+00  0.00000000E+00
  0.00000000E+00  0.00000000E+00  0.00000000E+00
  0.00000000E+00  0.00000000E+00  0.00000000E+00
  0.00000000E+00  0.00000000E+00  0.00000000E+00
  0.00000000E+00  0.00000000E+00  0.00000000E+00
  0.00000000E+00  0.00000000E+00  0.00000000E+00
  0.00000000E+00  0.00000000E+00  0.00000000E+00
  0.00000000E+00  0.00000000E+00  0.00000000E+00
  0.00000000E+00  0.00000000E+00  0.00000000E+00
  0.00000000E+00  0.00000000E+00  0.00000000E+00
  0.00000000E+00  0.00000000E+00  0.00000000E+00
  0.00000000E+00  0.00000000E+00  0.00000000E+00
  0.00000000E+00  0.00000000E+00  0.00000000E+00
  0.00000000E+00  0.00000000E+00  0.00000000E+00
  0.00000000E+00  0.00000000E+00  0.00000000E+00
  0.00000000E+00  0.00000000E+00  0.00000000E+00
  0.00000000E+00  0.00000000E+00  0.00000000E+00
  0.00000000E+00  0.00000000E+00  0.00000000E+00
  0.00000000E+00  0.00000000E+00  0.00000000E+00
  0.00000000E+00  0.00000000E+00  0.00000000E+00
  0.00000000E+00  0.00000000E+00  0.00000000E+00
  0.00000000E+00  0.00000000E+00  0.00000000E+00
  0.00000000E+00  0.00000000E+00  0.00000000E+00
  0.00000000E+00  0.00000000E+00  0.00000000E+00
  0.00000000E+00  0.00000000E+00  0.00000000E+00
  0.00000000E+00  0.00000000E+00  0.00000000E+00
  0.00000000E+00  0.00000000E+00  0.00000000E+00
  0.00000000E+00  0.00000000E+00  0.00000000E+00
  0.00000000E+00  0.00000000E+00  0.00000000E+00
  0.00000000E+00  0.00000000E+00  0.00000000E+00
  0.00000000E+00  0.00000000E+00  0.00000000E+00
  0.00000000E+00  0.00000000E+00  0.00000000E+00
  0.00000000E+00  0.00000000E+00  0.00000000E+00
  0.00000000E+00  0.00000000E+00  0.00000000E+00
  0.00000000E+00  0.00000000E+00  0.00000000E+00
  0.00000000E+00  0.00000000E+00  0.00000000E+00
  0.00000000E+00  0.00000000E+00  0.00000000E+00
  0.00000000E+00  0.00000000E+00  0.00000000E+00
  0.00000000E+00  0.00000000E+00  0.00000000E+00
  0.00000000E+00  0.00000000E+00  0.00000000E+00
  0.00000000E+00  0.00000000E+00  0.00000000E+00
  0.00000000E+00  0.00000000E+00  0.00000000E+00
  0.00000000E+00  0.00000000E+00  0.00000000E+00
  0.00000000E+00  0.00000000E+00  0.00000000E+00
  0.00000000E+00  0.00000000E+00  0.00000000E+00
  0.00000000E+00  0.00000000E+00  0.00000000E+00
  0.00000000E+00  0.00000000E+00  0.00000000E+00
  0.00000000E+00  0.00000000E+00  0.00000000E+00
  0.00000000E+00  0.00000000E+00  0.00000000E+00
  0.00000000E+00  0.00000000E+00  0.00000000E+00
  0.00000000E+00  0.00000000E+00  0.00000000E+00
  0.00000000E+00  0.00000000E+00  0.00000000E+00
  0.00000000E+00  0.00000000E+00  0.00000000E+00
  0.00000000E+00  0.00000000E+00  0.00000000E+00
  0.00000000E+00  0.00000000E+00  0.00000000E+00
  0.00000000E+00  0.00000000E+00  0.00000000E+00
  0.00000000E+00  0.00000000E+00  0.00000000E+00
  0.00000000E+00  0.00000000E+00  0.00000000E+00
  0.00000000E+00  0.00000000E+00  0.00000000E+00
  0.00000000E+00  0.00000000E+00  0.00000000E+00
  0.00000000E+00  0.00000000E+00  0.00000000E+00
  0.00000000E+00  0.00000000E+00  0.00000000E+00
  0.00000000E+00  0.00000000E+00  0.00000000E+00
  0.00000000E+00  0.00000000E+00  0.00000000E+00
  0.00000000E+00  0.00000000E+00  0.00000000E+00
  0.00000000E+00  0.00000000E+00  0.00000000E+00
  0.00000000E+00  0.00000000E+00  0.00000000E+00
  0.00000000E+00  0.00000000E+00  0.00000000E+00
  0.00000000E+00  0.00000000E+00  0.00000000E+00
  0.00000000E+00  0.00000000E+00  0.00000000E+00
  0.00000000E+00  0.00000000E+00  0.00000000E+00
  0.00000000E+00  0.00000000E+00  0.00000000E+00
  0.00000000E+00  0.00000000E+00  0.00000000E+00
  0.00000000E+00  0.00000000E+00  0.00000000E+00
  0.00000000E+00  0.00000000E+00  0.00000000E+00
  0.00000000E+00  0.00000000E+00  0.00000000E+00
  0.00000000E+00  0.00000000E+00  0.00000000E+00
  0.00000000E+00  0.00000000E+00  0.00000000E+00
  0.00000000E+00  0.00000000E+00  0.00000000E+00
  0.00000000E+00  0.00000000E+00  0.00000000E+00
  0.00000000E+00  0.00000000E+00  0.00000000E+00
  0.00000000E+00  0.00000000E+00  0.00000000E+00
  0.00000000E+00  0.00000000E+00  0.00000000E+00
  0.00000000E+00  0.00000000E+00  0.00000000E+00
  0.00000000E+00  0.00000000E+00  0.00000000E+00
  0.00000000E+00  0.00000000E+00  0.00000000E+00
  0.00000000E+00  0.00000000E+00  0.00000000E+00
  0.00000000E+00  0.00000000E+00  0.00000000E+00
  0.00000000E+00  0.00000000E+00  0.00000000E+00
  0.00000000E+00  0.00000000E+00  0.00000000E+00
  0.00000000E+00  0.00000000E+00  0.00000000E+00
  0.00000000E+00  0.00000000E+00  0.00000000E+00
  0.00000000E+00  0.00000000E+00  0.00000000E+00
  0.00000000E+00  0.00000000E+00  0.00000000E+00
  0.00000000E+00  0.00000000E+00  0.00000000E+00
  0.00000000E+00  0.00000000E+00  0.00000000E+00
  0.00000000E+00  0.00000000E+00  0.00000000E+00
  0.00000000E+00  0.00000000E+00  0.00000000E+00
  0.00000000E+00  0.00000000E+00  0.00000000E+00
  0.00000000E+00  0.00000000E+00  0.00000000E+00
  0.00000000E+00  0.00000000E+00  0.00000000E+00
  0.00000000E+00  0.00000000E+00  0.00000000E+00
  0.00000000E+00  0.00000000E+00  0.00000000E+00
  0.00000000E+00  0.00000000E+00  0.00000000E+00
  0.00000000E+00  0.00000000E+00  0.00000000E+00
  0.00000000E+00  0.00000000E+00  0.00000000E+00
  0.00000000E+00  0.00000000E+00  0.00000000E+00
  0.00000000E+00  0.00000000E+00  0.00000000E+00
  0.00000000E+00  0.00000000E+00  0.00000000E+00
  0.00000000E+00  0.00000000E+00  0.00000000E+00
  0.00000000E+00  0.00000000E+00  0.00000000E+00
  0.00000000E+00  0.00000000E+00  0.00000000E+00
  0.00000000E+00  0.00000000E+00  0.00000000E+00
  0.00000000E+00  0.00000000E+00  0.00000000E+00
  0.00000000E+00  0.00000000E+00  0.00000000E+00
  0.00000000E+00  0.00000000E+00  0.00000000E+00
  0.00000000E+00  0.00000000E+00  0.00000000E+00
  0.00000000E+00  0.00000000E+00  0.00000000E+00
  0.00000000E+00  0.00000000E+00  0.00000000E+00
  0.00000000E+00  0.00000000E+00  0.00000000E+00
  0.00000000E+00  0.00000000E+00  0.00000000E+00
  0.00000000E+00  0.00000000E+00  0.00000000E+00
  0.00000000E+00  0.00000000E+00  0.00000000E+00
  0.00000000E+00  0.00000000E+00  0.00000000E+00
  0.00000000E+00  0.00000000E+00  0.00000000E+00
  0.00000000E+00  0.00000000E+00  0.00000000E+00
  0.00000000E+00  0.00000000E+00  0.00000000E+00
  0.00000000E+00  0.00000000E+00  0.00000000E+00
  0.00000000E+00  0.00000000E+00  0.00000000E+00
  0.00000000E+00  0.00000000E+00  0.00000000E+00
  0.00000000E+00  0.00000000E+00  0.00000000E+00
  0.00000000E+00  0.00000000E+00  0.00000000E+00
  0.00000000E+00  0.00000000E+00  0.00000000E+00
  0.00000000E+00  0.00000000E+00  0.00000000E+00
  0.00000000E+00  0.00000000E+00  0.00000000E+00
  0.00000000E+00  0.00000000E+00  0.00000000E+00
