C H O Si                                
   1.00000000000000     
     9.2874599999999994    0.0000000000000000    0.0000000000000000
     0.0000000000000000    8.7562999999999995    0.0000000000000000
     0.0000000000000000    0.0000000000000000   58.0000000000000000
   C    H    O    Si
    36    33    16    36
Selective dynamics
Direct
  0.0033969294131105  0.1353816389236189  0.3753795692175421   T   T   T
  0.0033775624852422  0.6354774628419469  0.3754004419157825   T   T   T
  0.3367281754722211  0.1354671625049917  0.3754870081949217   T   T   T
  0.3367323103393952  0.6353031146986402  0.3754902480173053   T   T   T
  0.6698954064127457  0.1353904868050177  0.3754783623454651   T   T   T
  0.6699099814637068  0.6353480652373830  0.3754741892378745   T   T   T
  0.1697080709325315  0.3804938300330332  0.4009085146919321   T   T   T
  0.1697967102761713  0.8804706286684751  0.4009168857773978   T   T   T
  0.5030758969288595  0.3805350085754696  0.4010323936563846   T   T   T
  0.5030410683484662  0.8804755783975965  0.4009632262457030   T   T   T
  0.8363605299694374  0.3804423790343545  0.4008538698751189   T   T   T
  0.8362988275903839  0.8804577840949142  0.4008949745096034   T   T   T
  0.0030080029765602  0.1302036852736603  0.4279959082516144   T   T   T
  0.0029966330969281  0.6304740024191847  0.4280259328060143   T   T   T
  0.3362995439856660  0.1304540846325546  0.4281140007867877   T   T   T
  0.3362466333958187  0.6302994368295299  0.4281242764268488   T   T   T
  0.6694941174574228  0.1303417745951369  0.4280877211163523   T   T   T
  0.6696090269276197  0.6303489441918346  0.4280818778690671   T   T   T
  0.1696705812867274  0.3803559498155024  0.4544625097777462   T   T   T
  0.1699648377018149  0.8803898232845836  0.4545086007119659   T   T   T
  0.5029892482279200  0.3807230136500468  0.4546833854844800   T   T   T
  0.5029906740621420  0.8801396405258290  0.4545529643231273   T   T   T
  0.8363417859605282  0.3802159416836070  0.4543488313628282   T   T   T
  0.8361722497287313  0.8804175003726556  0.4544631565404462   T   T   T
  0.0035075540423941  0.1299816213976760  0.4814378547414047   T   T   T
  0.0033991484706536  0.6305242048918246  0.4815782251597873   T   T   T
  0.3371235663875960  0.1311485632155261  0.4817284291992699   T   T   T
  0.3363728500226704  0.6304792390649232  0.4817718256485428   T   T   T
  0.6692119122596485  0.1308885449302715  0.4816683274345766   T   T   T
  0.6701748910576227  0.6306047919429771  0.4816838815671090   T   T   T
  0.1701519444915079  0.3840646108697083  0.5069335984109887   T   T   T
  0.1697854350382725  0.8858982591675022  0.5070648226466090   T   T   T
  0.5037252044374950  0.3888203667318117  0.5077912651856358   T   T   T
  0.5034269345932427  0.8851074338933460  0.5071257846503678   T   T   T
  0.8376489612616406  0.3828276661412705  0.5066271234642540   T   T   T
  0.8369461331026010  0.8859761497452346  0.5069977917238856   T   T   T
  0.0057259405607676  0.0632486816411858  0.3598128494772555   T   T   T
  0.0056630122303326  0.5632624734042450  0.3598431919720836   T   T   T
  0.3392598535325174  0.0632892725664964  0.3599300629896762   T   T   T
  0.3390724648194662  0.5630432626227139  0.3599418969254944   T   T   T
  0.6717296733715729  0.0631956060695630  0.3599216058298955   T   T   T
  0.6719574202626025  0.5630976408609981  0.3599228771260003   T   T   T
  0.1715494114563436  0.3120619640645430  0.5225093849689653   T   T   T
  0.1721388291168448  0.8135414009245906  0.5225994259669348   T   T   T
  0.5064748757449122  0.3156549171240168  0.5232407147479651   T   T   T
  0.5040525381820029  0.8130800971545730  0.5226938151640559   T   T   T
  0.8398968082201838  0.3109422112870289  0.5222129184768488   T   T   T
  0.8391481764435149  0.8148171961320416  0.5226335033951812   T   T   T
  0.0785382647017786  0.1099101523616184  0.5421976988549727   T   T   T
  0.0765593195640612  0.6107686454845220  0.5417750755443669   T   T   T
  0.4130006396560625  0.1118933866004553  0.5421341900038514   T   T   T
  0.3821345067639588  0.6289293893740586  0.5447860852539689   T   T   T
  0.7464843442572235  0.1104155844801748  0.5421521539106063   T   T   T
  0.7868579339216152  0.5998182749000390  0.5389560155137915   T   T   T
  0.2468539833646479  0.3590613832974663  0.3402969546332279   T   T   T
  0.2470879793939018  0.8589825387525654  0.3403310396957900   T   T   T
  0.5794905974523432  0.3592086183283741  0.3403658127277421   T   T   T
  0.5792940049860316  0.8591013504049460  0.3402986888969070   T   T   T
  0.9111909840383654  0.3590015943088134  0.3400670361614956   T   T   T
  0.9111378009121530  0.8590141489654133  0.3400960926529594   T   T   T
  0.5358536570501735  0.6084835985374546  0.5891108986437611   T   T   T
  0.4828736380487724  0.4704508918559680  0.6078778679730563   T   T   T
  0.5627160163184850  0.6380182873295002  0.6178298994337709   T   T   T
  0.3021613321966947  0.3748818303466018  0.6218519667742705   T   T   T
  0.4225923997951928  0.2543044213067848  0.6168224274930448   T   T   T
  0.6483849379759774  0.7349011831112009  0.6469322747963490   T   T   T
  0.4841327012996819  0.7705524508177848  0.6441207168443637   T   T   T
  0.5047724992401307  0.7966451662280478  0.5678364384386813   T   T   T
  0.5855869257049023  0.6611858984551354  0.5546582100451558   T   T   T
  0.1599890260360516  0.3500799700201225  0.3496637556166471   T   T   T
  0.1601371292655005  0.8500345188477259  0.3496805791658689   T   T   T
  0.4928308890261096  0.3503462120272308  0.3497865087739218   T   T   T
  0.4926499125440111  0.8500287946844450  0.3497191377070293   T   T   T
  0.8252057336811760  0.3498036042525121  0.3496299948476031   T   T   T
  0.8252255489511054  0.8500545885332353  0.3496788481964181   T   T   T
  0.9921171521784462  0.1002946934185127  0.5327434163524244   T   T   T
  0.9884653730161764  0.5943951578455848  0.5328817700602385   T   T   T
  0.3257777488649700  0.0989421164654876  0.5329665906302518   T   T   T
  0.3100961853362234  0.6010015844468587  0.5328321383078235   T   T   T
  0.6593139940736111  0.0993337256631342  0.5329023909781202   T   T   T
  0.6866951098253248  0.5973619874021042  0.5331951860560066   T   T   T
  0.5596644955729375  0.5562349684472568  0.6045024723443134   T   T   T
  0.3778400766637039  0.3473309809726826  0.6109388780252913   T   T   T
  0.5737169075956197  0.7569412316936066  0.6355643979108698   T   T   T
  0.5043693881882878  0.6861366621274371  0.5653925355193770   T   T   T
  0.1701515720395165  0.2538454476046692  0.3743595911125028   T   T   T
  0.1702167456204305  0.7537643465496635  0.3743710055043091   T   T   T
  0.5033735666964338  0.2539091810035537  0.3744676143932190   T   T   T
  0.5033452610893039  0.7538063487352844  0.3744184541364685   T   T   T
  0.8366405779104703  0.2537077361156488  0.3743244610634262   T   T   T
  0.8366083015574818  0.7537369699323602  0.3743533533143911   T   T   T
  0.0031137262464654  0.0062564980832986  0.4011788146054883   T   T   T
  0.0030928636977730  0.5063480627112300  0.4011988904621684   T   T   T
  0.3364611299265533  0.0063821710240815  0.4012811522189614   T   T   T
  0.3364266727977901  0.5063123740399065  0.4012980311286940   T   T   T
  0.6696923226408594  0.0063075184964971  0.4012586358317106   T   T   T
  0.6697583479687662  0.5062780771707913  0.4012603035596936   T   T   T
  0.1696619432373202  0.2563859202066967  0.4277447384046846   T   T   T
  0.1698277304146844  0.7564429577368880  0.4277716999794923   T   T   T
  0.5029790259803214  0.2564821023151838  0.4278956134642399   T   T   T
  0.5029482514903989  0.7562835091368808  0.4278012737048300   T   T   T
  0.8363700213365766  0.2561820708810156  0.4276670236983633   T   T   T
  0.8363007049367028  0.7563714869005225  0.4277380484948273   T   T   T
  0.0032625142013898  0.0058757336478946  0.4546945941059741   T   T   T
  0.0031419212611779  0.5062192714290077  0.4547145598806347   T   T   T
  0.3367223970019528  0.0065335645971797  0.4548594164385675   T   T   T
  0.3362716408180037  0.5064434717409780  0.4549004510961079   T   T   T
  0.6693884953150628  0.0063403588598837  0.4548181659412968   T   T   T
  0.6698614024776917  0.5062534097804835  0.4547930820476112   T   T   T
  0.1699196956177641  0.2556437390720485  0.4811945802125171   T   T   T
  0.1699726168252979  0.7563032398347831  0.4813222094858060   T   T   T
  0.5032083755941369  0.2578327838569583  0.4816460577269710   T   T   T
  0.5030192046821303  0.7557328783119738  0.4813299486399317   T   T   T
  0.8368711993690365  0.2547313341993573  0.4809869116289158   T   T   T
  0.8368322996991141  0.7563121888708271  0.4812654756140955   T   T   T
  0.0034537812993176  0.0041845223145412  0.5080285946323256   T   T   T
  0.0036266894173947  0.5014551182616031  0.5077902332425079   T   T   T
  0.3365207080917054  0.0038002548318230  0.5081702128616084   T   T   T
  0.3347968187806381  0.5052270746250417  0.5085684934631007   T   T   T
  0.6702823869122544  0.0037883047645283  0.5081351316360310   T   T   T
  0.6730324513700847  0.5027150509253477  0.5079834142139663   T   T   T
 
  0.00000000E+00  0.00000000E+00  0.00000000E+00
  0.00000000E+00  0.00000000E+00  0.00000000E+00
  0.00000000E+00  0.00000000E+00  0.00000000E+00
  0.00000000E+00  0.00000000E+00  0.00000000E+00
  0.00000000E+00  0.00000000E+00  0.00000000E+00
  0.00000000E+00  0.00000000E+00  0.00000000E+00
  0.00000000E+00  0.00000000E+00  0.00000000E+00
  0.00000000E+00  0.00000000E+00  0.00000000E+00
  0.00000000E+00  0.00000000E+00  0.00000000E+00
  0.00000000E+00  0.00000000E+00  0.00000000E+00
  0.00000000E+00  0.00000000E+00  0.00000000E+00
  0.00000000E+00  0.00000000E+00  0.00000000E+00
  0.00000000E+00  0.00000000E+00  0.00000000E+00
  0.00000000E+00  0.00000000E+00  0.00000000E+00
  0.00000000E+00  0.00000000E+00  0.00000000E+00
  0.00000000E+00  0.00000000E+00  0.00000000E+00
  0.00000000E+00  0.00000000E+00  0.00000000E+00
  0.00000000E+00  0.00000000E+00  0.00000000E+00
  0.00000000E+00  0.00000000E+00  0.00000000E+00
  0.00000000E+00  0.00000000E+00  0.00000000E+00
  0.00000000E+00  0.00000000E+00  0.00000000E+00
  0.00000000E+00  0.00000000E+00  0.00000000E+00
  0.00000000E+00  0.00000000E+00  0.00000000E+00
  0.00000000E+00  0.00000000E+00  0.00000000E+00
  0.00000000E+00  0.00000000E+00  0.00000000E+00
  0.00000000E+00  0.00000000E+00  0.00000000E+00
  0.00000000E+00  0.00000000E+00  0.00000000E+00
  0.00000000E+00  0.00000000E+00  0.00000000E+00
  0.00000000E+00  0.00000000E+00  0.00000000E+00
  0.00000000E+00  0.00000000E+00  0.00000000E+00
  0.00000000E+00  0.00000000E+00  0.00000000E+00
  0.00000000E+00  0.00000000E+00  0.00000000E+00
  0.00000000E+00  0.00000000E+00  0.00000000E+00
  0.00000000E+00  0.00000000E+00  0.00000000E+00
  0.00000000E+00  0.00000000E+00  0.00000000E+00
  0.00000000E+00  0.00000000E+00  0.00000000E+00
  0.00000000E+00  0.00000000E+00  0.00000000E+00
  0.00000000E+00  0.00000000E+00  0.00000000E+00
  0.00000000E+00  0.00000000E+00  0.00000000E+00
  0.00000000E+00  0.00000000E+00  0.00000000E+00
  0.00000000E+00  0.00000000E+00  0.00000000E+00
  0.00000000E+00  0.00000000E+00  0.00000000E+00
  0.00000000E+00  0.00000000E+00  0.00000000E+00
  0.00000000E+00  0.00000000E+00  0.00000000E+00
  0.00000000E+00  0.00000000E+00  0.00000000E+00
  0.00000000E+00  0.00000000E+00  0.00000000E+00
  0.00000000E+00  0.00000000E+00  0.00000000E+00
  0.00000000E+00  0.00000000E+00  0.00000000E+00
  0.00000000E+00  0.00000000E+00  0.00000000E+00
  0.00000000E+00  0.00000000E+00  0.00000000E+00
  0.00000000E+00  0.00000000E+00  0.00000000E+00
  0.00000000E+00  0.00000000E+00  0.00000000E+00
  0.00000000E+00  0.00000000E+00  0.00000000E+00
  0.00000000E+00  0.00000000E+00  0.00000000E+00
  0.00000000E+00  0.00000000E+00  0.00000000E+00
  0.00000000E+00  0.00000000E+00  0.00000000E+00
  0.00000000E+00  0.00000000E+00  0.00000000E+00
  0.00000000E+00  0.00000000E+00  0.00000000E+00
  0.00000000E+00  0.00000000E+00  0.00000000E+00
  0.00000000E+00  0.00000000E+00  0.00000000E+00
  0.00000000E+00  0.00000000E+00  0.00000000E+00
  0.00000000E+00  0.00000000E+00  0.00000000E+00
  0.00000000E+00  0.00000000E+00  0.00000000E+00
  0.00000000E+00  0.00000000E+00  0.00000000E+00
  0.00000000E+00  0.00000000E+00  0.00000000E+00
  0.00000000E+00  0.00000000E+00  0.00000000E+00
  0.00000000E+00  0.00000000E+00  0.00000000E+00
  0.00000000E+00  0.00000000E+00  0.00000000E+00
  0.00000000E+00  0.00000000E+00  0.00000000E+00
  0.00000000E+00  0.00000000E+00  0.00000000E+00
  0.00000000E+00  0.00000000E+00  0.00000000E+00
  0.00000000E+00  0.00000000E+00  0.00000000E+00
  0.00000000E+00  0.00000000E+00  0.00000000E+00
  0.00000000E+00  0.00000000E+00  0.00000000E+00
  0.00000000E+00  0.00000000E+00  0.00000000E+00
  0.00000000E+00  0.00000000E+00  0.00000000E+00
  0.00000000E+00  0.00000000E+00  0.00000000E+00
  0.00000000E+00  0.00000000E+00  0.00000000E+00
  0.00000000E+00  0.00000000E+00  0.00000000E+00
  0.00000000E+00  0.00000000E+00  0.00000000E+00
  0.00000000E+00  0.00000000E+00  0.00000000E+00
  0.00000000E+00  0.00000000E+00  0.00000000E+00
  0.00000000E+00  0.00000000E+00  0.00000000E+00
  0.00000000E+00  0.00000000E+00  0.00000000E+00
  0.00000000E+00  0.00000000E+00  0.00000000E+00
  0.00000000E+00  0.00000000E+00  0.00000000E+00
  0.00000000E+00  0.00000000E+00  0.00000000E+00
  0.00000000E+00  0.00000000E+00  0.00000000E+00
  0.00000000E+00  0.00000000E+00  0.00000000E+00
  0.00000000E+00  0.00000000E+00  0.00000000E+00
  0.00000000E+00  0.00000000E+00  0.00000000E+00
  0.00000000E+00  0.00000000E+00  0.00000000E+00
  0.00000000E+00  0.00000000E+00  0.00000000E+00
  0.00000000E+00  0.00000000E+00  0.00000000E+00
  0.00000000E+00  0.00000000E+00  0.00000000E+00
  0.00000000E+00  0.00000000E+00  0.00000000E+00
  0.00000000E+00  0.00000000E+00  0.00000000E+00
  0.00000000E+00  0.00000000E+00  0.00000000E+00
  0.00000000E+00  0.00000000E+00  0.00000000E+00
  0.00000000E+00  0.00000000E+00  0.00000000E+00
  0.00000000E+00  0.00000000E+00  0.00000000E+00
  0.00000000E+00  0.00000000E+00  0.00000000E+00
  0.00000000E+00  0.00000000E+00  0.00000000E+00
  0.00000000E+00  0.00000000E+00  0.00000000E+00
  0.00000000E+00  0.00000000E+00  0.00000000E+00
  0.00000000E+00  0.00000000E+00  0.00000000E+00
  0.00000000E+00  0.00000000E+00  0.00000000E+00
  0.00000000E+00  0.00000000E+00  0.00000000E+00
  0.00000000E+00  0.00000000E+00  0.00000000E+00
  0.00000000E+00  0.00000000E+00  0.00000000E+00
  0.00000000E+00  0.00000000E+00  0.00000000E+00
  0.00000000E+00  0.00000000E+00  0.00000000E+00
  0.00000000E+00  0.00000000E+00  0.00000000E+00
  0.00000000E+00  0.00000000E+00  0.00000000E+00
  0.00000000E+00  0.00000000E+00  0.00000000E+00
  0.00000000E+00  0.00000000E+00  0.00000000E+00
  0.00000000E+00  0.00000000E+00  0.00000000E+00
  0.00000000E+00  0.00000000E+00  0.00000000E+00
  0.00000000E+00  0.00000000E+00  0.00000000E+00
  0.00000000E+00  0.00000000E+00  0.00000000E+00
  0.00000000E+00  0.00000000E+00  0.00000000E+00
