C H O Si                                
   1.00000000000000     
     9.2874599999999994    0.0000000000000000    0.0000000000000000
     0.0000000000000000   17.5126199999999983    0.0000000000000000
     0.0000000000000000    0.0000000000000000   58.0000000000000000
   C    H    O    Si
    72    57    28    72
Selective dynamics
Direct
  0.9960391267536963  0.0651230635507421  0.0595983502197360   T   T   T
  0.3294921669528071  0.0651389876687846  0.0596626916106759   T   T   T
  0.6627349493890154  0.0651641058950232  0.0596804031733098   T   T   T
  0.9960650068141023  0.3151719837172571  0.0595992372922037   T   T   T
  0.3293952503558967  0.3150251601401117  0.0596186096974083   T   T   T
  0.6628667279049912  0.3150360387141727  0.0596565331340848   T   T   T
  0.1627598165097216  0.1878199843203990  0.1384580427897581   T   T   T
  0.4960846384687450  0.1881253680416474  0.1387023239056235   T   T   T
  0.8295915165792846  0.1878795320491671  0.1384643552823677   T   T   T
  0.1627044277106804  0.4380646745001814  0.1384809369455977   T   T   T
  0.4961164418518544  0.4378838222879421  0.1382859183396747   T   T   T
  0.8295579437158995  0.4379854882385666  0.1385367588930414   T   T   T
  0.3304964849776781  0.0631881587596011  0.1657616250140115   T   T   T
  0.6628392003847046  0.0633245147219287  0.1657774950285981   T   T   T
  0.9966763724207284  0.0626154017682407  0.1655678690620167   T   T   T
  0.3291960842477972  0.3131780991883570  0.1656161812395693   T   T   T
  0.6636336105005443  0.3130207869059319  0.1657134412734325   T   T   T
  0.9965349141650570  0.3130308958030245  0.1655837497882961   T   T   T
  0.1637145117344398  0.1894517132982165  0.1907580358163042   T   T   T
  0.4962241369471244  0.1920869847034483  0.1916880895469709   T   T   T
  0.8306194630942315  0.1894212361363389  0.1907885756406265   T   T   T
  0.1623548028328056  0.4402280281792363  0.1910294022194587   T   T   T
  0.4965431467771093  0.4447145764432130  0.1888584457380740   T   T   T
  0.8307895721428543  0.4401333069516861  0.1911183429153320   T   T   T
  0.1626306322313957  0.1879470181590490  0.0849606030596594   T   T   T
  0.4959735747021757  0.1880208146187672  0.0850898902088010   T   T   T
  0.8294245017238255  0.1879862622574611  0.0849734131611915   T   T   T
  0.1627515984080035  0.4380276632484706  0.0849702330569807   T   T   T
  0.4960590052722166  0.4379813437980413  0.0849020117413218   T   T   T
  0.8294196720635888  0.4380415060767895  0.0849978318008697   T   T   T
  0.3295711016637645  0.0629517640233223  0.1121869075553451   T   T   T
  0.6628583536110798  0.0629470198931846  0.1121924325338337   T   T   T
  0.9961170919145552  0.0628300077925499  0.1121177582145252   T   T   T
  0.3293649978911297  0.3128584201253543  0.1121249580687976   T   T   T
  0.6629557580611700  0.3128568098092562  0.1121630637011795   T   T   T
  0.9960881723860801  0.3129521197949862  0.1120983547024030   T   T   T
  0.9960738255612155  0.5652194480844202  0.0596206709750029   T   T   T
  0.3294221781232274  0.5652129187871844  0.0596256855917177   T   T   T
  0.6627982320567999  0.5651973572703026  0.0596520390963848   T   T   T
  0.9960898929668183  0.8152733001758456  0.0596367650281844   T   T   T
  0.3295282591893552  0.8151367892346147  0.0596623151378653   T   T   T
  0.6628168276574264  0.8151647882478728  0.0596730412142381   T   T   T
  0.1628057356547874  0.6880402411595056  0.1384973533051666   T   T   T
  0.4961909555896557  0.6878954407914765  0.1385745023666443   T   T   T
  0.8295868738842838  0.6880373330212205  0.1385034703158576   T   T   T
  0.1631169948078696  0.9379438597926667  0.1385355336581147   T   T   T
  0.4961691758652765  0.9378995456926090  0.1385480050069508   T   T   T
  0.8293125168171410  0.9379742213067590  0.1385506532790080   T   T   T
  0.3295181905425965  0.5632663558395044  0.1656487604376065   T   T   T
  0.6637040639079025  0.5631034925416434  0.1656805662895827   T   T   T
  0.9965039558122522  0.5631779039271687  0.1656498189824522   T   T   T
  0.3300394178604107  0.8129692748444188  0.1657125199641664   T   T   T
  0.6634185555782411  0.8129638581931748  0.1657020589766143   T   T   T
  0.9966282003385154  0.8130453567467794  0.1656935706831083   T   T   T
  0.1634128576051151  0.6900868997914118  0.1910660531466370   T   T   T
  0.4968866016071134  0.6901322177971505  0.1911479022964321   T   T   T
  0.8303088252030394  0.6901002503813822  0.1910639172915500   T   T   T
  0.1635116017826199  0.9400425990136668  0.1910687459846604   T   T   T
  0.4968432094505118  0.9400504907170071  0.1910872837476053   T   T   T
  0.8300604645187013  0.9401629384883303  0.1910829865394570   T   T   T
  0.1626892364872427  0.6880725739209109  0.0850029072255905   T   T   T
  0.4960419979362514  0.6880208702270992  0.0850339862920938   T   T   T
  0.8294259821867699  0.6880781238468061  0.0850001847055110   T   T   T
  0.1627929605183501  0.9380424407919130  0.0850037612699086   T   T   T
  0.4960388285918509  0.9380302294231072  0.0850244266611811   T   T   T
  0.8293563355232557  0.9380534067651125  0.0850113744036567   T   T   T
  0.3295187802377084  0.5629277254502992  0.1121393198985900   T   T   T
  0.6629384794046375  0.5629076059759782  0.1121613674979784   T   T   T
  0.9960796624522796  0.5629738498774860  0.1121292064821107   T   T   T
  0.3295666615472707  0.8129171005785583  0.1121652159289678   T   T   T
  0.6628952886876042  0.8129093013448101  0.1121714730941126   T   T   T
  0.9961268759416854  0.8130422956841963  0.1121551779855055   T   T   T
  0.0795380018259204  0.1783378833881958  0.0257226760189371   T   T   T
  0.4124924282101167  0.1784333560885521  0.0258580323329228   T   T   T
  0.7453719252546711  0.1782977961910857  0.0257871856903144   T   T   T
  0.0798587045599466  0.4284366022469098  0.0257128537072541   T   T   T
  0.4126662324510414  0.4281847126789164  0.0256969341678613   T   T   T
  0.7451588914627778  0.4282028885336202  0.0258101361610583   T   T   T
  0.3275272970556322  0.0289206090909645  0.0441309744254114   T   T   T
  0.6602523081359882  0.0289406377869060  0.0441463155424544   T   T   T
  0.9937818025418462  0.0289139546681526  0.0440630451687296   T   T   T
  0.3269650599305692  0.2788135771250768  0.0440858964926495   T   T   T
  0.6608269447355930  0.2788061588092397  0.0441243803543156   T   T   T
  0.9938236522691397  0.2790032621931128  0.0440574068004620   T   T   T
  0.8336652195706521  0.4041783662696900  0.2066700460054532   T   T   T
  0.8330156467750851  0.1534036063019420  0.2063584975858280   T   T   T
  0.1657006291068186  0.1537379740245275  0.2063908114422255   T   T   T
  0.4984532093130006  0.1554590014972886  0.2071269076631500   T   T   T
  0.1651073128690499  0.4040197363215149  0.2065314929959176   T   T   T
  0.5400576562984757  0.4636155977925462  0.2608852644166459   T   T   T
  0.0816059141943613  0.0538601952018750  0.2246737039441159   T   T   T
  0.4145681384179271  0.0542147911275061  0.2247097796131733   T   T   T
  0.7468811155622499  0.0539012845554881  0.2248974896212010   T   T   T
  0.0858625189405690  0.3039396426602545  0.2234850133604714   T   T   T
  0.3674009360775907  0.2853759206558796  0.2301856946346694   T   T   T
  0.7753532420873184  0.2996620910564448  0.2230109042853135   T   T   T
  0.4911870860064351  0.2705544110894119  0.2660055961234691   T   T   T
  0.4693548455777128  0.2282691633722858  0.3004742222318035   T   T   T
  0.5172570033629011  0.3130187838687005  0.3081072126125037   T   T   T
  0.2900180179795385  0.1360852216043107  0.2956371512593240   T   T   T
  0.4387737058602902  0.1090612082616716  0.2868870826209134   T   T   T
  0.6388284966139791  0.3856483796457808  0.3348934611382938   T   T   T
  0.5046802013385889  0.4326348593169569  0.3276912126817345   T   T   T
  0.5028527175740345  0.4373887591003695  0.2692339571328057   T   T   T
  0.5634639963411204  0.2681923677737260  0.2409408094793487   T   T   T
  0.0793079189395580  0.6784606015350758  0.0257575152386514   T   T   T
  0.4125666289259791  0.6784780144344095  0.0258082939256707   T   T   T
  0.7455333441517102  0.6783963700002447  0.0257913616587321   T   T   T
  0.0799652476853315  0.9284369799695071  0.0257243226741092   T   T   T
  0.4124994349723049  0.9282976092703339  0.0258039792946573   T   T   T
  0.7452207067566045  0.9282739012384840  0.0258187474138849   T   T   T
  0.3272293198251635  0.5290405014704134  0.0440821835066216   T   T   T
  0.6605859958434390  0.5290411620083050  0.0441018917035264   T   T   T
  0.9938714097923746  0.5290449990362510  0.0440795685982127   T   T   T
  0.3273115255399541  0.7789627135654348  0.0441232239639215   T   T   T
  0.6605039717875457  0.7789774557624138  0.0441319746460592   T   T   T
  0.9938728025177892  0.7790492266466109  0.0441058105423973   T   T   T
  0.8322592743657413  0.9039772131139214  0.2066140379571378   T   T   T
  0.8327129326110084  0.6538127008940351  0.2065734096254413   T   T   T
  0.1655998590334354  0.6538929766597145  0.2065893408797846   T   T   T
  0.4990260388422970  0.6539786489230087  0.2066904206011377   T   T   T
  0.1657214570036064  0.9038607992605218  0.2065957692631145   T   T   T
  0.4992923833332878  0.9038535319556932  0.2066170550143389   T   T   T
  0.0812240555421175  0.5529412883571053  0.2249734489830562   T   T   T
  0.4157444455035935  0.5514362907926077  0.2249701658589799   T   T   T
  0.7467323690432430  0.5520791393354423  0.2253340074309435   T   T   T
  0.0812561011351758  0.8030403750776541  0.2248909898629227   T   T   T
  0.4125536381533728  0.8035939111085660  0.2250666983705572   T   T   T
  0.7498594919194573  0.8025857985081236  0.2248047787364066   T   T   T
  0.1720088535056206  0.1693153002875708  0.0332689206423244   T   T   T
  0.5050727105427839  0.1696422539818775  0.0334025413967022   T   T   T
  0.8380889502425051  0.1694075606753799  0.0332794154002302   T   T   T
  0.1722113460234851  0.4193527411628322  0.0332816947392960   T   T   T
  0.5052673260069938  0.4190351782823939  0.0331981216611009   T   T   T
  0.8379316717043696  0.4195291766510302  0.0333074429590516   T   T   T
  0.3215015622653911  0.0441991067239259  0.2174652270112055   T   T   T
  0.6542190564466083  0.0441522958352206  0.2174910156657781   T   T   T
  0.9885282623152950  0.0442839428930404  0.2173775295097690   T   T   T
  0.3103085692616047  0.3019651648477664  0.2162630047298102   T   T   T
  0.6755248311065895  0.2952773691228944  0.2175431116460366   T   T   T
  0.9896853465350360  0.2931048252650842  0.2172525429153036   T   T   T
  0.5205631314254439  0.2749889988820831  0.2954430966893729   T   T   T
  0.3909917728222664  0.1325098496908271  0.3000823769418242   T   T   T
  0.5372136013771367  0.3808548136356555  0.3309581516227948   T   T   T
  0.4771604575423661  0.2527931608910615  0.2498452661407572   T   T   T
  0.1718190021703051  0.6695469931212392  0.0333037577840823   T   T   T
  0.5051542479782243  0.6695569647473454  0.0333346683803075   T   T   T
  0.8381932447821406  0.6695183245000590  0.0332964187012987   T   T   T
  0.1722965636615636  0.9194250658765555  0.0333094582877867   T   T   T
  0.5051178031598201  0.9194703674611479  0.0333293765239464   T   T   T
  0.8379704972311728  0.9195453652282468  0.0333181558460742   T   T   T
  0.3222269550032261  0.5438501322945500  0.2175919169356145   T   T   T
  0.6545113607697672  0.5441887847138298  0.2175871898038376   T   T   T
  0.9885430593591754  0.5448607618745936  0.2173927296268335   T   T   T
  0.3204467413398591  0.7942328076035267  0.2174586139279143   T   T   T
  0.6564391681289001  0.7943215407630397  0.2174591999488890   T   T   T
  0.9883137556597847  0.7942872896894579  0.2174498066917309   T   T   T
  0.4962130140138508  0.1238528085538563  0.0589060001627270   T   T   T
  0.8294763052279234  0.1237994358964732  0.0588109620973643   T   T   T
  0.1629203345080968  0.3737914505819534  0.0588086957530982   T   T   T
  0.4962421692146278  0.3736422795916684  0.0587679357744846   T   T   T
  0.8294636152820530  0.3738292699766492  0.0588284553006190   T   T   T
  0.1628653899893653  0.1237535526449398  0.0588023346845482   T   T   T
  0.9962409825438721  0.0002877736166069  0.1387524974942280   T   T   T
  0.3298535161919035  0.0005985965023137  0.1388570796244564   T   T   T
  0.6625552322368392  0.0006103703765977  0.1388666955127272   T   T   T
  0.9962052559010207  0.2504161890123434  0.1387161726886431   T   T   T
  0.3291801666364323  0.2504886305028199  0.1388144697387230   T   T   T
  0.6629762077101080  0.2504104682357985  0.1388199268180756   T   T   T
  0.1633378968486760  0.1248372168066841  0.1650555192899775   T   T   T
  0.4964826124842018  0.1261592543743763  0.1655585742380851   T   T   T
  0.8302311550051896  0.1248166598317670  0.1650289827828833   T   T   T
  0.1629857406109103  0.3754415692964511  0.1651044200412489   T   T   T
  0.4963500049669059  0.3745622739290063  0.1650816528735021   T   T   T
  0.8300596017065262  0.3753381662234538  0.1651684482803739   T   T   T
  0.3285904377356432  0.4985752149079043  0.1920288072672265   T   T   T
  0.6644049358406552  0.4985658888780605  0.1921211477552264   T   T   T
  0.9966355816942616  0.4992302210032437  0.1918547533226279   T   T   T
  0.3277501574293675  0.2507513583178615  0.1921272150316133   T   T   T
  0.9972165388346599  0.2479561959722121  0.1915534505708285   T   T   T
  0.6653778420974220  0.2492139115769716  0.1919199353626122   T   T   T
  0.9961035849611377  0.0001769098485689  0.0854856981095680   T   T   T
  0.3295013888547375  0.0002173737426571  0.0855427024205174   T   T   T
  0.6627481466696505  0.0002005848692404  0.0855474875545101   T   T   T
  0.9961001329702819  0.2501833249483567  0.0854717912920607   T   T   T
  0.3292773855388374  0.2501276558765256  0.0855104009304330   T   T   T
  0.6628350683086579  0.2501115122644652  0.0855398241602753   T   T   T
  0.1627810681674728  0.1253767008721710  0.1118346660036825   T   T   T
  0.4962216481213827  0.1255154830227763  0.1119975666440950   T   T   T
  0.8295826060969598  0.1254380196787021  0.1118324217524257   T   T   T
  0.1627877632670465  0.3754667803859672  0.1118465192497516   T   T   T
  0.4961426636621355  0.3752387010679016  0.1117358661015464   T   T   T
  0.8295253044902084  0.3755123643650241  0.1118719186661302   T   T   T
  0.4962355901787999  0.6238526490722192  0.0588517032666336   T   T   T
  0.8295000394250135  0.6238922511911125  0.0588259007086491   T   T   T
  0.1630001657913338  0.8738390940816407  0.0588365569246340   T   T   T
  0.4962636211197725  0.8738289494638684  0.0588593880340181   T   T   T
  0.8294612852953775  0.8738753142284151  0.0588407819264554   T   T   T
  0.1628538798367760  0.6238884123047713  0.0588234390838243   T   T   T
  0.9961224852527576  0.5005990008468449  0.1387814633752724   T   T   T
  0.3294813507087320  0.5004721607445843  0.1387977659454134   T   T   T
  0.6628167888392316  0.5004046065602261  0.1388186369998101   T   T   T
  0.9962079707264214  0.7506092995809592  0.1387972364990503   T   T   T
  0.3295822043714264  0.7504824550054269  0.1388218934127939   T   T   T
  0.6628696237469072  0.7504579582578358  0.1388186378369621   T   T   T
  0.1629041367543876  0.6254110216837027  0.1651461249200696   T   T   T
  0.4966973103833265  0.6251090609128446  0.1652430272825281   T   T   T
  0.8302831236628556  0.6254078835455212  0.1651555400533210   T   T   T
  0.1634145260893630  0.8751876455751957  0.1651686499446725   T   T   T
  0.4967258066678606  0.8751487507366349  0.1651883939556216   T   T   T
  0.8299488960003019  0.8752482732310477  0.1651845977730601   T   T   T
  0.3300468651154462  0.9987686201765521  0.1918947891150987   T   T   T
  0.6633153693373888  0.9988513180631253  0.1919061439182577   T   T   T
  0.9967557440210146  0.9987469419087034  0.1918227408760533   T   T   T
  0.3300008656697683  0.7487751127412819  0.1919041287205869   T   T   T
  0.9967562360287973  0.7488359800499045  0.1918770591490174   T   T   T
  0.6636230252166698  0.7487901959112607  0.1918956055928342   T   T   T
  0.9961398483878311  0.5002099325581557  0.0854914728227980   T   T   T
  0.3294738624377694  0.5001942977928568  0.0854896945975634   T   T   T
  0.6627932192428424  0.5001751511089467  0.0855092632960140   T   T   T
  0.9961045375978906  0.7502776841254286  0.0855137414345201   T   T   T
  0.3294636959403809  0.7501985927149631  0.0855366348339904   T   T   T
  0.6627830963895714  0.7501933163032757  0.0855380118241974   T   T   T
  0.1628244636827743  0.6254724086040039  0.1118571796766155   T   T   T
  0.4962370091045028  0.6254319738967798  0.1119054504739863   T   T   T
  0.8295318867358961  0.6255221987789210  0.1118597493822409   T   T   T
  0.1629800906118718  0.8754836471767509  0.1118768407864759   T   T   T
  0.4962638892028686  0.8754599604213810  0.1118930944701397   T   T   T
  0.8293941112190450  0.8755504308756352  0.1118867790754721   T   T   T
 
  0.00000000E+00  0.00000000E+00  0.00000000E+00
  0.00000000E+00  0.00000000E+00  0.00000000E+00
  0.00000000E+00  0.00000000E+00  0.00000000E+00
  0.00000000E+00  0.00000000E+00  0.00000000E+00
  0.00000000E+00  0.00000000E+00  0.00000000E+00
  0.00000000E+00  0.00000000E+00  0.00000000E+00
  0.00000000E+00  0.00000000E+00  0.00000000E+00
  0.00000000E+00  0.00000000E+00  0.00000000E+00
  0.00000000E+00  0.00000000E+00  0.00000000E+00
  0.00000000E+00  0.00000000E+00  0.00000000E+00
  0.00000000E+00  0.00000000E+00  0.00000000E+00
  0.00000000E+00  0.00000000E+00  0.00000000E+00
  0.00000000E+00  0.00000000E+00  0.00000000E+00
  0.00000000E+00  0.00000000E+00  0.00000000E+00
  0.00000000E+00  0.00000000E+00  0.00000000E+00
  0.00000000E+00  0.00000000E+00  0.00000000E+00
  0.00000000E+00  0.00000000E+00  0.00000000E+00
  0.00000000E+00  0.00000000E+00  0.00000000E+00
  0.00000000E+00  0.00000000E+00  0.00000000E+00
  0.00000000E+00  0.00000000E+00  0.00000000E+00
  0.00000000E+00  0.00000000E+00  0.00000000E+00
  0.00000000E+00  0.00000000E+00  0.00000000E+00
  0.00000000E+00  0.00000000E+00  0.00000000E+00
  0.00000000E+00  0.00000000E+00  0.00000000E+00
  0.00000000E+00  0.00000000E+00  0.00000000E+00
  0.00000000E+00  0.00000000E+00  0.00000000E+00
  0.00000000E+00  0.00000000E+00  0.00000000E+00
  0.00000000E+00  0.00000000E+00  0.00000000E+00
  0.00000000E+00  0.00000000E+00  0.00000000E+00
  0.00000000E+00  0.00000000E+00  0.00000000E+00
  0.00000000E+00  0.00000000E+00  0.00000000E+00
  0.00000000E+00  0.00000000E+00  0.00000000E+00
  0.00000000E+00  0.00000000E+00  0.00000000E+00
  0.00000000E+00  0.00000000E+00  0.00000000E+00
  0.00000000E+00  0.00000000E+00  0.00000000E+00
  0.00000000E+00  0.00000000E+00  0.00000000E+00
  0.00000000E+00  0.00000000E+00  0.00000000E+00
  0.00000000E+00  0.00000000E+00  0.00000000E+00
  0.00000000E+00  0.00000000E+00  0.00000000E+00
  0.00000000E+00  0.00000000E+00  0.00000000E+00
  0.00000000E+00  0.00000000E+00  0.00000000E+00
  0.00000000E+00  0.00000000E+00  0.00000000E+00
  0.00000000E+00  0.00000000E+00  0.00000000E+00
  0.00000000E+00  0.00000000E+00  0.00000000E+00
  0.00000000E+00  0.00000000E+00  0.00000000E+00
  0.00000000E+00  0.00000000E+00  0.00000000E+00
  0.00000000E+00  0.00000000E+00  0.00000000E+00
  0.00000000E+00  0.00000000E+00  0.00000000E+00
  0.00000000E+00  0.00000000E+00  0.00000000E+00
  0.00000000E+00  0.00000000E+00  0.00000000E+00
  0.00000000E+00  0.00000000E+00  0.00000000E+00
  0.00000000E+00  0.00000000E+00  0.00000000E+00
  0.00000000E+00  0.00000000E+00  0.00000000E+00
  0.00000000E+00  0.00000000E+00  0.00000000E+00
  0.00000000E+00  0.00000000E+00  0.00000000E+00
  0.00000000E+00  0.00000000E+00  0.00000000E+00
  0.00000000E+00  0.00000000E+00  0.00000000E+00
  0.00000000E+00  0.00000000E+00  0.00000000E+00
  0.00000000E+00  0.00000000E+00  0.00000000E+00
  0.00000000E+00  0.00000000E+00  0.00000000E+00
  0.00000000E+00  0.00000000E+00  0.00000000E+00
  0.00000000E+00  0.00000000E+00  0.00000000E+00
  0.00000000E+00  0.00000000E+00  0.00000000E+00
  0.00000000E+00  0.00000000E+00  0.00000000E+00
  0.00000000E+00  0.00000000E+00  0.00000000E+00
  0.00000000E+00  0.00000000E+00  0.00000000E+00
  0.00000000E+00  0.00000000E+00  0.00000000E+00
  0.00000000E+00  0.00000000E+00  0.00000000E+00
  0.00000000E+00  0.00000000E+00  0.00000000E+00
  0.00000000E+00  0.00000000E+00  0.00000000E+00
  0.00000000E+00  0.00000000E+00  0.00000000E+00
  0.00000000E+00  0.00000000E+00  0.00000000E+00
  0.00000000E+00  0.00000000E+00  0.00000000E+00
  0.00000000E+00  0.00000000E+00  0.00000000E+00
  0.00000000E+00  0.00000000E+00  0.00000000E+00
  0.00000000E+00  0.00000000E+00  0.00000000E+00
  0.00000000E+00  0.00000000E+00  0.00000000E+00
  0.00000000E+00  0.00000000E+00  0.00000000E+00
  0.00000000E+00  0.00000000E+00  0.00000000E+00
  0.00000000E+00  0.00000000E+00  0.00000000E+00
  0.00000000E+00  0.00000000E+00  0.00000000E+00
  0.00000000E+00  0.00000000E+00  0.00000000E+00
  0.00000000E+00  0.00000000E+00  0.00000000E+00
  0.00000000E+00  0.00000000E+00  0.00000000E+00
  0.00000000E+00  0.00000000E+00  0.00000000E+00
  0.00000000E+00  0.00000000E+00  0.00000000E+00
  0.00000000E+00  0.00000000E+00  0.00000000E+00
  0.00000000E+00  0.00000000E+00  0.00000000E+00
  0.00000000E+00  0.00000000E+00  0.00000000E+00
  0.00000000E+00  0.00000000E+00  0.00000000E+00
  0.00000000E+00  0.00000000E+00  0.00000000E+00
  0.00000000E+00  0.00000000E+00  0.00000000E+00
  0.00000000E+00  0.00000000E+00  0.00000000E+00
  0.00000000E+00  0.00000000E+00  0.00000000E+00
  0.00000000E+00  0.00000000E+00  0.00000000E+00
  0.00000000E+00  0.00000000E+00  0.00000000E+00
  0.00000000E+00  0.00000000E+00  0.00000000E+00
  0.00000000E+00  0.00000000E+00  0.00000000E+00
  0.00000000E+00  0.00000000E+00  0.00000000E+00
  0.00000000E+00  0.00000000E+00  0.00000000E+00
  0.00000000E+00  0.00000000E+00  0.00000000E+00
  0.00000000E+00  0.00000000E+00  0.00000000E+00
  0.00000000E+00  0.00000000E+00  0.00000000E+00
  0.00000000E+00  0.00000000E+00  0.00000000E+00
  0.00000000E+00  0.00000000E+00  0.00000000E+00
  0.00000000E+00  0.00000000E+00  0.00000000E+00
  0.00000000E+00  0.00000000E+00  0.00000000E+00
  0.00000000E+00  0.00000000E+00  0.00000000E+00
  0.00000000E+00  0.00000000E+00  0.00000000E+00
  0.00000000E+00  0.00000000E+00  0.00000000E+00
  0.00000000E+00  0.00000000E+00  0.00000000E+00
  0.00000000E+00  0.00000000E+00  0.00000000E+00
  0.00000000E+00  0.00000000E+00  0.00000000E+00
  0.00000000E+00  0.00000000E+00  0.00000000E+00
  0.00000000E+00  0.00000000E+00  0.00000000E+00
  0.00000000E+00  0.00000000E+00  0.00000000E+00
  0.00000000E+00  0.00000000E+00  0.00000000E+00
  0.00000000E+00  0.00000000E+00  0.00000000E+00
  0.00000000E+00  0.00000000E+00  0.00000000E+00
  0.00000000E+00  0.00000000E+00  0.00000000E+00
  0.00000000E+00  0.00000000E+00  0.00000000E+00
  0.00000000E+00  0.00000000E+00  0.00000000E+00
  0.00000000E+00  0.00000000E+00  0.00000000E+00
  0.00000000E+00  0.00000000E+00  0.00000000E+00
  0.00000000E+00  0.00000000E+00  0.00000000E+00
  0.00000000E+00  0.00000000E+00  0.00000000E+00
  0.00000000E+00  0.00000000E+00  0.00000000E+00
  0.00000000E+00  0.00000000E+00  0.00000000E+00
  0.00000000E+00  0.00000000E+00  0.00000000E+00
  0.00000000E+00  0.00000000E+00  0.00000000E+00
  0.00000000E+00  0.00000000E+00  0.00000000E+00
  0.00000000E+00  0.00000000E+00  0.00000000E+00
  0.00000000E+00  0.00000000E+00  0.00000000E+00
  0.00000000E+00  0.00000000E+00  0.00000000E+00
  0.00000000E+00  0.00000000E+00  0.00000000E+00
  0.00000000E+00  0.00000000E+00  0.00000000E+00
  0.00000000E+00  0.00000000E+00  0.00000000E+00
  0.00000000E+00  0.00000000E+00  0.00000000E+00
  0.00000000E+00  0.00000000E+00  0.00000000E+00
  0.00000000E+00  0.00000000E+00  0.00000000E+00
  0.00000000E+00  0.00000000E+00  0.00000000E+00
  0.00000000E+00  0.00000000E+00  0.00000000E+00
  0.00000000E+00  0.00000000E+00  0.00000000E+00
  0.00000000E+00  0.00000000E+00  0.00000000E+00
  0.00000000E+00  0.00000000E+00  0.00000000E+00
  0.00000000E+00  0.00000000E+00  0.00000000E+00
  0.00000000E+00  0.00000000E+00  0.00000000E+00
  0.00000000E+00  0.00000000E+00  0.00000000E+00
  0.00000000E+00  0.00000000E+00  0.00000000E+00
  0.00000000E+00  0.00000000E+00  0.00000000E+00
  0.00000000E+00  0.00000000E+00  0.00000000E+00
  0.00000000E+00  0.00000000E+00  0.00000000E+00
  0.00000000E+00  0.00000000E+00  0.00000000E+00
  0.00000000E+00  0.00000000E+00  0.00000000E+00
  0.00000000E+00  0.00000000E+00  0.00000000E+00
  0.00000000E+00  0.00000000E+00  0.00000000E+00
  0.00000000E+00  0.00000000E+00  0.00000000E+00
  0.00000000E+00  0.00000000E+00  0.00000000E+00
  0.00000000E+00  0.00000000E+00  0.00000000E+00
  0.00000000E+00  0.00000000E+00  0.00000000E+00
  0.00000000E+00  0.00000000E+00  0.00000000E+00
  0.00000000E+00  0.00000000E+00  0.00000000E+00
  0.00000000E+00  0.00000000E+00  0.00000000E+00
  0.00000000E+00  0.00000000E+00  0.00000000E+00
  0.00000000E+00  0.00000000E+00  0.00000000E+00
  0.00000000E+00  0.00000000E+00  0.00000000E+00
  0.00000000E+00  0.00000000E+00  0.00000000E+00
  0.00000000E+00  0.00000000E+00  0.00000000E+00
  0.00000000E+00  0.00000000E+00  0.00000000E+00
  0.00000000E+00  0.00000000E+00  0.00000000E+00
  0.00000000E+00  0.00000000E+00  0.00000000E+00
  0.00000000E+00  0.00000000E+00  0.00000000E+00
  0.00000000E+00  0.00000000E+00  0.00000000E+00
  0.00000000E+00  0.00000000E+00  0.00000000E+00
  0.00000000E+00  0.00000000E+00  0.00000000E+00
  0.00000000E+00  0.00000000E+00  0.00000000E+00
  0.00000000E+00  0.00000000E+00  0.00000000E+00
  0.00000000E+00  0.00000000E+00  0.00000000E+00
  0.00000000E+00  0.00000000E+00  0.00000000E+00
  0.00000000E+00  0.00000000E+00  0.00000000E+00
  0.00000000E+00  0.00000000E+00  0.00000000E+00
  0.00000000E+00  0.00000000E+00  0.00000000E+00
  0.00000000E+00  0.00000000E+00  0.00000000E+00
  0.00000000E+00  0.00000000E+00  0.00000000E+00
  0.00000000E+00  0.00000000E+00  0.00000000E+00
  0.00000000E+00  0.00000000E+00  0.00000000E+00
  0.00000000E+00  0.00000000E+00  0.00000000E+00
  0.00000000E+00  0.00000000E+00  0.00000000E+00
  0.00000000E+00  0.00000000E+00  0.00000000E+00
  0.00000000E+00  0.00000000E+00  0.00000000E+00
  0.00000000E+00  0.00000000E+00  0.00000000E+00
  0.00000000E+00  0.00000000E+00  0.00000000E+00
  0.00000000E+00  0.00000000E+00  0.00000000E+00
  0.00000000E+00  0.00000000E+00  0.00000000E+00
  0.00000000E+00  0.00000000E+00  0.00000000E+00
  0.00000000E+00  0.00000000E+00  0.00000000E+00
  0.00000000E+00  0.00000000E+00  0.00000000E+00
  0.00000000E+00  0.00000000E+00  0.00000000E+00
  0.00000000E+00  0.00000000E+00  0.00000000E+00
  0.00000000E+00  0.00000000E+00  0.00000000E+00
  0.00000000E+00  0.00000000E+00  0.00000000E+00
  0.00000000E+00  0.00000000E+00  0.00000000E+00
  0.00000000E+00  0.00000000E+00  0.00000000E+00
  0.00000000E+00  0.00000000E+00  0.00000000E+00
  0.00000000E+00  0.00000000E+00  0.00000000E+00
  0.00000000E+00  0.00000000E+00  0.00000000E+00
  0.00000000E+00  0.00000000E+00  0.00000000E+00
  0.00000000E+00  0.00000000E+00  0.00000000E+00
  0.00000000E+00  0.00000000E+00  0.00000000E+00
  0.00000000E+00  0.00000000E+00  0.00000000E+00
  0.00000000E+00  0.00000000E+00  0.00000000E+00
  0.00000000E+00  0.00000000E+00  0.00000000E+00
  0.00000000E+00  0.00000000E+00  0.00000000E+00
  0.00000000E+00  0.00000000E+00  0.00000000E+00
  0.00000000E+00  0.00000000E+00  0.00000000E+00
  0.00000000E+00  0.00000000E+00  0.00000000E+00
  0.00000000E+00  0.00000000E+00  0.00000000E+00
  0.00000000E+00  0.00000000E+00  0.00000000E+00
  0.00000000E+00  0.00000000E+00  0.00000000E+00
  0.00000000E+00  0.00000000E+00  0.00000000E+00
  0.00000000E+00  0.00000000E+00  0.00000000E+00
  0.00000000E+00  0.00000000E+00  0.00000000E+00
  0.00000000E+00  0.00000000E+00  0.00000000E+00
  0.00000000E+00  0.00000000E+00  0.00000000E+00
  0.00000000E+00  0.00000000E+00  0.00000000E+00
  0.00000000E+00  0.00000000E+00  0.00000000E+00
  0.00000000E+00  0.00000000E+00  0.00000000E+00
  0.00000000E+00  0.00000000E+00  0.00000000E+00
  0.00000000E+00  0.00000000E+00  0.00000000E+00
