C H O Si                                
   1.00000000000000     
     9.2874599999999994    0.0000000000000000    0.0000000000000000
     0.0000000000000000   17.5126199999999983    0.0000000000000000
     0.0000000000000000    0.0000000000000000   58.0000000000000000
   C    H    O    Si
    72    57    28    72
Selective dynamics
Direct
  0.9960630476962634  0.0651299848127662  0.0595825094750154   T   T   T
  0.3295102277070777  0.0652194571315082  0.0596526988054529   T   T   T
  0.6626980345715718  0.0652231807235262  0.0596530002961762   T   T   T
  0.9961316030473740  0.3151943868480540  0.0595899886801059   T   T   T
  0.3294506420922929  0.3150792938217581  0.0596177991690630   T   T   T
  0.6628147918104648  0.3150918150841522  0.0596321188557521   T   T   T
  0.1629102283795375  0.1878080790265197  0.1384960329639229   T   T   T
  0.4962376366885095  0.1881194281191657  0.1387011022495621   T   T   T
  0.8297127161624759  0.1878496508157019  0.1385011111380254   T   T   T
  0.1629373379498981  0.4380002479966958  0.1385155964312972   T   T   T
  0.4963035403774488  0.4378130537058235  0.1383114404419629   T   T   T
  0.8297220432013679  0.4379540511933063  0.1385482950675803   T   T   T
  0.3300718306317462  0.0631810115499704  0.1657479590320007   T   T   T
  0.6624052261797103  0.0633457584282392  0.1657730797765752   T   T   T
  0.9962346766742247  0.0626955829454109  0.1655814672714652   T   T   T
  0.3288639242328725  0.3132107173195553  0.1656278024150726   T   T   T
  0.6633180493640386  0.3131349116539302  0.1657403850301082   T   T   T
  0.9962044567078203  0.3131418964111661  0.1656086228731816   T   T   T
  0.1636412725906281  0.1895367967082474  0.1907240015320313   T   T   T
  0.4961647229079242  0.1921405628336446  0.1916303191937069   T   T   T
  0.8303650509128726  0.1895021675772342  0.1907612734915152   T   T   T
  0.1625701048316932  0.4403855564143907  0.1910123186436576   T   T   T
  0.4966914550396311  0.4448492834112135  0.1888495707145642   T   T   T
  0.8310133832697023  0.4403489658777061  0.1910640775299230   T   T   T
  0.1625256587075125  0.1879927633488911  0.0849689164165427   T   T   T
  0.4959640471455914  0.1880329789634715  0.0850849324389633   T   T   T
  0.8292636070108299  0.1880024559117383  0.0849804797512315   T   T   T
  0.1624826196018702  0.4380841340349468  0.0849764476237533   T   T   T
  0.4957865470735550  0.4380477963499098  0.0848946879207011   T   T   T
  0.8291520276110358  0.4380613516791786  0.0850063127954983   T   T   T
  0.3291603454693998  0.0629495404212593  0.1122089131928300   T   T   T
  0.6623535246148380  0.0629462044534796  0.1122193322027606   T   T   T
  0.9957873382902667  0.0628439355213544  0.1121485688524547   T   T   T
  0.3290765333290067  0.3127907993990588  0.1121340536352821   T   T   T
  0.6625871835182223  0.3128069124565173  0.1121595999054854   T   T   T
  0.9958903013247687  0.3128728837570494  0.1121259110617944   T   T   T
  0.9961266736200018  0.5652600547064737  0.0596062976305739   T   T   T
  0.3294444396516164  0.5652791841715078  0.0596137590927553   T   T   T
  0.6627905768585232  0.5652469211156314  0.0596216356519009   T   T   T
  0.9961521539652856  0.8153111825570417  0.0596124335063986   T   T   T
  0.3295563113686243  0.8151961256509282  0.0596372866439554   T   T   T
  0.6627836156921315  0.8152019810140295  0.0596349671488676   T   T   T
  0.1630217332761189  0.6880225317428904  0.1385216475670823   T   T   T
  0.4964337524002916  0.6878372101277248  0.1385973076053530   T   T   T
  0.8297241852674689  0.6880044576611154  0.1385161809672395   T   T   T
  0.1633027379021521  0.9379257753634787  0.1385527611104349   T   T   T
  0.4964498340712438  0.9378488096497769  0.1385650719734680   T   T   T
  0.8294681958110016  0.9379272097206560  0.1385629523630612   T   T   T
  0.3291584431883759  0.5633281263933427  0.1656741584217616   T   T   T
  0.6632510394165512  0.5632051253721242  0.1656914660576108   T   T   T
  0.9962083094101367  0.5632906087331032  0.1656526584999078   T   T   T
  0.3297742975112029  0.8130822467074086  0.1657192314800584   T   T   T
  0.6630231190201884  0.8130603775097540  0.1657314967476675   T   T   T
  0.9963806916140387  0.8131568974118376  0.1656858618554218   T   T   T
  0.1636417155601644  0.6902452959784321  0.1910156924834517   T   T   T
  0.4970408926190243  0.6902967869850964  0.1911247588659923   T   T   T
  0.8304323665062934  0.6902842303140687  0.1910211020655818   T   T   T
  0.1637151160702394  0.9401958772271766  0.1910188266280531   T   T   T
  0.4969981088943761  0.9401825101625797  0.1910417026900109   T   T   T
  0.8302167406442644  0.9402558344773939  0.1910392307663953   T   T   T
  0.1626121350307911  0.6881238251762881  0.0850103905866868   T   T   T
  0.4959433740891130  0.6880634238865271  0.0850294631093952   T   T   T
  0.8292874699775433  0.6881159764318886  0.0850045845135485   T   T   T
  0.1625984250852851  0.9381049261050117  0.0850148253502701   T   T   T
  0.4958307947018020  0.9380830815310411  0.0850316435367203   T   T   T
  0.8291057760431033  0.9381033381050942  0.0850257263542598   T   T   T
  0.3291387446718777  0.5628838779509411  0.1121637067435458   T   T   T
  0.6624987458555353  0.5628534359308514  0.1121663242057356   T   T   T
  0.9958180093510449  0.5629551236009179  0.1121535367302065   T   T   T
  0.3293152142232548  0.8128572128793872  0.1121782316626866   T   T   T
  0.6625122454532453  0.8128579237562388  0.1121839281130177   T   T   T
  0.9958897207839704  0.8130043903857219  0.1121741245500479   T   T   T
  0.0794186730574460  0.1781133271245281  0.0257853582724415   T   T   T
  0.4123392836244355  0.1782190279003067  0.0259146423269511   T   T   T
  0.7452401612325448  0.1780770084371606  0.0258462105389928   T   T   T
  0.0797591494336601  0.4281884657849816  0.0257796328043776   T   T   T
  0.4124938946109384  0.4279612792718722  0.0257529940926016   T   T   T
  0.7450615267077961  0.4279790415893397  0.0258641635319669   T   T   T
  0.3277475172062589  0.0289993330548105  0.0441332249131497   T   T   T
  0.6604255062365849  0.0290034391481140  0.0441380705126998   T   T   T
  0.9940476482803584  0.0289762240899917  0.0440498443622840   T   T   T
  0.3272392745045998  0.2788630629036264  0.0441027775295249   T   T   T
  0.6610354650841822  0.2788395984352502  0.0441237372985659   T   T   T
  0.9941007172830029  0.2790256185451732  0.0440570092744607   T   T   T
  0.8338255232329537  0.4043551083654962  0.2066083524650783   T   T   T
  0.8331720372437080  0.1534635990844226  0.2063198993540309   T   T   T
  0.1657643231385719  0.1538205386032263  0.2063555160389201   T   T   T
  0.4986740808761106  0.1556538707194457  0.2070973951257397   T   T   T
  0.1651738328163391  0.4041254357431561  0.2064965147361070   T   T   T
  0.5399433526256729  0.4635646148755686  0.2608321418774781   T   T   T
  0.0820087297916467  0.0538036998744408  0.2246366210842416   T   T   T
  0.4149322401520441  0.0543192102164225  0.2246601157679037   T   T   T
  0.7473560592650368  0.0538584727735734  0.2248778762967535   T   T   T
  0.0862276053565001  0.3038199559643168  0.2234173916904415   T   T   T
  0.3671402095456727  0.2854116000122458  0.2301589859769667   T   T   T
  0.7758151212925913  0.2996530015939321  0.2229822880463827   T   T   T
  0.4910915063996836  0.2704061983367667  0.2659493279418698   T   T   T
  0.4692227287807169  0.2283510599280780  0.3004735837687699   T   T   T
  0.5171084886780075  0.3130777500624391  0.3081130030886973   T   T   T
  0.2900531557584992  0.1361203062815150  0.2955190091450811   T   T   T
  0.4390226791463816  0.1094437214823474  0.2867228668107059   T   T   T
  0.6391381128167675  0.3857318226303553  0.3348955477995118   T   T   T
  0.5050960143772800  0.4328928025382555  0.3277869924669786   T   T   T
  0.5027174905290261  0.4372778418089252  0.2691456018379532   T   T   T
  0.5632921739469435  0.2680531348672280  0.2409255203704273   T   T   T
  0.0792040940458074  0.6782328724527432  0.0258157388543942   T   T   T
  0.4123987303098724  0.6782594052938332  0.0258713728605714   T   T   T
  0.7454199286340271  0.6781643400584599  0.0258555821062150   T   T   T
  0.0798641485215348  0.9281870192769436  0.0257909514924535   T   T   T
  0.4123621918679626  0.9280698353574970  0.0258561513335023   T   T   T
  0.7451066723389028  0.9280337723244626  0.0258756872786452   T   T   T
  0.3274790061064220  0.5291144203672320  0.0440843095812939   T   T   T
  0.6607805634143745  0.5290929742952722  0.0440907358085329   T   T   T
  0.9941065416846245  0.5291021816916449  0.0440738124462762   T   T   T
  0.3275783903560578  0.7789625766213020  0.0441224545104458   T   T   T
  0.6607006225440251  0.7789677206949506  0.0441214632372473   T   T   T
  0.9941228358547082  0.7790309588797384  0.0441072529175420   T   T   T
  0.8323041976888518  0.9040840068949086  0.2065736331648795   T   T   T
  0.8328896902391068  0.6539309426354958  0.2065197525414290   T   T   T
  0.1657657759368118  0.6540605907047544  0.2065479827330056   T   T   T
  0.4991726234598274  0.6540672608150689  0.2066515476704382   T   T   T
  0.1656869820997520  0.9039876190225041  0.2065462171422401   T   T   T
  0.4994223252917327  0.9039602933735048  0.2065647718013384   T   T   T
  0.0817262978438636  0.5529136124662479  0.2249800316092398   T   T   T
  0.4160149439604909  0.5511815321785699  0.2250027239497271   T   T   T
  0.7474544531399678  0.5520472845635848  0.2252965550110906   T   T   T
  0.0816132263925405  0.8029657512592916  0.2249052097710557   T   T   T
  0.4127724491706576  0.8035255142486231  0.2250453984040331   T   T   T
  0.7505428825138285  0.8024028483985649  0.2247695067054566   T   T   T
  0.1721737293202279  0.1692751967439861  0.0332683534534418   T   T   T
  0.5052662946403689  0.1697166823541162  0.0333904864253092   T   T   T
  0.8383122202308980  0.1693953283289394  0.0332662752914202   T   T   T
  0.1724590288772677  0.4192625084454917  0.0332637473745407   T   T   T
  0.5055215361211514  0.4188815014156072  0.0331420447607819   T   T   T
  0.8381194263541049  0.4194653481501214  0.0332978649509986   T   T   T
  0.3218359231033633  0.0440175396577202  0.2174719261611003   T   T   T
  0.6546301532523872  0.0437688585624278  0.2175279222492124   T   T   T
  0.9888054161500612  0.0439006420469039  0.2174257134653194   T   T   T
  0.3099242995768852  0.3019148879474458  0.2162427205274781   T   T   T
  0.6757327770202290  0.2948980272630543  0.2176403756860468   T   T   T
  0.9898176372898653  0.2930183537329145  0.2172449914422920   T   T   T
  0.5202914702461301  0.2750605456697225  0.2954538056786236   T   T   T
  0.3909782042893671  0.1320185965324744  0.3000227686039807   T   T   T
  0.5374261251858851  0.3809871929471884  0.3309724246408611   T   T   T
  0.4769799500085589  0.2527234355408815  0.2498077801451305   T   T   T
  0.1720037299358183  0.6695555841670168  0.0333033286613483   T   T   T
  0.5053450462954389  0.6695347889270350  0.0333164383144510   T   T   T
  0.8384210952730388  0.6694425192906146  0.0332738395798749   T   T   T
  0.1725252495840791  0.9193766949090679  0.0332961724231849   T   T   T
  0.5052892945197212  0.9194444434055377  0.0333041890714572   T   T   T
  0.8381826996744797  0.9195071300693576  0.0333060253322762   T   T   T
  0.3223704349358326  0.5439674665084437  0.2176272752880549   T   T   T
  0.6550593436068387  0.5440820720134018  0.2176013589883507   T   T   T
  0.9890232131502587  0.5444838179348448  0.2174396231721546   T   T   T
  0.3206031963787820  0.7939149657917319  0.2174920178256765   T   T   T
  0.6567238165195297  0.7941345395500723  0.2175495120302745   T   T   T
  0.9887072771381876  0.7939471497248582  0.2174781302521162   T   T   T
  0.4962465274449831  0.1239482174623087  0.0588923543012972   T   T   T
  0.8295431872882646  0.1238456316506642  0.0588045766048405   T   T   T
  0.1629944982389950  0.3738518093371527  0.0588108977840996   T   T   T
  0.4962514122409830  0.3737334585222946  0.0587543750039981   T   T   T
  0.8294983264938538  0.3738495207692788  0.0588327334473547   T   T   T
  0.1628786623799885  0.1238141383725950  0.0588087948771013   T   T   T
  0.9963944629675446  0.0002652162551189  0.1387758384119387   T   T   T
  0.3300898929256068  0.0005154021791563  0.1388653660062533   T   T   T
  0.6627648359064380  0.0005449028049044  0.1388807038000578   T   T   T
  0.9963726117238805  0.2504043322518212  0.1387605621847474   T   T   T
  0.3293348063092157  0.2504728937510845  0.1388322111474330   T   T   T
  0.6631447023791276  0.2504070713324354  0.1388347347941759   T   T   T
  0.1629662097887273  0.1248338956993679  0.1650693788445296   T   T   T
  0.4960368554328062  0.1261108370687963  0.1655256668947150   T   T   T
  0.8297171370977922  0.1248218764140705  0.1650468516141561   T   T   T
  0.1627606668570709  0.3754802170742707  0.1651415520579751   T   T   T
  0.4959982807665389  0.3745646673988540  0.1651081083454717   T   T   T
  0.8297767825019414  0.3754409827652396  0.1651789459903910   T   T   T
  0.3287991018721659  0.4986871204275403  0.1920580975505773   T   T   T
  0.6646148680251956  0.4986698642769216  0.1921091787508293   T   T   T
  0.9969074184805132  0.4993483336902490  0.1918373701634790   T   T   T
  0.3276940617192009  0.2507750733828434  0.1921116429783889   T   T   T
  0.9970939368527429  0.2479741113397249  0.1915388247629352   T   T   T
  0.6652279043759931  0.2493310759153992  0.1919433170034091   T   T   T
  0.9958903168693921  0.0002330117535198  0.0854979893082629   T   T   T
  0.3293002676202011  0.0002928999034756  0.0855433066010114   T   T   T
  0.6624872488397332  0.0002809582582645  0.0855469625789335   T   T   T
  0.9959924888464894  0.2502068486103389  0.0854743003774910   T   T   T
  0.3292754537990366  0.2501331059177730  0.0855020388431480   T   T   T
  0.6627375504976285  0.2501593749905328  0.0855164105372196   T   T   T
  0.1624369017991241  0.1254282205466545  0.1118586826265909   T   T   T
  0.4958103632774376  0.1255305131320258  0.1119963954227517   T   T   T
  0.8291665914044305  0.1254170027473742  0.1118533994338315   T   T   T
  0.1625482250364608  0.3754479443633455  0.1118603405117413   T   T   T
  0.4957715884831460  0.3752170141390057  0.1117343254298878   T   T   T
  0.8292377350298140  0.3754311596326710  0.1118809661675049   T   T   T
  0.4962773711317813  0.6239177701654735  0.0588444843444841   T   T   T
  0.8295769443085227  0.6239421960672031  0.0588223109158415   T   T   T
  0.1630567735361248  0.8739145279376309  0.0588357898217117   T   T   T
  0.4962721805973550  0.8739059345718118  0.0588494204212745   T   T   T
  0.8294968965803802  0.8739205123998178  0.0588416935304027   T   T   T
  0.1629110428948887  0.6239529517081481  0.0588275778779807   T   T   T
  0.9963610327270992  0.5005450945636666  0.1388028491884363   T   T   T
  0.3296984400253171  0.5004176492318603  0.1388360941112892   T   T   T
  0.6629274197085567  0.5003727872974257  0.1388396452735164   T   T   T
  0.9964186475647652  0.7505547039509604  0.1388120783159505   T   T   T
  0.3298689392452976  0.7504312246514911  0.1388446143783472   T   T   T
  0.6630240860485845  0.7504317559010063  0.1388470362830388   T   T   T
  0.1626264258331323  0.6254595250029109  0.1651612419458267   T   T   T
  0.4962902952959573  0.6251710921607686  0.1652642214055217   T   T   T
  0.8299066624524698  0.6254562649932386  0.1651595378495392   T   T   T
  0.1631748807302243  0.8752533516286995  0.1651720573792503   T   T   T
  0.4964308570364759  0.8752062516588239  0.1651955922907618   T   T   T
  0.8296296175376385  0.8752658225644422  0.1651892787232304   T   T   T
  0.3302484298704766  0.9988391123100807  0.1918807055071956   T   T   T
  0.6634912471022792  0.9988821151412310  0.1918919065050163   T   T   T
  0.9969127768727620  0.9988009582851619  0.1918141943962549   T   T   T
  0.3301781734278776  0.7488871346314926  0.1918918898645045   T   T   T
  0.9970059405533658  0.7489134027597267  0.1918510420587621   T   T   T
  0.6637268913279282  0.7489237939571002  0.1919278843391516   T   T   T
  0.9958660422267439  0.5002564241868148  0.0854944279917879   T   T   T
  0.3291933317646514  0.5002541796802032  0.0854896790360374   T   T   T
  0.6625111283743302  0.5002119410310421  0.0854951819778625   T   T   T
  0.9960216471841173  0.7503347877999557  0.0855105954382379   T   T   T
  0.3294049807418943  0.7502559077319818  0.0855184391082139   T   T   T
  0.6626391362482890  0.7502446175870076  0.0855194974312602   T   T   T
  0.1625456172288691  0.6254826596143302  0.1118726281342538   T   T   T
  0.4958622097027818  0.6254020661120170  0.1119070110501136   T   T   T
  0.8291500324721347  0.6254775861515303  0.1118658890540144   T   T   T
  0.1627365973800439  0.8754614041905596  0.1118886024333368   T   T   T
  0.4959738307336475  0.8754371127346595  0.1118971003970838   T   T   T
  0.8290601160653905  0.8754897897701553  0.1118932300945150   T   T   T
 
  0.00000000E+00  0.00000000E+00  0.00000000E+00
  0.00000000E+00  0.00000000E+00  0.00000000E+00
  0.00000000E+00  0.00000000E+00  0.00000000E+00
  0.00000000E+00  0.00000000E+00  0.00000000E+00
  0.00000000E+00  0.00000000E+00  0.00000000E+00
  0.00000000E+00  0.00000000E+00  0.00000000E+00
  0.00000000E+00  0.00000000E+00  0.00000000E+00
  0.00000000E+00  0.00000000E+00  0.00000000E+00
  0.00000000E+00  0.00000000E+00  0.00000000E+00
  0.00000000E+00  0.00000000E+00  0.00000000E+00
  0.00000000E+00  0.00000000E+00  0.00000000E+00
  0.00000000E+00  0.00000000E+00  0.00000000E+00
  0.00000000E+00  0.00000000E+00  0.00000000E+00
  0.00000000E+00  0.00000000E+00  0.00000000E+00
  0.00000000E+00  0.00000000E+00  0.00000000E+00
  0.00000000E+00  0.00000000E+00  0.00000000E+00
  0.00000000E+00  0.00000000E+00  0.00000000E+00
  0.00000000E+00  0.00000000E+00  0.00000000E+00
  0.00000000E+00  0.00000000E+00  0.00000000E+00
  0.00000000E+00  0.00000000E+00  0.00000000E+00
  0.00000000E+00  0.00000000E+00  0.00000000E+00
  0.00000000E+00  0.00000000E+00  0.00000000E+00
  0.00000000E+00  0.00000000E+00  0.00000000E+00
  0.00000000E+00  0.00000000E+00  0.00000000E+00
  0.00000000E+00  0.00000000E+00  0.00000000E+00
  0.00000000E+00  0.00000000E+00  0.00000000E+00
  0.00000000E+00  0.00000000E+00  0.00000000E+00
  0.00000000E+00  0.00000000E+00  0.00000000E+00
  0.00000000E+00  0.00000000E+00  0.00000000E+00
  0.00000000E+00  0.00000000E+00  0.00000000E+00
  0.00000000E+00  0.00000000E+00  0.00000000E+00
  0.00000000E+00  0.00000000E+00  0.00000000E+00
  0.00000000E+00  0.00000000E+00  0.00000000E+00
  0.00000000E+00  0.00000000E+00  0.00000000E+00
  0.00000000E+00  0.00000000E+00  0.00000000E+00
  0.00000000E+00  0.00000000E+00  0.00000000E+00
  0.00000000E+00  0.00000000E+00  0.00000000E+00
  0.00000000E+00  0.00000000E+00  0.00000000E+00
  0.00000000E+00  0.00000000E+00  0.00000000E+00
  0.00000000E+00  0.00000000E+00  0.00000000E+00
  0.00000000E+00  0.00000000E+00  0.00000000E+00
  0.00000000E+00  0.00000000E+00  0.00000000E+00
  0.00000000E+00  0.00000000E+00  0.00000000E+00
  0.00000000E+00  0.00000000E+00  0.00000000E+00
  0.00000000E+00  0.00000000E+00  0.00000000E+00
  0.00000000E+00  0.00000000E+00  0.00000000E+00
  0.00000000E+00  0.00000000E+00  0.00000000E+00
  0.00000000E+00  0.00000000E+00  0.00000000E+00
  0.00000000E+00  0.00000000E+00  0.00000000E+00
  0.00000000E+00  0.00000000E+00  0.00000000E+00
  0.00000000E+00  0.00000000E+00  0.00000000E+00
  0.00000000E+00  0.00000000E+00  0.00000000E+00
  0.00000000E+00  0.00000000E+00  0.00000000E+00
  0.00000000E+00  0.00000000E+00  0.00000000E+00
  0.00000000E+00  0.00000000E+00  0.00000000E+00
  0.00000000E+00  0.00000000E+00  0.00000000E+00
  0.00000000E+00  0.00000000E+00  0.00000000E+00
  0.00000000E+00  0.00000000E+00  0.00000000E+00
  0.00000000E+00  0.00000000E+00  0.00000000E+00
  0.00000000E+00  0.00000000E+00  0.00000000E+00
  0.00000000E+00  0.00000000E+00  0.00000000E+00
  0.00000000E+00  0.00000000E+00  0.00000000E+00
  0.00000000E+00  0.00000000E+00  0.00000000E+00
  0.00000000E+00  0.00000000E+00  0.00000000E+00
  0.00000000E+00  0.00000000E+00  0.00000000E+00
  0.00000000E+00  0.00000000E+00  0.00000000E+00
  0.00000000E+00  0.00000000E+00  0.00000000E+00
  0.00000000E+00  0.00000000E+00  0.00000000E+00
  0.00000000E+00  0.00000000E+00  0.00000000E+00
  0.00000000E+00  0.00000000E+00  0.00000000E+00
  0.00000000E+00  0.00000000E+00  0.00000000E+00
  0.00000000E+00  0.00000000E+00  0.00000000E+00
  0.00000000E+00  0.00000000E+00  0.00000000E+00
  0.00000000E+00  0.00000000E+00  0.00000000E+00
  0.00000000E+00  0.00000000E+00  0.00000000E+00
  0.00000000E+00  0.00000000E+00  0.00000000E+00
  0.00000000E+00  0.00000000E+00  0.00000000E+00
  0.00000000E+00  0.00000000E+00  0.00000000E+00
  0.00000000E+00  0.00000000E+00  0.00000000E+00
  0.00000000E+00  0.00000000E+00  0.00000000E+00
  0.00000000E+00  0.00000000E+00  0.00000000E+00
  0.00000000E+00  0.00000000E+00  0.00000000E+00
  0.00000000E+00  0.00000000E+00  0.00000000E+00
  0.00000000E+00  0.00000000E+00  0.00000000E+00
  0.00000000E+00  0.00000000E+00  0.00000000E+00
  0.00000000E+00  0.00000000E+00  0.00000000E+00
  0.00000000E+00  0.00000000E+00  0.00000000E+00
  0.00000000E+00  0.00000000E+00  0.00000000E+00
  0.00000000E+00  0.00000000E+00  0.00000000E+00
  0.00000000E+00  0.00000000E+00  0.00000000E+00
  0.00000000E+00  0.00000000E+00  0.00000000E+00
  0.00000000E+00  0.00000000E+00  0.00000000E+00
  0.00000000E+00  0.00000000E+00  0.00000000E+00
  0.00000000E+00  0.00000000E+00  0.00000000E+00
  0.00000000E+00  0.00000000E+00  0.00000000E+00
  0.00000000E+00  0.00000000E+00  0.00000000E+00
  0.00000000E+00  0.00000000E+00  0.00000000E+00
  0.00000000E+00  0.00000000E+00  0.00000000E+00
  0.00000000E+00  0.00000000E+00  0.00000000E+00
  0.00000000E+00  0.00000000E+00  0.00000000E+00
  0.00000000E+00  0.00000000E+00  0.00000000E+00
  0.00000000E+00  0.00000000E+00  0.00000000E+00
  0.00000000E+00  0.00000000E+00  0.00000000E+00
  0.00000000E+00  0.00000000E+00  0.00000000E+00
  0.00000000E+00  0.00000000E+00  0.00000000E+00
  0.00000000E+00  0.00000000E+00  0.00000000E+00
  0.00000000E+00  0.00000000E+00  0.00000000E+00
  0.00000000E+00  0.00000000E+00  0.00000000E+00
  0.00000000E+00  0.00000000E+00  0.00000000E+00
  0.00000000E+00  0.00000000E+00  0.00000000E+00
  0.00000000E+00  0.00000000E+00  0.00000000E+00
  0.00000000E+00  0.00000000E+00  0.00000000E+00
  0.00000000E+00  0.00000000E+00  0.00000000E+00
  0.00000000E+00  0.00000000E+00  0.00000000E+00
  0.00000000E+00  0.00000000E+00  0.00000000E+00
  0.00000000E+00  0.00000000E+00  0.00000000E+00
  0.00000000E+00  0.00000000E+00  0.00000000E+00
  0.00000000E+00  0.00000000E+00  0.00000000E+00
  0.00000000E+00  0.00000000E+00  0.00000000E+00
  0.00000000E+00  0.00000000E+00  0.00000000E+00
  0.00000000E+00  0.00000000E+00  0.00000000E+00
  0.00000000E+00  0.00000000E+00  0.00000000E+00
  0.00000000E+00  0.00000000E+00  0.00000000E+00
  0.00000000E+00  0.00000000E+00  0.00000000E+00
  0.00000000E+00  0.00000000E+00  0.00000000E+00
  0.00000000E+00  0.00000000E+00  0.00000000E+00
  0.00000000E+00  0.00000000E+00  0.00000000E+00
  0.00000000E+00  0.00000000E+00  0.00000000E+00
  0.00000000E+00  0.00000000E+00  0.00000000E+00
  0.00000000E+00  0.00000000E+00  0.00000000E+00
  0.00000000E+00  0.00000000E+00  0.00000000E+00
  0.00000000E+00  0.00000000E+00  0.00000000E+00
  0.00000000E+00  0.00000000E+00  0.00000000E+00
  0.00000000E+00  0.00000000E+00  0.00000000E+00
  0.00000000E+00  0.00000000E+00  0.00000000E+00
  0.00000000E+00  0.00000000E+00  0.00000000E+00
  0.00000000E+00  0.00000000E+00  0.00000000E+00
  0.00000000E+00  0.00000000E+00  0.00000000E+00
  0.00000000E+00  0.00000000E+00  0.00000000E+00
  0.00000000E+00  0.00000000E+00  0.00000000E+00
  0.00000000E+00  0.00000000E+00  0.00000000E+00
  0.00000000E+00  0.00000000E+00  0.00000000E+00
  0.00000000E+00  0.00000000E+00  0.00000000E+00
  0.00000000E+00  0.00000000E+00  0.00000000E+00
  0.00000000E+00  0.00000000E+00  0.00000000E+00
  0.00000000E+00  0.00000000E+00  0.00000000E+00
  0.00000000E+00  0.00000000E+00  0.00000000E+00
  0.00000000E+00  0.00000000E+00  0.00000000E+00
  0.00000000E+00  0.00000000E+00  0.00000000E+00
  0.00000000E+00  0.00000000E+00  0.00000000E+00
  0.00000000E+00  0.00000000E+00  0.00000000E+00
  0.00000000E+00  0.00000000E+00  0.00000000E+00
  0.00000000E+00  0.00000000E+00  0.00000000E+00
  0.00000000E+00  0.00000000E+00  0.00000000E+00
  0.00000000E+00  0.00000000E+00  0.00000000E+00
  0.00000000E+00  0.00000000E+00  0.00000000E+00
  0.00000000E+00  0.00000000E+00  0.00000000E+00
  0.00000000E+00  0.00000000E+00  0.00000000E+00
  0.00000000E+00  0.00000000E+00  0.00000000E+00
  0.00000000E+00  0.00000000E+00  0.00000000E+00
  0.00000000E+00  0.00000000E+00  0.00000000E+00
  0.00000000E+00  0.00000000E+00  0.00000000E+00
  0.00000000E+00  0.00000000E+00  0.00000000E+00
  0.00000000E+00  0.00000000E+00  0.00000000E+00
  0.00000000E+00  0.00000000E+00  0.00000000E+00
  0.00000000E+00  0.00000000E+00  0.00000000E+00
  0.00000000E+00  0.00000000E+00  0.00000000E+00
  0.00000000E+00  0.00000000E+00  0.00000000E+00
  0.00000000E+00  0.00000000E+00  0.00000000E+00
  0.00000000E+00  0.00000000E+00  0.00000000E+00
  0.00000000E+00  0.00000000E+00  0.00000000E+00
  0.00000000E+00  0.00000000E+00  0.00000000E+00
  0.00000000E+00  0.00000000E+00  0.00000000E+00
  0.00000000E+00  0.00000000E+00  0.00000000E+00
  0.00000000E+00  0.00000000E+00  0.00000000E+00
  0.00000000E+00  0.00000000E+00  0.00000000E+00
  0.00000000E+00  0.00000000E+00  0.00000000E+00
  0.00000000E+00  0.00000000E+00  0.00000000E+00
  0.00000000E+00  0.00000000E+00  0.00000000E+00
  0.00000000E+00  0.00000000E+00  0.00000000E+00
  0.00000000E+00  0.00000000E+00  0.00000000E+00
  0.00000000E+00  0.00000000E+00  0.00000000E+00
  0.00000000E+00  0.00000000E+00  0.00000000E+00
  0.00000000E+00  0.00000000E+00  0.00000000E+00
  0.00000000E+00  0.00000000E+00  0.00000000E+00
  0.00000000E+00  0.00000000E+00  0.00000000E+00
  0.00000000E+00  0.00000000E+00  0.00000000E+00
  0.00000000E+00  0.00000000E+00  0.00000000E+00
  0.00000000E+00  0.00000000E+00  0.00000000E+00
  0.00000000E+00  0.00000000E+00  0.00000000E+00
  0.00000000E+00  0.00000000E+00  0.00000000E+00
  0.00000000E+00  0.00000000E+00  0.00000000E+00
  0.00000000E+00  0.00000000E+00  0.00000000E+00
  0.00000000E+00  0.00000000E+00  0.00000000E+00
  0.00000000E+00  0.00000000E+00  0.00000000E+00
  0.00000000E+00  0.00000000E+00  0.00000000E+00
  0.00000000E+00  0.00000000E+00  0.00000000E+00
  0.00000000E+00  0.00000000E+00  0.00000000E+00
  0.00000000E+00  0.00000000E+00  0.00000000E+00
  0.00000000E+00  0.00000000E+00  0.00000000E+00
  0.00000000E+00  0.00000000E+00  0.00000000E+00
  0.00000000E+00  0.00000000E+00  0.00000000E+00
  0.00000000E+00  0.00000000E+00  0.00000000E+00
  0.00000000E+00  0.00000000E+00  0.00000000E+00
  0.00000000E+00  0.00000000E+00  0.00000000E+00
  0.00000000E+00  0.00000000E+00  0.00000000E+00
  0.00000000E+00  0.00000000E+00  0.00000000E+00
  0.00000000E+00  0.00000000E+00  0.00000000E+00
  0.00000000E+00  0.00000000E+00  0.00000000E+00
  0.00000000E+00  0.00000000E+00  0.00000000E+00
  0.00000000E+00  0.00000000E+00  0.00000000E+00
  0.00000000E+00  0.00000000E+00  0.00000000E+00
  0.00000000E+00  0.00000000E+00  0.00000000E+00
  0.00000000E+00  0.00000000E+00  0.00000000E+00
  0.00000000E+00  0.00000000E+00  0.00000000E+00
  0.00000000E+00  0.00000000E+00  0.00000000E+00
  0.00000000E+00  0.00000000E+00  0.00000000E+00
  0.00000000E+00  0.00000000E+00  0.00000000E+00
  0.00000000E+00  0.00000000E+00  0.00000000E+00
  0.00000000E+00  0.00000000E+00  0.00000000E+00
  0.00000000E+00  0.00000000E+00  0.00000000E+00
  0.00000000E+00  0.00000000E+00  0.00000000E+00
  0.00000000E+00  0.00000000E+00  0.00000000E+00
  0.00000000E+00  0.00000000E+00  0.00000000E+00
  0.00000000E+00  0.00000000E+00  0.00000000E+00
  0.00000000E+00  0.00000000E+00  0.00000000E+00
  0.00000000E+00  0.00000000E+00  0.00000000E+00
  0.00000000E+00  0.00000000E+00  0.00000000E+00
  0.00000000E+00  0.00000000E+00  0.00000000E+00
