C H O Si                                
   1.00000000000000     
     9.2874599999999994    0.0000000000000000    0.0000000000000000
     0.0000000000000000   17.5126199999999983    0.0000000000000000
     0.0000000000000000    0.0000000000000000   58.0000000000000000
   C    H    O    Si
    72    57    28    72
Selective dynamics
Direct
  0.9935656352326931  0.0631535141360030  0.0604504953439193   T   T   T
  0.3269094940710710  0.0631641046533829  0.0605432254586106   T   T   T
  0.6602208413233677  0.0631889448841734  0.0605169046720502   T   T   T
  0.9933846520614241  0.3132154003178955  0.0604515640365008   T   T   T
  0.3267569788650911  0.3131355164552831  0.0605499365835996   T   T   T
  0.6601150411866680  0.3131852716439827  0.0605080043787749   T   T   T
  0.1599783666629140  0.1860310271879399  0.1393893140045032   T   T   T
  0.4932123877590101  0.1863588301135405  0.1396383221761640   T   T   T
  0.8266719542252688  0.1860086068997701  0.1393273287547550   T   T   T
  0.1598391635452719  0.4361761840210252  0.1394394121097491   T   T   T
  0.4931888457631587  0.4360834514871412  0.1394819720513051   T   T   T
  0.8266007150918192  0.4361697439286348  0.1394266100943021   T   T   T
  0.3272369347830475  0.0613989635731034  0.1667159587231659   T   T   T
  0.6595656728073174  0.0613874837696231  0.1666845259490581   T   T   T
  0.9936277620451220  0.0607040402262483  0.1664653159916288   T   T   T
  0.3264283128406505  0.3112829071544173  0.1667832322384282   T   T   T
  0.6603914659493622  0.3113589138120191  0.1666573332459362   T   T   T
  0.9934350093583845  0.3112267363388675  0.1665196427538040   T   T   T
  0.1602625447554531  0.1872362542896225  0.1917214260144881   T   T   T
  0.4936778227974852  0.1899518252207121  0.1927510099002482   T   T   T
  0.8275653814875638  0.1868499282306013  0.1915427534222022   T   T   T
  0.1596833007665521  0.4384426301219530  0.1919889698803866   T   T   T
  0.4932324850326166  0.4380175035580796  0.1920260756084290   T   T   T
  0.8267862236828657  0.4384829883838386  0.1919410524086616   T   T   T
  0.1599138176533817  0.1862539118704991  0.0858129911600403   T   T   T
  0.4931983307517211  0.1862785959731905  0.0859492217263383   T   T   T
  0.8265295365277012  0.1862362149008414  0.0857712972615671   T   T   T
  0.1599591937019830  0.4362521370827246  0.0858424304108267   T   T   T
  0.4932332841640884  0.4362296459774524  0.0858825745790332   T   T   T
  0.8265452683192677  0.4362390300195894  0.0858359931068826   T   T   T
  0.3265630186908257  0.0611667210925461  0.1130904952797735   T   T   T
  0.6597532521730657  0.0611728823440545  0.1130790546998037   T   T   T
  0.9931978407958257  0.0610647067028233  0.1130055872113923   T   T   T
  0.3264886843370874  0.3111274187936474  0.1131359231255890   T   T   T
  0.6599393087059038  0.3111433442574464  0.1130887266176593   T   T   T
  0.9931966280076862  0.3111395384542575  0.1129998002452151   T   T   T
  0.9936024300116153  0.5631237347488516  0.0605006696486382   T   T   T
  0.3268776880884307  0.5631536377750451  0.0605170971498845   T   T   T
  0.6603207964183597  0.5631519089114401  0.0605082680157503   T   T   T
  0.9934237178729850  0.8131801809219590  0.0604972424410359   T   T   T
  0.3267423673765021  0.8131256568903146  0.0605019389124364   T   T   T
  0.6601129339767777  0.8131691679687509  0.0604891235153210   T   T   T
  0.1598356976743484  0.6861822303511114  0.1394323032816124   T   T   T
  0.4931098899233358  0.6861670052954517  0.1394441241317374   T   T   T
  0.8264149985070888  0.6861720067661796  0.1394285305157313   T   T   T
  0.1602576971173466  0.9361225181475029  0.1394404592470137   T   T   T
  0.4931731384809206  0.9360903546078251  0.1394471493044536   T   T   T
  0.8263256342244116  0.9361542432556970  0.1394349891604601   T   T   T
  0.3264825198138579  0.5612516295202992  0.1666152639024178   T   T   T
  0.6597400787967890  0.5612470799417217  0.1666167367008293   T   T   T
  0.9932070489780500  0.5614515132969242  0.1665892879696488   T   T   T
  0.3265673612011570  0.8112023406754566  0.1666356921162850   T   T   T
  0.6599739955843587  0.8112438625687733  0.1666134930081658   T   T   T
  0.9932667142290548  0.8113031465273536  0.1666114763766932   T   T   T
  0.1601099566137756  0.6881922485983963  0.1919987191763252   T   T   T
  0.4933945448079847  0.6881962592720096  0.1920169326651782   T   T   T
  0.8265928725590040  0.6881830380611886  0.1919818800400997   T   T   T
  0.1603032703496866  0.9381393685792290  0.1920121672940832   T   T   T
  0.4935087030721531  0.9380879390428997  0.1920241050195978   T   T   T
  0.8267511002486361  0.9381407452850701  0.1919864041426438   T   T   T
  0.1598893558906742  0.6862747300302281  0.0858452929594040   T   T   T
  0.4932119100036536  0.6862214815072749  0.0858521970942283   T   T   T
  0.8265195523764991  0.6862634534265153  0.0858403118330932   T   T   T
  0.1600052671525050  0.9362429233079416  0.0858286633614264   T   T   T
  0.4932100115090181  0.9362323487896829  0.0858558866642063   T   T   T
  0.8264758506335786  0.9362560730345082  0.0858302586579142   T   T   T
  0.3264587243736596  0.5611356617027573  0.1130651162392088   T   T   T
  0.6598213283684449  0.5611349896093641  0.1130650517708411   T   T   T
  0.9931487114896178  0.5611721915897955  0.1130520982784517   T   T   T
  0.3265336722055948  0.8111122191225840  0.1130514977028095   T   T   T
  0.6597907273828746  0.8111378703355442  0.1130466099799161   T   T   T
  0.9931652564187534  0.8112173500328104  0.1130624202340420   T   T   T
  0.0733039190288493  0.1778704912710622  0.0276660784303015   T   T   T
  0.4055914769903935  0.1778630266074383  0.0278334581806146   T   T   T
  0.7388230745265761  0.1778023388374167  0.0276932979854551   T   T   T
  0.0730639261222733  0.4279165433275294  0.0276872000208302   T   T   T
  0.4051806527554685  0.4277533977600979  0.0277734624461296   T   T   T
  0.7382347611048394  0.4277876684775332  0.0277411979277519   T   T   T
  0.3245748474498169  0.0265320618479167  0.0451122204359657   T   T   T
  0.6571046887331364  0.0265261241081637  0.0450959649727405   T   T   T
  0.9910158750417212  0.0265506570117528  0.0450173603409072   T   T   T
  0.3240644230407308  0.2764258552963458  0.0451376911687757   T   T   T
  0.6573122977466985  0.2764842113668755  0.0450912112479979   T   T   T
  0.9907380993867426  0.2766175100324677  0.0450117679445769   T   T   T
  0.8285863415845853  0.4021747178192875  0.2074258290854964   T   T   T
  0.8302146404836235  0.1504915612887850  0.2070254962794532   T   T   T
  0.1617770408086641  0.1509362102439687  0.2072241555873372   T   T   T
  0.4966708363148616  0.1527214454170509  0.2080556813506093   T   T   T
  0.1617065859306140  0.4017052482795309  0.2073959787157154   T   T   T
  0.4939323048504144  0.4014962062734714  0.2074928703668876   T   T   T
  0.0817272992391251  0.0527635448893540  0.2247355373337873   T   T   T
  0.4154620080975010  0.0523031374606905  0.2248666428330776   T   T   T
  0.7488926765740921  0.0524960178100977  0.2247896283906540   T   T   T
  0.0800797766626793  0.3011054740616979  0.2243757171629572   T   T   T
  0.3779430595733316  0.3104149745832911  0.2283223636800762   T   T   T
  0.7823573065023001  0.2954145159134531  0.2228455107555729   T   T   T
  0.5474726781710697  0.3057761344497454  0.2738276342641374   T   T   T
  0.4932110365884064  0.2380303416600988  0.2932986464441146   T   T   T
  0.5721611642218293  0.3198363447707082  0.3030229041748920   T   T   T
  0.3146533601158288  0.1942849101551072  0.3097520723999397   T   T   T
  0.4221160455165769  0.1301008321216452  0.3022749453006299   T   T   T
  0.6505263309660527  0.3661872397413433  0.3335634066522237   T   T   T
  0.4846576104382412  0.3775243745865950  0.3308726579130500   T   T   T
  0.5189123744386344  0.3953742167832070  0.2521469505698817   T   T   T
  0.5863229220664080  0.3231402274181229  0.2386362792159345   T   T   T
  0.0728809234450542  0.6779019337578421  0.0277254907327221   T   T   T
  0.4059307845687408  0.6778357486523686  0.0277477225119661   T   T   T
  0.7391259834208465  0.6778236517725059  0.0277485242474081   T   T   T
  0.0725935820914782  0.9278617242484116  0.0277166531416824   T   T   T
  0.4052671834114418  0.9277694835806048  0.0277536923653114   T   T   T
  0.7386399949602738  0.9278438977225449  0.0277364569141682   T   T   T
  0.3242279457825228  0.5265128097126046  0.0450857314899658   T   T   T
  0.6576156524275237  0.5265146846202530  0.0450808395458373   T   T   T
  0.9908908200557749  0.5265209251095490  0.0450667133252753   T   T   T
  0.3241017487265543  0.7764836309208581  0.0450741074231182   T   T   T
  0.6573202859845872  0.7765026110739041  0.0450693610462646   T   T   T
  0.9907100396679560  0.7765200989990120  0.0450745698580432   T   T   T
  0.8291554814055928  0.9014861273219331  0.2074178260738773   T   T   T
  0.8290429891581583  0.6515296454168350  0.2074142587289573   T   T   T
  0.1623346424964216  0.6515210784059655  0.2074236921501402   T   T   T
  0.4958479804704531  0.6516030084264010  0.2074577566410188   T   T   T
  0.1624541250141590  0.9014740578597852  0.2074396220791522   T   T   T
  0.4959936883391999  0.9014139460553781  0.2074470733103013   T   T   T
  0.0808288971158856  0.5537013657210129  0.2247322524963981   T   T   T
  0.4148763283133927  0.5540872485007022  0.2245767121601988   T   T   T
  0.7481989955322301  0.5535575031417350  0.2246607335793709   T   T   T
  0.0816753417437706  0.8028056999402899  0.2247519969018150   T   T   T
  0.4144259306981077  0.8031069692013143  0.2248185998855894   T   T   T
  0.7492596870687334  0.8025639673090247  0.2246853252028009   T   T   T
  0.1685850481811336  0.1657601837919802  0.0338047949914774   T   T   T
  0.5011909431332998  0.1659981684772147  0.0339009291316466   T   T   T
  0.8343375527781864  0.1656257455868971  0.0337281155760224   T   T   T
  0.1683663806104522  0.4157681709065102  0.0338148958046631   T   T   T
  0.5008077260654841  0.4159077074470897  0.0338328442381446   T   T   T
  0.8338886108844863  0.4159744937176259  0.0337948024605709   T   T   T
  0.3197853366221994  0.0410540270809460  0.2187205960935910   T   T   T
  0.6531469321311493  0.0411110308906771  0.2186867679265597   T   T   T
  0.9862573709229731  0.0412360394926780  0.2185731324413152   T   T   T
  0.2988738040499212  0.2910954685126838  0.2187338476842462   T   T   T
  0.6793683758481506  0.2914073429995083  0.2187060807756508   T   T   T
  0.9837487793550129  0.2890636819893985  0.2184269986952817   T   T   T
  0.5709727634462894  0.2797071606798816  0.2897359477741461   T   T   T
  0.3811152751922237  0.1789895303417780  0.2975674026842003   T   T   T
  0.5752394907013687  0.3774357572550954  0.3223243041663419   T   T   T
  0.5139845204664647  0.3398382793809004  0.2509826013829439   T   T   T
  0.1682611242986065  0.6657756043226544  0.0338253462036393   T   T   T
  0.5014331351497432  0.6657537578110534  0.0338095226921102   T   T   T
  0.8346409308295889  0.6657717725988513  0.0338096082379948   T   T   T
  0.1679989374970103  0.9157522607919567  0.0338047405644810   T   T   T
  0.5008739444656986  0.9158920916829726  0.0338133915081585   T   T   T
  0.8342016502809394  0.9158160993025869  0.0337885490587167   T   T   T
  0.3194558744379101  0.5410837971338137  0.2186635927436850   T   T   T
  0.6526748308718380  0.5411452754158812  0.2186540488820561   T   T   T
  0.9855054682167760  0.5412139938340569  0.2186772336145496   T   T   T
  0.3190932265480705  0.7909984852394526  0.2187045090120178   T   T   T
  0.6533760979727505  0.7911648920035553  0.2186454154876003   T   T   T
  0.9861076611292022  0.7910364115607322  0.2186592358634883   T   T   T
  0.4937295159716309  0.1217628067912598  0.0600653259377627   T   T   T
  0.8270190323357445  0.1217093435318543  0.0599242604834272   T   T   T
  0.1603526250032039  0.3716963391765773  0.0599961464533603   T   T   T
  0.4935946889579224  0.3717185339732224  0.0600073781616051   T   T   T
  0.8268895899338484  0.3717776940656012  0.0599689761714094   T   T   T
  0.1604662793481711  0.1216864718171626  0.0599838903851384   T   T   T
  0.9932010106451508  0.4985293018726407  0.1396298191311384   T   T   T
  0.3264944422597827  0.4984553119096626  0.1396424593710602   T   T   T
  0.6597907921365902  0.4984502038843594  0.1396431475636596   T   T   T
  0.9932681633803240  0.2483454384248991  0.1395324383887207   T   T   T
  0.3263894164287985  0.2484946640858398  0.1397476315993103   T   T   T
  0.6600655471147785  0.2483970158012331  0.1396399440476069   T   T   T
  0.1600521898557158  0.1228153274683151  0.1657536839291151   T   T   T
  0.4933418526499972  0.1240437590761330  0.1662508486749610   T   T   T
  0.8269724894766334  0.1225105200756455  0.1656210777585217   T   T   T
  0.1598648271453864  0.3734166655227921  0.1659097944831056   T   T   T
  0.4931515031146118  0.3731553946491521  0.1659337608803355   T   T   T
  0.8270011222971602  0.3734317039945089  0.1658787073695402   T   T   T
  0.3261950143995431  0.4968870245733350  0.1924808443043609   T   T   T
  0.6598271229460120  0.4968638128257568  0.1924799902197621   T   T   T
  0.9930476192871708  0.4970931450877333  0.1924625763919370   T   T   T
  0.3244427514513851  0.2474894945299730  0.1928647558971867   T   T   T
  0.9935627952909865  0.2456124222534689  0.1920627783393328   T   T   T
  0.6627933741117320  0.2464948058020917  0.1922983758618438   T   T   T
  0.9932339244537021  0.4982206738869346  0.0865805736926627   T   T   T
  0.3265826140137406  0.4982260322840781  0.0865946223871962   T   T   T
  0.6598917136646042  0.4982196184004951  0.0865917051529264   T   T   T
  0.9931819551802267  0.2482299437315219  0.0865256893491283   T   T   T
  0.3265486318925434  0.2482252119747284  0.0866434302556975   T   T   T
  0.6598618829580484  0.2482474178626423  0.0865993334600086   T   T   T
  0.1598760953071994  0.1234646697223254  0.1128016416257832   T   T   T
  0.4931477927078694  0.1235793927242705  0.1129569202499055   T   T   T
  0.8265552239071834  0.1234111012778372  0.1127489356023998   T   T   T
  0.1598608377487584  0.3735011935508492  0.1128471109754051   T   T   T
  0.4931988109477510  0.3734729847294836  0.1128691867710362   T   T   T
  0.8266126483882764  0.3735028491094857  0.1128335115096767   T   T   T
  0.4937871911801129  0.6216818604867290  0.0599931651602064   T   T   T
  0.8270842773726244  0.6217059604206193  0.0599917882199306   T   T   T
  0.1603463343650965  0.8716853508500899  0.0599866837674958   T   T   T
  0.4936232249953673  0.8717167434040211  0.0599867981042813   T   T   T
  0.8268942574922199  0.8717273480622548  0.0599733587163611   T   T   T
  0.1604060915005187  0.6216976647909769  0.0599976074641877   T   T   T
  0.9932865885085946  0.9981793007487195  0.1395481612857869   T   T   T
  0.3269061574344695  0.9985633702058863  0.1396824911985427   T   T   T
  0.6595091318414392  0.9985226112390928  0.1396619666655517   T   T   T
  0.9931189850534295  0.7484814309820885  0.1396319908793265   T   T   T
  0.3264686409954859  0.7484814377296684  0.1396413462246594   T   T   T
  0.6597455078242970  0.7484804981684737  0.1396300157909119   T   T   T
  0.1598471745460861  0.6233448137346292  0.1658875748194844   T   T   T
  0.4931299670140794  0.6233166174994921  0.1659046892528053   T   T   T
  0.8264336610768872  0.6233241673596348  0.1658821273004525   T   T   T
  0.1599941456721116  0.8732586406200488  0.1659018194885473   T   T   T
  0.4932644210933384  0.8732415590493373  0.1659153914718239   T   T   T
  0.8265545925137548  0.8732573627070640  0.1658902981761324   T   T   T
  0.3266951588045018  0.9967272189984635  0.1925496064260293   T   T   T
  0.6599364715641126  0.9967347419536755  0.1925204376035790   T   T   T
  0.9933379102456051  0.9966616606378779  0.1924418254775349   T   T   T
  0.3264817285102459  0.7467940546661708  0.1925078023149293   T   T   T
  0.9931665317570292  0.7467788348487596  0.1924826408361591   T   T   T
  0.6598193641251781  0.7468213766125428  0.1924923568159716   T   T   T
  0.9932447049776792  0.9982048137734876  0.0865317641331098   T   T   T
  0.3266308223934812  0.9982279033687174  0.0866125408015587   T   T   T
  0.6598346780115913  0.9982466801014168  0.0865937857072238   T   T   T
  0.9931896339712101  0.7482566419715306  0.0865871264282579   T   T   T
  0.3265503164748073  0.7482052438273664  0.0865865256014097   T   T   T
  0.6598448590749465  0.7482215830321399  0.0865792621881463   T   T   T
  0.1598414870337191  0.6235204564896174  0.1128431360486821   T   T   T
  0.4931661522752906  0.6235006966237470  0.1128489081663187   T   T   T
  0.8264995593932180  0.6235158531942451  0.1128396133758185   T   T   T
  0.1599966609812481  0.8734876634890975  0.1128411359974325   T   T   T
  0.4931920148573964  0.8734820512341408  0.1128433917110835   T   T   T
  0.8264170679995030  0.8735167933638085  0.1128360209508215   T   T   T
 
  0.00000000E+00  0.00000000E+00  0.00000000E+00
  0.00000000E+00  0.00000000E+00  0.00000000E+00
  0.00000000E+00  0.00000000E+00  0.00000000E+00
  0.00000000E+00  0.00000000E+00  0.00000000E+00
  0.00000000E+00  0.00000000E+00  0.00000000E+00
  0.00000000E+00  0.00000000E+00  0.00000000E+00
  0.00000000E+00  0.00000000E+00  0.00000000E+00
  0.00000000E+00  0.00000000E+00  0.00000000E+00
  0.00000000E+00  0.00000000E+00  0.00000000E+00
  0.00000000E+00  0.00000000E+00  0.00000000E+00
  0.00000000E+00  0.00000000E+00  0.00000000E+00
  0.00000000E+00  0.00000000E+00  0.00000000E+00
  0.00000000E+00  0.00000000E+00  0.00000000E+00
  0.00000000E+00  0.00000000E+00  0.00000000E+00
  0.00000000E+00  0.00000000E+00  0.00000000E+00
  0.00000000E+00  0.00000000E+00  0.00000000E+00
  0.00000000E+00  0.00000000E+00  0.00000000E+00
  0.00000000E+00  0.00000000E+00  0.00000000E+00
  0.00000000E+00  0.00000000E+00  0.00000000E+00
  0.00000000E+00  0.00000000E+00  0.00000000E+00
  0.00000000E+00  0.00000000E+00  0.00000000E+00
  0.00000000E+00  0.00000000E+00  0.00000000E+00
  0.00000000E+00  0.00000000E+00  0.00000000E+00
  0.00000000E+00  0.00000000E+00  0.00000000E+00
  0.00000000E+00  0.00000000E+00  0.00000000E+00
  0.00000000E+00  0.00000000E+00  0.00000000E+00
  0.00000000E+00  0.00000000E+00  0.00000000E+00
  0.00000000E+00  0.00000000E+00  0.00000000E+00
  0.00000000E+00  0.00000000E+00  0.00000000E+00
  0.00000000E+00  0.00000000E+00  0.00000000E+00
  0.00000000E+00  0.00000000E+00  0.00000000E+00
  0.00000000E+00  0.00000000E+00  0.00000000E+00
  0.00000000E+00  0.00000000E+00  0.00000000E+00
  0.00000000E+00  0.00000000E+00  0.00000000E+00
  0.00000000E+00  0.00000000E+00  0.00000000E+00
  0.00000000E+00  0.00000000E+00  0.00000000E+00
  0.00000000E+00  0.00000000E+00  0.00000000E+00
  0.00000000E+00  0.00000000E+00  0.00000000E+00
  0.00000000E+00  0.00000000E+00  0.00000000E+00
  0.00000000E+00  0.00000000E+00  0.00000000E+00
  0.00000000E+00  0.00000000E+00  0.00000000E+00
  0.00000000E+00  0.00000000E+00  0.00000000E+00
  0.00000000E+00  0.00000000E+00  0.00000000E+00
  0.00000000E+00  0.00000000E+00  0.00000000E+00
  0.00000000E+00  0.00000000E+00  0.00000000E+00
  0.00000000E+00  0.00000000E+00  0.00000000E+00
  0.00000000E+00  0.00000000E+00  0.00000000E+00
  0.00000000E+00  0.00000000E+00  0.00000000E+00
  0.00000000E+00  0.00000000E+00  0.00000000E+00
  0.00000000E+00  0.00000000E+00  0.00000000E+00
  0.00000000E+00  0.00000000E+00  0.00000000E+00
  0.00000000E+00  0.00000000E+00  0.00000000E+00
  0.00000000E+00  0.00000000E+00  0.00000000E+00
  0.00000000E+00  0.00000000E+00  0.00000000E+00
  0.00000000E+00  0.00000000E+00  0.00000000E+00
  0.00000000E+00  0.00000000E+00  0.00000000E+00
  0.00000000E+00  0.00000000E+00  0.00000000E+00
  0.00000000E+00  0.00000000E+00  0.00000000E+00
  0.00000000E+00  0.00000000E+00  0.00000000E+00
  0.00000000E+00  0.00000000E+00  0.00000000E+00
  0.00000000E+00  0.00000000E+00  0.00000000E+00
  0.00000000E+00  0.00000000E+00  0.00000000E+00
  0.00000000E+00  0.00000000E+00  0.00000000E+00
  0.00000000E+00  0.00000000E+00  0.00000000E+00
  0.00000000E+00  0.00000000E+00  0.00000000E+00
  0.00000000E+00  0.00000000E+00  0.00000000E+00
  0.00000000E+00  0.00000000E+00  0.00000000E+00
  0.00000000E+00  0.00000000E+00  0.00000000E+00
  0.00000000E+00  0.00000000E+00  0.00000000E+00
  0.00000000E+00  0.00000000E+00  0.00000000E+00
  0.00000000E+00  0.00000000E+00  0.00000000E+00
  0.00000000E+00  0.00000000E+00  0.00000000E+00
  0.00000000E+00  0.00000000E+00  0.00000000E+00
  0.00000000E+00  0.00000000E+00  0.00000000E+00
  0.00000000E+00  0.00000000E+00  0.00000000E+00
  0.00000000E+00  0.00000000E+00  0.00000000E+00
  0.00000000E+00  0.00000000E+00  0.00000000E+00
  0.00000000E+00  0.00000000E+00  0.00000000E+00
  0.00000000E+00  0.00000000E+00  0.00000000E+00
  0.00000000E+00  0.00000000E+00  0.00000000E+00
  0.00000000E+00  0.00000000E+00  0.00000000E+00
  0.00000000E+00  0.00000000E+00  0.00000000E+00
  0.00000000E+00  0.00000000E+00  0.00000000E+00
  0.00000000E+00  0.00000000E+00  0.00000000E+00
  0.00000000E+00  0.00000000E+00  0.00000000E+00
  0.00000000E+00  0.00000000E+00  0.00000000E+00
  0.00000000E+00  0.00000000E+00  0.00000000E+00
  0.00000000E+00  0.00000000E+00  0.00000000E+00
  0.00000000E+00  0.00000000E+00  0.00000000E+00
  0.00000000E+00  0.00000000E+00  0.00000000E+00
  0.00000000E+00  0.00000000E+00  0.00000000E+00
  0.00000000E+00  0.00000000E+00  0.00000000E+00
  0.00000000E+00  0.00000000E+00  0.00000000E+00
  0.00000000E+00  0.00000000E+00  0.00000000E+00
  0.00000000E+00  0.00000000E+00  0.00000000E+00
  0.00000000E+00  0.00000000E+00  0.00000000E+00
  0.00000000E+00  0.00000000E+00  0.00000000E+00
  0.00000000E+00  0.00000000E+00  0.00000000E+00
  0.00000000E+00  0.00000000E+00  0.00000000E+00
  0.00000000E+00  0.00000000E+00  0.00000000E+00
  0.00000000E+00  0.00000000E+00  0.00000000E+00
  0.00000000E+00  0.00000000E+00  0.00000000E+00
  0.00000000E+00  0.00000000E+00  0.00000000E+00
  0.00000000E+00  0.00000000E+00  0.00000000E+00
  0.00000000E+00  0.00000000E+00  0.00000000E+00
  0.00000000E+00  0.00000000E+00  0.00000000E+00
  0.00000000E+00  0.00000000E+00  0.00000000E+00
  0.00000000E+00  0.00000000E+00  0.00000000E+00
  0.00000000E+00  0.00000000E+00  0.00000000E+00
  0.00000000E+00  0.00000000E+00  0.00000000E+00
  0.00000000E+00  0.00000000E+00  0.00000000E+00
  0.00000000E+00  0.00000000E+00  0.00000000E+00
  0.00000000E+00  0.00000000E+00  0.00000000E+00
  0.00000000E+00  0.00000000E+00  0.00000000E+00
  0.00000000E+00  0.00000000E+00  0.00000000E+00
  0.00000000E+00  0.00000000E+00  0.00000000E+00
  0.00000000E+00  0.00000000E+00  0.00000000E+00
  0.00000000E+00  0.00000000E+00  0.00000000E+00
  0.00000000E+00  0.00000000E+00  0.00000000E+00
  0.00000000E+00  0.00000000E+00  0.00000000E+00
  0.00000000E+00  0.00000000E+00  0.00000000E+00
  0.00000000E+00  0.00000000E+00  0.00000000E+00
  0.00000000E+00  0.00000000E+00  0.00000000E+00
  0.00000000E+00  0.00000000E+00  0.00000000E+00
  0.00000000E+00  0.00000000E+00  0.00000000E+00
  0.00000000E+00  0.00000000E+00  0.00000000E+00
  0.00000000E+00  0.00000000E+00  0.00000000E+00
  0.00000000E+00  0.00000000E+00  0.00000000E+00
  0.00000000E+00  0.00000000E+00  0.00000000E+00
  0.00000000E+00  0.00000000E+00  0.00000000E+00
  0.00000000E+00  0.00000000E+00  0.00000000E+00
  0.00000000E+00  0.00000000E+00  0.00000000E+00
  0.00000000E+00  0.00000000E+00  0.00000000E+00
  0.00000000E+00  0.00000000E+00  0.00000000E+00
  0.00000000E+00  0.00000000E+00  0.00000000E+00
  0.00000000E+00  0.00000000E+00  0.00000000E+00
  0.00000000E+00  0.00000000E+00  0.00000000E+00
  0.00000000E+00  0.00000000E+00  0.00000000E+00
  0.00000000E+00  0.00000000E+00  0.00000000E+00
  0.00000000E+00  0.00000000E+00  0.00000000E+00
  0.00000000E+00  0.00000000E+00  0.00000000E+00
  0.00000000E+00  0.00000000E+00  0.00000000E+00
  0.00000000E+00  0.00000000E+00  0.00000000E+00
  0.00000000E+00  0.00000000E+00  0.00000000E+00
  0.00000000E+00  0.00000000E+00  0.00000000E+00
  0.00000000E+00  0.00000000E+00  0.00000000E+00
  0.00000000E+00  0.00000000E+00  0.00000000E+00
  0.00000000E+00  0.00000000E+00  0.00000000E+00
  0.00000000E+00  0.00000000E+00  0.00000000E+00
  0.00000000E+00  0.00000000E+00  0.00000000E+00
  0.00000000E+00  0.00000000E+00  0.00000000E+00
  0.00000000E+00  0.00000000E+00  0.00000000E+00
  0.00000000E+00  0.00000000E+00  0.00000000E+00
  0.00000000E+00  0.00000000E+00  0.00000000E+00
  0.00000000E+00  0.00000000E+00  0.00000000E+00
  0.00000000E+00  0.00000000E+00  0.00000000E+00
  0.00000000E+00  0.00000000E+00  0.00000000E+00
  0.00000000E+00  0.00000000E+00  0.00000000E+00
  0.00000000E+00  0.00000000E+00  0.00000000E+00
  0.00000000E+00  0.00000000E+00  0.00000000E+00
  0.00000000E+00  0.00000000E+00  0.00000000E+00
  0.00000000E+00  0.00000000E+00  0.00000000E+00
  0.00000000E+00  0.00000000E+00  0.00000000E+00
  0.00000000E+00  0.00000000E+00  0.00000000E+00
  0.00000000E+00  0.00000000E+00  0.00000000E+00
  0.00000000E+00  0.00000000E+00  0.00000000E+00
  0.00000000E+00  0.00000000E+00  0.00000000E+00
  0.00000000E+00  0.00000000E+00  0.00000000E+00
  0.00000000E+00  0.00000000E+00  0.00000000E+00
  0.00000000E+00  0.00000000E+00  0.00000000E+00
  0.00000000E+00  0.00000000E+00  0.00000000E+00
  0.00000000E+00  0.00000000E+00  0.00000000E+00
  0.00000000E+00  0.00000000E+00  0.00000000E+00
  0.00000000E+00  0.00000000E+00  0.00000000E+00
  0.00000000E+00  0.00000000E+00  0.00000000E+00
  0.00000000E+00  0.00000000E+00  0.00000000E+00
  0.00000000E+00  0.00000000E+00  0.00000000E+00
  0.00000000E+00  0.00000000E+00  0.00000000E+00
  0.00000000E+00  0.00000000E+00  0.00000000E+00
  0.00000000E+00  0.00000000E+00  0.00000000E+00
  0.00000000E+00  0.00000000E+00  0.00000000E+00
  0.00000000E+00  0.00000000E+00  0.00000000E+00
  0.00000000E+00  0.00000000E+00  0.00000000E+00
  0.00000000E+00  0.00000000E+00  0.00000000E+00
  0.00000000E+00  0.00000000E+00  0.00000000E+00
  0.00000000E+00  0.00000000E+00  0.00000000E+00
  0.00000000E+00  0.00000000E+00  0.00000000E+00
  0.00000000E+00  0.00000000E+00  0.00000000E+00
  0.00000000E+00  0.00000000E+00  0.00000000E+00
  0.00000000E+00  0.00000000E+00  0.00000000E+00
  0.00000000E+00  0.00000000E+00  0.00000000E+00
  0.00000000E+00  0.00000000E+00  0.00000000E+00
  0.00000000E+00  0.00000000E+00  0.00000000E+00
  0.00000000E+00  0.00000000E+00  0.00000000E+00
  0.00000000E+00  0.00000000E+00  0.00000000E+00
  0.00000000E+00  0.00000000E+00  0.00000000E+00
  0.00000000E+00  0.00000000E+00  0.00000000E+00
  0.00000000E+00  0.00000000E+00  0.00000000E+00
  0.00000000E+00  0.00000000E+00  0.00000000E+00
  0.00000000E+00  0.00000000E+00  0.00000000E+00
  0.00000000E+00  0.00000000E+00  0.00000000E+00
  0.00000000E+00  0.00000000E+00  0.00000000E+00
  0.00000000E+00  0.00000000E+00  0.00000000E+00
  0.00000000E+00  0.00000000E+00  0.00000000E+00
  0.00000000E+00  0.00000000E+00  0.00000000E+00
  0.00000000E+00  0.00000000E+00  0.00000000E+00
  0.00000000E+00  0.00000000E+00  0.00000000E+00
  0.00000000E+00  0.00000000E+00  0.00000000E+00
  0.00000000E+00  0.00000000E+00  0.00000000E+00
  0.00000000E+00  0.00000000E+00  0.00000000E+00
  0.00000000E+00  0.00000000E+00  0.00000000E+00
  0.00000000E+00  0.00000000E+00  0.00000000E+00
  0.00000000E+00  0.00000000E+00  0.00000000E+00
  0.00000000E+00  0.00000000E+00  0.00000000E+00
  0.00000000E+00  0.00000000E+00  0.00000000E+00
  0.00000000E+00  0.00000000E+00  0.00000000E+00
  0.00000000E+00  0.00000000E+00  0.00000000E+00
  0.00000000E+00  0.00000000E+00  0.00000000E+00
  0.00000000E+00  0.00000000E+00  0.00000000E+00
  0.00000000E+00  0.00000000E+00  0.00000000E+00
  0.00000000E+00  0.00000000E+00  0.00000000E+00
  0.00000000E+00  0.00000000E+00  0.00000000E+00
  0.00000000E+00  0.00000000E+00  0.00000000E+00
  0.00000000E+00  0.00000000E+00  0.00000000E+00
  0.00000000E+00  0.00000000E+00  0.00000000E+00
  0.00000000E+00  0.00000000E+00  0.00000000E+00
  0.00000000E+00  0.00000000E+00  0.00000000E+00
  0.00000000E+00  0.00000000E+00  0.00000000E+00
  0.00000000E+00  0.00000000E+00  0.00000000E+00
