C H O Si                                
   1.00000000000000     
     9.2874599999999994    0.0000000000000000    0.0000000000000000
     0.0000000000000000   17.5126199999999983    0.0000000000000000
     0.0000000000000000    0.0000000000000000   58.0000000000000000
   C    H    O    Si
    72    57    28    72
Selective dynamics
Direct
  0.9935232629687053  0.0631137976775328  0.0604724232236485   T   T   T
  0.3269008474198881  0.0631163552931166  0.0605523722032937   T   T   T
  0.6601100737075094  0.0631367696467404  0.0605320833121654   T   T   T
  0.9934254382449872  0.3131512125093674  0.0604710957365799   T   T   T
  0.3267920797793993  0.3130821178159208  0.0605605527126734   T   T   T
  0.6600903820842462  0.3131210088376331  0.0605236837587434   T   T   T
  0.1599262501565509  0.1860796587282204  0.1393974333804159   T   T   T
  0.4932339433511490  0.1863041306323136  0.1396288431164522   T   T   T
  0.8266687124863689  0.1860046065330559  0.1393360169310205   T   T   T
  0.1598406244711250  0.4362287894144271  0.1394337821225202   T   T   T
  0.4932272117826548  0.4361290703567596  0.1394788336850603   T   T   T
  0.8265795832216267  0.4362380310739518  0.1394269841244583   T   T   T
  0.3271988560197852  0.0614339176879105  0.1667507778357392   T   T   T
  0.6594291998578825  0.0614265678089065  0.1667121661066094   T   T   T
  0.9934915178171631  0.0607007860731029  0.1664812731872555   T   T   T
  0.3263924369912295  0.3113228725994863  0.1668008199227607   T   T   T
  0.6602378488648178  0.3113121617363448  0.1666834785944568   T   T   T
  0.9932815626188629  0.3111863029688487  0.1665224604983847   T   T   T
  0.1600961647097335  0.1872122492716823  0.1917306236886884   T   T   T
  0.4935955485798255  0.1899468543983620  0.1927597666091506   T   T   T
  0.8275372904041441  0.1868810580759619  0.1915454468429749   T   T   T
  0.1594591226731970  0.4383733075353101  0.1919817317650599   T   T   T
  0.4931319403091354  0.4379817154124515  0.1920220180260820   T   T   T
  0.8266812144180514  0.4383813458754078  0.1919309816462298   T   T   T
  0.1598502142034220  0.1862192427207024  0.0858295222920911   T   T   T
  0.4931845799129762  0.1863056156627456  0.0859421859232298   T   T   T
  0.8264626604567403  0.1862226194056391  0.0857863844735207   T   T   T
  0.1598980566703256  0.4362354832926225  0.0858486551061105   T   T   T
  0.4932142145176177  0.4362125729621898  0.0858684811085619   T   T   T
  0.8265443207240724  0.4362367392988295  0.0858392941886710   T   T   T
  0.3265080694705725  0.0611767855688551  0.1130716895526992   T   T   T
  0.6597073407669148  0.0611823192957060  0.1130634292688749   T   T   T
  0.9931471189294742  0.0610720887505239  0.1129786141813081   T   T   T
  0.3264624364622176  0.3111296351192031  0.1131148459574706   T   T   T
  0.6599020149743855  0.3111535234087240  0.1130747704151195   T   T   T
  0.9932164596282912  0.3111236877116882  0.1129869934282071   T   T   T
  0.9935231986113381  0.5631030724605001  0.0605131988826341   T   T   T
  0.3268620446350324  0.5631047601784663  0.0605270673315139   T   T   T
  0.6601866397258358  0.5631046967460639  0.0605241782373463   T   T   T
  0.9934375766770119  0.8131438843955692  0.0605117483400776   T   T   T
  0.3268216687951581  0.8130655839278725  0.0605176297501863   T   T   T
  0.6600918917046189  0.8130946933816446  0.0605119110811027   T   T   T
  0.1598183599618483  0.6862462160166278  0.1394358674586473   T   T   T
  0.4931189491018886  0.6862189899397340  0.1394442915443639   T   T   T
  0.8263923132009413  0.6862349625738583  0.1394338593514458   T   T   T
  0.1602357336618912  0.9361790900396864  0.1394381442492542   T   T   T
  0.4932079831039076  0.9361676856757226  0.1394387873811785   T   T   T
  0.8262788446005505  0.9362357409874562  0.1394320431100167   T   T   T
  0.3264217305419876  0.5613104984165448  0.1666361238894541   T   T   T
  0.6595380829065762  0.5612913836240353  0.1666352710499235   T   T   T
  0.9929947897634387  0.5614590438743388  0.1666062321902616   T   T   T
  0.3265155871197037  0.8112476496956392  0.1666535010956876   T   T   T
  0.6597757933213643  0.8112430843453747  0.1666307197862366   T   T   T
  0.9931388470991142  0.8112771319880669  0.1666334726583386   T   T   T
  0.1599178699332653  0.6880901524059189  0.1919845449193727   T   T   T
  0.4932146089189073  0.6881219309945129  0.1920105648201540   T   T   T
  0.8265724758283499  0.6880680896506541  0.1919712068957855   T   T   T
  0.1600583515586228  0.9380406257167125  0.1919987450220987   T   T   T
  0.4933625085854271  0.9380345149504967  0.1920157214305184   T   T   T
  0.8266543279411810  0.9380440980270469  0.1919774720053364   T   T   T
  0.1598359128743373  0.6862303020934547  0.0858495413374781   T   T   T
  0.4932013588272177  0.6862043067223568  0.0858474471535108   T   T   T
  0.8265093739553134  0.6862302630428830  0.0858475487179934   T   T   T
  0.1599571255448592  0.9362230230056974  0.0858447491879901   T   T   T
  0.4932142568908457  0.9362314415210995  0.0858522442528740   T   T   T
  0.8264858302305704  0.9362433104162947  0.0858375021630824   T   T   T
  0.3264745222965525  0.5611483939994206  0.1130498949913457   T   T   T
  0.6597790106090022  0.5611437543624433  0.1130491510191713   T   T   T
  0.9931071865248531  0.5611821602770886  0.1130343833351948   T   T   T
  0.3265221061178392  0.8111156698065344  0.1130385559315811   T   T   T
  0.6597820660413466  0.8111256466886805  0.1130332450426149   T   T   T
  0.9931510878759854  0.8112185914231935  0.1130479757303263   T   T   T
  0.0733201380819543  0.1777648833061672  0.0276701554391897   T   T   T
  0.4055791782743199  0.1777936424749964  0.0278221322688046   T   T   T
  0.7387529316295784  0.1777337281958542  0.0276863026374609   T   T   T
  0.0730491476207267  0.4278280731776846  0.0276854599037032   T   T   T
  0.4051137515107417  0.4277060557881481  0.0277522383985366   T   T   T
  0.7381511986066799  0.4277448022736912  0.0277176903367531   T   T   T
  0.3245350023792491  0.0265422413276088  0.0451131887982800   T   T   T
  0.6570809191399790  0.0265461019833805  0.0451001673100124   T   T   T
  0.9909833191105855  0.0265807355290089  0.0450253556461184   T   T   T
  0.3239890777502191  0.2764410932939783  0.0451374388372025   T   T   T
  0.6572321446643202  0.2765134326615981  0.0450956944067145   T   T   T
  0.9906570002281628  0.2766527132414609  0.0450182363928045   T   T   T
  0.8286140340011524  0.4022201033289109  0.2074278703701248   T   T   T
  0.8302651476225473  0.1505085672084469  0.2070180728851639   T   T   T
  0.1618259010316628  0.1509444986063780  0.2072266863441324   T   T   T
  0.4967715181979850  0.1527474950431863  0.2080595834585214   T   T   T
  0.1617595378634923  0.4017415428033331  0.2073991328080476   T   T   T
  0.4939692205677774  0.4015499245451923  0.2074943811018396   T   T   T
  0.0818063265614960  0.0528001762012904  0.2248078326728525   T   T   T
  0.4155094076387877  0.0523119248985098  0.2249286626276827   T   T   T
  0.7489861108049095  0.0525198225543033  0.2248517586206769   T   T   T
  0.0799730372835532  0.3011443449198031  0.2244142267132740   T   T   T
  0.3780652848082510  0.3104679675964899  0.2283707640037417   T   T   T
  0.7823394241725499  0.2954180049691378  0.2228605798565553   T   T   T
  0.5476014226930482  0.3057299950967793  0.2738459009230762   T   T   T
  0.4933404068893572  0.2380538469667940  0.2933003796519873   T   T   T
  0.5721742118481493  0.3197553277098384  0.3030303712531428   T   T   T
  0.3147676388899654  0.1943357759465964  0.3097569628521378   T   T   T
  0.4220906595396181  0.1301496082268269  0.3022755938133370   T   T   T
  0.6505402863977244  0.3661333046360400  0.3335721207225711   T   T   T
  0.4845388529723242  0.3774143954200277  0.3308705592759587   T   T   T
  0.5189116380693144  0.3953436812280673  0.2521524597749557   T   T   T
  0.5865178074432640  0.3231189910923149  0.2386479800447797   T   T   T
  0.0728889061185829  0.6778104413558070  0.0277247425618325   T   T   T
  0.4059015388773772  0.6777526812983136  0.0277454286421772   T   T   T
  0.7391119838704824  0.6777408589883657  0.0277461193351955   T   T   T
  0.0725562760269584  0.9277930726796167  0.0277078390056058   T   T   T
  0.4051936496978963  0.9277228592065078  0.0277336862302271   T   T   T
  0.7385716026757968  0.9277928039698220  0.0277195698227442   T   T   T
  0.3241977012251687  0.5265423248950903  0.0450915348884518   T   T   T
  0.6575792546315553  0.5265444166333594  0.0450862772622402   T   T   T
  0.9908576526366210  0.5265488123236830  0.0450709203972975   T   T   T
  0.3240202429188939  0.7765084633642506  0.0450776851833018   T   T   T
  0.6572392900977195  0.7765247129059980  0.0450738402034147   T   T   T
  0.9906306922497508  0.7765443102592472  0.0450793137908393   T   T   T
  0.8292026707610730  0.9015174284906862  0.2074193145086448   T   T   T
  0.8290521628240797  0.6515509294159904  0.2074149251638077   T   T   T
  0.1623442154815002  0.6515439403743480  0.2074246308882705   T   T   T
  0.4958477153344031  0.6516314286745377  0.2074586052289876   T   T   T
  0.1624814892351966  0.9015099484587294  0.2074404879112520   T   T   T
  0.4960246308990785  0.9014558508454246  0.2074472211275648   T   T   T
  0.0808695454761994  0.5537539705013228  0.2247939945227778   T   T   T
  0.4149359357546926  0.5541485110770222  0.2246385086113449   T   T   T
  0.7482493188564161  0.5536140505571226  0.2247281630190070   T   T   T
  0.0817242674657206  0.8028345912060947  0.2248168192404155   T   T   T
  0.4144421712164384  0.8031368932578402  0.2248819436704997   T   T   T
  0.7493755071867026  0.8025779308921249  0.2247449753498878   T   T   T
  0.1688568092334955  0.1658304662074505  0.0337545520247791   T   T   T
  0.5012713079027437  0.1660087472491276  0.0338723725145852   T   T   T
  0.8345612477482683  0.1657148787868263  0.0336508080931146   T   T   T
  0.1685747200256378  0.4158208936029008  0.0337649287210309   T   T   T
  0.5008516470475256  0.4159720499830480  0.0337934399776648   T   T   T
  0.8339165689162183  0.4160626970519137  0.0337531675747672   T   T   T
  0.3200757356479526  0.0410849248411056  0.2186879567525886   T   T   T
  0.6534804229224257  0.0411196706077773  0.2186608811979169   T   T   T
  0.9866023435708571  0.0412497326070970  0.2185612043952277   T   T   T
  0.2994680440625664  0.2910887676682317  0.2187139755493107   T   T   T
  0.6794451584311332  0.2914723887742538  0.2186865993708860   T   T   T
  0.9839850470337371  0.2888664771629124  0.2184018555116364   T   T   T
  0.5711370341771186  0.2796998249248927  0.2897142390594122   T   T   T
  0.3811318165773899  0.1790373997985594  0.2975545971390477   T   T   T
  0.5752369851928922  0.3776724300926368  0.3223659074465914   T   T   T
  0.5135714340305598  0.3398272569532689  0.2509238833724721   T   T   T
  0.1685076071215340  0.6658391454979730  0.0337761816715647   T   T   T
  0.5016061585843520  0.6657976955630688  0.0337604264964481   T   T   T
  0.8348301475490549  0.6658290990880025  0.0337605804269415   T   T   T
  0.1681551115828883  0.9158053394348189  0.0337536758650565   T   T   T
  0.5009086516081324  0.9159403332846310  0.0337735787946163   T   T   T
  0.8342700114579062  0.9158633940594412  0.0337437306850001   T   T   T
  0.3197676844507225  0.5410871696900911  0.2186471717964972   T   T   T
  0.6530321807558039  0.5411358521201273  0.2186262165911313   T   T   T
  0.9858453597818320  0.5411377200395988  0.2186682549150039   T   T   T
  0.3193801136226280  0.7909999310864738  0.2186841319707268   T   T   T
  0.6536862001002087  0.7912117604705359  0.2186220019815855   T   T   T
  0.9864272545318555  0.7910421800689487  0.2186373419249158   T   T   T
  0.4937144879030430  0.1217800582683113  0.0600593629075408   T   T   T
  0.8270268017108037  0.1217373341666926  0.0599008027722330   T   T   T
  0.1604180706841957  0.3717227197023433  0.0599767788548763   T   T   T
  0.4936253290020873  0.3717317914132722  0.0599888212839890   T   T   T
  0.8269095410675336  0.3717922703416236  0.0599420146010375   T   T   T
  0.1604994767148020  0.1217091237838036  0.0599604807411097   T   T   T
  0.9932352450478533  0.4986055771402589  0.1396408097960893   T   T   T
  0.3265676720585681  0.4985306724103072  0.1396545109508503   T   T   T
  0.6598606338021906  0.4985329078895623  0.1396530533075029   T   T   T
  0.9933571009078994  0.2483873591872675  0.1395332810812945   T   T   T
  0.3264254192686633  0.2485411735504242  0.1397540705348650   T   T   T
  0.6601980669617729  0.2484109467673526  0.1396475672554664   T   T   T
  0.1599528301579270  0.1227901409534578  0.1657669179576599   T   T   T
  0.4932459640857096  0.1240651652515975  0.1662527576544676   T   T   T
  0.8269696563520049  0.1224790948072242  0.1656289026589259   T   T   T
  0.1597443805673578  0.3734384355807097  0.1659039907770241   T   T   T
  0.4930964580815388  0.3731640329887483  0.1659271868145577   T   T   T
  0.8268395418295977  0.3734419649037739  0.1658777236234134   T   T   T
  0.3261807512876914  0.4967701875688452  0.1924811574844581   T   T   T
  0.6597959834599865  0.4967600232706886  0.1924811511046512   T   T   T
  0.9929341297221174  0.4970521308830615  0.1924725381285234   T   T   T
  0.3243890726564772  0.2474685048324360  0.1928755431182070   T   T   T
  0.9936073567534313  0.2455384550013127  0.1920508539098197   T   T   T
  0.6628208177263264  0.2464063857905054  0.1923138306245175   T   T   T
  0.9932627767571562  0.4981815579738053  0.0865943343647122   T   T   T
  0.3266280784980827  0.4981834406798599  0.0866046451639878   T   T   T
  0.6599175159151518  0.4981787921102172  0.0866026438166101   T   T   T
  0.9932071631868670  0.2481451296787627  0.0865435003496664   T   T   T
  0.3264978200350053  0.2482115408050770  0.0866481852880817   T   T   T
  0.6599113022498784  0.2482139699291919  0.0866105353479795   T   T   T
  0.1597417475012787  0.1235089407315905  0.1128037167275449   T   T   T
  0.4930540854012460  0.1235864496573457  0.1129449771146445   T   T   T
  0.8264341551670298  0.1234812576332962  0.1127542816648968   T   T   T
  0.1598262464922828  0.3735616976345404  0.1128399517456232   T   T   T
  0.4930942172309296  0.3735103512748057  0.1128649238836120   T   T   T
  0.8265381027034444  0.3735628360036524  0.1128262702780538   T   T   T
  0.4937695873458751  0.6217038625402269  0.0599760004737626   T   T   T
  0.8271008777338541  0.6217195204120970  0.0599728080647239   T   T   T
  0.1604185206514570  0.8717046485850108  0.0599709752760854   T   T   T
  0.4936336022283414  0.8717335685840329  0.0599745751624487   T   T   T
  0.8269278072689489  0.8717516306233045  0.0599564603360272   T   T   T
  0.1604464312532471  0.6217118559753880  0.0599836836035595   T   T   T
  0.9933903905634582  0.9982370071585931  0.1395481247235467   T   T   T
  0.3269523519256344  0.9986303073997284  0.1396858650517428   T   T   T
  0.6595437611330195  0.9986186379297174  0.1396747532936937   T   T   T
  0.9931550931654626  0.7485624958105621  0.1396461562633691   T   T   T
  0.3265221855461556  0.7485516556077555  0.1396539763420537   T   T   T
  0.6598101172439872  0.7485509802882799  0.1396456297170982   T   T   T
  0.1597093369357606  0.6233498724800528  0.1658815547899488   T   T   T
  0.4929792222060198  0.6233430364678623  0.1659045476935391   T   T   T
  0.8262617141031453  0.6233217708270823  0.1658788594892922   T   T   T
  0.1598642913413361  0.8732493086271339  0.1658984330236589   T   T   T
  0.4931280521710811  0.8732593376888511  0.1659051081796268   T   T   T
  0.8264016504544610  0.8732587232897016  0.1658795633203451   T   T   T
  0.3266369405483654  0.9966225696711869  0.1925530962131478   T   T   T
  0.6599356349998413  0.9966098747834908  0.1925194659419389   T   T   T
  0.9932756427636279  0.9965615867329815  0.1924386620135769   T   T   T
  0.3264403582921433  0.7466899130785628  0.1925210829599209   T   T   T
  0.9931290702098217  0.7466527584123958  0.1924805311054184   T   T   T
  0.6598750702978984  0.7466752228629521  0.1924819237699226   T   T   T
  0.9932860628108803  0.9981249588249561  0.0865508315819723   T   T   T
  0.3266516695204033  0.9981977268627550  0.0866150629795193   T   T   T
  0.6598550770292911  0.9982069243993332  0.0866117129870960   T   T   T
  0.9931946892850063  0.7482137773139288  0.0865972844540110   T   T   T
  0.3265932231803818  0.7481537463443613  0.0865938284471419   T   T   T
  0.6598525645249064  0.7481731481303230  0.0865910696185700   T   T   T
  0.1597227141533113  0.6235641475451109  0.1128429534238087   T   T   T
  0.4930590737875283  0.6235495362807598  0.1128464715298890   T   T   T
  0.8263628240269436  0.6235641898524799  0.1128412797776601   T   T   T
  0.1599602400604640  0.8735489042847077  0.1128346217750885   T   T   T
  0.4930968345994784  0.8735309808939582  0.1128362215370308   T   T   T
  0.8263021078245684  0.8735676211938554  0.1128307008125330   T   T   T
 
  0.00000000E+00  0.00000000E+00  0.00000000E+00
  0.00000000E+00  0.00000000E+00  0.00000000E+00
  0.00000000E+00  0.00000000E+00  0.00000000E+00
  0.00000000E+00  0.00000000E+00  0.00000000E+00
  0.00000000E+00  0.00000000E+00  0.00000000E+00
  0.00000000E+00  0.00000000E+00  0.00000000E+00
  0.00000000E+00  0.00000000E+00  0.00000000E+00
  0.00000000E+00  0.00000000E+00  0.00000000E+00
  0.00000000E+00  0.00000000E+00  0.00000000E+00
  0.00000000E+00  0.00000000E+00  0.00000000E+00
  0.00000000E+00  0.00000000E+00  0.00000000E+00
  0.00000000E+00  0.00000000E+00  0.00000000E+00
  0.00000000E+00  0.00000000E+00  0.00000000E+00
  0.00000000E+00  0.00000000E+00  0.00000000E+00
  0.00000000E+00  0.00000000E+00  0.00000000E+00
  0.00000000E+00  0.00000000E+00  0.00000000E+00
  0.00000000E+00  0.00000000E+00  0.00000000E+00
  0.00000000E+00  0.00000000E+00  0.00000000E+00
  0.00000000E+00  0.00000000E+00  0.00000000E+00
  0.00000000E+00  0.00000000E+00  0.00000000E+00
  0.00000000E+00  0.00000000E+00  0.00000000E+00
  0.00000000E+00  0.00000000E+00  0.00000000E+00
  0.00000000E+00  0.00000000E+00  0.00000000E+00
  0.00000000E+00  0.00000000E+00  0.00000000E+00
  0.00000000E+00  0.00000000E+00  0.00000000E+00
  0.00000000E+00  0.00000000E+00  0.00000000E+00
  0.00000000E+00  0.00000000E+00  0.00000000E+00
  0.00000000E+00  0.00000000E+00  0.00000000E+00
  0.00000000E+00  0.00000000E+00  0.00000000E+00
  0.00000000E+00  0.00000000E+00  0.00000000E+00
  0.00000000E+00  0.00000000E+00  0.00000000E+00
  0.00000000E+00  0.00000000E+00  0.00000000E+00
  0.00000000E+00  0.00000000E+00  0.00000000E+00
  0.00000000E+00  0.00000000E+00  0.00000000E+00
  0.00000000E+00  0.00000000E+00  0.00000000E+00
  0.00000000E+00  0.00000000E+00  0.00000000E+00
  0.00000000E+00  0.00000000E+00  0.00000000E+00
  0.00000000E+00  0.00000000E+00  0.00000000E+00
  0.00000000E+00  0.00000000E+00  0.00000000E+00
  0.00000000E+00  0.00000000E+00  0.00000000E+00
  0.00000000E+00  0.00000000E+00  0.00000000E+00
  0.00000000E+00  0.00000000E+00  0.00000000E+00
  0.00000000E+00  0.00000000E+00  0.00000000E+00
  0.00000000E+00  0.00000000E+00  0.00000000E+00
  0.00000000E+00  0.00000000E+00  0.00000000E+00
  0.00000000E+00  0.00000000E+00  0.00000000E+00
  0.00000000E+00  0.00000000E+00  0.00000000E+00
  0.00000000E+00  0.00000000E+00  0.00000000E+00
  0.00000000E+00  0.00000000E+00  0.00000000E+00
  0.00000000E+00  0.00000000E+00  0.00000000E+00
  0.00000000E+00  0.00000000E+00  0.00000000E+00
  0.00000000E+00  0.00000000E+00  0.00000000E+00
  0.00000000E+00  0.00000000E+00  0.00000000E+00
  0.00000000E+00  0.00000000E+00  0.00000000E+00
  0.00000000E+00  0.00000000E+00  0.00000000E+00
  0.00000000E+00  0.00000000E+00  0.00000000E+00
  0.00000000E+00  0.00000000E+00  0.00000000E+00
  0.00000000E+00  0.00000000E+00  0.00000000E+00
  0.00000000E+00  0.00000000E+00  0.00000000E+00
  0.00000000E+00  0.00000000E+00  0.00000000E+00
  0.00000000E+00  0.00000000E+00  0.00000000E+00
  0.00000000E+00  0.00000000E+00  0.00000000E+00
  0.00000000E+00  0.00000000E+00  0.00000000E+00
  0.00000000E+00  0.00000000E+00  0.00000000E+00
  0.00000000E+00  0.00000000E+00  0.00000000E+00
  0.00000000E+00  0.00000000E+00  0.00000000E+00
  0.00000000E+00  0.00000000E+00  0.00000000E+00
  0.00000000E+00  0.00000000E+00  0.00000000E+00
  0.00000000E+00  0.00000000E+00  0.00000000E+00
  0.00000000E+00  0.00000000E+00  0.00000000E+00
  0.00000000E+00  0.00000000E+00  0.00000000E+00
  0.00000000E+00  0.00000000E+00  0.00000000E+00
  0.00000000E+00  0.00000000E+00  0.00000000E+00
  0.00000000E+00  0.00000000E+00  0.00000000E+00
  0.00000000E+00  0.00000000E+00  0.00000000E+00
  0.00000000E+00  0.00000000E+00  0.00000000E+00
  0.00000000E+00  0.00000000E+00  0.00000000E+00
  0.00000000E+00  0.00000000E+00  0.00000000E+00
  0.00000000E+00  0.00000000E+00  0.00000000E+00
  0.00000000E+00  0.00000000E+00  0.00000000E+00
  0.00000000E+00  0.00000000E+00  0.00000000E+00
  0.00000000E+00  0.00000000E+00  0.00000000E+00
  0.00000000E+00  0.00000000E+00  0.00000000E+00
  0.00000000E+00  0.00000000E+00  0.00000000E+00
  0.00000000E+00  0.00000000E+00  0.00000000E+00
  0.00000000E+00  0.00000000E+00  0.00000000E+00
  0.00000000E+00  0.00000000E+00  0.00000000E+00
  0.00000000E+00  0.00000000E+00  0.00000000E+00
  0.00000000E+00  0.00000000E+00  0.00000000E+00
  0.00000000E+00  0.00000000E+00  0.00000000E+00
  0.00000000E+00  0.00000000E+00  0.00000000E+00
  0.00000000E+00  0.00000000E+00  0.00000000E+00
  0.00000000E+00  0.00000000E+00  0.00000000E+00
  0.00000000E+00  0.00000000E+00  0.00000000E+00
  0.00000000E+00  0.00000000E+00  0.00000000E+00
  0.00000000E+00  0.00000000E+00  0.00000000E+00
  0.00000000E+00  0.00000000E+00  0.00000000E+00
  0.00000000E+00  0.00000000E+00  0.00000000E+00
  0.00000000E+00  0.00000000E+00  0.00000000E+00
  0.00000000E+00  0.00000000E+00  0.00000000E+00
  0.00000000E+00  0.00000000E+00  0.00000000E+00
  0.00000000E+00  0.00000000E+00  0.00000000E+00
  0.00000000E+00  0.00000000E+00  0.00000000E+00
  0.00000000E+00  0.00000000E+00  0.00000000E+00
  0.00000000E+00  0.00000000E+00  0.00000000E+00
  0.00000000E+00  0.00000000E+00  0.00000000E+00
  0.00000000E+00  0.00000000E+00  0.00000000E+00
  0.00000000E+00  0.00000000E+00  0.00000000E+00
  0.00000000E+00  0.00000000E+00  0.00000000E+00
  0.00000000E+00  0.00000000E+00  0.00000000E+00
  0.00000000E+00  0.00000000E+00  0.00000000E+00
  0.00000000E+00  0.00000000E+00  0.00000000E+00
  0.00000000E+00  0.00000000E+00  0.00000000E+00
  0.00000000E+00  0.00000000E+00  0.00000000E+00
  0.00000000E+00  0.00000000E+00  0.00000000E+00
  0.00000000E+00  0.00000000E+00  0.00000000E+00
  0.00000000E+00  0.00000000E+00  0.00000000E+00
  0.00000000E+00  0.00000000E+00  0.00000000E+00
  0.00000000E+00  0.00000000E+00  0.00000000E+00
  0.00000000E+00  0.00000000E+00  0.00000000E+00
  0.00000000E+00  0.00000000E+00  0.00000000E+00
  0.00000000E+00  0.00000000E+00  0.00000000E+00
  0.00000000E+00  0.00000000E+00  0.00000000E+00
  0.00000000E+00  0.00000000E+00  0.00000000E+00
  0.00000000E+00  0.00000000E+00  0.00000000E+00
  0.00000000E+00  0.00000000E+00  0.00000000E+00
  0.00000000E+00  0.00000000E+00  0.00000000E+00
  0.00000000E+00  0.00000000E+00  0.00000000E+00
  0.00000000E+00  0.00000000E+00  0.00000000E+00
  0.00000000E+00  0.00000000E+00  0.00000000E+00
  0.00000000E+00  0.00000000E+00  0.00000000E+00
  0.00000000E+00  0.00000000E+00  0.00000000E+00
  0.00000000E+00  0.00000000E+00  0.00000000E+00
  0.00000000E+00  0.00000000E+00  0.00000000E+00
  0.00000000E+00  0.00000000E+00  0.00000000E+00
  0.00000000E+00  0.00000000E+00  0.00000000E+00
  0.00000000E+00  0.00000000E+00  0.00000000E+00
  0.00000000E+00  0.00000000E+00  0.00000000E+00
  0.00000000E+00  0.00000000E+00  0.00000000E+00
  0.00000000E+00  0.00000000E+00  0.00000000E+00
  0.00000000E+00  0.00000000E+00  0.00000000E+00
  0.00000000E+00  0.00000000E+00  0.00000000E+00
  0.00000000E+00  0.00000000E+00  0.00000000E+00
  0.00000000E+00  0.00000000E+00  0.00000000E+00
  0.00000000E+00  0.00000000E+00  0.00000000E+00
  0.00000000E+00  0.00000000E+00  0.00000000E+00
  0.00000000E+00  0.00000000E+00  0.00000000E+00
  0.00000000E+00  0.00000000E+00  0.00000000E+00
  0.00000000E+00  0.00000000E+00  0.00000000E+00
  0.00000000E+00  0.00000000E+00  0.00000000E+00
  0.00000000E+00  0.00000000E+00  0.00000000E+00
  0.00000000E+00  0.00000000E+00  0.00000000E+00
  0.00000000E+00  0.00000000E+00  0.00000000E+00
  0.00000000E+00  0.00000000E+00  0.00000000E+00
  0.00000000E+00  0.00000000E+00  0.00000000E+00
  0.00000000E+00  0.00000000E+00  0.00000000E+00
  0.00000000E+00  0.00000000E+00  0.00000000E+00
  0.00000000E+00  0.00000000E+00  0.00000000E+00
  0.00000000E+00  0.00000000E+00  0.00000000E+00
  0.00000000E+00  0.00000000E+00  0.00000000E+00
  0.00000000E+00  0.00000000E+00  0.00000000E+00
  0.00000000E+00  0.00000000E+00  0.00000000E+00
  0.00000000E+00  0.00000000E+00  0.00000000E+00
  0.00000000E+00  0.00000000E+00  0.00000000E+00
  0.00000000E+00  0.00000000E+00  0.00000000E+00
  0.00000000E+00  0.00000000E+00  0.00000000E+00
  0.00000000E+00  0.00000000E+00  0.00000000E+00
  0.00000000E+00  0.00000000E+00  0.00000000E+00
  0.00000000E+00  0.00000000E+00  0.00000000E+00
  0.00000000E+00  0.00000000E+00  0.00000000E+00
  0.00000000E+00  0.00000000E+00  0.00000000E+00
  0.00000000E+00  0.00000000E+00  0.00000000E+00
  0.00000000E+00  0.00000000E+00  0.00000000E+00
  0.00000000E+00  0.00000000E+00  0.00000000E+00
  0.00000000E+00  0.00000000E+00  0.00000000E+00
  0.00000000E+00  0.00000000E+00  0.00000000E+00
  0.00000000E+00  0.00000000E+00  0.00000000E+00
  0.00000000E+00  0.00000000E+00  0.00000000E+00
  0.00000000E+00  0.00000000E+00  0.00000000E+00
  0.00000000E+00  0.00000000E+00  0.00000000E+00
  0.00000000E+00  0.00000000E+00  0.00000000E+00
  0.00000000E+00  0.00000000E+00  0.00000000E+00
  0.00000000E+00  0.00000000E+00  0.00000000E+00
  0.00000000E+00  0.00000000E+00  0.00000000E+00
  0.00000000E+00  0.00000000E+00  0.00000000E+00
  0.00000000E+00  0.00000000E+00  0.00000000E+00
  0.00000000E+00  0.00000000E+00  0.00000000E+00
  0.00000000E+00  0.00000000E+00  0.00000000E+00
  0.00000000E+00  0.00000000E+00  0.00000000E+00
  0.00000000E+00  0.00000000E+00  0.00000000E+00
  0.00000000E+00  0.00000000E+00  0.00000000E+00
  0.00000000E+00  0.00000000E+00  0.00000000E+00
  0.00000000E+00  0.00000000E+00  0.00000000E+00
  0.00000000E+00  0.00000000E+00  0.00000000E+00
  0.00000000E+00  0.00000000E+00  0.00000000E+00
  0.00000000E+00  0.00000000E+00  0.00000000E+00
  0.00000000E+00  0.00000000E+00  0.00000000E+00
  0.00000000E+00  0.00000000E+00  0.00000000E+00
  0.00000000E+00  0.00000000E+00  0.00000000E+00
  0.00000000E+00  0.00000000E+00  0.00000000E+00
  0.00000000E+00  0.00000000E+00  0.00000000E+00
  0.00000000E+00  0.00000000E+00  0.00000000E+00
  0.00000000E+00  0.00000000E+00  0.00000000E+00
  0.00000000E+00  0.00000000E+00  0.00000000E+00
  0.00000000E+00  0.00000000E+00  0.00000000E+00
  0.00000000E+00  0.00000000E+00  0.00000000E+00
  0.00000000E+00  0.00000000E+00  0.00000000E+00
  0.00000000E+00  0.00000000E+00  0.00000000E+00
  0.00000000E+00  0.00000000E+00  0.00000000E+00
  0.00000000E+00  0.00000000E+00  0.00000000E+00
  0.00000000E+00  0.00000000E+00  0.00000000E+00
  0.00000000E+00  0.00000000E+00  0.00000000E+00
  0.00000000E+00  0.00000000E+00  0.00000000E+00
  0.00000000E+00  0.00000000E+00  0.00000000E+00
  0.00000000E+00  0.00000000E+00  0.00000000E+00
  0.00000000E+00  0.00000000E+00  0.00000000E+00
  0.00000000E+00  0.00000000E+00  0.00000000E+00
  0.00000000E+00  0.00000000E+00  0.00000000E+00
  0.00000000E+00  0.00000000E+00  0.00000000E+00
  0.00000000E+00  0.00000000E+00  0.00000000E+00
  0.00000000E+00  0.00000000E+00  0.00000000E+00
  0.00000000E+00  0.00000000E+00  0.00000000E+00
  0.00000000E+00  0.00000000E+00  0.00000000E+00
  0.00000000E+00  0.00000000E+00  0.00000000E+00
  0.00000000E+00  0.00000000E+00  0.00000000E+00
  0.00000000E+00  0.00000000E+00  0.00000000E+00
  0.00000000E+00  0.00000000E+00  0.00000000E+00
  0.00000000E+00  0.00000000E+00  0.00000000E+00
  0.00000000E+00  0.00000000E+00  0.00000000E+00
