C H O Si                                
   1.00000000000000     
     9.2874599999999994    0.0000000000000000    0.0000000000000000
     0.0000000000000000    8.7563099999999991    0.0000000000000000
     0.0000000000000000    0.0000000000000000   58.0000000000000000
   C    H    O    Si
    36    33    16    36
Selective dynamics
Direct
  0.9959602903400921  0.1309789413757141  0.0594541274439267   T   T   T
  0.3293787430477167  0.1311760986136351  0.0594995059314350   T   T   T
  0.6624996196305470  0.1310957056578403  0.0595277930346153   T   T   T
  0.9958275841956794  0.6312716280615258  0.0594752598364545   T   T   T
  0.3292118646596015  0.6308834445452118  0.0594962036096370   T   T   T
  0.6625839046972105  0.6309655136970663  0.0594916489862793   T   T   T
  0.1613508863355598  0.3767183735345916  0.1381861612692991   T   T   T
  0.4947251293329658  0.3767814934275098  0.1386693583824461   T   T   T
  0.8281031184316286  0.3766147300122413  0.1382676307877897   T   T   T
  0.1617469818615203  0.8766099494604345  0.1383197952447783   T   T   T
  0.4947950116331760  0.8743221556933456  0.1384090927790827   T   T   T
  0.8276421147370480  0.8766352342678395  0.1383687919092300   T   T   T
  0.3278610227391338  0.1266255974404658  0.1656562087994295   T   T   T
  0.6612859350783393  0.1270059488580297  0.1658027700830011   T   T   T
  0.9944823689288846  0.1258917530802438  0.1652388605510470   T   T   T
  0.3277419062510117  0.6266037733865455  0.1657087245385042   T   T   T
  0.6616424177542707  0.6267109986488297  0.1656867900194736   T   T   T
  0.9944958270861356  0.6267193731302180  0.1653239069672399   T   T   T
  0.1606565016525170  0.3777217358113184  0.1901795251253692   T   T   T
  0.4942529544299935  0.3844043339636282  0.1917390001243582   T   T   T
  0.8285865416248626  0.3790530352096097  0.1904571046612858   T   T   T
  0.1615634453968570  0.8804300685818981  0.1906801641955350   T   T   T
  0.4947746076507880  0.8773909149375584  0.1913657540122139   T   T   T
  0.8282875914148831  0.8811746622495032  0.1908750146808261   T   T   T
  0.1618158888927760  0.3770332146582386  0.0847881284295831   T   T   T
  0.4951442293715693  0.3770904129264873  0.0849649302675039   T   T   T
  0.8283522902372055  0.3769705354050937  0.0848146456464104   T   T   T
  0.1619368255136856  0.8772450094219379  0.0848276649399034   T   T   T
  0.4951004751482429  0.8767536727323296  0.0847941302566898   T   T   T
  0.8282132886248029  0.8772422898017591  0.0848529126037679   T   T   T
  0.3282786546211324  0.1263581494959106  0.1120659742730528   T   T   T
  0.6611373302503122  0.1263486794703136  0.1121116730394572   T   T   T
  0.9947088970777905  0.1266169152807012  0.1119143681901435   T   T   T
  0.3282031547493571  0.6264651780989727  0.1120555389833086   T   T   T
  0.6613647518404454  0.6264084140507695  0.1120508660970426   T   T   T
  0.9947203673569486  0.6270253396411822  0.1119143171012581   T   T   T
  0.0763347428471400  0.3641556746302578  0.0269460883367945   T   T   T
  0.4094029120867010  0.3641798663274516  0.0270575214433151   T   T   T
  0.7428152524721009  0.3640549848177810  0.0269955219809779   T   T   T
  0.0762355513772183  0.8642053187129034  0.0270086345644741   T   T   T
  0.4092109140524246  0.8630716192994032  0.0268740854170328   T   T   T
  0.7424652070805693  0.8639774308047466  0.0269856482795850   T   T   T
  0.3274019515685643  0.0584536439913993  0.0440027941236124   T   T   T
  0.6598377539484427  0.0581280425524007  0.0440565056654248   T   T   T
  0.9932713041407352  0.0583316031962942  0.0439533510321122   T   T   T
  0.3265364733958059  0.5577911491154355  0.0440416918819110   T   T   T
  0.6606563466291016  0.5576681111645262  0.0440614908986920   T   T   T
  0.9932837017611129  0.5589349597904892  0.0439447163250731   T   T   T
  0.8309817321172267  0.8071745458495722  0.2062294434570839   T   T   T
  0.8318463395736759  0.3063814412507157  0.2059285944237337   T   T   T
  0.1623688193353971  0.3052823305539383  0.2056913448016284   T   T   T
  0.4965559452007016  0.3098891364096844  0.2070345586579790   T   T   T
  0.1629084098867703  0.8065631591540116  0.2060311764642314   T   T   T
  0.5370502465411969  0.9303462697225139  0.2616235658409005   T   T   T
  0.0909282437638598  0.1115641661174602  0.2222128639273891   T   T   T
  0.4170678434306601  0.1034382372337799  0.2235895123026083   T   T   T
  0.7560709688947327  0.1181849270530613  0.2218082096417616   T   T   T
  0.0953913770728189  0.5972666336103187  0.2220615494391792   T   T   T
  0.3684514809270208  0.5648785602415912  0.2301201253698985   T   T   T
  0.7830062186813390  0.5898287716198853  0.2223363347395085   T   T   T
  0.5082876210911745  0.5430514233427161  0.2662212105526794   T   T   T
  0.4740051259053394  0.4556652248051221  0.3007862795544340   T   T   T
  0.5225238159873145  0.6231386152589578  0.3091258725071235   T   T   T
  0.2899154583519915  0.2740884457727689  0.2966276919252229   T   T   T
  0.4394385125624113  0.2164205168673249  0.2888230601570440   T   T   T
  0.6386722742342533  0.7733961635072037  0.3350377612325860   T   T   T
  0.5026199620519356  0.8623838423463739  0.3273869363227507   T   T   T
  0.5083482500298471  0.8829473412470641  0.2713836874414274   T   T   T
  0.5713319150255667  0.5362102016103744  0.2403211271887612   T   T   T
  0.1714628967976776  0.3367997265972383  0.0328486251466586   T   T   T
  0.5046152467664770  0.3370289335773560  0.0329330125263417   T   T   T
  0.8380280197834432  0.3367446186580870  0.0328725839468493   T   T   T
  0.1714306264322209  0.8367809093632418  0.0328682162609241   T   T   T
  0.5045364253402070  0.8368698037017869  0.0328234825194459   T   T   T
  0.8377011296423774  0.8369463823469609  0.0328775683076882   T   T   T
  0.3203808464228464  0.0878255743612056  0.2173421333008090   T   T   T
  0.6581222743548255  0.0884925023289115  0.2176261596754062   T   T   T
  0.9924994147771189  0.0873432680576553  0.2173361336649800   T   T   T
  0.2978374468515055  0.5865460467090736  0.2176238306586154   T   T   T
  0.6805592320854225  0.5829587611134206  0.2182296222007079   T   T   T
  0.9939652431170714  0.5827911410420139  0.2172298103547515   T   T   T
  0.5305925739398016  0.5472160022595060  0.2965091930102371   T   T   T
  0.3903194312164378  0.2684496213918491  0.3014313104385012   T   T   T
  0.5366807017088596  0.7608288714821514  0.3315600431974260   T   T   T
  0.4901913660385201  0.5032057794596442  0.2504999562454663   T   T   T
  0.4961226586964943  0.2484402474756907  0.0591019449456568   T   T   T
  0.8294108014198806  0.2481193843519818  0.0590170943960837   T   T   T
  0.1629241704239486  0.7482707271151664  0.0590254123357608   T   T   T
  0.4961027318793890  0.7482254790503188  0.0589833082865417   T   T   T
  0.8292913032037306  0.7483638510548190  0.0590381691148143   T   T   T
  0.1629113397682746  0.2481790177557485  0.0589960040139872   T   T   T
  0.9947273464632557  0.0006218826801790  0.1385654301007135   T   T   T
  0.3297136286249353  0.0006956416549284  0.1388996150721041   T   T   T
  0.6598318106076462  0.0009119488188803  0.1389879938363146   T   T   T
  0.9947834939486881  0.5010830367335488  0.1385486705760615   T   T   T
  0.3282501414752868  0.5018453879052029  0.1388987335773560   T   T   T
  0.6613711080545579  0.5017545579590413  0.1388785298941261   T   T   T
  0.1619164154866115  0.2484821478047693  0.1645798187538976   T   T   T
  0.4944265439611273  0.2508590776491956  0.1654648572528575   T   T   T
  0.8274429825711842  0.2489592207896283  0.1647132857856049   T   T   T
  0.1618907750941844  0.7505631676886595  0.1649195657225920   T   T   T
  0.4947080839224036  0.7541096743108738  0.1663857062346533   T   T   T
  0.8276083983139393  0.7510225229641647  0.1650236395904607   T   T   T
  0.3338591370960363  0.9908634396901818  0.1915780723763599   T   T   T
  0.6551494056855517  0.9914478948675141  0.1918490785819638   T   T   T
  0.9951359662172579  0.9969169204864121  0.1911634798565280   T   T   T
  0.3247691162496638  0.4996410896650127  0.1918677245984420   T   T   T
  0.9952195731753524  0.4953905354574425  0.1908842557007513   T   T   T
  0.6632746376278947  0.4988908330151616  0.1916472312190630   T   T   T
  0.9951978762426993  0.0009844273877881  0.0855268252267926   T   T   T
  0.3288823366766572  0.0011330818244865  0.0856097714047872   T   T   T
  0.6615631599488719  0.0011013214182713  0.0856458636821918   T   T   T
  0.9951739632673174  0.5009970179783146  0.0855307982243052   T   T   T
  0.3286831725852981  0.5011121775540215  0.0856399514908579   T   T   T
  0.6618541693703566  0.5012133879873016  0.0856318235808843   T   T   T
  0.1617687288677538  0.2511550477878760  0.1118155893011986   T   T   T
  0.4947898532754790  0.2515109480992156  0.1121017825081002   T   T   T
  0.8277632772592211  0.2511494531665568  0.1118678033514015   T   T   T
  0.1619009712849284  0.7514189986779217  0.1118905699365611   T   T   T
  0.4948804470675559  0.7514985103457665  0.1120187857967338   T   T   T
  0.8277170070558669  0.7514449049758284  0.1119135118412898   T   T   T
 
  0.00000000E+00  0.00000000E+00  0.00000000E+00
  0.00000000E+00  0.00000000E+00  0.00000000E+00
  0.00000000E+00  0.00000000E+00  0.00000000E+00
  0.00000000E+00  0.00000000E+00  0.00000000E+00
  0.00000000E+00  0.00000000E+00  0.00000000E+00
  0.00000000E+00  0.00000000E+00  0.00000000E+00
  0.00000000E+00  0.00000000E+00  0.00000000E+00
  0.00000000E+00  0.00000000E+00  0.00000000E+00
  0.00000000E+00  0.00000000E+00  0.00000000E+00
  0.00000000E+00  0.00000000E+00  0.00000000E+00
  0.00000000E+00  0.00000000E+00  0.00000000E+00
  0.00000000E+00  0.00000000E+00  0.00000000E+00
  0.00000000E+00  0.00000000E+00  0.00000000E+00
  0.00000000E+00  0.00000000E+00  0.00000000E+00
  0.00000000E+00  0.00000000E+00  0.00000000E+00
  0.00000000E+00  0.00000000E+00  0.00000000E+00
  0.00000000E+00  0.00000000E+00  0.00000000E+00
  0.00000000E+00  0.00000000E+00  0.00000000E+00
  0.00000000E+00  0.00000000E+00  0.00000000E+00
  0.00000000E+00  0.00000000E+00  0.00000000E+00
  0.00000000E+00  0.00000000E+00  0.00000000E+00
  0.00000000E+00  0.00000000E+00  0.00000000E+00
  0.00000000E+00  0.00000000E+00  0.00000000E+00
  0.00000000E+00  0.00000000E+00  0.00000000E+00
  0.00000000E+00  0.00000000E+00  0.00000000E+00
  0.00000000E+00  0.00000000E+00  0.00000000E+00
  0.00000000E+00  0.00000000E+00  0.00000000E+00
  0.00000000E+00  0.00000000E+00  0.00000000E+00
  0.00000000E+00  0.00000000E+00  0.00000000E+00
  0.00000000E+00  0.00000000E+00  0.00000000E+00
  0.00000000E+00  0.00000000E+00  0.00000000E+00
  0.00000000E+00  0.00000000E+00  0.00000000E+00
  0.00000000E+00  0.00000000E+00  0.00000000E+00
  0.00000000E+00  0.00000000E+00  0.00000000E+00
  0.00000000E+00  0.00000000E+00  0.00000000E+00
  0.00000000E+00  0.00000000E+00  0.00000000E+00
  0.00000000E+00  0.00000000E+00  0.00000000E+00
  0.00000000E+00  0.00000000E+00  0.00000000E+00
  0.00000000E+00  0.00000000E+00  0.00000000E+00
  0.00000000E+00  0.00000000E+00  0.00000000E+00
  0.00000000E+00  0.00000000E+00  0.00000000E+00
  0.00000000E+00  0.00000000E+00  0.00000000E+00
  0.00000000E+00  0.00000000E+00  0.00000000E+00
  0.00000000E+00  0.00000000E+00  0.00000000E+00
  0.00000000E+00  0.00000000E+00  0.00000000E+00
  0.00000000E+00  0.00000000E+00  0.00000000E+00
  0.00000000E+00  0.00000000E+00  0.00000000E+00
  0.00000000E+00  0.00000000E+00  0.00000000E+00
  0.00000000E+00  0.00000000E+00  0.00000000E+00
  0.00000000E+00  0.00000000E+00  0.00000000E+00
  0.00000000E+00  0.00000000E+00  0.00000000E+00
  0.00000000E+00  0.00000000E+00  0.00000000E+00
  0.00000000E+00  0.00000000E+00  0.00000000E+00
  0.00000000E+00  0.00000000E+00  0.00000000E+00
  0.00000000E+00  0.00000000E+00  0.00000000E+00
  0.00000000E+00  0.00000000E+00  0.00000000E+00
  0.00000000E+00  0.00000000E+00  0.00000000E+00
  0.00000000E+00  0.00000000E+00  0.00000000E+00
  0.00000000E+00  0.00000000E+00  0.00000000E+00
  0.00000000E+00  0.00000000E+00  0.00000000E+00
  0.00000000E+00  0.00000000E+00  0.00000000E+00
  0.00000000E+00  0.00000000E+00  0.00000000E+00
  0.00000000E+00  0.00000000E+00  0.00000000E+00
  0.00000000E+00  0.00000000E+00  0.00000000E+00
  0.00000000E+00  0.00000000E+00  0.00000000E+00
  0.00000000E+00  0.00000000E+00  0.00000000E+00
  0.00000000E+00  0.00000000E+00  0.00000000E+00
  0.00000000E+00  0.00000000E+00  0.00000000E+00
  0.00000000E+00  0.00000000E+00  0.00000000E+00
  0.00000000E+00  0.00000000E+00  0.00000000E+00
  0.00000000E+00  0.00000000E+00  0.00000000E+00
  0.00000000E+00  0.00000000E+00  0.00000000E+00
  0.00000000E+00  0.00000000E+00  0.00000000E+00
  0.00000000E+00  0.00000000E+00  0.00000000E+00
  0.00000000E+00  0.00000000E+00  0.00000000E+00
  0.00000000E+00  0.00000000E+00  0.00000000E+00
  0.00000000E+00  0.00000000E+00  0.00000000E+00
  0.00000000E+00  0.00000000E+00  0.00000000E+00
  0.00000000E+00  0.00000000E+00  0.00000000E+00
  0.00000000E+00  0.00000000E+00  0.00000000E+00
  0.00000000E+00  0.00000000E+00  0.00000000E+00
  0.00000000E+00  0.00000000E+00  0.00000000E+00
  0.00000000E+00  0.00000000E+00  0.00000000E+00
  0.00000000E+00  0.00000000E+00  0.00000000E+00
  0.00000000E+00  0.00000000E+00  0.00000000E+00
  0.00000000E+00  0.00000000E+00  0.00000000E+00
  0.00000000E+00  0.00000000E+00  0.00000000E+00
  0.00000000E+00  0.00000000E+00  0.00000000E+00
  0.00000000E+00  0.00000000E+00  0.00000000E+00
  0.00000000E+00  0.00000000E+00  0.00000000E+00
  0.00000000E+00  0.00000000E+00  0.00000000E+00
  0.00000000E+00  0.00000000E+00  0.00000000E+00
  0.00000000E+00  0.00000000E+00  0.00000000E+00
  0.00000000E+00  0.00000000E+00  0.00000000E+00
  0.00000000E+00  0.00000000E+00  0.00000000E+00
  0.00000000E+00  0.00000000E+00  0.00000000E+00
  0.00000000E+00  0.00000000E+00  0.00000000E+00
  0.00000000E+00  0.00000000E+00  0.00000000E+00
  0.00000000E+00  0.00000000E+00  0.00000000E+00
  0.00000000E+00  0.00000000E+00  0.00000000E+00
  0.00000000E+00  0.00000000E+00  0.00000000E+00
  0.00000000E+00  0.00000000E+00  0.00000000E+00
  0.00000000E+00  0.00000000E+00  0.00000000E+00
  0.00000000E+00  0.00000000E+00  0.00000000E+00
  0.00000000E+00  0.00000000E+00  0.00000000E+00
  0.00000000E+00  0.00000000E+00  0.00000000E+00
  0.00000000E+00  0.00000000E+00  0.00000000E+00
  0.00000000E+00  0.00000000E+00  0.00000000E+00
  0.00000000E+00  0.00000000E+00  0.00000000E+00
  0.00000000E+00  0.00000000E+00  0.00000000E+00
  0.00000000E+00  0.00000000E+00  0.00000000E+00
  0.00000000E+00  0.00000000E+00  0.00000000E+00
  0.00000000E+00  0.00000000E+00  0.00000000E+00
  0.00000000E+00  0.00000000E+00  0.00000000E+00
  0.00000000E+00  0.00000000E+00  0.00000000E+00
  0.00000000E+00  0.00000000E+00  0.00000000E+00
  0.00000000E+00  0.00000000E+00  0.00000000E+00
  0.00000000E+00  0.00000000E+00  0.00000000E+00
  0.00000000E+00  0.00000000E+00  0.00000000E+00
  0.00000000E+00  0.00000000E+00  0.00000000E+00
  0.00000000E+00  0.00000000E+00  0.00000000E+00
