C H O Si                                
   1.00000000000000     
     9.2874599999999994    0.0000000000000000    0.0000000000000000
     0.0000000000000000    8.7562999999999995    0.0000000000000000
     0.0000000000000000    0.0000000000000000   58.0000000000000000
   C    H    O    Si
    36    24    12    36
Selective dynamics
Direct
  0.0014258515604762  0.1361216778110713  0.4342535175840281   T   T   T
  0.0014258515604762  0.6361216778110714  0.4342535175840281   T   T   T
  0.3347591848934779  0.1361216778110713  0.4342535175840281   T   T   T
  0.3347591848934779  0.6361216778110714  0.4342535175840281   T   T   T
  0.6680925182274745  0.1361216778110713  0.4342535175840281   T   T   T
  0.6680925182274745  0.6361216778110714  0.4342535175840281   T   T   T
  0.1682622443639129  0.3820172598160811  0.4596340930039204   T   T   T
  0.1682622443639129  0.8820172598160810  0.4596340930039204   T   T   T
  0.5015955776979094  0.3820172598160811  0.4596340930039204   T   T   T
  0.5015955776979094  0.8820172598160810  0.4596340930039204   T   T   T
  0.8349289110309112  0.3820172598160811  0.4596340930039204   T   T   T
  0.8349289110309112  0.8820172598160810  0.4596340930039204   T   T   T
  0.0016505849279958  0.1317882147483857  0.4868097685252163   T   T   T
  0.0016505849279958  0.6317882147483856  0.4868097685252163   T   T   T
  0.3349839182609976  0.1317882147483857  0.4868097685252163   T   T   T
  0.3349839182609976  0.6317882147483856  0.4868097685252163   T   T   T
  0.6683172515950013  0.1317882147483857  0.4868097685252163   T   T   T
  0.6683172515950013  0.6317882147483856  0.4868097685252163   T   T   T
  0.1683173401259970  0.3817883835573809  0.5131902314747836   T   T   T
  0.1683173401259970  0.8817883835573809  0.5131902314747836   T   T   T
  0.5016506734600008  0.3817883835573809  0.5131902314747836   T   T   T
  0.5016506734600008  0.8817883835573809  0.5131902314747836   T   T   T
  0.8349840067930026  0.3817883835573809  0.5131902314747836   T   T   T
  0.8349840067930026  0.8817883835573809  0.5131902314747836   T   T   T
  0.0015954891659117  0.1320170910070859  0.5403659069960797   T   T   T
  0.0015954891659117  0.6320170910070858  0.5403659069960797   T   T   T
  0.3349288224989063  0.1320170910070859  0.5403659069960797   T   T   T
  0.3349288224989063  0.6320170910070858  0.5403659069960797   T   T   T
  0.6682621558329099  0.1320170910070859  0.5403659069960797   T   T   T
  0.6682621558329099  0.6320170910070858  0.5403659069960797   T   T   T
  0.1680926067584775  0.3861218466200665  0.5657464824159720   T   T   T
  0.1680926067584775  0.8861218466200667  0.5657464824159720   T   T   T
  0.5014259400924740  0.3861218466200665  0.5657464824159720   T   T   T
  0.5014259400924740  0.8861218466200667  0.5657464824159720   T   T   T
  0.8347592734254757  0.3861218466200665  0.5657464824159720   T   T   T
  0.8347592734254757  0.8861218466200667  0.5657464824159720   T   T   T
  0.0039081792281968  0.0632706332342475  0.4187714827871681   T   T   T
  0.0039081792281968  0.5632706332342474  0.4187714827871681   T   T   T
  0.3372415125622005  0.0632706332342475  0.4187714827871681   T   T   T
  0.3372415125622005  0.5632706332342474  0.4187714827871681   T   T   T
  0.6705748458952021  0.0632706332342475  0.4187714827871681   T   T   T
  0.6705748458952021  0.5632706332342474  0.4187714827871681   T   T   T
  0.1705750977721996  0.3132708020432498  0.5812285172128321   T   T   T
  0.1705750977721996  0.8132708020432498  0.5812285172128321   T   T   T
  0.5039084311061961  0.3132708020432498  0.5812285172128321   T   T   T
  0.5039084311061961  0.8132708020432498  0.5812285172128321   T   T   T
  0.8372417644391978  0.3132708020432498  0.5812285172128321   T   T   T
  0.8372417644391978  0.8132708020432498  0.5812285172128321   T   T   T
  0.0866181845836756  0.1133431583310001  0.5991732546048578   T   T   T
  0.0866181845836756  0.6133431583309999  0.5991732546048578   T   T   T
  0.4199515179166774  0.1133431583310001  0.5991732546048578   T   T   T
  0.4199515179166774  0.6133431583309999  0.5991732546048578   T   T   T
  0.7532848512496720  0.1133431583310001  0.5991732546048578   T   T   T
  0.7532848512496720  0.6133431583309999  0.5991732546048578   T   T   T
  0.2532848206976773  0.3633434027679969  0.4008267453951421   T   T   T
  0.2532848206976773  0.8633434027679968  0.4008267453951421   T   T   T
  0.5866181540306720  0.3633434027679969  0.4008267453951421   T   T   T
  0.5866181540306720  0.8633434027679968  0.4008267453951421   T   T   T
  0.9199514873636737  0.3633434027679969  0.4008267453951421   T   T   T
  0.9199514873636737  0.8633434027679968  0.4008267453951421   T   T   T
  0.1592867697252606  0.3431606231950115  0.4077468425117425   T   T   T
  0.1592867697252606  0.8431606231950116  0.4077468425117425   T   T   T
  0.4926201030592571  0.3431606231950115  0.4077468425117425   T   T   T
  0.4926201030592571  0.8431606231950116  0.4077468425117425   T   T   T
  0.8259534363922587  0.3431606231950115  0.4077468425117425   T   T   T
  0.8259534363922587  0.8431606231950116  0.4077468425117425   T   T   T
  0.9926200831922618  0.0931604543860092  0.5922531574882575   T   T   T
  0.9926200831922618  0.5931604543860093  0.5922531574882575   T   T   T
  0.3259534165262585  0.0931604543860092  0.5922531574882575   T   T   T
  0.3259534165262585  0.5931604543860093  0.5922531574882575   T   T   T
  0.6592867498592601  0.0931604543860092  0.5922531574882575   T   T   T
  0.6592867498592601  0.5931604543860093  0.5922531574882575   T   T   T
  0.1679418213854853  0.2533520127367823  0.4335768636358723   T   T   T
  0.1679418213854853  0.7533520127367820  0.4335768636358723   T   T   T
  0.5012751547194819  0.2533520127367823  0.4335768636358723   T   T   T
  0.5012751547194819  0.7533520127367820  0.4335768636358723   T   T   T
  0.8346084880524837  0.2533520127367823  0.4335768636358723   T   T   T
  0.8346084880524837  0.7533520127367820  0.4335768636358723   T   T   T
  0.0015703247197156  0.0062822491879978  0.4602366420290895   T   T   T
  0.0015703247197156  0.5062822491879979  0.4602366420290895   T   T   T
  0.3349036580527173  0.0062822491879978  0.4602366420290895   T   T   T
  0.3349036580527173  0.5062822491879979  0.4602366420290895   T   T   T
  0.6682369913867137  0.0062822491879978  0.4602366420290895   T   T   T
  0.6682369913867137  0.5062822491879979  0.4602366420290895   T   T   T
  0.1683127057002849  0.2566029634644234  0.4865643857182579   T   T   T
  0.1683127057002849  0.7566029634644234  0.4865643857182579   T   T   T
  0.5016460390342814  0.2566029634644234  0.4865643857182579   T   T   T
  0.5016460390342814  0.7566029634644234  0.4865643857182579   T   T   T
  0.8349793723672831  0.2566029634644234  0.4865643857182579   T   T   T
  0.8349793723672831  0.7566029634644234  0.4865643857182579   T   T   T
  0.0016459505022837  0.0066027946544263  0.5134356142817422   T   T   T
  0.0016459505022837  0.5066027946544263  0.5134356142817422   T   T   T
  0.3349792838352855  0.0066027946544263  0.5134356142817422   T   T   T
  0.3349792838352855  0.5066027946544263  0.5134356142817422   T   T   T
  0.6683126171692819  0.0066027946544263  0.5134356142817422   T   T   T
  0.6683126171692819  0.5066027946544263  0.5134356142817422   T   T   T
  0.1682370799177168  0.2562824179979949  0.5397633579709106   T   T   T
  0.1682370799177168  0.7562824179979950  0.5397633579709106   T   T   T
  0.5015704132517131  0.2562824179979949  0.5397633579709106   T   T   T
  0.5015704132517131  0.7562824179979950  0.5397633579709106   T   T   T
  0.8349037465847149  0.2562824179979949  0.5397633579709106   T   T   T
  0.8349037465847149  0.7562824179979950  0.5397633579709106   T   T   T
  0.0012750661874841  0.0033518439267851  0.5664231363641279   T   T   T
  0.0012750661874841  0.5033518439267849  0.5664231363641279   T   T   T
  0.3346083995204859  0.0033518439267851  0.5664231363641279   T   T   T
  0.3346083995204859  0.5033518439267849  0.5664231363641279   T   T   T
  0.6679417328544824  0.0033518439267851  0.5664231363641279   T   T   T
  0.6679417328544824  0.5033518439267849  0.5664231363641279   T   T   T
 
  0.00000000E+00  0.00000000E+00  0.00000000E+00
  0.00000000E+00  0.00000000E+00  0.00000000E+00
  0.00000000E+00  0.00000000E+00  0.00000000E+00
  0.00000000E+00  0.00000000E+00  0.00000000E+00
  0.00000000E+00  0.00000000E+00  0.00000000E+00
  0.00000000E+00  0.00000000E+00  0.00000000E+00
  0.00000000E+00  0.00000000E+00  0.00000000E+00
  0.00000000E+00  0.00000000E+00  0.00000000E+00
  0.00000000E+00  0.00000000E+00  0.00000000E+00
  0.00000000E+00  0.00000000E+00  0.00000000E+00
  0.00000000E+00  0.00000000E+00  0.00000000E+00
  0.00000000E+00  0.00000000E+00  0.00000000E+00
  0.00000000E+00  0.00000000E+00  0.00000000E+00
  0.00000000E+00  0.00000000E+00  0.00000000E+00
  0.00000000E+00  0.00000000E+00  0.00000000E+00
  0.00000000E+00  0.00000000E+00  0.00000000E+00
  0.00000000E+00  0.00000000E+00  0.00000000E+00
  0.00000000E+00  0.00000000E+00  0.00000000E+00
  0.00000000E+00  0.00000000E+00  0.00000000E+00
  0.00000000E+00  0.00000000E+00  0.00000000E+00
  0.00000000E+00  0.00000000E+00  0.00000000E+00
  0.00000000E+00  0.00000000E+00  0.00000000E+00
  0.00000000E+00  0.00000000E+00  0.00000000E+00
  0.00000000E+00  0.00000000E+00  0.00000000E+00
  0.00000000E+00  0.00000000E+00  0.00000000E+00
  0.00000000E+00  0.00000000E+00  0.00000000E+00
  0.00000000E+00  0.00000000E+00  0.00000000E+00
  0.00000000E+00  0.00000000E+00  0.00000000E+00
  0.00000000E+00  0.00000000E+00  0.00000000E+00
  0.00000000E+00  0.00000000E+00  0.00000000E+00
  0.00000000E+00  0.00000000E+00  0.00000000E+00
  0.00000000E+00  0.00000000E+00  0.00000000E+00
  0.00000000E+00  0.00000000E+00  0.00000000E+00
  0.00000000E+00  0.00000000E+00  0.00000000E+00
  0.00000000E+00  0.00000000E+00  0.00000000E+00
  0.00000000E+00  0.00000000E+00  0.00000000E+00
  0.00000000E+00  0.00000000E+00  0.00000000E+00
  0.00000000E+00  0.00000000E+00  0.00000000E+00
  0.00000000E+00  0.00000000E+00  0.00000000E+00
  0.00000000E+00  0.00000000E+00  0.00000000E+00
  0.00000000E+00  0.00000000E+00  0.00000000E+00
  0.00000000E+00  0.00000000E+00  0.00000000E+00
  0.00000000E+00  0.00000000E+00  0.00000000E+00
  0.00000000E+00  0.00000000E+00  0.00000000E+00
  0.00000000E+00  0.00000000E+00  0.00000000E+00
  0.00000000E+00  0.00000000E+00  0.00000000E+00
  0.00000000E+00  0.00000000E+00  0.00000000E+00
  0.00000000E+00  0.00000000E+00  0.00000000E+00
  0.00000000E+00  0.00000000E+00  0.00000000E+00
  0.00000000E+00  0.00000000E+00  0.00000000E+00
  0.00000000E+00  0.00000000E+00  0.00000000E+00
  0.00000000E+00  0.00000000E+00  0.00000000E+00
  0.00000000E+00  0.00000000E+00  0.00000000E+00
  0.00000000E+00  0.00000000E+00  0.00000000E+00
  0.00000000E+00  0.00000000E+00  0.00000000E+00
  0.00000000E+00  0.00000000E+00  0.00000000E+00
  0.00000000E+00  0.00000000E+00  0.00000000E+00
  0.00000000E+00  0.00000000E+00  0.00000000E+00
  0.00000000E+00  0.00000000E+00  0.00000000E+00
  0.00000000E+00  0.00000000E+00  0.00000000E+00
  0.00000000E+00  0.00000000E+00  0.00000000E+00
  0.00000000E+00  0.00000000E+00  0.00000000E+00
  0.00000000E+00  0.00000000E+00  0.00000000E+00
  0.00000000E+00  0.00000000E+00  0.00000000E+00
  0.00000000E+00  0.00000000E+00  0.00000000E+00
  0.00000000E+00  0.00000000E+00  0.00000000E+00
  0.00000000E+00  0.00000000E+00  0.00000000E+00
  0.00000000E+00  0.00000000E+00  0.00000000E+00
  0.00000000E+00  0.00000000E+00  0.00000000E+00
  0.00000000E+00  0.00000000E+00  0.00000000E+00
  0.00000000E+00  0.00000000E+00  0.00000000E+00
  0.00000000E+00  0.00000000E+00  0.00000000E+00
  0.00000000E+00  0.00000000E+00  0.00000000E+00
  0.00000000E+00  0.00000000E+00  0.00000000E+00
  0.00000000E+00  0.00000000E+00  0.00000000E+00
  0.00000000E+00  0.00000000E+00  0.00000000E+00
  0.00000000E+00  0.00000000E+00  0.00000000E+00
  0.00000000E+00  0.00000000E+00  0.00000000E+00
  0.00000000E+00  0.00000000E+00  0.00000000E+00
  0.00000000E+00  0.00000000E+00  0.00000000E+00
  0.00000000E+00  0.00000000E+00  0.00000000E+00
  0.00000000E+00  0.00000000E+00  0.00000000E+00
  0.00000000E+00  0.00000000E+00  0.00000000E+00
  0.00000000E+00  0.00000000E+00  0.00000000E+00
  0.00000000E+00  0.00000000E+00  0.00000000E+00
  0.00000000E+00  0.00000000E+00  0.00000000E+00
  0.00000000E+00  0.00000000E+00  0.00000000E+00
  0.00000000E+00  0.00000000E+00  0.00000000E+00
  0.00000000E+00  0.00000000E+00  0.00000000E+00
  0.00000000E+00  0.00000000E+00  0.00000000E+00
  0.00000000E+00  0.00000000E+00  0.00000000E+00
  0.00000000E+00  0.00000000E+00  0.00000000E+00
  0.00000000E+00  0.00000000E+00  0.00000000E+00
  0.00000000E+00  0.00000000E+00  0.00000000E+00
  0.00000000E+00  0.00000000E+00  0.00000000E+00
  0.00000000E+00  0.00000000E+00  0.00000000E+00
  0.00000000E+00  0.00000000E+00  0.00000000E+00
  0.00000000E+00  0.00000000E+00  0.00000000E+00
  0.00000000E+00  0.00000000E+00  0.00000000E+00
  0.00000000E+00  0.00000000E+00  0.00000000E+00
  0.00000000E+00  0.00000000E+00  0.00000000E+00
  0.00000000E+00  0.00000000E+00  0.00000000E+00
  0.00000000E+00  0.00000000E+00  0.00000000E+00
  0.00000000E+00  0.00000000E+00  0.00000000E+00
  0.00000000E+00  0.00000000E+00  0.00000000E+00
  0.00000000E+00  0.00000000E+00  0.00000000E+00
  0.00000000E+00  0.00000000E+00  0.00000000E+00
  0.00000000E+00  0.00000000E+00  0.00000000E+00
