C H O Si                                
   1.00000000000000     
     9.2874599999999994    0.0000000000000000    0.0000000000000000
     0.0000000000000000    8.7563099999999991    0.0000000000000000
     0.0000000000000000    0.0000000000000000   58.0000000000000000
   C    H    O    Si
    36    32    16    36
Selective dynamics
Direct
  0.9935947860144787  0.1264758600197728  0.0604151071989335   T   T   T
  0.3269707529828949  0.1264276426671826  0.0605349621158732   T   T   T
  0.6602168119674749  0.1264348336031000  0.0605003181984545   T   T   T
  0.9935706043970702  0.6265770511191389  0.0604384039012051   T   T   T
  0.3269647164900384  0.6263033464578563  0.0605510125036449   T   T   T
  0.6602347797875503  0.6264203536372592  0.0604774903935213   T   T   T
  0.1603772660866122  0.3721062826798238  0.1393184595218522   T   T   T
  0.4935296487395670  0.3725858111636133  0.1395729830404721   T   T   T
  0.8269133178922072  0.3720213708133160  0.1392581098530322   T   T   T
  0.1606104668846462  0.8722059450283007  0.1393773993537545   T   T   T
  0.4935848486032985  0.8719228886180665  0.1394472497822335   T   T   T
  0.8267471039159028  0.8722818088394415  0.1393576281010267   T   T   T
  0.3277980499819190  0.1227479673684457  0.1666295549683445   T   T   T
  0.6598881843734405  0.1227669739904203  0.1666322487388245   T   T   T
  0.9940082215857463  0.1216186930195430  0.1663222186963948   T   T   T
  0.3269448067147813  0.6222562517118263  0.1667858293608587   T   T   T
  0.6607722733209400  0.6224438378697470  0.1665243857053802   T   T   T
  0.9939055926365964  0.6223038033488558  0.1664361743406275   T   T   T
  0.1608764454410319  0.3743884059983624  0.1915916340107935   T   T   T
  0.4942930327429293  0.3801709786476555  0.1926742365879666   T   T   T
  0.8283000632045702  0.3741610094011523  0.1914649495325681   T   T   T
  0.1604428367394643  0.8769827812210333  0.1918726760354210   T   T   T
  0.4939273677692311  0.8760295341739958  0.1920239681813823   T   T   T
  0.8274288496957137  0.8769733851792034  0.1918167459482995   T   T   T
  0.1600820025170846  0.3723974067247693  0.0858137317142520   T   T   T
  0.4933657514645607  0.3723633619163566  0.0859310379088997   T   T   T
  0.8266708669971583  0.3723442617604901  0.0857582439863537   T   T   T
  0.1601388436739934  0.8723755775802622  0.0858362488814795   T   T   T
  0.4933532958649619  0.8723248419694749  0.0858801067443728   T   T   T
  0.8266266084586548  0.8724252139358634  0.0858108229054166   T   T   T
  0.3267710954377355  0.1221863471332332  0.1130408550643519   T   T   T
  0.6599295210859334  0.1221940733542349  0.1130282963774497   T   T   T
  0.9933706191397756  0.1220988422969340  0.1129166908955498   T   T   T
  0.3267006799650711  0.6221209183829105  0.1130805796466435   T   T   T
  0.6600207509995581  0.6221677543529748  0.1129873909743551   T   T   T
  0.9933209480933688  0.6223287590473497  0.1129450392727541   T   T   T
  0.0772291644814221  0.3545450462734530  0.0269416261114686   T   T   T
  0.4090726488223877  0.3544465334254046  0.0271299294640561   T   T   T
  0.7420313289009117  0.3543340930879400  0.0269757910292789   T   T   T
  0.0774698362319509  0.8545897615067996  0.0269540618938849   T   T   T
  0.4086301436368782  0.8542325842713776  0.0271058990681306   T   T   T
  0.7421932080432782  0.8544523149280780  0.0270083500174697   T   T   T
  0.3245247101742393  0.0538111676209560  0.0450289449159019   T   T   T
  0.6571003470392108  0.0537930892916634  0.0450006944480948   T   T   T
  0.9910376395654173  0.0539690392091914  0.0449011958622633   T   T   T
  0.3243536664384550  0.5535590705206752  0.0450563968600495   T   T   T
  0.6573782696753623  0.5538349606565113  0.0449707620803653   T   T   T
  0.9909429228752265  0.5540829128559214  0.0449189871168553   T   T   T
  0.8292320077315876  0.8049492659073486  0.2073701946107693   T   T   T
  0.8306074968928340  0.3017705480611317  0.2069980210464161   T   T   T
  0.1620999020137737  0.3021666997574551  0.2071436772216818   T   T   T
  0.4978885701799169  0.3062293818465135  0.2080454714277618   T   T   T
  0.1627275576305510  0.8040430381446290  0.2073414208931232   T   T   T
  0.4942939368573702  0.8042304012603281  0.2076287231634026   T   T   T
  0.0783271954759578  0.1052054031759403  0.2253400149606221   T   T   T
  0.4123832380281123  0.1032242036528979  0.2255930029626459   T   T   T
  0.7468130128527105  0.1047010593916473  0.2253636569537999   T   T   T
  0.0835144878636607  0.5997624726690670  0.2244184515672994   T   T   T
  0.3728965280456564  0.6170102519668264  0.2300863420781599   T   T   T
  0.7801094202272305  0.5925409897852356  0.2230734981242162   T   T   T
  0.5145394676692241  0.6367139269559464  0.2645875639651246   T   T   T
  0.5063664471439741  0.4777728759232858  0.2937138921691332   T   T   T
  0.5783956432782636  0.6310114128629951  0.3025906766758772   T   T   T
  0.3050820683147178  0.3747508542839443  0.3101238441554775   T   T   T
  0.4090216262559890  0.2433833738216640  0.3033708645924736   T   T   T
  0.6494875484994321  0.7421452954719141  0.3370536130028970   T   T   T
  0.4858020947482046  0.7651218173594843  0.3330606191640175   T   T   T
  0.5699428287090047  0.6558836457076158  0.2390532343172652   T   T   T
  0.1705530606649938  0.3336494429924516  0.0340143613000638   T   T   T
  0.5028611675129612  0.3338030977719209  0.0340834411285702   T   T   T
  0.8358093339671810  0.3331753650488049  0.0338979110018717   T   T   T
  0.1707418668742308  0.8336954673447733  0.0340434588132158   T   T   T
  0.5025198241143503  0.8338162763131136  0.0340465565986099   T   T   T
  0.8359132302881409  0.8335608414541720  0.0339603461386735   T   T   T
  0.3188992628532144  0.0838964954141021  0.2184369605485112   T   T   T
  0.6528561317190765  0.0838738972179150  0.2184464059848393   T   T   T
  0.9849284957366626  0.0845193465025575  0.2182432357083104   T   T   T
  0.2985058715430474  0.5842743833483659  0.2185160878819873   T   T   T
  0.6787366721008986  0.5859629337337671  0.2181701523167874   T   T   T
  0.9866077060301804  0.5807201025133450  0.2181667277255170   T   T   T
  0.5781658359471954  0.5573583019269291  0.2895455068724203   T   T   T
  0.3705053508754007  0.3406994945746780  0.2980227965245115   T   T   T
  0.5786414709983259  0.7666572573958302  0.3252126034179892   T   T   T
  0.4892945103657359  0.6851865481529646  0.2494546407522641   T   T   T
  0.4937689874207349  0.2437531544880566  0.0598601914427925   T   T   T
  0.8270351890138500  0.2436900504637838  0.0597157202502705   T   T   T
  0.1605915398527161  0.7436222885397202  0.0598204795110043   T   T   T
  0.4937097657469683  0.7437009655061397  0.0598238044371444   T   T   T
  0.8269964072337587  0.7437845641633536  0.0597598699713725   T   T   T
  0.1605484882326990  0.2436578192039163  0.0597958318737259   T   T   T
  0.9937246532757587  0.9966586353211669  0.1395259931110672   T   T   T
  0.3273550341256464  0.9972501305317349  0.1396927673544751   T   T   T
  0.6598696617718451  0.9972465413949841  0.1396865545295843   T   T   T
  0.9936555182227461  0.4969548851481820  0.1395387764140957   T   T   T
  0.3268322474979912  0.4972903791559717  0.1397959706573627   T   T   T
  0.6603567497157006  0.4970827140211914  0.1396203908635521   T   T   T
  0.1605740374416454  0.2458186532171770  0.1657989151233910   T   T   T
  0.4937295991390694  0.2484705594795567  0.1663546060507980   T   T   T
  0.8274379233789724  0.2453517308762148  0.1656948662725640   T   T   T
  0.1605316625490030  0.7467213585074444  0.1659825667255137   T   T   T
  0.4936049482597663  0.7462528733938268  0.1660666214752611   T   T   T
  0.8272820849396744  0.7467718088534377  0.1659267411886219   T   T   T
  0.3271822032420828  0.9938484804506226  0.1926733031494833   T   T   T
  0.6605026852970369  0.9937898822622658  0.1926876056865906   T   T   T
  0.9938660072569829  0.9941291845874486  0.1924879657394411   T   T   T
  0.3249738343601850  0.4956469807634797  0.1932864976590579   T   T   T
  0.9945230712493340  0.4916335768713102  0.1922278635039636   T   T   T
  0.6635934374223329  0.4937850132303587  0.1924887541481141   T   T   T
  0.9934180734576894  0.9965407690351552  0.0863676487717112   T   T   T
  0.3268057399273611  0.9965737694749518  0.0864651647020534   T   T   T
  0.6599741445951143  0.9965927141007527  0.0864489622471573   T   T   T
  0.9933996188067248  0.4966102468252110  0.0863765517251135   T   T   T
  0.3267812524987448  0.4965253621658507  0.0865037680534347   T   T   T
  0.6600449977664096  0.4965727646352927  0.0864222344737444   T   T   T
  0.1600867566137346  0.2470575492363409  0.1127225561141105   T   T   T
  0.4933451302911643  0.2471548409551746  0.1128849233195589   T   T   T
  0.8267105819175695  0.2469415232125785  0.1126702487662001   T   T   T
  0.1602241747298187  0.7470678002333907  0.1127659445477561   T   T   T
  0.4933603441794772  0.7469974528882610  0.1127995792615309   T   T   T
  0.8265969225252575  0.7471023529332951  0.1127340003998600   T   T   T
 
  0.00000000E+00  0.00000000E+00  0.00000000E+00
  0.00000000E+00  0.00000000E+00  0.00000000E+00
  0.00000000E+00  0.00000000E+00  0.00000000E+00
  0.00000000E+00  0.00000000E+00  0.00000000E+00
  0.00000000E+00  0.00000000E+00  0.00000000E+00
  0.00000000E+00  0.00000000E+00  0.00000000E+00
  0.00000000E+00  0.00000000E+00  0.00000000E+00
  0.00000000E+00  0.00000000E+00  0.00000000E+00
  0.00000000E+00  0.00000000E+00  0.00000000E+00
  0.00000000E+00  0.00000000E+00  0.00000000E+00
  0.00000000E+00  0.00000000E+00  0.00000000E+00
  0.00000000E+00  0.00000000E+00  0.00000000E+00
  0.00000000E+00  0.00000000E+00  0.00000000E+00
  0.00000000E+00  0.00000000E+00  0.00000000E+00
  0.00000000E+00  0.00000000E+00  0.00000000E+00
  0.00000000E+00  0.00000000E+00  0.00000000E+00
  0.00000000E+00  0.00000000E+00  0.00000000E+00
  0.00000000E+00  0.00000000E+00  0.00000000E+00
  0.00000000E+00  0.00000000E+00  0.00000000E+00
  0.00000000E+00  0.00000000E+00  0.00000000E+00
  0.00000000E+00  0.00000000E+00  0.00000000E+00
  0.00000000E+00  0.00000000E+00  0.00000000E+00
  0.00000000E+00  0.00000000E+00  0.00000000E+00
  0.00000000E+00  0.00000000E+00  0.00000000E+00
  0.00000000E+00  0.00000000E+00  0.00000000E+00
  0.00000000E+00  0.00000000E+00  0.00000000E+00
  0.00000000E+00  0.00000000E+00  0.00000000E+00
  0.00000000E+00  0.00000000E+00  0.00000000E+00
  0.00000000E+00  0.00000000E+00  0.00000000E+00
  0.00000000E+00  0.00000000E+00  0.00000000E+00
  0.00000000E+00  0.00000000E+00  0.00000000E+00
  0.00000000E+00  0.00000000E+00  0.00000000E+00
  0.00000000E+00  0.00000000E+00  0.00000000E+00
  0.00000000E+00  0.00000000E+00  0.00000000E+00
  0.00000000E+00  0.00000000E+00  0.00000000E+00
  0.00000000E+00  0.00000000E+00  0.00000000E+00
  0.00000000E+00  0.00000000E+00  0.00000000E+00
  0.00000000E+00  0.00000000E+00  0.00000000E+00
  0.00000000E+00  0.00000000E+00  0.00000000E+00
  0.00000000E+00  0.00000000E+00  0.00000000E+00
  0.00000000E+00  0.00000000E+00  0.00000000E+00
  0.00000000E+00  0.00000000E+00  0.00000000E+00
  0.00000000E+00  0.00000000E+00  0.00000000E+00
  0.00000000E+00  0.00000000E+00  0.00000000E+00
  0.00000000E+00  0.00000000E+00  0.00000000E+00
  0.00000000E+00  0.00000000E+00  0.00000000E+00
  0.00000000E+00  0.00000000E+00  0.00000000E+00
  0.00000000E+00  0.00000000E+00  0.00000000E+00
  0.00000000E+00  0.00000000E+00  0.00000000E+00
  0.00000000E+00  0.00000000E+00  0.00000000E+00
  0.00000000E+00  0.00000000E+00  0.00000000E+00
  0.00000000E+00  0.00000000E+00  0.00000000E+00
  0.00000000E+00  0.00000000E+00  0.00000000E+00
  0.00000000E+00  0.00000000E+00  0.00000000E+00
  0.00000000E+00  0.00000000E+00  0.00000000E+00
  0.00000000E+00  0.00000000E+00  0.00000000E+00
  0.00000000E+00  0.00000000E+00  0.00000000E+00
  0.00000000E+00  0.00000000E+00  0.00000000E+00
  0.00000000E+00  0.00000000E+00  0.00000000E+00
  0.00000000E+00  0.00000000E+00  0.00000000E+00
  0.00000000E+00  0.00000000E+00  0.00000000E+00
  0.00000000E+00  0.00000000E+00  0.00000000E+00
  0.00000000E+00  0.00000000E+00  0.00000000E+00
  0.00000000E+00  0.00000000E+00  0.00000000E+00
  0.00000000E+00  0.00000000E+00  0.00000000E+00
  0.00000000E+00  0.00000000E+00  0.00000000E+00
  0.00000000E+00  0.00000000E+00  0.00000000E+00
  0.00000000E+00  0.00000000E+00  0.00000000E+00
  0.00000000E+00  0.00000000E+00  0.00000000E+00
  0.00000000E+00  0.00000000E+00  0.00000000E+00
  0.00000000E+00  0.00000000E+00  0.00000000E+00
  0.00000000E+00  0.00000000E+00  0.00000000E+00
  0.00000000E+00  0.00000000E+00  0.00000000E+00
  0.00000000E+00  0.00000000E+00  0.00000000E+00
  0.00000000E+00  0.00000000E+00  0.00000000E+00
  0.00000000E+00  0.00000000E+00  0.00000000E+00
  0.00000000E+00  0.00000000E+00  0.00000000E+00
  0.00000000E+00  0.00000000E+00  0.00000000E+00
  0.00000000E+00  0.00000000E+00  0.00000000E+00
  0.00000000E+00  0.00000000E+00  0.00000000E+00
  0.00000000E+00  0.00000000E+00  0.00000000E+00
  0.00000000E+00  0.00000000E+00  0.00000000E+00
  0.00000000E+00  0.00000000E+00  0.00000000E+00
  0.00000000E+00  0.00000000E+00  0.00000000E+00
  0.00000000E+00  0.00000000E+00  0.00000000E+00
  0.00000000E+00  0.00000000E+00  0.00000000E+00
  0.00000000E+00  0.00000000E+00  0.00000000E+00
  0.00000000E+00  0.00000000E+00  0.00000000E+00
  0.00000000E+00  0.00000000E+00  0.00000000E+00
  0.00000000E+00  0.00000000E+00  0.00000000E+00
  0.00000000E+00  0.00000000E+00  0.00000000E+00
  0.00000000E+00  0.00000000E+00  0.00000000E+00
  0.00000000E+00  0.00000000E+00  0.00000000E+00
  0.00000000E+00  0.00000000E+00  0.00000000E+00
  0.00000000E+00  0.00000000E+00  0.00000000E+00
  0.00000000E+00  0.00000000E+00  0.00000000E+00
  0.00000000E+00  0.00000000E+00  0.00000000E+00
  0.00000000E+00  0.00000000E+00  0.00000000E+00
  0.00000000E+00  0.00000000E+00  0.00000000E+00
  0.00000000E+00  0.00000000E+00  0.00000000E+00
  0.00000000E+00  0.00000000E+00  0.00000000E+00
  0.00000000E+00  0.00000000E+00  0.00000000E+00
  0.00000000E+00  0.00000000E+00  0.00000000E+00
  0.00000000E+00  0.00000000E+00  0.00000000E+00
  0.00000000E+00  0.00000000E+00  0.00000000E+00
  0.00000000E+00  0.00000000E+00  0.00000000E+00
  0.00000000E+00  0.00000000E+00  0.00000000E+00
  0.00000000E+00  0.00000000E+00  0.00000000E+00
  0.00000000E+00  0.00000000E+00  0.00000000E+00
  0.00000000E+00  0.00000000E+00  0.00000000E+00
  0.00000000E+00  0.00000000E+00  0.00000000E+00
  0.00000000E+00  0.00000000E+00  0.00000000E+00
  0.00000000E+00  0.00000000E+00  0.00000000E+00
  0.00000000E+00  0.00000000E+00  0.00000000E+00
  0.00000000E+00  0.00000000E+00  0.00000000E+00
  0.00000000E+00  0.00000000E+00  0.00000000E+00
  0.00000000E+00  0.00000000E+00  0.00000000E+00
  0.00000000E+00  0.00000000E+00  0.00000000E+00
  0.00000000E+00  0.00000000E+00  0.00000000E+00
  0.00000000E+00  0.00000000E+00  0.00000000E+00
