C H O Si                                
   1.00000000000000     
     9.2874599999999994    0.0000000000000000    0.0000000000000000
     0.0000000000000000    8.7563099999999991    0.0000000000000000
     0.0000000000000000    0.0000000000000000   58.0000000000000000
   C    H    O    Si
    36    32    16    36
Selective dynamics
Direct
  0.9935152504016626  0.1264315719360984  0.0604303858063317   T   T   T
  0.3269253673374866  0.1264052157505469  0.0605375567767587   T   T   T
  0.6600976558385468  0.1263970796749324  0.0605115001492953   T   T   T
  0.9934685136917852  0.6265648669556385  0.0604470162637231   T   T   T
  0.3269131291032130  0.6262554685022457  0.0605524952536537   T   T   T
  0.6601073430362029  0.6263877952311109  0.0604860639993836   T   T   T
  0.1603561783067120  0.3721434496013988  0.1393181938529895   T   T   T
  0.4935961069538402  0.3725064823721792  0.1395681879162689   T   T   T
  0.8269944470264743  0.3720370661839039  0.1392512956659568   T   T   T
  0.1605698263267746  0.8722748924798392  0.1393794438621399   T   T   T
  0.4936928366217337  0.8719969189496608  0.1394480665280591   T   T   T
  0.8267399824467413  0.8723597731727595  0.1393584762111436   T   T   T
  0.3277857456175167  0.1226886740000364  0.1666557778996662   T   T   T
  0.6598056202381645  0.1227670663925454  0.1666441501276500   T   T   T
  0.9939943466288520  0.1216256466620851  0.1663284313789974   T   T   T
  0.3269403497468658  0.6223236962345363  0.1667970777216640   T   T   T
  0.6606851478920941  0.6224153296715923  0.1665417189517446   T   T   T
  0.9938079534161195  0.6223008771842675  0.1664500664890685   T   T   T
  0.1607301368771837  0.3743614201448648  0.1915994314446970   T   T   T
  0.4943298920622886  0.3801182191998460  0.1926760285707934   T   T   T
  0.8282409060979937  0.3741057858507026  0.1914676457929851   T   T   T
  0.1603885629714608  0.8769083801651167  0.1918661851263799   T   T   T
  0.4938541759616380  0.8759681107012657  0.1920171460005949   T   T   T
  0.8273947125133608  0.8768772989711039  0.1918194260220957   T   T   T
  0.1600493857640505  0.3723604120895224  0.0858074929875437   T   T   T
  0.4934027042504354  0.3723466784624098  0.0859123355396770   T   T   T
  0.8266814376181539  0.3723056598631931  0.0857608672622720   T   T   T
  0.1600917924347123  0.8723498269140376  0.0858331056515107   T   T   T
  0.4933613390730551  0.8723297113305746  0.0858562257561107   T   T   T
  0.8266222569729513  0.8724228688569713  0.0858034489293075   T   T   T
  0.3266894358394605  0.1222318332017816  0.1130260850990690   T   T   T
  0.6599068753816613  0.1221638987946268  0.1130130947917352   T   T   T
  0.9933225988649673  0.1221315135984361  0.1129151706847698   T   T   T
  0.3266722288116627  0.6221606156144744  0.1130680662074869   T   T   T
  0.6599520301527884  0.6221519596814795  0.1129690470577549   T   T   T
  0.9933380632213555  0.6223278071326197  0.1129351394768915   T   T   T
  0.0773000729910851  0.3543881858694889  0.0269564960588768   T   T   T
  0.4091049555830337  0.3543262677603779  0.0271378441924956   T   T   T
  0.7420439854790827  0.3542451566705747  0.0269756930792238   T   T   T
  0.0775516058584402  0.8544264960302254  0.0269696180174829   T   T   T
  0.4086604830588425  0.8541281864302148  0.0271078988070149   T   T   T
  0.7422171377130816  0.8543444751046597  0.0270118842712912   T   T   T
  0.3245080550828986  0.0538612538768927  0.0450331615802804   T   T   T
  0.6570645843843385  0.0538666237028410  0.0450085966964375   T   T   T
  0.9910103695797533  0.0540472731496656  0.0449078673182821   T   T   T
  0.3243406160868312  0.5536059518673990  0.0450597652108401   T   T   T
  0.6573448806196380  0.5538902776522358  0.0449783739234395   T   T   T
  0.9909250715025961  0.5541624221186743  0.0449283309492691   T   T   T
  0.8292146161893252  0.8049945180999502  0.2073698262850090   T   T   T
  0.8306459611144663  0.3017859361274799  0.2069929596873154   T   T   T
  0.1621433095774114  0.3021771594082837  0.2071443455007672   T   T   T
  0.4979523032423630  0.3062932100986267  0.2080415300820198   T   T   T
  0.1627517551334262  0.8041268670306833  0.2073387624503685   T   T   T
  0.4942986149832684  0.8043166886012717  0.2076268189640620   T   T   T
  0.0782713215568529  0.1052645453049747  0.2253765146149004   T   T   T
  0.4123564857635102  0.1033061434225531  0.2256323149126420   T   T   T
  0.7468043987160464  0.1047837790866853  0.2253997336354931   T   T   T
  0.0834416581859141  0.5998309951890851  0.2244554675446802   T   T   T
  0.3729031776401136  0.6171292503563272  0.2301024662899529   T   T   T
  0.7800915194763899  0.5925031701134482  0.2230600704789975   T   T   T
  0.5146787834583681  0.6367111617497647  0.2645666034014278   T   T   T
  0.5065389233536829  0.4778831118416726  0.2937164869617208   T   T   T
  0.5784555218934488  0.6310407024485417  0.3025829171629813   T   T   T
  0.3051948656345125  0.3747960984051079  0.3101206547005596   T   T   T
  0.4089686345515455  0.2435407562283702  0.3033650082752050   T   T   T
  0.6493749517658463  0.7421797117656411  0.3370535973196671   T   T   T
  0.4858806867580373  0.7650337033570582  0.3330605241788446   T   T   T
  0.5699379587980372  0.6559251134674471  0.2390724512932133   T   T   T
  0.1707896968312411  0.3336848708801874  0.0340254546360730   T   T   T
  0.5030552754887274  0.3338631399267190  0.0340761364916531   T   T   T
  0.8359791988753430  0.3332508858590450  0.0338776313461850   T   T   T
  0.1709862015760384  0.8337584116454256  0.0340555337726680   T   T   T
  0.5026529718609967  0.8339018050686317  0.0340501090531341   T   T   T
  0.8360979422474705  0.8336163216560972  0.0339563806511890   T   T   T
  0.3191510007735772  0.0837788940996499  0.2184229240070501   T   T   T
  0.6530840384067996  0.0838242726067553  0.2184516112272703   T   T   T
  0.9851835637537485  0.0844106471329485  0.2182125802553773   T   T   T
  0.2988696840162403  0.5842206541546289  0.2185251064539035   T   T   T
  0.6786545182532382  0.5860300966850619  0.2181905082192255   T   T   T
  0.9868248290313688  0.5807423356417484  0.2181549315368969   T   T   T
  0.5783695092812855  0.5573996624762877  0.2895319439487296   T   T   T
  0.3705003181550450  0.3407458553314474  0.2980114478638579   T   T   T
  0.5786444822633353  0.7666207582843527  0.3252098829487817   T   T   T
  0.4891673597647577  0.6849443628039361  0.2494395117940879   T   T   T
  0.4936797551339027  0.2437541352153143  0.0598461882662435   T   T   T
  0.8269072463203168  0.2437199483138508  0.0597004694739953   T   T   T
  0.1605429052941074  0.7436454592127398  0.0597980890185499   T   T   T
  0.4936276910080800  0.7436978993685821  0.0598066728765365   T   T   T
  0.8268626270631962  0.7438442798648148  0.0597438033544817   T   T   T
  0.1604934124905082  0.2436716680655173  0.0597767836211309   T   T   T
  0.9937337365234976  0.9967526877245072  0.1395184945182754   T   T   T
  0.3273819557929000  0.9973104076956862  0.1396939901741406   T   T   T
  0.6599011068764022  0.9973326535653897  0.1396907903633738   T   T   T
  0.9937131802630574  0.4970422430410693  0.1395376155044625   T   T   T
  0.3268095059389368  0.4974193355143172  0.1398023954337440   T   T   T
  0.6603982306915949  0.4971462994951354  0.1396082099527221   T   T   T
  0.1605800951179634  0.2457176434558864  0.1658052165234316   T   T   T
  0.4936591399669820  0.2484228733192086  0.1663554223995360   T   T   T
  0.8273741659827772  0.2452520791413230  0.1656906697179654   T   T   T
  0.1604648082160050  0.7467231047622368  0.1659823311718610   T   T   T
  0.4935397608423316  0.7462478334817667  0.1660686005370594   T   T   T
  0.8272033692047578  0.7467349409591012  0.1659323270136561   T   T   T
  0.3271235308619265  0.9937415843538115  0.1926728224288693   T   T   T
  0.6604624677288657  0.9936780574807834  0.1926841005577116   T   T   T
  0.9938417202053299  0.9939860433122019  0.1924726015957586   T   T   T
  0.3249222543641984  0.4955810978463735  0.1932764427744172   T   T   T
  0.9944751646831588  0.4915584650477636  0.1922375757551049   T   T   T
  0.6635338294609227  0.4937525254744288  0.1925071253796554   T   T   T
  0.9934394325617211  0.9964495809012348  0.0863777557903582   T   T   T
  0.3268192969077088  0.9964858476492439  0.0864703390791220   T   T   T
  0.6600161572032369  0.9965106705037299  0.0864490273569477   T   T   T
  0.9934148425714550  0.4965002540804479  0.0863835563277180   T   T   T
  0.3267990739948115  0.4964925269714882  0.0864995912314608   T   T   T
  0.6601074013974334  0.4964423001356673  0.0864279660835368   T   T   T
  0.1599239543986659  0.2471231075138719  0.1127174253473747   T   T   T
  0.4932315162679889  0.2472373372955522  0.1128629562520864   T   T   T
  0.8265636793084373  0.2469942147976177  0.1126612505324315   T   T   T
  0.1600454699943727  0.7471855468685500  0.1127610015789511   T   T   T
  0.4932137453440771  0.7471344339883026  0.1127877252020016   T   T   T
  0.8264616197230490  0.7471991699840242  0.1127321860966694   T   T   T
 
  0.00000000E+00  0.00000000E+00  0.00000000E+00
  0.00000000E+00  0.00000000E+00  0.00000000E+00
  0.00000000E+00  0.00000000E+00  0.00000000E+00
  0.00000000E+00  0.00000000E+00  0.00000000E+00
  0.00000000E+00  0.00000000E+00  0.00000000E+00
  0.00000000E+00  0.00000000E+00  0.00000000E+00
  0.00000000E+00  0.00000000E+00  0.00000000E+00
  0.00000000E+00  0.00000000E+00  0.00000000E+00
  0.00000000E+00  0.00000000E+00  0.00000000E+00
  0.00000000E+00  0.00000000E+00  0.00000000E+00
  0.00000000E+00  0.00000000E+00  0.00000000E+00
  0.00000000E+00  0.00000000E+00  0.00000000E+00
  0.00000000E+00  0.00000000E+00  0.00000000E+00
  0.00000000E+00  0.00000000E+00  0.00000000E+00
  0.00000000E+00  0.00000000E+00  0.00000000E+00
  0.00000000E+00  0.00000000E+00  0.00000000E+00
  0.00000000E+00  0.00000000E+00  0.00000000E+00
  0.00000000E+00  0.00000000E+00  0.00000000E+00
  0.00000000E+00  0.00000000E+00  0.00000000E+00
  0.00000000E+00  0.00000000E+00  0.00000000E+00
  0.00000000E+00  0.00000000E+00  0.00000000E+00
  0.00000000E+00  0.00000000E+00  0.00000000E+00
  0.00000000E+00  0.00000000E+00  0.00000000E+00
  0.00000000E+00  0.00000000E+00  0.00000000E+00
  0.00000000E+00  0.00000000E+00  0.00000000E+00
  0.00000000E+00  0.00000000E+00  0.00000000E+00
  0.00000000E+00  0.00000000E+00  0.00000000E+00
  0.00000000E+00  0.00000000E+00  0.00000000E+00
  0.00000000E+00  0.00000000E+00  0.00000000E+00
  0.00000000E+00  0.00000000E+00  0.00000000E+00
  0.00000000E+00  0.00000000E+00  0.00000000E+00
  0.00000000E+00  0.00000000E+00  0.00000000E+00
  0.00000000E+00  0.00000000E+00  0.00000000E+00
  0.00000000E+00  0.00000000E+00  0.00000000E+00
  0.00000000E+00  0.00000000E+00  0.00000000E+00
  0.00000000E+00  0.00000000E+00  0.00000000E+00
  0.00000000E+00  0.00000000E+00  0.00000000E+00
  0.00000000E+00  0.00000000E+00  0.00000000E+00
  0.00000000E+00  0.00000000E+00  0.00000000E+00
  0.00000000E+00  0.00000000E+00  0.00000000E+00
  0.00000000E+00  0.00000000E+00  0.00000000E+00
  0.00000000E+00  0.00000000E+00  0.00000000E+00
  0.00000000E+00  0.00000000E+00  0.00000000E+00
  0.00000000E+00  0.00000000E+00  0.00000000E+00
  0.00000000E+00  0.00000000E+00  0.00000000E+00
  0.00000000E+00  0.00000000E+00  0.00000000E+00
  0.00000000E+00  0.00000000E+00  0.00000000E+00
  0.00000000E+00  0.00000000E+00  0.00000000E+00
  0.00000000E+00  0.00000000E+00  0.00000000E+00
  0.00000000E+00  0.00000000E+00  0.00000000E+00
  0.00000000E+00  0.00000000E+00  0.00000000E+00
  0.00000000E+00  0.00000000E+00  0.00000000E+00
  0.00000000E+00  0.00000000E+00  0.00000000E+00
  0.00000000E+00  0.00000000E+00  0.00000000E+00
  0.00000000E+00  0.00000000E+00  0.00000000E+00
  0.00000000E+00  0.00000000E+00  0.00000000E+00
  0.00000000E+00  0.00000000E+00  0.00000000E+00
  0.00000000E+00  0.00000000E+00  0.00000000E+00
  0.00000000E+00  0.00000000E+00  0.00000000E+00
  0.00000000E+00  0.00000000E+00  0.00000000E+00
  0.00000000E+00  0.00000000E+00  0.00000000E+00
  0.00000000E+00  0.00000000E+00  0.00000000E+00
  0.00000000E+00  0.00000000E+00  0.00000000E+00
  0.00000000E+00  0.00000000E+00  0.00000000E+00
  0.00000000E+00  0.00000000E+00  0.00000000E+00
  0.00000000E+00  0.00000000E+00  0.00000000E+00
  0.00000000E+00  0.00000000E+00  0.00000000E+00
  0.00000000E+00  0.00000000E+00  0.00000000E+00
  0.00000000E+00  0.00000000E+00  0.00000000E+00
  0.00000000E+00  0.00000000E+00  0.00000000E+00
  0.00000000E+00  0.00000000E+00  0.00000000E+00
  0.00000000E+00  0.00000000E+00  0.00000000E+00
  0.00000000E+00  0.00000000E+00  0.00000000E+00
  0.00000000E+00  0.00000000E+00  0.00000000E+00
  0.00000000E+00  0.00000000E+00  0.00000000E+00
  0.00000000E+00  0.00000000E+00  0.00000000E+00
  0.00000000E+00  0.00000000E+00  0.00000000E+00
  0.00000000E+00  0.00000000E+00  0.00000000E+00
  0.00000000E+00  0.00000000E+00  0.00000000E+00
  0.00000000E+00  0.00000000E+00  0.00000000E+00
  0.00000000E+00  0.00000000E+00  0.00000000E+00
  0.00000000E+00  0.00000000E+00  0.00000000E+00
  0.00000000E+00  0.00000000E+00  0.00000000E+00
  0.00000000E+00  0.00000000E+00  0.00000000E+00
  0.00000000E+00  0.00000000E+00  0.00000000E+00
  0.00000000E+00  0.00000000E+00  0.00000000E+00
  0.00000000E+00  0.00000000E+00  0.00000000E+00
  0.00000000E+00  0.00000000E+00  0.00000000E+00
  0.00000000E+00  0.00000000E+00  0.00000000E+00
  0.00000000E+00  0.00000000E+00  0.00000000E+00
  0.00000000E+00  0.00000000E+00  0.00000000E+00
  0.00000000E+00  0.00000000E+00  0.00000000E+00
  0.00000000E+00  0.00000000E+00  0.00000000E+00
  0.00000000E+00  0.00000000E+00  0.00000000E+00
  0.00000000E+00  0.00000000E+00  0.00000000E+00
  0.00000000E+00  0.00000000E+00  0.00000000E+00
  0.00000000E+00  0.00000000E+00  0.00000000E+00
  0.00000000E+00  0.00000000E+00  0.00000000E+00
  0.00000000E+00  0.00000000E+00  0.00000000E+00
  0.00000000E+00  0.00000000E+00  0.00000000E+00
  0.00000000E+00  0.00000000E+00  0.00000000E+00
  0.00000000E+00  0.00000000E+00  0.00000000E+00
  0.00000000E+00  0.00000000E+00  0.00000000E+00
  0.00000000E+00  0.00000000E+00  0.00000000E+00
  0.00000000E+00  0.00000000E+00  0.00000000E+00
  0.00000000E+00  0.00000000E+00  0.00000000E+00
  0.00000000E+00  0.00000000E+00  0.00000000E+00
  0.00000000E+00  0.00000000E+00  0.00000000E+00
  0.00000000E+00  0.00000000E+00  0.00000000E+00
  0.00000000E+00  0.00000000E+00  0.00000000E+00
  0.00000000E+00  0.00000000E+00  0.00000000E+00
  0.00000000E+00  0.00000000E+00  0.00000000E+00
  0.00000000E+00  0.00000000E+00  0.00000000E+00
  0.00000000E+00  0.00000000E+00  0.00000000E+00
  0.00000000E+00  0.00000000E+00  0.00000000E+00
  0.00000000E+00  0.00000000E+00  0.00000000E+00
  0.00000000E+00  0.00000000E+00  0.00000000E+00
  0.00000000E+00  0.00000000E+00  0.00000000E+00
  0.00000000E+00  0.00000000E+00  0.00000000E+00
  0.00000000E+00  0.00000000E+00  0.00000000E+00
