C H O Si                                
   1.00000000000000     
     9.2874599999999994    0.0000000000000000    0.0000000000000000
     0.0000000000000000    8.7562999999999995    0.0000000000000000
     0.0000000000000000    0.0000000000000000   58.0000000000000000
   C    H    O    Si
    36    24    12    36
Selective dynamics
Direct
  0.0005676584322051  0.1357768426963631  0.4342368645466507   T   T   T
  0.0005676584322051  0.6357768426963630  0.4342368645466507   T   T   T
  0.3339009917652069  0.1357768426963631  0.4342368645466507   T   T   T
  0.3339009917652069  0.6357768426963630  0.4342368645466507   T   T   T
  0.6672343250992034  0.1357768426963631  0.4342368645466507   T   T   T
  0.6672343250992034  0.6357768426963630  0.4342368645466507   T   T   T
  0.1676347433801871  0.3823571679260610  0.4595907264145345   T   T   T
  0.1676347433801871  0.8823571679260610  0.4595907264145345   T   T   T
  0.5009680767141835  0.3823571679260610  0.4595907264145345   T   T   T
  0.5009680767141835  0.8823571679260610  0.4595907264145345   T   T   T
  0.8343014100471853  0.3823571679260610  0.4595907264145345   T   T   T
  0.8343014100471853  0.8823571679260610  0.4595907264145345   T   T   T
  0.0010247142864441  0.1320613547854735  0.4868061495758054   T   T   T
  0.0010247142864441  0.6320613547854734  0.4868061495758054   T   T   T
  0.3343580476194458  0.1320613547854735  0.4868061495758054   T   T   T
  0.3343580476194458  0.6320613547854734  0.4868061495758054   T   T   T
  0.6676913809534495  0.1320613547854735  0.4868061495758054   T   T   T
  0.6676913809534495  0.6320613547854734  0.4868061495758054   T   T   T
  0.1676914694844453  0.3820615235944688  0.5131938504241946   T   T   T
  0.1676914694844453  0.8820615235944687  0.5131938504241946   T   T   T
  0.5010248028184490  0.3820615235944688  0.5131938504241946   T   T   T
  0.5010248028184490  0.8820615235944687  0.5131938504241946   T   T   T
  0.8343581361514507  0.3820615235944688  0.5131938504241946   T   T   T
  0.8343581361514507  0.8820615235944687  0.5131938504241946   T   T   T
  0.0009679881821859  0.1323569991170658  0.5404092735854658   T   T   T
  0.0009679881821859  0.6323569991170658  0.5404092735854658   T   T   T
  0.3343013215151804  0.1323569991170658  0.5404092735854658   T   T   T
  0.3343013215151804  0.6323569991170658  0.5404092735854658   T   T   T
  0.6676346548491841  0.1323569991170658  0.5404092735854658   T   T   T
  0.6676346548491841  0.6323569991170658  0.5404092735854658   T   T   T
  0.1672344136302135  0.3857770115053584  0.5657631354533564   T   T   T
  0.1672344136302135  0.8857770115053583  0.5657631354533564   T   T   T
  0.5005677469642029  0.3857770115053584  0.5657631354533564   T   T   T
  0.5005677469642029  0.8857770115053583  0.5657631354533564   T   T   T
  0.8339010802972047  0.3857770115053584  0.5657631354533564   T   T   T
  0.8339010802972047  0.8857770115053583  0.5657631354533564   T   T   T
  0.0032541828875264  0.0623002212321271  0.4188424969417521   T   T   T
  0.0032541828875264  0.5623002212321270  0.4188424969417521   T   T   T
  0.3365875162215300  0.0623002212321271  0.4188424969417521   T   T   T
  0.3365875162215300  0.5623002212321270  0.4188424969417521   T   T   T
  0.6699208495545318  0.0623002212321271  0.4188424969417521   T   T   T
  0.6699208495545318  0.5623002212321270  0.4188424969417521   T   T   T
  0.1699211014315292  0.3123003900411293  0.5811575030582480   T   T   T
  0.1699211014315292  0.8123003900411293  0.5811575030582480   T   T   T
  0.5032544347655258  0.3123003900411293  0.5811575030582480   T   T   T
  0.5032544347655258  0.8123003900411293  0.5811575030582480   T   T   T
  0.8365877680985275  0.3123003900411293  0.5811575030582480   T   T   T
  0.8365877680985275  0.8123003900411293  0.5811575030582480   T   T   T
  0.0904371689037837  0.1178095254249811  0.5978123725068630   T   T   T
  0.0904371689037837  0.6178095254249739  0.5978123725068630   T   T   T
  0.4237705022367855  0.1178095254249811  0.5978123725068630   T   T   T
  0.4237705022367855  0.6178095254249739  0.5978123725068630   T   T   T
  0.7571038355697801  0.1178095254249811  0.5978123725068630   T   T   T
  0.7571038355697801  0.6178095254249739  0.5978123725068630   T   T   T
  0.2571038050177854  0.3678097698619780  0.4021876274931442   T   T   T
  0.2571038050177854  0.8678097698619708  0.4021876274931442   T   T   T
  0.5904371383507800  0.3678097698619780  0.4021876274931442   T   T   T
  0.5904371383507800  0.8678097698619708  0.4021876274931442   T   T   T
  0.9237704716837818  0.3678097698619780  0.4021876274931442   T   T   T
  0.9237704716837818  0.8678097698619708  0.4021876274931442   T   T   T
  0.1604080798694007  0.3402757278007036  0.4074188478601031   T   T   T
  0.1604080798694007  0.8402757278007037  0.4074188478601031   T   T   T
  0.4937414132033972  0.3402757278007036  0.4074188478601031   T   T   T
  0.4937414132033972  0.8402757278007037  0.4074188478601031   T   T   T
  0.8270747465363990  0.3402757278007036  0.4074188478601031   T   T   T
  0.8270747465363990  0.8402757278007037  0.4074188478601031   T   T   T
  0.9937413933364021  0.0902755589917013  0.5925811521398970   T   T   T
  0.9937413933364021  0.5902755589917014  0.5925811521398970   T   T   T
  0.3270747266703985  0.0902755589917013  0.5925811521398970   T   T   T
  0.3270747266703985  0.5902755589917014  0.5925811521398970   T   T   T
  0.6604080600034004  0.0902755589917013  0.5925811521398970   T   T   T
  0.6604080600034004  0.5902755589917014  0.5925811521398970   T   T   T
  0.1669899895306415  0.2527900868555113  0.4339227300127170   T   T   T
  0.1669899895306415  0.7527900868555114  0.4339227300127170   T   T   T
  0.5003233228646380  0.2527900868555113  0.4339227300127170   T   T   T
  0.5003233228646380  0.7527900868555114  0.4339227300127170   T   T   T
  0.8336566561976397  0.2527900868555113  0.4339227300127170   T   T   T
  0.8336566561976397  0.7527900868555114  0.4339227300127170   T   T   T
  0.0009744211462258  0.0060577252266652  0.4604294566808969   T   T   T
  0.0009744211462258  0.5060577252266653  0.4604294566808969   T   T   T
  0.3343077544792275  0.0060577252266652  0.4604294566808969   T   T   T
  0.3343077544792275  0.5060577252266653  0.4604294566808969   T   T   T
  0.6676410878132241  0.0060577252266652  0.4604294566808969   T   T   T
  0.6676410878132241  0.5060577252266653  0.4604294566808969   T   T   T
  0.1676857077585965  0.2565101405771217  0.4866175541381640   T   T   T
  0.1676857077585965  0.7565101405771216  0.4866175541381640   T   T   T
  0.5010190410925930  0.2565101405771217  0.4866175541381640   T   T   T
  0.5010190410925930  0.7565101405771216  0.4866175541381640   T   T   T
  0.8343523744255947  0.2565101405771217  0.4866175541381640   T   T   T
  0.8343523744255947  0.7565101405771216  0.4866175541381640   T   T   T
  0.0010189525605953  0.0065099717671246  0.5133824458618358   T   T   T
  0.0010189525605953  0.5065099717671245  0.5133824458618358   T   T   T
  0.3343522858935970  0.0065099717671246  0.5133824458618358   T   T   T
  0.3343522858935970  0.5065099717671245  0.5133824458618358   T   T   T
  0.6676856192275935  0.0065099717671246  0.5133824458618358   T   T   T
  0.6676856192275935  0.5065099717671245  0.5133824458618358   T   T   T
  0.1676411763442270  0.2560578940366622  0.5395705433191031   T   T   T
  0.1676411763442270  0.7560578940366623  0.5395705433191031   T   T   T
  0.5009745096782235  0.2560578940366622  0.5395705433191031   T   T   T
  0.5009745096782235  0.7560578940366623  0.5395705433191031   T   T   T
  0.8343078430112253  0.2560578940366622  0.5395705433191031   T   T   T
  0.8343078430112253  0.7560578940366623  0.5395705433191031   T   T   T
  0.0003232343326402  0.0027899180455142  0.5660772699872830   T   T   T
  0.0003232343326402  0.5027899180455143  0.5660772699872830   T   T   T
  0.3336565676656419  0.0027899180455142  0.5660772699872830   T   T   T
  0.3336565676656419  0.5027899180455143  0.5660772699872830   T   T   T
  0.6669899009996385  0.0027899180455142  0.5660772699872830   T   T   T
  0.6669899009996385  0.5027899180455143  0.5660772699872830   T   T   T
 
  0.00000000E+00  0.00000000E+00  0.00000000E+00
  0.00000000E+00  0.00000000E+00  0.00000000E+00
  0.00000000E+00  0.00000000E+00  0.00000000E+00
  0.00000000E+00  0.00000000E+00  0.00000000E+00
  0.00000000E+00  0.00000000E+00  0.00000000E+00
  0.00000000E+00  0.00000000E+00  0.00000000E+00
  0.00000000E+00  0.00000000E+00  0.00000000E+00
  0.00000000E+00  0.00000000E+00  0.00000000E+00
  0.00000000E+00  0.00000000E+00  0.00000000E+00
  0.00000000E+00  0.00000000E+00  0.00000000E+00
  0.00000000E+00  0.00000000E+00  0.00000000E+00
  0.00000000E+00  0.00000000E+00  0.00000000E+00
  0.00000000E+00  0.00000000E+00  0.00000000E+00
  0.00000000E+00  0.00000000E+00  0.00000000E+00
  0.00000000E+00  0.00000000E+00  0.00000000E+00
  0.00000000E+00  0.00000000E+00  0.00000000E+00
  0.00000000E+00  0.00000000E+00  0.00000000E+00
  0.00000000E+00  0.00000000E+00  0.00000000E+00
  0.00000000E+00  0.00000000E+00  0.00000000E+00
  0.00000000E+00  0.00000000E+00  0.00000000E+00
  0.00000000E+00  0.00000000E+00  0.00000000E+00
  0.00000000E+00  0.00000000E+00  0.00000000E+00
  0.00000000E+00  0.00000000E+00  0.00000000E+00
  0.00000000E+00  0.00000000E+00  0.00000000E+00
  0.00000000E+00  0.00000000E+00  0.00000000E+00
  0.00000000E+00  0.00000000E+00  0.00000000E+00
  0.00000000E+00  0.00000000E+00  0.00000000E+00
  0.00000000E+00  0.00000000E+00  0.00000000E+00
  0.00000000E+00  0.00000000E+00  0.00000000E+00
  0.00000000E+00  0.00000000E+00  0.00000000E+00
  0.00000000E+00  0.00000000E+00  0.00000000E+00
  0.00000000E+00  0.00000000E+00  0.00000000E+00
  0.00000000E+00  0.00000000E+00  0.00000000E+00
  0.00000000E+00  0.00000000E+00  0.00000000E+00
  0.00000000E+00  0.00000000E+00  0.00000000E+00
  0.00000000E+00  0.00000000E+00  0.00000000E+00
  0.00000000E+00  0.00000000E+00  0.00000000E+00
  0.00000000E+00  0.00000000E+00  0.00000000E+00
  0.00000000E+00  0.00000000E+00  0.00000000E+00
  0.00000000E+00  0.00000000E+00  0.00000000E+00
  0.00000000E+00  0.00000000E+00  0.00000000E+00
  0.00000000E+00  0.00000000E+00  0.00000000E+00
  0.00000000E+00  0.00000000E+00  0.00000000E+00
  0.00000000E+00  0.00000000E+00  0.00000000E+00
  0.00000000E+00  0.00000000E+00  0.00000000E+00
  0.00000000E+00  0.00000000E+00  0.00000000E+00
  0.00000000E+00  0.00000000E+00  0.00000000E+00
  0.00000000E+00  0.00000000E+00  0.00000000E+00
  0.00000000E+00  0.00000000E+00  0.00000000E+00
  0.00000000E+00  0.00000000E+00  0.00000000E+00
  0.00000000E+00  0.00000000E+00  0.00000000E+00
  0.00000000E+00  0.00000000E+00  0.00000000E+00
  0.00000000E+00  0.00000000E+00  0.00000000E+00
  0.00000000E+00  0.00000000E+00  0.00000000E+00
  0.00000000E+00  0.00000000E+00  0.00000000E+00
  0.00000000E+00  0.00000000E+00  0.00000000E+00
  0.00000000E+00  0.00000000E+00  0.00000000E+00
  0.00000000E+00  0.00000000E+00  0.00000000E+00
  0.00000000E+00  0.00000000E+00  0.00000000E+00
  0.00000000E+00  0.00000000E+00  0.00000000E+00
  0.00000000E+00  0.00000000E+00  0.00000000E+00
  0.00000000E+00  0.00000000E+00  0.00000000E+00
  0.00000000E+00  0.00000000E+00  0.00000000E+00
  0.00000000E+00  0.00000000E+00  0.00000000E+00
  0.00000000E+00  0.00000000E+00  0.00000000E+00
  0.00000000E+00  0.00000000E+00  0.00000000E+00
  0.00000000E+00  0.00000000E+00  0.00000000E+00
  0.00000000E+00  0.00000000E+00  0.00000000E+00
  0.00000000E+00  0.00000000E+00  0.00000000E+00
  0.00000000E+00  0.00000000E+00  0.00000000E+00
  0.00000000E+00  0.00000000E+00  0.00000000E+00
  0.00000000E+00  0.00000000E+00  0.00000000E+00
  0.00000000E+00  0.00000000E+00  0.00000000E+00
  0.00000000E+00  0.00000000E+00  0.00000000E+00
  0.00000000E+00  0.00000000E+00  0.00000000E+00
  0.00000000E+00  0.00000000E+00  0.00000000E+00
  0.00000000E+00  0.00000000E+00  0.00000000E+00
  0.00000000E+00  0.00000000E+00  0.00000000E+00
  0.00000000E+00  0.00000000E+00  0.00000000E+00
  0.00000000E+00  0.00000000E+00  0.00000000E+00
  0.00000000E+00  0.00000000E+00  0.00000000E+00
  0.00000000E+00  0.00000000E+00  0.00000000E+00
  0.00000000E+00  0.00000000E+00  0.00000000E+00
  0.00000000E+00  0.00000000E+00  0.00000000E+00
  0.00000000E+00  0.00000000E+00  0.00000000E+00
  0.00000000E+00  0.00000000E+00  0.00000000E+00
  0.00000000E+00  0.00000000E+00  0.00000000E+00
  0.00000000E+00  0.00000000E+00  0.00000000E+00
  0.00000000E+00  0.00000000E+00  0.00000000E+00
  0.00000000E+00  0.00000000E+00  0.00000000E+00
  0.00000000E+00  0.00000000E+00  0.00000000E+00
  0.00000000E+00  0.00000000E+00  0.00000000E+00
  0.00000000E+00  0.00000000E+00  0.00000000E+00
  0.00000000E+00  0.00000000E+00  0.00000000E+00
  0.00000000E+00  0.00000000E+00  0.00000000E+00
  0.00000000E+00  0.00000000E+00  0.00000000E+00
  0.00000000E+00  0.00000000E+00  0.00000000E+00
  0.00000000E+00  0.00000000E+00  0.00000000E+00
  0.00000000E+00  0.00000000E+00  0.00000000E+00
  0.00000000E+00  0.00000000E+00  0.00000000E+00
  0.00000000E+00  0.00000000E+00  0.00000000E+00
  0.00000000E+00  0.00000000E+00  0.00000000E+00
  0.00000000E+00  0.00000000E+00  0.00000000E+00
  0.00000000E+00  0.00000000E+00  0.00000000E+00
  0.00000000E+00  0.00000000E+00  0.00000000E+00
  0.00000000E+00  0.00000000E+00  0.00000000E+00
  0.00000000E+00  0.00000000E+00  0.00000000E+00
  0.00000000E+00  0.00000000E+00  0.00000000E+00
