C H O Si                                
   1.00000000000000     
     9.2874599999999994    0.0000000000000000    0.0000000000000000
     0.0000000000000000    8.7562999999999995    0.0000000000000000
     0.0000000000000000    0.0000000000000000   90.0000000000000000
   C    H    O    Si
    36    33    16    36
Selective dynamics
Direct
  0.0023678152822059  0.1352252980086035  0.4231839243695150   T   T   T
  0.0023516818116217  0.6353737015230919  0.4231999081274739   T   T   T
  0.3356862844992711  0.1354246148084826  0.4232320168683417   T   T   T
  0.3356558381748073  0.6352863174515860  0.4232374726322798   T   T   T
  0.6688259807522119  0.1351847927076450  0.4232345296299416   T   T   T
  0.6688420771919688  0.6351605345787732  0.4232338438483308   T   T   T
  0.1690748764362915  0.3807167558264736  0.4395832645724328   T   T   T
  0.1691877751949194  0.8807847940645741  0.4395950733221158   T   T   T
  0.5023852455247861  0.3807284864123583  0.4396532840586496   T   T   T
  0.5023785491163608  0.8806913610658104  0.4396120780466033   T   T   T
  0.8357491472745079  0.3806472706461450  0.4395394995162203   T   T   T
  0.8357109595080693  0.8806919654579684  0.4395716733696514   T   T   T
  0.0025911096778816  0.1305681762164094  0.4570521235013603   T   T   T
  0.0025881780304437  0.6308332158449498  0.4570700365588263   T   T   T
  0.3359711392015339  0.1306737182931174  0.4571212745789724   T   T   T
  0.3359111294091677  0.6305507550384470  0.4571251785199583   T   T   T
  0.6691584988077183  0.1306532014331116  0.4571056251225623   T   T   T
  0.6692695728239738  0.6306690707740809  0.4570989294271214   T   T   T
  0.1693412908832010  0.3806068849380905  0.4740643952467490   T   T   T
  0.1696099472139652  0.8806547495381883  0.4740943404519967   T   T   T
  0.5026706151152088  0.3810052282243641  0.4742121290659984   T   T   T
  0.5026575123378541  0.8803324870216479  0.4741244112035800   T   T   T
  0.8359855268425154  0.3804378277652491  0.4740204683472750   T   T   T
  0.8358111083453014  0.8806316499332486  0.4740965011698821   T   T   T
  0.0029290850366707  0.1300140202175046  0.4914806207214183   T   T   T
  0.0027281908757178  0.6307158996848116  0.4915659910670521   T   T   T
  0.3365869913540673  0.1312466162330189  0.4916492851016859   T   T   T
  0.3357824993331768  0.6305862561343454  0.4916858888904937   T   T   T
  0.6686034162157646  0.1310155706117309  0.4916307151264377   T   T   T
  0.6695726281643088  0.6308210509575588  0.4916391784929527   T   T   T
  0.1692615764670872  0.3836187421700832  0.5078472034864339   T   T   T
  0.1688358796569151  0.8857072747792643  0.5079736660770754   T   T   T
  0.5029091183901576  0.3887818178727882  0.5084301548173038   T   T   T
  0.5024079957990886  0.8850121029198422  0.5080037420574764   T   T   T
  0.8367942946021427  0.3825308427756076  0.5076762968244060   T   T   T
  0.8359579965604612  0.8859198629542158  0.5079218413235679   T   T   T
  0.0052358136712932  0.0629377442686947  0.4131646952558812   T   T   T
  0.0051277942504841  0.5630342537407320  0.4131834059914903   T   T   T
  0.3385851338018179  0.0630306340001002  0.4132218951901477   T   T   T
  0.3384421863135259  0.5627811509236766  0.4132344240366397   T   T   T
  0.6712195696757707  0.0628190731701941  0.4132208921207191   T   T   T
  0.6714240014756533  0.5628055948648463  0.4132204187832933   T   T   T
  0.1710162286037175  0.3116154700140971  0.5178819458776540   T   T   T
  0.1714947234289966  0.8130640641429170  0.5179646765886214   T   T   T
  0.5060488450634795  0.3153059860228361  0.5183665599979154   T   T   T
  0.5033983856324874  0.8126968865152919  0.5180175807136300   T   T   T
  0.8393808516752337  0.3106358724473023  0.5177183743491803   T   T   T
  0.8383688056881169  0.8144487505467981  0.5179796834587944   T   T   T
  0.0816808466706772  0.1127137072575624  0.5301076740828622   T   T   T
  0.0806268252432803  0.6108284010622681  0.5298399672421226   T   T   T
  0.4154245242384724  0.1142715146031544  0.5300923938028510   T   T   T
  0.3823855222493375  0.6309220644588379  0.5319421937774118   T   T   T
  0.7495242565532799  0.1126485856113135  0.5300933278957238   T   T   T
  0.7882231509366890  0.5992934856750588  0.5283246818479705   T   T   T
  0.2498617976263095  0.3619495563344379  0.4010949750692585   T   T   T
  0.2501630721981358  0.8618521537616294  0.4011149391416251   T   T   T
  0.5825134799046622  0.3621325127340738  0.4011188905725735   T   T   T
  0.5822247387673165  0.8620373922862703  0.4010822042777541   T   T   T
  0.9146778282106789  0.3621483601154885  0.4009803761970753   T   T   T
  0.9146368841372243  0.8622659256581160  0.4010041311971983   T   T   T
  0.5391738712849853  0.6123637489627041  0.5604598736918407   T   T   T
  0.4849871921062122  0.4740924316081812  0.5725707000718924   T   T   T
  0.5653582856173724  0.6399626966827791  0.5790351195219928   T   T   T
  0.3052573724458588  0.3805983358353449  0.5821101419458616   T   T   T
  0.4223547581745623  0.2578970803188249  0.5783799993699232   T   T   T
  0.6481517440110199  0.7345879560518227  0.5981055055210975   T   T   T
  0.4841529946658890  0.7697418984894584  0.5960627811134330   T   T   T
  0.5133405089522185  0.8007442159034722  0.5468945929058661   T   T   T
  0.5879658012807941  0.6616411778489700  0.5382512243971078   T   T   T
  0.1591850639569851  0.3460423676122202  0.4063606188258599   T   T   T
  0.1593965575569563  0.8460429255064238  0.4063689623168582   T   T   T
  0.4920892444313781  0.3465021558329749  0.4064402227415167   T   T   T
  0.4918211506656969  0.8459657509590437  0.4063939279592693   T   T   T
  0.8246105388645508  0.3455337318140865  0.4063305849544909   T   T   T
  0.8246147748962330  0.8458032585871459  0.4063654026164210   T   T   T
  0.9915672456183138  0.0964758230612217  0.5247543052639897   T   T   T
  0.9892443277861802  0.5914327926166136  0.5247446475319374   T   T   T
  0.3250956124283574  0.0956752731843712  0.5248545450720391   T   T   T
  0.3080014670792607  0.5968484396777314  0.5247964005592166   T   T   T
  0.6589344857628004  0.0957931328011409  0.5248349641029220   T   T   T
  0.6870764202500639  0.5949300846465613  0.5249188440589448   T   T   T
  0.5623440687782084  0.5590468214215775  0.5704017701189579   T   T   T
  0.3781910000481766  0.3521325689216143  0.5748059818472980   T   T   T
  0.5747423952130454  0.7580405046450556  0.5906836086502951   T   T   T
  0.5088460347514058  0.6903147401268430  0.5453815042158164   T   T   T
  0.1689659786806244  0.2531430438372754  0.4226103994410532   T   T   T
  0.1690363676853377  0.7531567522502224  0.4226214123520329   T   T   T
  0.5022158473472915  0.2531864705856847  0.4226682773075279   T   T   T
  0.5021730174542599  0.7530518962066869  0.4226426994722125   T   T   T
  0.8354749116453709  0.2528616614710960  0.4225876757688989   T   T   T
  0.8354367634021870  0.7529486981001690  0.4226125713823592   T   T   T
  0.0024218768396538  0.0056730273082988  0.4398386291361036   T   T   T
  0.0023947737027464  0.5057436031088520  0.4398469167564556   T   T   T
  0.3357770244802353  0.0058510363952637  0.4398833974754503   T   T   T
  0.3356937990378957  0.5057455445478238  0.4398969186518074   T   T   T
  0.6689771054089712  0.0056856346293540  0.4398804870555284   T   T   T
  0.6690260534831228  0.5056372072825726  0.4398779571008206   T   T   T
  0.1692480164718394  0.2560672029769054  0.4568798514954593   T   T   T
  0.1694106349231531  0.7561010435504397  0.4568990297194820   T   T   T
  0.5025524618825015  0.2561749891144602  0.4569742751462909   T   T   T
  0.5025275622274881  0.7559794587556751  0.4569122374981633   T   T   T
  0.8359174048557994  0.2559898909773500  0.4568407700125819   T   T   T
  0.8358405195514149  0.7561673542172318  0.4568866783408722   T   T   T
  0.0027996379671953  0.0056590653959232  0.4742191132008507   T   T   T
  0.0026727199829671  0.5060295327306589  0.4742268702883721   T   T   T
  0.3363324015953613  0.0062214882419347  0.4743080319052175   T   T   T
  0.3358595435306872  0.5061840405894356  0.4743379747120985   T   T   T
  0.6689553659143861  0.0061290058994763  0.4742958206543136   T   T   T
  0.6694706275362630  0.5061185651254290  0.4742787248268789   T   T   T
  0.1693084069583068  0.2551141974360255  0.4912215476919348   T   T   T
  0.1693015761278782  0.7559605645249383  0.4913210586302121   T   T   T
  0.5025892341707561  0.2574298924714098  0.4915196708422809   T   T   T
  0.5023469713931126  0.7553615634625301  0.4913301022267932   T   T   T
  0.8362623037053609  0.2542213694159612  0.4911187754201636   T   T   T
  0.8361483174420065  0.7559690053188761  0.4913031906538634   T   T   T
  0.0023851620761988  0.0035712401676166  0.5085057940215614   T   T   T
  0.0027413881972961  0.5007727346002916  0.5083139734066642   T   T   T
  0.3354450905775740  0.0032998500592758  0.5085812593182469   T   T   T
  0.3337239295673877  0.5045703344690912  0.5088217657132560   T   T   T
  0.6691656384927820  0.0032470449922535  0.5085675154712569   T   T   T
  0.6722626964621325  0.5022318051654648  0.5084502144844671   T   T   T
 
  0.00000000E+00  0.00000000E+00  0.00000000E+00
  0.00000000E+00  0.00000000E+00  0.00000000E+00
  0.00000000E+00  0.00000000E+00  0.00000000E+00
  0.00000000E+00  0.00000000E+00  0.00000000E+00
  0.00000000E+00  0.00000000E+00  0.00000000E+00
  0.00000000E+00  0.00000000E+00  0.00000000E+00
  0.00000000E+00  0.00000000E+00  0.00000000E+00
  0.00000000E+00  0.00000000E+00  0.00000000E+00
  0.00000000E+00  0.00000000E+00  0.00000000E+00
  0.00000000E+00  0.00000000E+00  0.00000000E+00
  0.00000000E+00  0.00000000E+00  0.00000000E+00
  0.00000000E+00  0.00000000E+00  0.00000000E+00
  0.00000000E+00  0.00000000E+00  0.00000000E+00
  0.00000000E+00  0.00000000E+00  0.00000000E+00
  0.00000000E+00  0.00000000E+00  0.00000000E+00
  0.00000000E+00  0.00000000E+00  0.00000000E+00
  0.00000000E+00  0.00000000E+00  0.00000000E+00
  0.00000000E+00  0.00000000E+00  0.00000000E+00
  0.00000000E+00  0.00000000E+00  0.00000000E+00
  0.00000000E+00  0.00000000E+00  0.00000000E+00
  0.00000000E+00  0.00000000E+00  0.00000000E+00
  0.00000000E+00  0.00000000E+00  0.00000000E+00
  0.00000000E+00  0.00000000E+00  0.00000000E+00
  0.00000000E+00  0.00000000E+00  0.00000000E+00
  0.00000000E+00  0.00000000E+00  0.00000000E+00
  0.00000000E+00  0.00000000E+00  0.00000000E+00
  0.00000000E+00  0.00000000E+00  0.00000000E+00
  0.00000000E+00  0.00000000E+00  0.00000000E+00
  0.00000000E+00  0.00000000E+00  0.00000000E+00
  0.00000000E+00  0.00000000E+00  0.00000000E+00
  0.00000000E+00  0.00000000E+00  0.00000000E+00
  0.00000000E+00  0.00000000E+00  0.00000000E+00
  0.00000000E+00  0.00000000E+00  0.00000000E+00
  0.00000000E+00  0.00000000E+00  0.00000000E+00
  0.00000000E+00  0.00000000E+00  0.00000000E+00
  0.00000000E+00  0.00000000E+00  0.00000000E+00
  0.00000000E+00  0.00000000E+00  0.00000000E+00
  0.00000000E+00  0.00000000E+00  0.00000000E+00
  0.00000000E+00  0.00000000E+00  0.00000000E+00
  0.00000000E+00  0.00000000E+00  0.00000000E+00
  0.00000000E+00  0.00000000E+00  0.00000000E+00
  0.00000000E+00  0.00000000E+00  0.00000000E+00
  0.00000000E+00  0.00000000E+00  0.00000000E+00
  0.00000000E+00  0.00000000E+00  0.00000000E+00
  0.00000000E+00  0.00000000E+00  0.00000000E+00
  0.00000000E+00  0.00000000E+00  0.00000000E+00
  0.00000000E+00  0.00000000E+00  0.00000000E+00
  0.00000000E+00  0.00000000E+00  0.00000000E+00
  0.00000000E+00  0.00000000E+00  0.00000000E+00
  0.00000000E+00  0.00000000E+00  0.00000000E+00
  0.00000000E+00  0.00000000E+00  0.00000000E+00
  0.00000000E+00  0.00000000E+00  0.00000000E+00
  0.00000000E+00  0.00000000E+00  0.00000000E+00
  0.00000000E+00  0.00000000E+00  0.00000000E+00
  0.00000000E+00  0.00000000E+00  0.00000000E+00
  0.00000000E+00  0.00000000E+00  0.00000000E+00
  0.00000000E+00  0.00000000E+00  0.00000000E+00
  0.00000000E+00  0.00000000E+00  0.00000000E+00
  0.00000000E+00  0.00000000E+00  0.00000000E+00
  0.00000000E+00  0.00000000E+00  0.00000000E+00
  0.00000000E+00  0.00000000E+00  0.00000000E+00
  0.00000000E+00  0.00000000E+00  0.00000000E+00
  0.00000000E+00  0.00000000E+00  0.00000000E+00
  0.00000000E+00  0.00000000E+00  0.00000000E+00
  0.00000000E+00  0.00000000E+00  0.00000000E+00
  0.00000000E+00  0.00000000E+00  0.00000000E+00
  0.00000000E+00  0.00000000E+00  0.00000000E+00
  0.00000000E+00  0.00000000E+00  0.00000000E+00
  0.00000000E+00  0.00000000E+00  0.00000000E+00
  0.00000000E+00  0.00000000E+00  0.00000000E+00
  0.00000000E+00  0.00000000E+00  0.00000000E+00
  0.00000000E+00  0.00000000E+00  0.00000000E+00
  0.00000000E+00  0.00000000E+00  0.00000000E+00
  0.00000000E+00  0.00000000E+00  0.00000000E+00
  0.00000000E+00  0.00000000E+00  0.00000000E+00
  0.00000000E+00  0.00000000E+00  0.00000000E+00
  0.00000000E+00  0.00000000E+00  0.00000000E+00
  0.00000000E+00  0.00000000E+00  0.00000000E+00
  0.00000000E+00  0.00000000E+00  0.00000000E+00
  0.00000000E+00  0.00000000E+00  0.00000000E+00
  0.00000000E+00  0.00000000E+00  0.00000000E+00
  0.00000000E+00  0.00000000E+00  0.00000000E+00
  0.00000000E+00  0.00000000E+00  0.00000000E+00
  0.00000000E+00  0.00000000E+00  0.00000000E+00
  0.00000000E+00  0.00000000E+00  0.00000000E+00
  0.00000000E+00  0.00000000E+00  0.00000000E+00
  0.00000000E+00  0.00000000E+00  0.00000000E+00
  0.00000000E+00  0.00000000E+00  0.00000000E+00
  0.00000000E+00  0.00000000E+00  0.00000000E+00
  0.00000000E+00  0.00000000E+00  0.00000000E+00
  0.00000000E+00  0.00000000E+00  0.00000000E+00
  0.00000000E+00  0.00000000E+00  0.00000000E+00
  0.00000000E+00  0.00000000E+00  0.00000000E+00
  0.00000000E+00  0.00000000E+00  0.00000000E+00
  0.00000000E+00  0.00000000E+00  0.00000000E+00
  0.00000000E+00  0.00000000E+00  0.00000000E+00
  0.00000000E+00  0.00000000E+00  0.00000000E+00
  0.00000000E+00  0.00000000E+00  0.00000000E+00
  0.00000000E+00  0.00000000E+00  0.00000000E+00
  0.00000000E+00  0.00000000E+00  0.00000000E+00
  0.00000000E+00  0.00000000E+00  0.00000000E+00
  0.00000000E+00  0.00000000E+00  0.00000000E+00
  0.00000000E+00  0.00000000E+00  0.00000000E+00
  0.00000000E+00  0.00000000E+00  0.00000000E+00
  0.00000000E+00  0.00000000E+00  0.00000000E+00
  0.00000000E+00  0.00000000E+00  0.00000000E+00
  0.00000000E+00  0.00000000E+00  0.00000000E+00
  0.00000000E+00  0.00000000E+00  0.00000000E+00
  0.00000000E+00  0.00000000E+00  0.00000000E+00
  0.00000000E+00  0.00000000E+00  0.00000000E+00
  0.00000000E+00  0.00000000E+00  0.00000000E+00
  0.00000000E+00  0.00000000E+00  0.00000000E+00
  0.00000000E+00  0.00000000E+00  0.00000000E+00
  0.00000000E+00  0.00000000E+00  0.00000000E+00
  0.00000000E+00  0.00000000E+00  0.00000000E+00
  0.00000000E+00  0.00000000E+00  0.00000000E+00
  0.00000000E+00  0.00000000E+00  0.00000000E+00
  0.00000000E+00  0.00000000E+00  0.00000000E+00
  0.00000000E+00  0.00000000E+00  0.00000000E+00
  0.00000000E+00  0.00000000E+00  0.00000000E+00
  0.00000000E+00  0.00000000E+00  0.00000000E+00
