C H O Si                                
   1.00000000000000     
     9.2874599999999994    0.0000000000000000    0.0000000000000000
     0.0000000000000000    8.7562999999999995    0.0000000000000000
     0.0000000000000000    0.0000000000000000   90.0000000000000000
   C    H    O    Si
    36    33    16    36
Selective dynamics
Direct
  0.0018246320598601  0.1352504658598709  0.4232158293365936   T   T   T
  0.0018307751853829  0.6353659377349060  0.4232271425844452   T   T   T
  0.3351020576065256  0.1354111691014819  0.4232742189994975   T   T   T
  0.3351191086804536  0.6353072071310166  0.4232819241976157   T   T   T
  0.6683343744991482  0.1352689898705795  0.4232672968139020   T   T   T
  0.6683722904675362  0.6352508534691198  0.4232649643771217   T   T   T
  0.1686443462669713  0.3809276848705391  0.4396047830394147   T   T   T
  0.1686950678654041  0.8809277642283576  0.4396140075332788   T   T   T
  0.5019638762635688  0.3809605527342553  0.4396731331931745   T   T   T
  0.5019262250067196  0.8809024464327543  0.4396400399786745   T   T   T
  0.8353371891362578  0.3808625816861354  0.4395642029262480   T   T   T
  0.8352418401470050  0.8808746727872284  0.4395951608860704   T   T   T
  0.0020884062102040  0.1306169251379219  0.4570703852691209   T   T   T
  0.0020929394087731  0.6308787646873876  0.4570841851138611   T   T   T
  0.3355313303107758  0.1307654552959739  0.4571311831560830   T   T   T
  0.3354707291952879  0.6306029170833609  0.4571420872017603   T   T   T
  0.6686769574515963  0.1307726585240497  0.4571264528607542   T   T   T
  0.6687550348227950  0.6307376031497854  0.4571203515075563   T   T   T
  0.1688852219184187  0.3806702174216380  0.4740731283921104   T   T   T
  0.1691549330301198  0.8807119292162843  0.4741056703697763   T   T   T
  0.5022320165458232  0.3811084423305518  0.4742266254091966   T   T   T
  0.5022241167372204  0.8804501810497855  0.4741363545490497   T   T   T
  0.8355255470354550  0.3805307957373859  0.4740372298589271   T   T   T
  0.8353702379370683  0.8807436472948563  0.4741106403421394   T   T   T
  0.0025404973233171  0.1302221031241040  0.4914868481441788   T   T   T
  0.0023124921293955  0.6308721022871505  0.4915608552166215   T   T   T
  0.3361619481832510  0.1314610912114785  0.4916550985210600   T   T   T
  0.3353723757289424  0.6309257871566227  0.4917025480980263   T   T   T
  0.6682225368820902  0.1312309360954172  0.4916403833289978   T   T   T
  0.6691488257620195  0.6310597632534263  0.4916420780717318   T   T   T
  0.1688285908004532  0.3836224152456463  0.5078224333486248   T   T   T
  0.1683549378237136  0.8857420380167722  0.5079662713459798   T   T   T
  0.5024654140104577  0.3889895489563746  0.5084347809506449   T   T   T
  0.5019017089927231  0.8850830196295099  0.5080106319560420   T   T   T
  0.8363794522435355  0.3825876334254144  0.5076630247694097   T   T   T
  0.8354972114841809  0.8858712911709252  0.5079168962733110   T   T   T
  0.0047851262729650  0.0629016761322572  0.4132041002839570   T   T   T
  0.0046845226649738  0.5630039414593582  0.4132152733072161   T   T   T
  0.3380969974326861  0.0629915152090574  0.4132687273850247   T   T   T
  0.3379095390504373  0.5627855816067179  0.4132826920203743   T   T   T
  0.6706828696738910  0.0627910361482690  0.4132649097053403   T   T   T
  0.6709651418023378  0.5627838928121475  0.4132643324790910   T   T   T
  0.1706330733765324  0.3115952993618470  0.5178543754567430   T   T   T
  0.1708695057241982  0.8130829796101274  0.5179532936478782   T   T   T
  0.5056940306152445  0.3154395777170483  0.5183610322083725   T   T   T
  0.5029112920706404  0.8127284543412909  0.5180204389932425   T   T   T
  0.8390089900779504  0.3106968137012243  0.5177032138895711   T   T   T
  0.8378723684132326  0.8142442334950575  0.5179618635168997   T   T   T
  0.0833465188637900  0.1145997752729722  0.5297601779747418   T   T   T
  0.0833085502660421  0.6107757835481987  0.5294897958107680   T   T   T
  0.4169660973591820  0.1157765473115940  0.5297730110001252   T   T   T
  0.3824652448815289  0.6324371349238446  0.5317053251216042   T   T   T
  0.7515680229164842  0.1140904994381531  0.5297415246155002   T   T   T
  0.7892141572536088  0.5988856246259647  0.5281777961428137   T   T   T
  0.2517545584075321  0.3636221809074140  0.4014847002912011   T   T   T
  0.2519418074370319  0.8635447086030318  0.4015004166925045   T   T   T
  0.5841937982336596  0.3638805103897880  0.4015115189237507   T   T   T
  0.5840136092644403  0.8637831930611013  0.4014697726380835   T   T   T
  0.9164977364230671  0.3640964023514936  0.4013697511466037   T   T   T
  0.9164596988231681  0.8642306325220743  0.4013969538839181   T   T   T
  0.5413317677248740  0.6139276871522769  0.5602006700075639   T   T   T
  0.4863594937871043  0.4751545966763204  0.5723229236702351   T   T   T
  0.5663685255686203  0.6400718071678693  0.5788290483050884   T   T   T
  0.3071246696790588  0.3825349029534220  0.5821350373644435   T   T   T
  0.4228993126121393  0.2590626870444050  0.5782281241034390   T   T   T
  0.6473702684587154  0.7344456921529170  0.5980532952131019   T   T   T
  0.4832087719383253  0.7680986771635084  0.5959309118399604   T   T   T
  0.5201598433065300  0.8029512796006099  0.5467845451415874   T   T   T
  0.5897706082605061  0.6613834695099436  0.5379986360308845   T   T   T
  0.1592335315569706  0.3443015068948874  0.4062900800449877   T   T   T
  0.1593865312305622  0.8443067220204497  0.4063031793374909   T   T   T
  0.4919280744990666  0.3447686582721300  0.4063755266838392   T   T   T
  0.4918067947352288  0.8443820611218152  0.4063340224118503   T   T   T
  0.8245999592215839  0.3440425246590779  0.4062663711643263   T   T   T
  0.8245883035404432  0.8442373992389709  0.4062991494773406   T   T   T
  0.9914933289068438  0.0951630869674395  0.5248314746536932   T   T   T
  0.9900852053865042  0.5904282665874881  0.5247900655985589   T   T   T
  0.3250473931848276  0.0944656872246183  0.5249320614889051   T   T   T
  0.3068693111834041  0.5947859119218905  0.5249174037001363   T   T   T
  0.6591999080108745  0.0946241993234591  0.5249090028216461   T   T   T
  0.6875203240464179  0.5939773701130544  0.5249685027323133   T   T   T
  0.5638779538910219  0.5597222299152737  0.5701749419704416   T   T   T
  0.3787752634667109  0.3535844144772530  0.5747168702494044   T   T   T
  0.5742434044923053  0.7577485802273946  0.5906028430352515   T   T   T
  0.5126531403357114  0.6926476036450647  0.5453379211316471   T   T   T
  0.1683773134289264  0.2527354958506981  0.4227187567168866   T   T   T
  0.1684438292998530  0.7527054891856109  0.4227292358080127   T   T   T
  0.5016053512084303  0.2527490133274288  0.4227764022800265   T   T   T
  0.5016072046803829  0.7526916482795598  0.4227533218228195   T   T   T
  0.8349404425674689  0.2525193141574954  0.4226919440220032   T   T   T
  0.8349070478669873  0.7525923339732792  0.4227156003899981   T   T   T
  0.0019517341243526  0.0051966730002765  0.4399013277093309   T   T   T
  0.0019713651105213  0.5053074738674654  0.4399074144082822   T   T   T
  0.3352950205394900  0.0053104943671342  0.4399484788311634   T   T   T
  0.3352686302328067  0.5052626141579120  0.4399616317981608   T   T   T
  0.6685107868060636  0.0052481405503108  0.4399428930468950   T   T   T
  0.6686051057220909  0.5052147256665235  0.4399387105891163   T   T   T
  0.1687622727717167  0.2556836167011223  0.4569041025411164   T   T   T
  0.1689480422671486  0.7557583808446953  0.4569275508687405   T   T   T
  0.5020986020027880  0.2558726326025841  0.4569967837224460   T   T   T
  0.5020575211226480  0.7556450112812053  0.4569463064234513   T   T   T
  0.8354356950351203  0.2556749284875606  0.4568692137654216   T   T   T
  0.8353521013773947  0.7558457143821087  0.4569157692666595   T   T   T
  0.0023735016009510  0.0053504967499426  0.4742188650276309   T   T   T
  0.0022264381881586  0.5056779582943094  0.4742178422334485   T   T   T
  0.3359036403404496  0.0059173692033273  0.4743026319201687   T   T   T
  0.3354140152660556  0.5059021483685161  0.4743414976628939   T   T   T
  0.6684827237457944  0.0058179634863459  0.4742977728105491   T   T   T
  0.6690088518484730  0.5057699342342712  0.4742781447298561   T   T   T
  0.1689290112955628  0.2546966451952381  0.4911815847155884   T   T   T
  0.1688389633969853  0.7555709418473380  0.4912856168035387   T   T   T
  0.5021804441005352  0.2570374991415774  0.4914902243384203   T   T   T
  0.5019480717181417  0.7550863197945341  0.4913019589100860   T   T   T
  0.8358439193991478  0.2537532686943869  0.4910822034933157   T   T   T
  0.8357761872818880  0.7555822339239602  0.4912675060453459   T   T   T
  0.0018601103819529  0.0032008413982333  0.5084253271077929   T   T   T
  0.0023191603796218  0.5004851674573306  0.5082230119348140   T   T   T
  0.3349129566921640  0.0029920797669230  0.5085060688458888   T   T   T
  0.3331859579866338  0.5042929419057753  0.5087438141094636   T   T   T
  0.6686753324584461  0.0028852135643664  0.5084930343550405   T   T   T
  0.6718533016054459  0.5020224508980272  0.5083656876780870   T   T   T
 
  0.00000000E+00  0.00000000E+00  0.00000000E+00
  0.00000000E+00  0.00000000E+00  0.00000000E+00
  0.00000000E+00  0.00000000E+00  0.00000000E+00
  0.00000000E+00  0.00000000E+00  0.00000000E+00
  0.00000000E+00  0.00000000E+00  0.00000000E+00
  0.00000000E+00  0.00000000E+00  0.00000000E+00
  0.00000000E+00  0.00000000E+00  0.00000000E+00
  0.00000000E+00  0.00000000E+00  0.00000000E+00
  0.00000000E+00  0.00000000E+00  0.00000000E+00
  0.00000000E+00  0.00000000E+00  0.00000000E+00
  0.00000000E+00  0.00000000E+00  0.00000000E+00
  0.00000000E+00  0.00000000E+00  0.00000000E+00
  0.00000000E+00  0.00000000E+00  0.00000000E+00
  0.00000000E+00  0.00000000E+00  0.00000000E+00
  0.00000000E+00  0.00000000E+00  0.00000000E+00
  0.00000000E+00  0.00000000E+00  0.00000000E+00
  0.00000000E+00  0.00000000E+00  0.00000000E+00
  0.00000000E+00  0.00000000E+00  0.00000000E+00
  0.00000000E+00  0.00000000E+00  0.00000000E+00
  0.00000000E+00  0.00000000E+00  0.00000000E+00
  0.00000000E+00  0.00000000E+00  0.00000000E+00
  0.00000000E+00  0.00000000E+00  0.00000000E+00
  0.00000000E+00  0.00000000E+00  0.00000000E+00
  0.00000000E+00  0.00000000E+00  0.00000000E+00
  0.00000000E+00  0.00000000E+00  0.00000000E+00
  0.00000000E+00  0.00000000E+00  0.00000000E+00
  0.00000000E+00  0.00000000E+00  0.00000000E+00
  0.00000000E+00  0.00000000E+00  0.00000000E+00
  0.00000000E+00  0.00000000E+00  0.00000000E+00
  0.00000000E+00  0.00000000E+00  0.00000000E+00
  0.00000000E+00  0.00000000E+00  0.00000000E+00
  0.00000000E+00  0.00000000E+00  0.00000000E+00
  0.00000000E+00  0.00000000E+00  0.00000000E+00
  0.00000000E+00  0.00000000E+00  0.00000000E+00
  0.00000000E+00  0.00000000E+00  0.00000000E+00
  0.00000000E+00  0.00000000E+00  0.00000000E+00
  0.00000000E+00  0.00000000E+00  0.00000000E+00
  0.00000000E+00  0.00000000E+00  0.00000000E+00
  0.00000000E+00  0.00000000E+00  0.00000000E+00
  0.00000000E+00  0.00000000E+00  0.00000000E+00
  0.00000000E+00  0.00000000E+00  0.00000000E+00
  0.00000000E+00  0.00000000E+00  0.00000000E+00
  0.00000000E+00  0.00000000E+00  0.00000000E+00
  0.00000000E+00  0.00000000E+00  0.00000000E+00
  0.00000000E+00  0.00000000E+00  0.00000000E+00
  0.00000000E+00  0.00000000E+00  0.00000000E+00
  0.00000000E+00  0.00000000E+00  0.00000000E+00
  0.00000000E+00  0.00000000E+00  0.00000000E+00
  0.00000000E+00  0.00000000E+00  0.00000000E+00
  0.00000000E+00  0.00000000E+00  0.00000000E+00
  0.00000000E+00  0.00000000E+00  0.00000000E+00
  0.00000000E+00  0.00000000E+00  0.00000000E+00
  0.00000000E+00  0.00000000E+00  0.00000000E+00
  0.00000000E+00  0.00000000E+00  0.00000000E+00
  0.00000000E+00  0.00000000E+00  0.00000000E+00
  0.00000000E+00  0.00000000E+00  0.00000000E+00
  0.00000000E+00  0.00000000E+00  0.00000000E+00
  0.00000000E+00  0.00000000E+00  0.00000000E+00
  0.00000000E+00  0.00000000E+00  0.00000000E+00
  0.00000000E+00  0.00000000E+00  0.00000000E+00
  0.00000000E+00  0.00000000E+00  0.00000000E+00
  0.00000000E+00  0.00000000E+00  0.00000000E+00
  0.00000000E+00  0.00000000E+00  0.00000000E+00
  0.00000000E+00  0.00000000E+00  0.00000000E+00
  0.00000000E+00  0.00000000E+00  0.00000000E+00
  0.00000000E+00  0.00000000E+00  0.00000000E+00
  0.00000000E+00  0.00000000E+00  0.00000000E+00
  0.00000000E+00  0.00000000E+00  0.00000000E+00
  0.00000000E+00  0.00000000E+00  0.00000000E+00
  0.00000000E+00  0.00000000E+00  0.00000000E+00
  0.00000000E+00  0.00000000E+00  0.00000000E+00
  0.00000000E+00  0.00000000E+00  0.00000000E+00
  0.00000000E+00  0.00000000E+00  0.00000000E+00
  0.00000000E+00  0.00000000E+00  0.00000000E+00
  0.00000000E+00  0.00000000E+00  0.00000000E+00
  0.00000000E+00  0.00000000E+00  0.00000000E+00
  0.00000000E+00  0.00000000E+00  0.00000000E+00
  0.00000000E+00  0.00000000E+00  0.00000000E+00
  0.00000000E+00  0.00000000E+00  0.00000000E+00
  0.00000000E+00  0.00000000E+00  0.00000000E+00
  0.00000000E+00  0.00000000E+00  0.00000000E+00
  0.00000000E+00  0.00000000E+00  0.00000000E+00
  0.00000000E+00  0.00000000E+00  0.00000000E+00
  0.00000000E+00  0.00000000E+00  0.00000000E+00
  0.00000000E+00  0.00000000E+00  0.00000000E+00
  0.00000000E+00  0.00000000E+00  0.00000000E+00
  0.00000000E+00  0.00000000E+00  0.00000000E+00
  0.00000000E+00  0.00000000E+00  0.00000000E+00
  0.00000000E+00  0.00000000E+00  0.00000000E+00
  0.00000000E+00  0.00000000E+00  0.00000000E+00
  0.00000000E+00  0.00000000E+00  0.00000000E+00
  0.00000000E+00  0.00000000E+00  0.00000000E+00
  0.00000000E+00  0.00000000E+00  0.00000000E+00
  0.00000000E+00  0.00000000E+00  0.00000000E+00
  0.00000000E+00  0.00000000E+00  0.00000000E+00
  0.00000000E+00  0.00000000E+00  0.00000000E+00
  0.00000000E+00  0.00000000E+00  0.00000000E+00
  0.00000000E+00  0.00000000E+00  0.00000000E+00
  0.00000000E+00  0.00000000E+00  0.00000000E+00
  0.00000000E+00  0.00000000E+00  0.00000000E+00
  0.00000000E+00  0.00000000E+00  0.00000000E+00
  0.00000000E+00  0.00000000E+00  0.00000000E+00
  0.00000000E+00  0.00000000E+00  0.00000000E+00
  0.00000000E+00  0.00000000E+00  0.00000000E+00
  0.00000000E+00  0.00000000E+00  0.00000000E+00
  0.00000000E+00  0.00000000E+00  0.00000000E+00
  0.00000000E+00  0.00000000E+00  0.00000000E+00
  0.00000000E+00  0.00000000E+00  0.00000000E+00
  0.00000000E+00  0.00000000E+00  0.00000000E+00
  0.00000000E+00  0.00000000E+00  0.00000000E+00
  0.00000000E+00  0.00000000E+00  0.00000000E+00
  0.00000000E+00  0.00000000E+00  0.00000000E+00
  0.00000000E+00  0.00000000E+00  0.00000000E+00
  0.00000000E+00  0.00000000E+00  0.00000000E+00
  0.00000000E+00  0.00000000E+00  0.00000000E+00
  0.00000000E+00  0.00000000E+00  0.00000000E+00
  0.00000000E+00  0.00000000E+00  0.00000000E+00
  0.00000000E+00  0.00000000E+00  0.00000000E+00
  0.00000000E+00  0.00000000E+00  0.00000000E+00
  0.00000000E+00  0.00000000E+00  0.00000000E+00
  0.00000000E+00  0.00000000E+00  0.00000000E+00
