C H O Si                                
   1.00000000000000     
    18.5749199999999988    0.0000000000000000    0.0000000000000000
     0.0000000000000000   17.5126199999999983    0.0000000000000000
     0.0000000000000000    0.0000000000000000   58.0000000000000000
   C    H    O    Si
   144   105    52   144
Selective dynamics
Direct
  0.4966060750081477  0.0632034318376836  0.0604978101305482   T   T   T
  0.1632439898067505  0.0631258189459533  0.0604788471776713   T   T   T
  0.3299418618735450  0.0631612590908212  0.0604864926930638   T   T   T
  0.4965298629081190  0.3132295534465040  0.0604882712414906   T   T   T
  0.1631666761747263  0.3132189025543451  0.0604922934525238   T   T   T
  0.3298522597930009  0.3132320606370836  0.0604896155014976   T   T   T
  0.0798854836594038  0.1858976665572661  0.1393785698365341   T   T   T
  0.2464966851201636  0.1859777060354481  0.1394167195793330   T   T   T
  0.4131359631938488  0.1860100854763469  0.1394237940672512   T   T   T
  0.0798213617533746  0.4360489309788487  0.1394189174174902   T   T   T
  0.2464677268345290  0.4360543977540843  0.1394265856366323   T   T   T
  0.4131157121233235  0.4360611376706466  0.1394373203412472   T   T   T
  0.1633634198100144  0.0609880505668027  0.1666029033687305   T   T   T
  0.3299504339986025  0.0610445794691794  0.1666149641021371   T   T   T
  0.4965325865093032  0.0610041197782639  0.1666011829049394   T   T   T
  0.1632636134270361  0.3110766935224291  0.1666123375335074   T   T   T
  0.3299299607872168  0.3111164136077502  0.1666309215054673   T   T   T
  0.4965315094640793  0.3111788180184372  0.1666225880638400   T   T   T
  0.0803470818019614  0.1879989685562337  0.1919422922225305   T   T   T
  0.2467775352067450  0.1880757421609306  0.1919852440541134   T   T   T
  0.4132554812473769  0.1879990027005211  0.1919539609828417   T   T   T
  0.0800919435026089  0.4380826306081072  0.1920033644658543   T   T   T
  0.2467445926870302  0.4381289868064817  0.1919914347777855   T   T   T
  0.4133968154187233  0.4382371025056712  0.1919969147504746   T   T   T
  0.0798055103449904  0.1861050461721371  0.0858127376755195   T   T   T
  0.2464537152468087  0.1861269301034581  0.0858569923138326   T   T   T
  0.4130965736864702  0.1861519795646072  0.0858441820076177   T   T   T
  0.0798036908251173  0.4361701670633001  0.0858453111284479   T   T   T
  0.2464466626919667  0.4361553662391525  0.0858616434850405   T   T   T
  0.4131110566228042  0.4361540460856862  0.0858523557113463   T   T   T
  0.1631225007266169  0.0609384684189729  0.1130189532995179   T   T   T
  0.3297766456587123  0.0609788162885101  0.1130333305298975   T   T   T
  0.4964161184421271  0.0610192009303427  0.1130523249169141   T   T   T
  0.1631126443607807  0.3110130905905191  0.1130353572700424   T   T   T
  0.3297763521010717  0.3110324788622881  0.1130467133328050   T   T   T
  0.4964134082934052  0.3110339906711356  0.1130506231786658   T   T   T
  0.4966349088641301  0.5631591470248420  0.0605076820936441   T   T   T
  0.1632460477195321  0.5632114482292145  0.0604962522834045   T   T   T
  0.3299808496044558  0.5631804355082113  0.0604986226141980   T   T   T
  0.4965830625758425  0.8132234024558270  0.0605035303267712   T   T   T
  0.1631729661231485  0.8131024875189742  0.0604739521807749   T   T   T
  0.3298868307410920  0.8131743271305815  0.0604791495291457   T   T   T
  0.0797995677697665  0.6860769264391554  0.1394280965001633   T   T   T
  0.2464713481254282  0.6860335455136082  0.1394405995615786   T   T   T
  0.4131335491989718  0.6860926657172530  0.1394404314078176   T   T   T
  0.0799190353230101  0.9358355552458665  0.1393820743429649   T   T   T
  0.2465255577191629  0.9359327843244424  0.1394040023637195   T   T   T
  0.4131521811558786  0.9359695981294828  0.1394201860215975   T   T   T
  0.1632218699673551  0.5611355072144066  0.1666395846740093   T   T   T
  0.3299269545103586  0.5611508423052430  0.1666408856929904   T   T   T
  0.4965305713851020  0.5612877518370859  0.1666185135986949   T   T   T
  0.1632767979351241  0.8111053652420598  0.1666238338827359   T   T   T
  0.3299743767982610  0.8111235709361395  0.1666373928157484   T   T   T
  0.4966321723661495  0.8111927672337355  0.1666544275852256   T   T   T
  0.0801591309023544  0.6882157214339029  0.1919999174600789   T   T   T
  0.2467828354827141  0.6882059681624154  0.1920151717154126   T   T   T
  0.4134278664635179  0.6882357781902255  0.1920080999004251   T   T   T
  0.0802126106840247  0.9381165206064279  0.1919874715568350   T   T   T
  0.2468328027508808  0.9380969151902344  0.1919925024367478   T   T   T
  0.4134563615891672  0.9381676923286147  0.1919977454835175   T   T   T
  0.0797721245556699  0.6861463195583499  0.0858492141636793   T   T   T
  0.2464816211605753  0.6861108868221635  0.0858610256035881   T   T   T
  0.4131476388059616  0.6861510872038419  0.0858618484876540   T   T   T
  0.0797979073992301  0.9360632011644583  0.0858159705604941   T   T   T
  0.2464671915626066  0.9360791067263944  0.0858373724558521   T   T   T
  0.4131212536789296  0.9361283006669430  0.0858438461034557   T   T   T
  0.1630753807885632  0.5610646140887542  0.1130492839351618   T   T   T
  0.3297754168941143  0.5610564567736790  0.1130552862314290   T   T   T
  0.4964201977149754  0.5610444483350667  0.1130551904831418   T   T   T
  0.1631359588865454  0.8109470851482661  0.1130234457111563   T   T   T
  0.3298063649445149  0.8109890815431955  0.1130388139083272   T   T   T
  0.4964848826713643  0.8110724208118502  0.1130662204407336   T   T   T
  0.9965426951999471  0.0631697140695594  0.0604383338554712   T   T   T
  0.6632509441612061  0.0632548726163630  0.0605675983584097   T   T   T
  0.8298762854282362  0.0632199234251472  0.0605269840086303   T   T   T
  0.9964848398140990  0.3132503267328297  0.0604403336818434   T   T   T
  0.6631618173699755  0.3131856644924862  0.0605682221720643   T   T   T
  0.8298450620086050  0.3131859971020474  0.0605207034944862   T   T   T
  0.5797794145446439  0.1860471675104757  0.1394388519710521   T   T   T
  0.7464765199952165  0.1862562593591516  0.1396332099591939   T   T   T
  0.9132048194366587  0.1858848388787288  0.1393022724330992   T   T   T
  0.5797680087125263  0.4360816656039796  0.1394651552312195   T   T   T
  0.7464726400501186  0.4359892900200109  0.1394810090375760   T   T   T
  0.9131771421837749  0.4360615908397364  0.1394093331847819   T   T   T
  0.6634232245470593  0.0614371906756123  0.1667694848629139   T   T   T
  0.8297121615643013  0.0612711601379863  0.1667020455273659   T   T   T
  0.9968795606991626  0.0607164391156001  0.1665038330718210   T   T   T
  0.6631503615602350  0.3112041518075349  0.1668118681885467   T   T   T
  0.8301137907587325  0.3111949856634693  0.1666566916787823   T   T   T
  0.9967104874484350  0.3110838468761795  0.1664790797320453   T   T   T
  0.5798326771085193  0.1877032795993390  0.1918310616554490   T   T   T
  0.7468279413231798  0.1898684804069911  0.1927144216043371   T   T   T
  0.9139036339860738  0.1868693007447351  0.1914847734989598   T   T   T
  0.5799947403724177  0.4385378920952159  0.1920098015787748   T   T   T
  0.7467487916541390  0.4380649263588144  0.1920285203570959   T   T   T
  0.9135440522827502  0.4384744389673908  0.1919237960485184   T   T   T
  0.5797782631183733  0.1861853485311024  0.0858778524138398   T   T   T
  0.7464334303266932  0.1861919575748812  0.0859705806270744   T   T   T
  0.9130955986014544  0.1861227285511376  0.0857947092596564   T   T   T
  0.5798117098543496  0.4361439991893810  0.0858877246513709   T   T   T
  0.7464412689031711  0.4361255828547320  0.0858964096408437   T   T   T
  0.9130908248063510  0.4361470412117483  0.0858396358145600   T   T   T
  0.6630939785226132  0.0611061179748758  0.1131206324624059   T   T   T
  0.8297134094637101  0.0610688667136262  0.1130833119704611   T   T   T
  0.9964571830056406  0.0609159640563670  0.1129861793055730   T   T   T
  0.6630784746417733  0.3110435182328005  0.1131501766131310   T   T   T
  0.8297955085393020  0.3110390223835446  0.1130778470214681   T   T   T
  0.9964681640336430  0.3110161768193445  0.1129758932144962   T   T   T
  0.9965686422753212  0.5631787499107143  0.0604947708057112   T   T   T
  0.6632591177249820  0.5631804482760296  0.0605294384915466   T   T   T
  0.8299302985305941  0.5631902415329734  0.0605170537007228   T   T   T
  0.9964501863206598  0.8131683826756713  0.0604840395654268   T   T   T
  0.6631797635554946  0.8132259811731690  0.0605274772542796   T   T   T
  0.8298332421774746  0.8132124719056256  0.0605108238063984   T   T   T
  0.5798052529344723  0.6860899481351113  0.1394550003349525   T   T   T
  0.7464506751251178  0.6861132517840284  0.1394591026299747   T   T   T
  0.9131047389713487  0.6860617726526822  0.1394466160649890   T   T   T
  0.5798990325860159  0.9361577844301112  0.1394909683168359   T   T   T
  0.7464328890931624  0.9360711393266041  0.1394695944889189   T   T   T
  0.9130712261406311  0.9361054934217909  0.1394427231810097   T   T   T
  0.6632634645988880  0.5611986990211332  0.1666422918034918   T   T   T
  0.8298623290961213  0.5611499521000965  0.1666383139648676   T   T   T
  0.9966557137866651  0.5612540133804073  0.1666080962924909   T   T   T
  0.6632671416269423  0.8111710974487637  0.1666687831700177   T   T   T
  0.8299501647061340  0.8111792555851504  0.1666553479133049   T   T   T
  0.9966028056845186  0.8111647148165507  0.1666293337955597   T   T   T
  0.5801649083732120  0.6882250012906718  0.1920161119678297   T   T   T
  0.7468102312648639  0.6882366484505958  0.1920267517183985   T   T   T
  0.9134465550518314  0.6882100248169623  0.1919986233253476   T   T   T
  0.5801962775678804  0.9382709432548859  0.1920393866987082   T   T   T
  0.7468229588251198  0.9382104955206449  0.1920485337447362   T   T   T
  0.9134658949612577  0.9382245925544389  0.1919901895488100   T   T   T
  0.5798259979400783  0.6861535875082125  0.0858780789543594   T   T   T
  0.7464391109407994  0.6861504869036532  0.0858871435798123   T   T   T
  0.9130598117933305  0.6861545075373290  0.0858709593552991   T   T   T
  0.5798171449180342  0.9362027473638507  0.0858879495496083   T   T   T
  0.7464235752023745  0.9361679733478644  0.0858941375292870   T   T   T
  0.9130447835998855  0.9361637733058170  0.0858487359175200   T   T   T
  0.6630941900219043  0.5610322531814642  0.1130799632787639   T   T   T
  0.8297324026959974  0.5610278896500637  0.1130711519394274   T   T   T
  0.9964121157546265  0.5610403534368196  0.1130423936910445   T   T   T
  0.6630992250600982  0.8110754671409136  0.1130767548513457   T   T   T
  0.8297331799342154  0.8110690636097130  0.1130679251522641   T   T   T
  0.9963961927952647  0.8110262554338671  0.1130481981710747   T   T   T
  0.0372775567043764  0.1770273317201745  0.0271522810606259   T   T   T
  0.2036623754817911  0.1770392495113034  0.0272299781794812   T   T   T
  0.3703131947242327  0.1769655682658129  0.0272066626357617   T   T   T
  0.0371277563964605  0.4270509881005331  0.0271637593589617   T   T   T
  0.2034297568347394  0.4269638142256145  0.0272131577440287   T   T   T
  0.3700660446981867  0.4269348131377048  0.0272058645814132   T   T   T
  0.1620499485551772  0.0266635061589287  0.0450128421406183   T   T   T
  0.3286420352829745  0.0266899314804007  0.0450218708158414   T   T   T
  0.4954090041390595  0.0267281857239032  0.0450361311869223   T   T   T
  0.1619262451807297  0.2767479107826233  0.0450275176937576   T   T   T
  0.3285479302999489  0.2767378108931141  0.0450318183816650   T   T   T
  0.4952878070005854  0.2767302704839515  0.0450349311289828   T   T   T
  0.4145038502470071  0.4016584404584072  0.2074471669064911   T   T   T
  0.4143563001410734  0.1514704165357236  0.2074115861496954   T   T   T
  0.0811416800959881  0.1514590641831139  0.2073935770987454   T   T   T
  0.2478259950307318  0.1515645300165351  0.2074411957011513   T   T   T
  0.0811415547760917  0.4015031126157400  0.2074546881935575   T   T   T
  0.2477481479119449  0.4015782398433062  0.2074436498982929   T   T   T
  0.0405364230889310  0.0517022699241074  0.2252349426916612   T   T   T
  0.2072391336252726  0.0516726901912654  0.2252528483382305   T   T   T
  0.3739490718198977  0.0517356832972737  0.2252228375263274   T   T   T
  0.0351569108268775  0.3018555609211176  0.2259069542024881   T   T   T
  0.2070148183951153  0.3017077812985760  0.2252834401128720   T   T   T
  0.3741913066288446  0.3015571128815007  0.2251748141496444   T   T   T
  0.0371030636217573  0.6770465070328522  0.0272029702409668   T   T   T
  0.2037348161036471  0.6770113864717290  0.0272215038036941   T   T   T
  0.3704099922823840  0.6769722829546123  0.0272270200808200   T   T   T
  0.0369267471443836  0.9269578260017550  0.0271788960093153   T   T   T
  0.2033772090168866  0.9269019049409741  0.0272014023794782   T   T   T
  0.3701670248193378  0.9269260373277600  0.0272023853476071   T   T   T
  0.1620027358877698  0.5267015989487963  0.0450410056929395   T   T   T
  0.3287087777441381  0.5266921715173107  0.0450418576651729   T   T   T
  0.4954003850891909  0.5266920208861366  0.0450452544232742   T   T   T
  0.1619343631743422  0.7765952395300273  0.0450158414467847   T   T   T
  0.3286115509348369  0.7766414953868033  0.0450253137127127   T   T   T
  0.4953819235086752  0.7767135418072030  0.0450526929976568   T   T   T
  0.4144691302708658  0.9015926150302855  0.2074446764100066   T   T   T
  0.4144793370713428  0.6516521768333635  0.2074536710381452   T   T   T
  0.0811877695246213  0.6516618887358562  0.2074514108191369   T   T   T
  0.2478704083786431  0.6517310973739313  0.2074797951700728   T   T   T
  0.0811867264822748  0.9015343712638739  0.2074297330354637   T   T   T
  0.2478787937255662  0.9015448887135233  0.2074373792279084   T   T   T
  0.0402497826398355  0.5526425196004767  0.2252176898113792   T   T   T
  0.2071224161383749  0.5525527318431348  0.2251425747253213   T   T   T
  0.3737245651485517  0.5522836598337039  0.2251985203950638   T   T   T
  0.0404928701195491  0.8018477294243656  0.2252667148049114   T   T   T
  0.2069126619623051  0.8020692054415693  0.2253113579541061   T   T   T
  0.3740742822576139  0.8017047233648158  0.2252247128646460   T   T   T
  0.5373403621455020  0.1770235183095785  0.0271867557579230   T   T   T
  0.7036158440982700  0.1770838347507396  0.0273217716596078   T   T   T
  0.8700658684331433  0.1769822512230363  0.0271823174886842   T   T   T
  0.5371997360726330  0.4269866203716997  0.0271934770770664   T   T   T
  0.7034307401422133  0.4269003093205595  0.0272585899305577   T   T   T
  0.8697490550552609  0.4269285190252265  0.0272124929231606   T   T   T
  0.6620991459098935  0.0267346747332346  0.0451137498220621   T   T   T
  0.8284091306607094  0.0267193373799661  0.0450742786264567   T   T   T
  0.9952904213234971  0.0267022266493518  0.0449788193377621   T   T   T
  0.6618705430184855  0.2765908100061402  0.0451319098872263   T   T   T
  0.8285350408779310  0.2766597311623115  0.0450675323483294   T   T   T
  0.9952242843645595  0.2768089657977984  0.0449697003819812   T   T   T
  0.9143180078987262  0.4022544064636029  0.2074174276611611   T   T   T
  0.9151200376399359  0.1506480413167367  0.2069991669817397   T   T   T
  0.5807078592119005  0.1513420373008365  0.2073202490172785   T   T   T
  0.7481578946223081  0.1528228544744607  0.2080648178994314   T   T   T
  0.5807995997631353  0.4019187241277942  0.2074380237898043   T   T   T
  0.7468488870227596  0.4015525474956157  0.2074889556101313   T   T   T
  0.5403172342869645  0.0519803607729095  0.2252834512119757   T   T   T
  0.7074393329688491  0.0512354444065512  0.2253829718474442   T   T   T
  0.8740317787248689  0.0515065945859341  0.2253128739299498   T   T   T
  0.5424464642888086  0.3009256015012663  0.2243606487715857   T   T   T
  0.6895786055166913  0.3097330955640419  0.2287006730616149   T   T   T
  0.8910884890951739  0.2948652512580509  0.2229348298671738   T   T   T
  0.7737194910879196  0.3061590085617728  0.2737131568149530   T   T   T
  0.7468284277684937  0.2382546427897773  0.2931062374387036   T   T   T
  0.7863848500963586  0.3197374308314490  0.3029262103623944   T   T   T
  0.6576056129262178  0.1951781748277871  0.3098508607925182   T   T   T
  0.7102610324930211  0.1301942862571651  0.3022282249987696   T   T   T
  0.8250620926940979  0.3662549515788006  0.3337808765611560   T   T   T
  0.7419196892390161  0.3763066804028057  0.3309476293293236   T   T   T
  0.7597239556747496  0.3958504428389231  0.2519167733360033   T   T   T
  0.7932691403839734  0.3233622339013275  0.2386316909002434   T   T   T
  0.5372159234827506  0.6770305151126971  0.0272179662153275   T   T   T
  0.7036776618705695  0.6770101003970789  0.0272522793572769   T   T   T
  0.8702829081869952  0.6770036712153901  0.0272379603005048   T   T   T
  0.5371317738045892  0.9270159806672795  0.0272112434288839   T   T   T
  0.7034785091750078  0.9269562520160799  0.0272477182730540   T   T   T
  0.8700403827103025  0.9270068762865926  0.0272157770171562   T   T   T
  0.6620086112416272  0.5266802683522760  0.0450704121657216   T   T   T
  0.8286448769516291  0.5266917159196094  0.0450616518958058   T   T   T
  0.9952629407539871  0.5267068976079131  0.0450321890785019   T   T   T
  0.6618882524244705  0.7767177734829157  0.0450723271196947   T   T   T
  0.8284862580318479  0.7766934049490328  0.0450589942122884   T   T   T
  0.9951065641902427  0.7766443556617051  0.0450365484892226   T   T   T
  0.9145532633983214  0.9016714537147609  0.2074468290471262   T   T   T
  0.9145460060423803  0.6517141735417551  0.2074614109384260   T   T   T
  0.5811667923375473  0.6516678976238851  0.2074669775363531   T   T   T
  0.7479866050328764  0.6518329673287766  0.2074993999755448   T   T   T
  0.5811465208040916  0.9017263131650174  0.2074924393205523   T   T   T
  0.7479072190824617  0.9016541118570608  0.2074959969944898   T   T   T
  0.5400036475849698  0.5526996202936904  0.2252297700187366   T   T   T
  0.7072150124222309  0.5538741566643633  0.2249634385713852   T   T   T
  0.8736681891739935  0.5528124983669054  0.2251566448944122   T   T   T
  0.5405548695758094  0.8018222510095490  0.2252696284916684   T   T   T
  0.7070121788200440  0.8020931533129426  0.2253169679470083   T   T   T
  0.8741387274339187  0.8016716152721074  0.2252186954874676   T   T   T
  0.0843730287348403  0.1665433441177650  0.0339378988623015   T   T   T
  0.2508616998761627  0.1666047522699286  0.0339621215699454   T   T   T
  0.4175021057503597  0.1665374455359381  0.0339449927392559   T   T   T
  0.0842372265452316  0.4166522296859387  0.0339547368355318   T   T   T
  0.2506638314146484  0.4166415362303993  0.0339436487941548   T   T   T
  0.4172939092936986  0.4165586303174006  0.0339304103714119   T   T   T
  0.1599027872377813  0.0415402213241499  0.2185500225719812   T   T   T
  0.3265594795840678  0.0415178926777613  0.2185626710140231   T   T   T
  0.4930524154850379  0.0415991526165321  0.2185651244309148   T   T   T
  0.1597482137248041  0.2914715440278080  0.2185485690764407   T   T   T
  0.3267035960463471  0.2914771100766297  0.2185636678614831   T   T   T
  0.4936539244661556  0.2913014430067319  0.2185055897162619   T   T   T
  0.0842450218295547  0.6665542791490745  0.0339586453992908   T   T   T
  0.2509196067020528  0.6666014546909625  0.0339637515800379   T   T   T
  0.4175919213019725  0.6665951085735392  0.0339745494945545   T   T   T
  0.0840939708025062  0.9164692264628224  0.0339243625751273   T   T   T
  0.2506203334402611  0.9165279216553595  0.0339195568248931   T   T   T
  0.4173757854230530  0.9165239107440376  0.0339335732921072   T   T   T
  0.1597815537616215  0.5415490985971858  0.2185688930176337   T   T   T
  0.3263729479341208  0.5415894872964534  0.2185745458806411   T   T   T
  0.4927873208155908  0.5418400464470478  0.2185476091068804   T   T   T
  0.1596805220352776  0.7916120857179619  0.2185755181830764   T   T   T
  0.3266341840002487  0.7915577558210006  0.2185937375448453   T   T   T
  0.4931968372901940  0.7916048541610057  0.2185874820777480   T   T   T
  0.5844319552542518  0.1665859368337493  0.0339833110083460   T   T   T
  0.7508217491817480  0.1666885959327075  0.0340540344987373   T   T   T
  0.9173014648537283  0.1665085046984367  0.0338866975073621   T   T   T
  0.5843079943467038  0.4166091639838034  0.0339905871070362   T   T   T
  0.7506625755263513  0.4165101596527642  0.0339792135131936   T   T   T
  0.9170394750273594  0.4165285456172747  0.0338994769885249   T   T   T
  0.6600476487329555  0.0416320121096704  0.2186536457405028   T   T   T
  0.8266373293178498  0.0416162725345063  0.2186129298848699   T   T   T
  0.9932378909274924  0.0416387930236127  0.2184948932127235   T   T   T
  0.6503982339919955  0.2918445572419984  0.2186534313217185   T   T   T
  0.8396977249675160  0.2913976025627033  0.2185426605172056   T   T   T
  0.9898076242682744  0.2902050531463913  0.2181948470464685   T   T   T
  0.7856576503503802  0.2799393903418372  0.2895193176822479   T   T   T
  0.6905146659604522  0.1795238175209747  0.2976123802717469   T   T   T
  0.7873219036574145  0.3762259879564570  0.3224588944839122   T   T   T
  0.7566958721630462  0.3403263924718662  0.2507318070744817   T   T   T
  0.5843505320929013  0.6665780525353041  0.0339860536514467   T   T   T
  0.7508751654078670  0.6666020282083049  0.0339873791209144   T   T   T
  0.9174864593409436  0.6666028186824542  0.0339750595405682   T   T   T
  0.5842692092785915  0.9166291379703265  0.0339878505824611   T   T   T
  0.7507073012210080  0.9166826147750577  0.0339858835906417   T   T   T
  0.9172662420185678  0.9165252758364323  0.0339275014942118   T   T   T
  0.6598884313371116  0.5416346327291695  0.2185788848199566   T   T   T
  0.8263997343747864  0.5415601167785890  0.2185604821342134   T   T   T
  0.9930282510427740  0.5416170243598443  0.2185547702793006   T   T   T
  0.6597709554288039  0.7916165110747796  0.2186011081942529   T   T   T
  0.8266833930853662  0.7915295546563184  0.2185979050052954   T   T   T
  0.9931608967002998  0.7915848599601527  0.2185739316596079   T   T   T
  0.2466565194830848  0.1217573748358357  0.0598483541557387   T   T   T
  0.4133217346527024  0.1217793694795867  0.0598477150489095   T   T   T
  0.0799349099593159  0.3718168596692071  0.0598454644230201   T   T   T
  0.2465889108166529  0.3718377676843313  0.0598434025692761   T   T   T
  0.4132525049381242  0.3718252733308633  0.0598417574858965   T   T   T
  0.0800013254307757  0.1217229213958602  0.0598213805012685   T   T   T
  0.4964369258441461  0.4985258993982926  0.1396859490590391   T   T   T
  0.1631656020410001  0.4985083395125099  0.1396772926080935   T   T   T
  0.3297763513240820  0.4985024264273481  0.1396837911327863   T   T   T
  0.4964618552324421  0.2484988611886692  0.1396799706814504   T   T   T
  0.1632065537530875  0.2484221644058813  0.1396527712486317   T   T   T
  0.3297923016704130  0.2484576031710778  0.1396729411137396   T   T   T
  0.0800775908526963  0.1229900467388119  0.1658948935042870   T   T   T
  0.2466433361505923  0.1231622320490257  0.1659681562937535   T   T   T
  0.4132454216514278  0.1231442840223622  0.1659626071981250   T   T   T
  0.0800324910936667  0.3732565045225342  0.1659538702478895   T   T   T
  0.2465961716162391  0.3732245282666022  0.1659749339389651   T   T   T
  0.4132273945122336  0.3732627731340092  0.1659912226469400   T   T   T
  0.1633675256207201  0.4967741130553470  0.1926533915187797   T   T   T
  0.3300044929473929  0.4968056872849936  0.1926547380975480   T   T   T
  0.4965768661584415  0.4970108164203157  0.1926396455378026   T   T   T
  0.1634817267259137  0.2468247150718579  0.1926508119491641   T   T   T
  0.4964827033500026  0.2466153032547737  0.1926082392819820   T   T   T
  0.3300223858950982  0.2467259516053130  0.1926372492963959   T   T   T
  0.4964738593443556  0.4982413165559640  0.0865038660154950   T   T   T
  0.1631372980552594  0.4982707625863620  0.0864954372490363   T   T   T
  0.3298209456277522  0.4982607628812191  0.0865002715750118   T   T   T
  0.4964250570365722  0.2482797537427724  0.0864898245443893   T   T   T
  0.1631211881082281  0.2482237167379394  0.0864760382832195   T   T   T
  0.3297932928136880  0.2482559020389275  0.0864861844401567   T   T   T
  0.0798183623712994  0.1233431180627525  0.1127331353397318   T   T   T
  0.2464566791677246  0.1233946799131211  0.1127942474589164   T   T   T
  0.4131009105020382  0.1234618794182865  0.1127861308278896   T   T   T
  0.0798123092027502  0.3734668355348306  0.1127700794900243   T   T   T
  0.2464543158938508  0.3734577566524446  0.1128044464470730   T   T   T
  0.4131048636999087  0.3734799630242060  0.1127966968665735   T   T   T
  0.2466960221485938  0.6217761129239942  0.0598507856321343   T   T   T
  0.4133787478493486  0.6217791221252600  0.0598666076049128   T   T   T
  0.0799098049499582  0.8716824544754631  0.0598238384924242   T   T   T
  0.2465900338688627  0.8717309130359789  0.0598196809244276   T   T   T
  0.4132861534784795  0.8717770042051137  0.0598426450622588   T   T   T
  0.0799768456701819  0.6217819178714626  0.0598529889015407   T   T   T
  0.4964617894844628  0.9984221069289906  0.1396737041078487   T   T   T
  0.1632214172280842  0.9983403650340523  0.1396396849306415   T   T   T
  0.3298087155183458  0.9984097072524710  0.1396614170396311   T   T   T
  0.4964918638026286  0.7485324882990116  0.1396965927880656   T   T   T
  0.1631599166436354  0.7484725414775136  0.1396690204960706   T   T   T
  0.3297784155804649  0.7484850629381117  0.1396778358751938   T   T   T
  0.0799482262547736  0.6233210078756082  0.1659789312391915   T   T   T
  0.2465770554521931  0.6232601904383286  0.1659993815876527   T   T   T
  0.4132125275722418  0.6233314627238822  0.1659897204394989   T   T   T
  0.0799640177853810  0.8731944146398790  0.1659667834374489   T   T   T
  0.2466171980462558  0.8731966203130658  0.1659733422022663   T   T   T
  0.4132751438682442  0.8732416115629221  0.1659888185864908   T   T   T
  0.1634478880861468  0.9967381498545802  0.1926481359785824   T   T   T
  0.3300767622499800  0.9967746906352088  0.1926474664349644   T   T   T
  0.4967192257749004  0.9968148838708674  0.1926520849921609   T   T   T
  0.1633961802820890  0.7468380769561512  0.1926556446926061   T   T   T
  0.4967171965464748  0.7468456123377755  0.1926697125387943   T   T   T
  0.3300509662221885  0.7468439444659468  0.1926641071342236   T   T   T
  0.4964643892086619  0.9982616647656916  0.0864941111141955   T   T   T
  0.1631400109037115  0.9981467053367666  0.0864666269748636   T   T   T
  0.3298126029804557  0.9982028847625438  0.0864810897346972   T   T   T
  0.4964992381120992  0.7482769103448307  0.0865061624698014   T   T   T
  0.1631346913602614  0.7481860980409323  0.0864770096667171   T   T   T
  0.3298254480710458  0.7482280886433305  0.0864848565277861   T   T   T
  0.0797469078314333  0.6234867971871688  0.1127924120097436   T   T   T
  0.2464430089698837  0.6234606044624857  0.1128121588284223   T   T   T
  0.4131091534578550  0.6234968729950772  0.1128060002788981   T   T   T
  0.0798170289214185  0.8733315892596618  0.1127527627662328   T   T   T
  0.2464799674730715  0.8733753913643760  0.1127832895160592   T   T   T
  0.4131312514680402  0.8734427285381555  0.1127896029933867   T   T   T
  0.7466397707039760  0.1218497125030449  0.0599438678428520   T   T   T
  0.9132716438827799  0.1218029954591180  0.0597911062356802   T   T   T
  0.5799463323236402  0.3717984104501982  0.0598872189763635   T   T   T
  0.7465762872066134  0.3717594120965951  0.0598837899452972   T   T   T
  0.9131856873440347  0.3718503469170513  0.0598177491364246   T   T   T
  0.5800126876893437  0.1218334767783232  0.0598812614021096   T   T   T
  0.9964958820372412  0.4985252434706122  0.1396612209864749   T   T   T
  0.6630963446871934  0.4984738706832763  0.1397072865752788   T   T   T
  0.8297940431599634  0.4984734186132314  0.1396894542203737   T   T   T
  0.9965224855588128  0.2483232943606603  0.1395294022267981   T   T   T
  0.6630152917918930  0.2485571673094596  0.1398092105484768   T   T   T
  0.8299247821569917  0.2483940277974946  0.1396661177972769   T   T   T
  0.5797955187942522  0.1231185445284526  0.1659454520958386   T   T   T
  0.7465528799801242  0.1240011692626711  0.1663330665303819   T   T   T
  0.9134562213521210  0.1224467306183872  0.1656696623132768   T   T   T
  0.5797708906027619  0.3734032109816720  0.1660311643698927   T   T   T
  0.7465041070643242  0.3731508099272771  0.1660207930048791   T   T   T
  0.9134358262118714  0.3734022524954426  0.1659356124197694   T   T   T
  0.6632700292033186  0.4969885934016847  0.1926486853691957   T   T   T
  0.8300987385538052  0.4968893127651070  0.1926345907636029   T   T   T
  0.9968034331993690  0.4969933540791413  0.1926317433176600   T   T   T
  0.6622689594058687  0.2475561584126695  0.1930375437431457   T   T   T
  0.9968022827879930  0.2458757549915507  0.1921703630903913   T   T   T
  0.8314084480985243  0.2463850923128381  0.1924145932532199   T   T   T
  0.9964716226863748  0.4982515705566768  0.0864873089127864   T   T   T
  0.6631538681702184  0.4982413751954624  0.0865278850450390   T   T   T
  0.8297710027918056  0.4982472244857802  0.0865146641833886   T   T   T
  0.9964593397587612  0.2482239462086546  0.0864183707204425   T   T   T
  0.6631142419403927  0.2482670319389448  0.0865780851960212   T   T   T
  0.8297809667871435  0.2482534295938855  0.0865154085249484   T   T   T
  0.5797350232750594  0.1235130400493578  0.1128208857627460   T   T   T
  0.7464013064638160  0.1235316698342001  0.1129247322307208   T   T   T
  0.9131354626239668  0.1233501240913770  0.1127056094254006   T   T   T