C H O Si                                
   1.00000000000000     
    18.5749199999999988    0.0000000000000000    0.0000000000000000
     0.0000000000000000   17.5126199999999983    0.0000000000000000
     0.0000000000000000    0.0000000000000000   58.0000000000000000
   C    H    O    Si
   144   105    52   144
Selective dynamics
Direct
  0.4966090583711290  0.0632081002907216  0.0605004124663034   T   T   T
  0.1632445377501821  0.0630940512799917  0.0604859054978647   T   T   T
  0.3298884272404918  0.0631316097180937  0.0604912598731830   T   T   T
  0.4965117066221236  0.3132342759406434  0.0604965297234262   T   T   T
  0.1631811565703895  0.3131939742056644  0.0604968116434900   T   T   T
  0.3298135116290191  0.3132135141639119  0.0604961250010217   T   T   T
  0.0798680827443543  0.1859008397977103  0.1393715419707004   T   T   T
  0.2464662852767743  0.1859732963425596  0.1394222936130098   T   T   T
  0.4130987729974257  0.1860235440379411  0.1394224929595371   T   T   T
  0.0797917165318687  0.4360588938192954  0.1394142182209844   T   T   T
  0.2464292802971035  0.4360430308719795  0.1394299785436717   T   T   T
  0.4130838138857642  0.4360578159734065  0.1394341316408704   T   T   T
  0.1633453833519710  0.0609567954130801  0.1666073251781431   T   T   T
  0.3299166866725698  0.0610311507956899  0.1666171941407979   T   T   T
  0.4965165003400260  0.0609954658492522  0.1666104945370289   T   T   T
  0.1632534290180949  0.3110715694437338  0.1666179490866239   T   T   T
  0.3298693086593655  0.3111150238315198  0.1666382377622796   T   T   T
  0.4964859446247267  0.3111736531402604  0.1666296918177436   T   T   T
  0.0802843907682872  0.1879728391250862  0.1919400095680568   T   T   T
  0.2467637753063148  0.1880711742121545  0.1919849071876071   T   T   T
  0.4132697937661969  0.1879846436408214  0.1919597583974980   T   T   T
  0.0800378137187076  0.4380746524333471  0.1920015115538748   T   T   T
  0.2467225798280143  0.4381200232905857  0.1919925124807805   T   T   T
  0.4133841900837310  0.4381824155769483  0.1919962532106087   T   T   T
  0.0797725430953698  0.1861199675039275  0.0858138858175352   T   T   T
  0.2464529560879375  0.1861259559500833  0.0858500882961609   T   T   T
  0.4131023361662977  0.1861628224859741  0.0858449373601887   T   T   T
  0.0797891148867612  0.4361816025148962  0.0858498050754067   T   T   T
  0.2464530483524340  0.4361785983857429  0.0858559000007855   T   T   T
  0.4131183824571091  0.4361720161298127  0.0858545803274890   T   T   T
  0.1631347468966639  0.0609028897441523  0.1130055590242437   T   T   T
  0.3297736788901295  0.0609687286466190  0.1130230038936461   T   T   T
  0.4964063693850280  0.0610136726768316  0.1130367299218879   T   T   T
  0.1631111712447569  0.3109827048640328  0.1130194515699127   T   T   T
  0.3297747650280275  0.3109956482785498  0.1130319227289494   T   T   T
  0.4964108396394374  0.3110258836996425  0.1130390837902345   T   T   T
  0.4966278263708353  0.5631610078123972  0.0605112109850617   T   T   T
  0.1632566116793727  0.5631838918154202  0.0605016814470675   T   T   T
  0.3299352617563236  0.5631716163260032  0.0605051223809079   T   T   T
  0.4965627149249507  0.8132237676291235  0.0605122469464585   T   T   T
  0.1631711396391680  0.8130792237254826  0.0604761743067574   T   T   T
  0.3298511341755436  0.8131415912201942  0.0604831720874293   T   T   T
  0.0797631903254719  0.6860796668659913  0.1394261293660683   T   T   T
  0.2464249905157992  0.6860310682430389  0.1394367998992701   T   T   T
  0.4130989321176770  0.6861020399087930  0.1394368794447342   T   T   T
  0.0799105341396485  0.9358265412147608  0.1393765939713347   T   T   T
  0.2464973391779364  0.9359329122946107  0.1394092258485073   T   T   T
  0.4131166997506027  0.9359778301683996  0.1394232574567544   T   T   T
  0.1632036322167020  0.5611437932062980  0.1666490105396863   T   T   T
  0.3298866781359684  0.5611817874072846  0.1666508248741400   T   T   T
  0.4964807993651064  0.5612796226870775  0.1666250199910950   T   T   T
  0.1632565649518445  0.8111087266837493  0.1666373958107415   T   T   T
  0.3299127877505312  0.8111313794871921  0.1666448145847305   T   T   T
  0.4965962719545905  0.8111960470094038  0.1666664340377347   T   T   T
  0.0800963048620023  0.6881852111225649  0.1919998980817616   T   T   T
  0.2467558850872079  0.6882101380231843  0.1920177370205850   T   T   T
  0.4134115330534788  0.6881965215817698  0.1920087813200485   T   T   T
  0.0801660000623519  0.9380725227915844  0.1919798010968544   T   T   T
  0.2468070576354487  0.9380943313815889  0.1919869239285977   T   T   T
  0.4134545293421025  0.9381273375591093  0.1919933184576957   T   T   T
  0.0797487852630675  0.6861534301257477  0.0858531693317785   T   T   T
  0.2464808567091460  0.6861120988450662  0.0858529194416103   T   T   T
  0.4131678441162368  0.6861612190829776  0.0858620240945289   T   T   T
  0.0797751955920459  0.9360507351190052  0.0858171798716492   T   T   T
  0.2464618598649965  0.9360596758586922  0.0858309688682262   T   T   T
  0.4131327169823646  0.9361316996340291  0.0858460584077468   T   T   T
  0.1630778826747148  0.5610289776020868  0.1130366203927985   T   T   T
  0.3297633851547717  0.5610205130401594  0.1130397443392639   T   T   T
  0.4964101320986458  0.5610374988740897  0.1130402105770231   T   T   T
  0.1631584203439000  0.8109285295848259  0.1130075598591243   T   T   T
  0.3298059209903480  0.8109683206756851  0.1130231581929407   T   T   T
  0.4964840405135991  0.8110637790447073  0.1130542739128712   T   T   T
  0.9965180999722324  0.0631649116535120  0.0604482285257746   T   T   T
  0.6632457770521668  0.0632300651079696  0.0605731564476411   T   T   T
  0.8298537118912463  0.0632107275567047  0.0605349556067555   T   T   T
  0.9964653567889930  0.3132509718554143  0.0604433481838840   T   T   T
  0.6631644927980672  0.3131639574701163  0.0605749728533308   T   T   T
  0.8298048596759566  0.3131676330417346  0.0605231793229759   T   T   T
  0.5797477921993449  0.1860539292385401  0.1394353256576543   T   T   T
  0.7464307325334943  0.1861634986096392  0.1396328128471317   T   T   T
  0.9131922523660014  0.1858492851260297  0.1393017678349802   T   T   T
  0.5797366885538747  0.4360883111348932  0.1394590875027669   T   T   T
  0.7464404625580806  0.4359506608795209  0.1394848705560692   T   T   T
  0.9131388854477481  0.4360743708257899  0.1394083955071211   T   T   T
  0.6634122801032660  0.0614835345546003  0.1667753056257214   T   T   T
  0.8296759472997864  0.0613214312785030  0.1667140269180531   T   T   T
  0.9968035867908702  0.0607221370719101  0.1665066108486343   T   T   T
  0.6631219281823096  0.3112552953124108  0.1668147780470724   T   T   T
  0.8300568832934279  0.3111999871417634  0.1666579776911908   T   T   T
  0.9966665136095545  0.3110596680949395  0.1664834793351627   T   T   T
  0.5798166809548525  0.1876904830635332  0.1918265027487517   T   T   T
  0.7467730692425075  0.1898633009718349  0.1927266083729518   T   T   T
  0.9139024358190664  0.1868699158131229  0.1914823594004791   T   T   T
  0.5799673229037872  0.4385142800860820  0.1920100175592462   T   T   T
  0.7467277274347061  0.4380689635177559  0.1920267166113435   T   T   T
  0.9135450303802559  0.4384400967575343  0.1919146288364961   T   T   T
  0.5797573137702234  0.1861944440815995  0.0858723917932956   T   T   T
  0.7464464256931074  0.1862045167719520  0.0859715742227065   T   T   T
  0.9130884719636005  0.1861411347716221  0.0857941625578946   T   T   T
  0.5797923424536321  0.4361455191549832  0.0858846222266184   T   T   T
  0.7464510688056926  0.4361208989576405  0.0858895890917308   T   T   T
  0.9130999973933852  0.4361664760530764  0.0858437444895878   T   T   T
  0.6630814548194364  0.0611061626923934  0.1131036849759560   T   T   T
  0.8296919083728725  0.0610589389656883  0.1130731920529568   T   T   T
  0.9964809271840518  0.0609070562680491  0.1129728164492866   T   T   T
  0.6630815745010572  0.3110135751484820  0.1131279140076634   T   T   T
  0.8297898636765421  0.3110135767383831  0.1130663767761451   T   T   T
  0.9964881525755476  0.3109997206225402  0.1129581690277837   T   T   T
  0.9965486637066847  0.5631796430518103  0.0604989789613624   T   T   T
  0.6632739556907936  0.5631531167915874  0.0605322505644824   T   T   T
  0.8299014132311924  0.5631637154271671  0.0605266102599328   T   T   T
  0.9964333035432594  0.8131730477459069  0.0604916110778407   T   T   T
  0.6631879035679793  0.8132005203729246  0.0605334106608054   T   T   T
  0.8297859813803017  0.8131910013928308  0.0605164340567644   T   T   T
  0.5797601580686281  0.6861005583419468  0.1394475140710616   T   T   T
  0.7464169152791811  0.6861150445493384  0.1394549913937004   T   T   T
  0.9130688652468045  0.6860731438516535  0.1394409180433598   T   T   T
  0.5798680843207374  0.9361614766692412  0.1394785563849556   T   T   T
  0.7464120723651523  0.9360663794236637  0.1394676518788672   T   T   T
  0.9130525330027724  0.9361198509962066  0.1394401191713517   T   T   T
  0.6632366949691856  0.5612153282126545  0.1666535922073827   T   T   T
  0.8298136070309347  0.5611672211998757  0.1666443488228714   T   T   T
  0.9966095729746229  0.5612420576916967  0.1666156945560820   T   T   T
  0.6632512774813133  0.8112077737957903  0.1666792010324647   T   T   T
  0.8298850081272933  0.8112037741112186  0.1666601749867456   T   T   T
  0.9965704884540930  0.8111649253336808  0.1666457549354102   T   T   T
  0.5800963666616175  0.6882061775807290  0.1920185362392536   T   T   T
  0.7467864577993735  0.6882248423080892  0.1920232487312167   T   T   T
  0.9134380066994201  0.6881750016829637  0.1919992365008035   T   T   T
  0.5801508734669708  0.9382401413196203  0.1920364644154382   T   T   T
  0.7468080728372397  0.9382135925436236  0.1920504312076016   T   T   T
  0.9134714276606438  0.9381758047369595  0.1919908319445545   T   T   T
  0.5798095646023709  0.6861572863460631  0.0858735552502106   T   T   T
  0.7464425831936974  0.6861578783490966  0.0858813709814164   T   T   T
  0.9130656509828613  0.6861560602296344  0.0858645923194666   T   T   T
  0.5798078372073913  0.9362179861531136  0.0858874925237872   T   T   T
  0.7464290590037683  0.9361866520280231  0.0858824136072918   T   T   T
  0.9130428819442646  0.9361758084689283  0.0858495151199352   T   T   T
  0.6630951047398328  0.5610045842118575  0.1130716035404434   T   T   T
  0.8297170637247523  0.5610141051880702  0.1130578133645957   T   T   T
  0.9964045706845976  0.5610303605381123  0.1130287449339431   T   T   T
  0.6631081637070639  0.8110594541824635  0.1130654137170241   T   T   T
  0.8297247012235893  0.8110492754796357  0.1130578844074533   T   T   T
  0.9963922073808991  0.8110164209632731  0.1130343354002492   T   T   T
  0.0372710434298854  0.1769631302756652  0.0271498858738331   T   T   T
  0.2036572857169873  0.1769859326655110  0.0272234996757971   T   T   T
  0.3703070131939776  0.1769123132247505  0.0271979995162685   T   T   T
  0.0371142659989429  0.4269927110623627  0.0271590634383971   T   T   T
  0.2034148735138736  0.4269162260896936  0.0272033828478968   T   T   T
  0.3700443370312606  0.4268915272607325  0.0271949362465986   T   T   T
  0.1620435640682247  0.0266580451308120  0.0450073122787148   T   T   T
  0.3286370646844626  0.0266801021629508  0.0450150669085803   T   T   T
  0.4954038013500637  0.0267210015001842  0.0450314935353767   T   T   T
  0.1619156918004177  0.2767398840419806  0.0450220173565603   T   T   T
  0.3285367317668567  0.2767305552271089  0.0450265219628239   T   T   T
  0.4952754408044187  0.2767257456795548  0.0450319449162102   T   T   T
  0.4144827871003758  0.4016437102246043  0.2074494448624246   T   T   T
  0.4143435166500433  0.1514512056142443  0.2074132640261485   T   T   T
  0.0811530839648874  0.1514430080172380  0.2073916202575604   T   T   T
  0.2478175581170477  0.1515497875331137  0.2074462761075999   T   T   T
  0.0811256371181060  0.4015032871077385  0.2074565841843895   T   T   T
  0.2477298054924389  0.4015711692687239  0.2074453401490169   T   T   T
  0.0405936127581438  0.0517103198995168  0.2252622613399946   T   T   T
  0.2073052325292784  0.0516734666918966  0.2252796303070863   T   T   T
  0.3740152552071704  0.0517374903264832  0.2252480091834417   T   T   T
  0.0351535704766209  0.3017720770867160  0.2259001808070342   T   T   T
  0.2070433975436984  0.3017203564485666  0.2253170654776656   T   T   T
  0.3742470188872632  0.3015441049761650  0.2251921030109107   T   T   T
  0.0370945715241308  0.6769907132924158  0.0271961551971651   T   T   T
  0.2037240316032330  0.6769565570934400  0.0272155711325966   T   T   T
  0.3704029210844131  0.6769153236721810  0.0272205748881432   T   T   T
  0.0369117158158271  0.9269102567473733  0.0271707792915923   T   T   T
  0.2033555735839292  0.9268609338862667  0.0271905632863747   T   T   T
  0.3701477458231518  0.9268794429801769  0.0271938375978430   T   T   T
  0.1619962377438832  0.5266926005132686  0.0450344126574046   T   T   T
  0.3287002414337026  0.5266823318781371  0.0450355742319375   T   T   T
  0.4953955098576530  0.5266837411414007  0.0450396983931858   T   T   T
  0.1619257177469424  0.7765886848740209  0.0450107653408174   T   T   T
  0.3285962099223761  0.7766364546973488  0.0450210419688176   T   T   T
  0.4953694967490706  0.7767087012447303  0.0450487335948051   T   T   T
  0.4144541660823168  0.9015830214671494  0.2074461637312976   T   T   T
  0.4144650821038348  0.6516348325754875  0.2074581877584145   T   T   T
  0.0811734394106493  0.6516530056759493  0.2074537414627099   T   T   T
  0.2478615432465779  0.6517262031444913  0.2074838024410266   T   T   T
  0.0811713283631052  0.9015286508362996  0.2074341729865006   T   T   T
  0.2478645565944199  0.9015367411737213  0.2074410972142609   T   T   T
  0.0402864680717485  0.5526711361887778  0.2252438662641662   T   T   T
  0.2071870995299328  0.5525897506175221  0.2251662617706031   T   T   T
  0.3737732866152241  0.5523031597419801  0.2252254225011388   T   T   T
  0.0405504613329610  0.8018572400413529  0.2252966796320347   T   T   T
  0.2069365894425331  0.8020839263762293  0.2253412092557188   T   T   T
  0.3741439449785338  0.8017021490531686  0.2252468822892051   T   T   T
  0.5373361194260832  0.1769610265830204  0.0271814199612629   T   T   T
  0.7036072154303840  0.1770286022627915  0.0273160006863535   T   T   T
  0.8700499566612265  0.1769351889474995  0.0271721391445356   T   T   T
  0.5371895054871533  0.4269291939129696  0.0271876817612007   T   T   T
  0.7034126811090760  0.4268503054553573  0.0272498388899312   T   T   T
  0.8697241933293131  0.4268953607867912  0.0271975697003926   T   T   T
  0.6620969226495041  0.0267249794058478  0.0451083789556155   T   T   T
  0.8284048767080359  0.0267155319906897  0.0450689063044853   T   T   T
  0.9952879954544969  0.0266901125455729  0.0449742514457677   T   T   T
  0.6618606478505125  0.2765824887964740  0.0451282030483822   T   T   T
  0.8285269230012573  0.2766535416684485  0.0450622387597779   T   T   T
  0.9952117899046893  0.2767974741921141  0.0449674110706098   T   T   T
  0.9143069765024957  0.4022567730545845  0.2074201436621442   T   T   T
  0.9151234888393360  0.1506423604409370  0.2070033551891233   T   T   T
  0.5806974004588368  0.1513350580338240  0.2073229263127362   T   T   T
  0.7481653597160609  0.1528236874673062  0.2080723595276376   T   T   T
  0.5807835878415982  0.4019114664236751  0.2074412573562351   T   T   T
  0.7468257908632149  0.4015519487802215  0.2074878369215981   T   T   T
  0.5403734225318155  0.0519881967698598  0.2253123293950443   T   T   T
  0.7074907082509655  0.0512257383258670  0.2254076130042111   T   T   T
  0.8740861793022057  0.0514960291597227  0.2253325407066324   T   T   T
  0.5424463230169306  0.3009483750500787  0.2243793948749913   T   T   T
  0.6896533662070188  0.3097312968446170  0.2287256986999740   T   T   T
  0.8910994323981390  0.2948544997575032  0.2229341186961293   T   T   T
  0.7737865503377906  0.3061465619489036  0.2737069290012896   T   T   T
  0.7468975357587742  0.2382911479694317  0.2930954579058322   T   T   T
  0.7864206432789728  0.3197224968238670  0.3029096596986919   T   T   T
  0.6576302616722329  0.1952208025075536  0.3098547310593455   T   T   T
  0.7102295269173508  0.1301963642541849  0.3022262611731871   T   T   T
  0.8250631266226631  0.3662875508475703  0.3337939005579672   T   T   T
  0.7418701238676664  0.3762683202048759  0.3309469263094977   T   T   T
  0.7597752842235067  0.3958292536992226  0.2519024502810120   T   T   T
  0.7933210169334746  0.3233180044438774  0.2386289312747070   T   T   T
  0.5372176197516013  0.6769710924589559  0.0272126413559922   T   T   T
  0.7036664548033603  0.6769537267209477  0.0272458717752015   T   T   T
  0.8702998539614779  0.6769406055558367  0.0272351509382589   T   T   T
  0.5371284978262524  0.9269552349303430  0.0272073072463011   T   T   T
  0.7034661876074281  0.9269009332364350  0.0272407286817705   T   T   T
  0.8700219182807809  0.9269602070782137  0.0272065033075747   T   T   T
  0.6620031610093721  0.5266718217445699  0.0450640813412785   T   T   T
  0.8286367048545935  0.5266851110130629  0.0450573873535030   T   T   T
  0.9952602761324596  0.5267017834567350  0.0450289549277191   T   T   T
  0.6618760146762418  0.7767076211596308  0.0450669971914734   T   T   T
  0.8284784442073055  0.7766826133136082  0.0450528115606291   T   T   T
  0.9950980169676101  0.7766417381679378  0.0450339575196832   T   T   T
  0.9145418380573132  0.9016610405016946  0.2074507254061633   T   T   T
  0.9145320641373166  0.6516938607775078  0.2074686923065952   T   T   T
  0.5811539062141393  0.6516549493504593  0.2074697118327443   T   T   T
  0.7479774370318737  0.6518241485034537  0.2075075030694081   T   T   T
  0.5811309247170909  0.9017171464970084  0.2074958689276253   T   T   T
  0.7479016769360235  0.9016403685889984  0.2075000063628661   T   T   T
  0.5400464144007100  0.5527257799258596  0.2252596910670346   T   T   T
  0.7072669017186057  0.5539219783162432  0.2249799685291856   T   T   T
  0.8737082603699604  0.5528384780812891  0.2251831817818729   T   T   T
  0.5406071077764889  0.8018286876324576  0.2252975302927680   T   T   T
  0.7070624131995632  0.8021168996897210  0.2253521031886813   T   T   T
  0.8742011748037256  0.8016645647967860  0.2252372745036768   T   T   T
  0.0844625800074802  0.1666053799901011  0.0339189655081367   T   T   T
  0.2509066506672668  0.1666431396643477  0.0339562434929489   T   T   T
  0.4175557761322943  0.1665817188852858  0.0339333115895955   T   T   T
  0.0843012251482693  0.4167030550922030  0.0339417158086097   T   T   T
  0.2506930524575247  0.4166814838943098  0.0339288244746512   T   T   T
  0.4173287134612265  0.4166021763179834  0.0339110451012377   T   T   T
  0.1599764608277222  0.0415870785420434  0.2185806856584546   T   T   T
  0.3266554539351177  0.0415686650789370  0.2185858765760729   T   T   T
  0.4931633783680692  0.0416094533693699  0.2185788123286344   T   T   T
  0.1598348311837503  0.2915088423537929  0.2185731453545798   T   T   T
  0.3267981228731202  0.2915157892583891  0.2185812833459366   T   T   T
  0.4936436144553634  0.2913519772223629  0.2185384879849668   T   T   T
  0.0843212890804310  0.6666143815533518  0.0339417424412673   T   T   T
  0.2509704844989675  0.6666476143162604  0.0339556480259267   T   T   T
  0.4176524559675170  0.6666498596954006  0.0339668197505160   T   T   T
  0.0841423004262207  0.9165215564678780  0.0339073358119082   T   T   T
  0.2506418842295070  0.9165705942672402  0.0339006658527550   T   T   T
  0.4174178124116804  0.9165696973177361  0.0339171546704627   T   T   T
  0.1598719397702686  0.5415699768359217  0.2185849520569049   T   T   T
  0.3264946047101108  0.5416155312597020  0.2185842145473826   T   T   T
  0.4929223094105688  0.5418382535592748  0.2185488541346565   T   T   T
  0.1598070009681778  0.7916222950901798  0.2185832007354091   T   T   T
  0.3267231949472634  0.7915805297732444  0.2186095979243991   T   T   T
  0.4933094692058050  0.7916175554786590  0.2186006517322838   T   T   T
  0.5845074876599233  0.1666285214115492  0.0339719838791227   T   T   T
  0.7508821224693081  0.1667092106868879  0.0340391837777444   T   T   T
  0.9173514082569523  0.1665832337445074  0.0338623966067665   T   T   T
  0.5843694123575707  0.4166559557619900  0.0339797323489689   T   T   T
  0.7507032221728623  0.4165514139348280  0.0339625443029583   T   T   T
  0.9170524348334484  0.4165702035448246  0.0338703680231720   T   T   T
  0.6601273419903975  0.0416461498812725  0.2186602690945862   T   T   T
  0.8267175102276485  0.0416420099043604  0.2186329953751293   T   T   T
  0.9933144826347436  0.0416520813040070  0.2185296402057896   T   T   T
  0.6505898806174809  0.2918085674533412  0.2186415819172897   T   T   T
  0.8396680719437446  0.2914603548762582  0.2185766308017068   T   T   T
  0.9898078548037512  0.2901689630400660  0.2181541858742655   T   T   T
  0.7856743792889479  0.2800001610959269  0.2894891007295737   T   T   T
  0.6905221370182234  0.1795457653212354  0.2976168257370416   T   T   T
  0.7873122910192475  0.3762265006966492  0.3224927903770599   T   T   T
  0.7566735624814854  0.3403082572071198  0.2507090415043654   T   T   T
  0.5844176546929322  0.6666197144266728  0.0339777326889216   T   T   T
  0.7509308782583310  0.6666486291392422  0.0339779988278541   T   T   T
  0.9175312653245022  0.6666456064425911  0.0339702436329616   T   T   T
  0.5843333913971044  0.9166642614912276  0.0339771521274530   T   T   T
  0.7507493214642141  0.9167280078999283  0.0339760940077695   T   T   T
  0.9173094976567073  0.9165725879366561  0.0339053809960759   T   T   T
  0.6599859739434004  0.5416520136905936  0.2185997194162893   T   T   T
  0.8265095206836381  0.5415825800974344  0.2185749419895525   T   T   T
  0.9931331585046929  0.5416365233085092  0.2185874658943637   T   T   T
  0.6598886652545091  0.7916222423571465  0.2185965294323254   T   T   T
  0.8267616414794293  0.7915545961044814  0.2186168167841524   T   T   T
  0.9932685837028299  0.7915919390215602  0.2185878329959091   T   T   T
  0.2466580417797463  0.1217829792217028  0.0598486319914814   T   T   T
  0.4133265383493311  0.1217957394587723  0.0598421413765401   T   T   T
  0.0799389154380087  0.3718590046577620  0.0598406430537539   T   T   T
  0.2465729049649243  0.3718751183156899  0.0598391498943103   T   T   T
  0.4132366228620544  0.3718676957018436  0.0598343921740484   T   T   T
  0.0800104246900173  0.1217430327816915  0.0598199241545111   T   T   T
  0.4964274109513181  0.4985473653412368  0.1396854489415607   T   T   T
  0.1631475453038244  0.4985342014572154  0.1396792056887389   T   T   T
  0.3297676333592268  0.4985162853233270  0.1396846953944965   T   T   T
  0.4964525345049534  0.2485187074096677  0.1396842061356277   T   T   T
  0.1631932829701908  0.2484274098477501  0.1396519318486059   T   T   T
  0.3297770284637603  0.2484719000097631  0.1396754692072654   T   T   T
  0.0800615215781992  0.1229691088978570  0.1658865869734343   T   T   T
  0.2466194592522956  0.1231749498818645  0.1659546316577916   T   T   T
  0.4131918115348922  0.1231646308171209  0.1659540475126533   T   T   T
  0.0800056099224816  0.3732597728491874  0.1659429290631168   T   T   T
  0.2465561557640764  0.3732427425170708  0.1659618124067966   T   T   T
  0.4131728678586780  0.3732678237120073  0.1659847449853580   T   T   T
  0.1633690487913023  0.4967565832204816  0.1926635532862140   T   T   T
  0.3300188554681573  0.4967903941670774  0.1926637148264795   T   T   T
  0.4965970892434275  0.4969979254210282  0.1926368990012533   T   T   T
  0.1634936862744903  0.2467928768938737  0.1926485330023783   T   T   T
  0.4965197802204796  0.2465841691123317  0.1926120976000806   T   T   T
  0.3300529871944303  0.2467285977611473  0.1926463046440769   T   T   T
  0.4964780143820237  0.4982292648181860  0.0865138752038654   T   T   T
  0.1631375348061153  0.4982539598511877  0.0865029647295960   T   T   T
  0.3298356048178250  0.4982369837704381  0.0865080584993913   T   T   T
  0.4964300368149243  0.2482753446647745  0.0865045228851916   T   T   T
  0.1631301153071338  0.2482011146668963  0.0864831907181398   T   T   T
  0.3298039950890145  0.2482385493045430  0.0864935905988338   T   T   T
  0.0797761561162662  0.1233649874794888  0.1127300357013533   T   T   T
  0.2464340013965982  0.1234292359831467  0.1127833532444737   T   T   T
  0.4130557824337289  0.1234783394564803  0.1127786524852164   T   T   T
  0.0797952646499064  0.3734932726692895  0.1127653215687625   T   T   T
  0.2464392462178125  0.3734803530208616  0.1127914994526154   T   T   T
  0.4130731726097433  0.3734993316094025  0.1127897982214029   T   T   T
  0.2466968610944108  0.6217891561199843  0.0598511765487383   T   T   T
  0.4133834539876962  0.6217982993973890  0.0598638822290360   T   T   T
  0.0799198056684682  0.8717221764983817  0.0598194569245316   T   T   T
  0.2465769685902664  0.8717582699657029  0.0598141656495700   T   T   T
  0.4132693764619562  0.8718041982910419  0.0598332298173820   T   T   T
  0.0800008517888185  0.6217968499530885  0.0598494001304560   T   T   T
  0.4964501641032553  0.9984512391765913  0.1396792451841380   T   T   T
  0.1632225430877721  0.9983452171712318  0.1396425747912815   T   T   T
  0.3297906277272199  0.9984209816876364  0.1396605419138334   T   T   T
  0.4964690960541981  0.7485617706848202  0.1397014722666363   T   T   T
  0.1631412424701496  0.7484876207988649  0.1396717006490892   T   T   T
  0.3297672711349956  0.7485020333650375  0.1396815821146201   T   T   T
  0.0799097703674423  0.6233405902962179  0.1659708436617153   T   T   T
  0.2465348193625144  0.6232690133610151  0.1659911685166244   T   T   T
  0.4131717275273228  0.6233515098862631  0.1659835078786956   T   T   T
  0.0799372007438782  0.8731952617348128  0.1659542593608915   T   T   T
  0.2465804850552305  0.8732211773393495  0.1659604436657091   T   T   T
  0.4132381574225700  0.8732554394465113  0.1659809538374884   T   T   T
  0.1634610750970146  0.9966956046596148  0.1926507585920400   T   T   T
  0.3301086571072356  0.9967357051704302  0.1926489399450193   T   T   T
  0.4967306565159155  0.9967963476209249  0.1926547365933396   T   T   T
  0.1633959100779625  0.7468237169685258  0.1926648959613422   T   T   T
  0.4967254877716841  0.7468155985409778  0.1926743598537749   T   T   T
  0.3300749333470939  0.7468258608587478  0.1926738364210589   T   T   T
  0.4964649944598591  0.9982554836941127  0.0865054659222187   T   T   T
  0.1631458598337835  0.9981151004665633  0.0864732742621987   T   T   T
  0.3298251481203439  0.9981642095870616  0.0864882100395356   T   T   T
  0.4965003403144840  0.7482668089053137  0.0865172342778794   T   T   T
  0.1631480920944433  0.7481511374616852  0.0864811621116582   T   T   T
  0.3298401151351349  0.7481940228924748  0.0864934856653286   T   T   T
  0.0797213282235864  0.6235090693640760  0.1127859679283488   T   T   T
  0.2464169528571123  0.6234838882248206  0.1128016238001056   T   T   T
  0.4130724497413946  0.6235206583876248  0.1127980601733499   T   T   T
  0.0797978741943822  0.8733513579983163  0.1127469193179688   T   T   T
  0.2464567865455779  0.8734008692605912  0.1127727502633690   T   T   T
  0.4130947137474151  0.8734590781029574  0.1127814242212725   T   T   T
  0.7466407292856760  0.1218802210185628  0.0599446520034564   T   T   T
  0.9132543455673202  0.1218328344122341  0.0597885766656423   T   T   T
  0.5799598852840868  0.3718381005775188  0.0598780615977605   T   T   T
  0.7465653984762821  0.3717848768411363  0.0598824069763320   T   T   T
  0.9131753467567925  0.3718794244801511  0.0598087104662879   T   T   T
  0.5800277860244469  0.1218498840895807  0.0598774524620019   T   T   T
  0.9964703034216290  0.4985478385250638  0.1396657064483315   T   T   T
  0.6630800944341172  0.4984923463854741  0.1397079836578362   T   T   T
  0.8297763364243631  0.4984864166928173  0.1396912104701664   T   T   T
  0.9965448266584249  0.2483095446718258  0.1395266783644985   T   T   T
  0.6630095486818781  0.2485634876624998  0.1398123529659882   T   T   T
  0.8299235983552190  0.2483983753422138  0.1396664365371087   T   T   T
  0.5797676195996966  0.1231356704526656  0.1659374126290925   T   T   T
  0.7465160818260282  0.1239976321445205  0.1663282293088433   T   T   T
  0.9134382024078108  0.1224254251832486  0.1656679855617476   T   T   T
  0.5797450924670032  0.3734149542211549  0.1660221927074609   T   T   T
  0.7464643394609106  0.3731551564881768  0.1660181505996896   T   T   T
  0.9134045956199323  0.3733968330018105  0.1659274196546562   T   T   T
  0.6632894515499596  0.4969624091926566  0.1926593294358314   T   T   T
  0.8301176677940246  0.4968739730576013  0.1926418986070479   T   T   T
  0.9968219612459917  0.4969760436735983  0.1926261788312767   T   T   T
  0.6622635885894178  0.2475739992231562  0.1930432151129876   T   T   T
  0.9968112009413129  0.2458307464294430  0.1921603890964088   T   T   T
  0.8314240742373248  0.2463296924365029  0.1924067846129008   T   T   T
  0.9964796304611107  0.4982345351903718  0.0864988706218587   T   T   T
  0.6631684035041683  0.4982209008370484  0.0865351285267334   T   T   T
  0.8297814313784991  0.4982290422119808  0.0865217640010610   T   T   T
  0.9964779749314489  0.2482075083306814  0.0864303578174976   T   T   T
  0.6631200179782323  0.2482594476323338  0.0865856693212621   T   T   T
  0.8297840116113893  0.2482424288209262  0.0865224909951316   T   T   T
  0.5797121862504623  0.1235360599572166  0.1128157939019750   T   T   T
  0.7463751890405854  0.1235440378321147  0.1129149343593991   T   T   T
  0.9130976936918093  0.1233786467150789  0.1127025075786854   T   T   T