C H O Si                                
   1.00000000000000     
    18.5749199999999988    0.0000000000000000    0.0000000000000000
     0.0000000000000000   17.5126199999999983    0.0000000000000000
     0.0000000000000000    0.0000000000000000   58.0000000000000000
   C    H    O    Si
   144   105    52   144
Selective dynamics
Direct
  0.4968120888866209  0.0631959999107468  0.0605050388419726   T   T   T
  0.1634458163579454  0.0631632919464947  0.0604703362608507   T   T   T
  0.3301466735241296  0.0631706346358987  0.0604766610294708   T   T   T
  0.4967751392624481  0.3132282153556210  0.0604849878116483   T   T   T
  0.1634138890699930  0.3132298960157745  0.0604752666180062   T   T   T
  0.3301116607852508  0.3132356715911240  0.0604751744854822   T   T   T
  0.0798803587783754  0.1860340470403445  0.1393944110257408   T   T   T
  0.2465055404866878  0.1860570935637158  0.1394254701675019   T   T   T
  0.4131582700030672  0.1860902949380104  0.1394326764904702   T   T   T
  0.0798413066973623  0.4361193911349678  0.1394281405538921   T   T   T
  0.2464948578544996  0.4361285341265645  0.1394347169113559   T   T   T
  0.4131395386668777  0.4361599227774967  0.1394388067905204   T   T   T
  0.1632446197433862  0.0611097094893797  0.1666062474080489   T   T   T
  0.3298752124208220  0.0611277266090823  0.1666215832312193   T   T   T
  0.4964524005302057  0.0610616590340046  0.1666079233671670   T   T   T
  0.1631825812938432  0.3111612478210091  0.1666232804513264   T   T   T
  0.3298591089087504  0.3111962827060618  0.1666275568721590   T   T   T
  0.4964494507017221  0.3112902827950436  0.1666129686417362   T   T   T
  0.0802033482766851  0.1879877870251958  0.1919758015156163   T   T   T
  0.2466655217838800  0.1880756533990692  0.1919914423471674   T   T   T
  0.4131150722072036  0.1879888713398868  0.1919629350489993   T   T   T
  0.0799027942718015  0.4380640563673395  0.1920168829549103   T   T   T
  0.2465666985598178  0.4380944678708601  0.1919933332963026   T   T   T
  0.4131639437956911  0.4381829883918029  0.1920013212491879   T   T   T
  0.0799294710903104  0.1862300631670938  0.0857889524224553   T   T   T
  0.2465669300494897  0.1862339267619739  0.0858253469350867   T   T   T
  0.4132038867392272  0.1862502646471847  0.0858303994412919   T   T   T
  0.0799473353658043  0.4362512311398093  0.0858139806192493   T   T   T
  0.2465839633636036  0.4362509845909086  0.0858351080404106   T   T   T
  0.4132483420669669  0.4362475224651606  0.0858311039950244   T   T   T
  0.1631550465005984  0.0610788053754449  0.1130208053905490   T   T   T
  0.3298308913090413  0.0611124056000823  0.1130395388444078   T   T   T
  0.4964857699035382  0.0611313825527478  0.1130623795849643   T   T   T
  0.1631987137481613  0.3111162551294237  0.1130410801011247   T   T   T
  0.3298725757297707  0.3111299618557556  0.1130491296977518   T   T   T
  0.4965035771228119  0.3111377780979087  0.1130522561995228   T   T   T
  0.4968266912213720  0.5631675458710246  0.0605066100380084   T   T   T
  0.1634564762641857  0.5632073679156954  0.0604926042363582   T   T   T
  0.3301691442747740  0.5632001690960794  0.0604932211717643   T   T   T
  0.4967931603784176  0.8132047942857770  0.0605114292243268   T   T   T
  0.1634106104971539  0.8131627893306383  0.0604637661548022   T   T   T
  0.3301186481115810  0.8131937308538395  0.0604666037339612   T   T   T
  0.0798137852132183  0.6861538419395189  0.1394285144305827   T   T   T
  0.2464711476021793  0.6860991705296873  0.1394447048473691   T   T   T
  0.4131401996554674  0.6861779488551091  0.1394370539416611   T   T   T
  0.0799282004876809  0.9359933388954247  0.1393801787279541   T   T   T
  0.2465323347672033  0.9360616161511049  0.1394076728847871   T   T   T
  0.4131765688292152  0.9360759591535848  0.1394198221652906   T   T   T
  0.1631104132117689  0.5611982014092149  0.1666475010209255   T   T   T
  0.3298296522992062  0.5612320889433597  0.1666469071779949   T   T   T
  0.4964263634937179  0.5613820928043787  0.1666412287817229   T   T   T
  0.1631732943210861  0.8111898802215686  0.1666262318165155   T   T   T
  0.3298769663775667  0.8112004408175670  0.1666213821078854   T   T   T
  0.4965400849771710  0.8112838604707624  0.1666528964028491   T   T   T
  0.0799964483821490  0.6881811347749445  0.1920006647245900   T   T   T
  0.2466350216848134  0.6881672464757455  0.1920156615165003   T   T   T
  0.4132508446968100  0.6881949684604476  0.1920061632883009   T   T   T
  0.0800331495843475  0.9381035204398328  0.1919795057901257   T   T   T
  0.2466461917820106  0.9380842194770052  0.1919851056148409   T   T   T
  0.4132513343151201  0.9381160335780419  0.1919993216684003   T   T   T
  0.0798948366267111  0.6862604087062664  0.0858232825612248   T   T   T
  0.2465791456667874  0.6862244127863959  0.0858350160523106   T   T   T
  0.4132423733762388  0.6862534650932315  0.0858368544049875   T   T   T
  0.0799396274693142  0.9361753202380519  0.0857742314343999   T   T   T
  0.2465960984328177  0.9362090401168853  0.0858075733788281   T   T   T
  0.4132516871101486  0.9362313920324409  0.0858267944555229   T   T   T
  0.1631352404180345  0.5611352722154752  0.1130555232750340   T   T   T
  0.3298346374022549  0.5611370541754193  0.1130588403502125   T   T   T
  0.4964819519362795  0.5611421432235693  0.1130666645880305   T   T   T
  0.1632146577140921  0.8110764615468727  0.1130291650756872   T   T   T
  0.3298947643209733  0.8111013169728531  0.1130373908483349   T   T   T
  0.4965720231751325  0.8111736600632387  0.1130719387674164   T   T   T
  0.9967451861262798  0.0631996707909687  0.0604402072376618   T   T   T
  0.6634501875464875  0.0632432275409902  0.0605755927153150   T   T   T
  0.8300964603418367  0.0632450403133225  0.0605240004852564   T   T   T
  0.9967058104862405  0.3132586779416542  0.0604480670191449   T   T   T
  0.6634264638309587  0.3131852196387608  0.0605721839958759   T   T   T
  0.8301190423511566  0.3132264766042508  0.0605132952573834   T   T   T
  0.5798001005193238  0.1861249879330819  0.1394439567143801   T   T   T
  0.7464822819022874  0.1863726576097608  0.1396537358551671   T   T   T
  0.9132157606598218  0.1860162987604269  0.1393362007887110   T   T   T
  0.5797893713255289  0.4361962120488308  0.1394657483856917   T   T   T
  0.7465005799330438  0.4361096747705504  0.1394904697232628   T   T   T
  0.9132036899368632  0.4361542926822473  0.1394278436065486   T   T   T
  0.6633398932377905  0.0615763740213930  0.1667942988816059   T   T   T
  0.8296171052520647  0.0614236087778490  0.1667181799435608   T   T   T
  0.9967330488770766  0.0608913448592210  0.1665193412655547   T   T   T
  0.6630446980478313  0.3113329595778552  0.1668199525338300   T   T   T
  0.8300170694542025  0.3113427190352157  0.1666768238692310   T   T   T
  0.9966064060939803  0.3112149998157306  0.1665588076777857   T   T   T
  0.5796352177993818  0.1876854903236185  0.1918279541971635   T   T   T
  0.7466420797810265  0.1899672566815244  0.1927599714630170   T   T   T
  0.9136587179802799  0.1869089403057261  0.1915495001104560   T   T   T
  0.5797875266103706  0.4385743747053577  0.1920108635816294   T   T   T
  0.7465262030784542  0.4380924862388861  0.1920403031253118   T   T   T
  0.9133378402283434  0.4384720725225326  0.1919518718679673   T   T   T
  0.5798912024044459  0.1862788851647413  0.0858548008523340   T   T   T
  0.7465576875777991  0.1863167258868408  0.0859662924869946   T   T   T
  0.9132103795056021  0.1862429236413062  0.0857709554518782   T   T   T
  0.5799378134871869  0.4362478446591009  0.0858593162020158   T   T   T
  0.7465947286849334  0.4362354368712351  0.0858764704685645   T   T   T
  0.9132411120329288  0.4362448300170875  0.0858302478361953   T   T   T
  0.6631626807598481  0.0612183785399047  0.1131288554327054   T   T   T
  0.8297778422560240  0.0611785314595198  0.1130861610363970   T   T   T
  0.9964975366025094  0.0610457496851770  0.1129951107031912   T   T   T
  0.6631660484046172  0.3111486406250296  0.1131590770638058   T   T   T
  0.8298988077194922  0.3111395742849635  0.1130965472163794   T   T   T
  0.9965600025220575  0.3111172333458394  0.1130107289512132   T   T   T
  0.9967620700979011  0.5631944932521052  0.0604862342608491   T   T   T
  0.6634431512551259  0.5631798050150923  0.0605213883552326   T   T   T
  0.8301564694482030  0.5631920975076810  0.0605087632145510   T   T   T
  0.9966597703385052  0.8131931992692648  0.0604708849420196   T   T   T
  0.6633915242993873  0.8132407047821238  0.0605334290994013   T   T   T
  0.8300685908043134  0.8132275566732294  0.0605012823725622   T   T   T
  0.5798195143713849  0.6861634505073978  0.1394560836556645   T   T   T
  0.7464752478103031  0.6861777183950688  0.1394623500294480   T   T   T
  0.9131225768695233  0.6861503321114059  0.1394424476369891   T   T   T
  0.5799368449470614  0.9362540842001841  0.1394911962804383   T   T   T
  0.7464599377502589  0.9361830376565378  0.1394758388887663   T   T   T
  0.9130684866581562  0.9362095970513511  0.1394422865028076   T   T   T
  0.6631588126490403  0.5613052065946765  0.1666466255792737   T   T   T
  0.8297749468466991  0.5612597039118193  0.1666483735679304   T   T   T
  0.9965457041694294  0.5613327869993577  0.1666186811180105   T   T   T
  0.6631673106821674  0.8112479694353736  0.1666744679230363   T   T   T
  0.8298521549807103  0.8112628605003569  0.1666398817672126   T   T   T
  0.9965133265500974  0.8112710687840767  0.1666208588741916   T   T   T
  0.5799853778216101  0.6881769755977165  0.1920252378250864   T   T   T
  0.7466419654994404  0.6882388267737426  0.1920368305558891   T   T   T
  0.9132737930926078  0.6881803800404088  0.1919994653375148   T   T   T
  0.5800026035803616  0.9382344085385815  0.1920450204561109   T   T   T
  0.7466238202920953  0.9381778298039096  0.1920519791958538   T   T   T
  0.9132874966716494  0.9381759860836791  0.1919877841538772   T   T   T
  0.5799187070757539  0.6862453069056369  0.0858537561247183   T   T   T
  0.7465436181829350  0.6862393557823667  0.0858599664231643   T   T   T
  0.9131749654319550  0.6862446013307603  0.0858405268390299   T   T   T
  0.5799523731183148  0.9362934571131720  0.0858718310190730   T   T   T
  0.7465602048342280  0.9362848180063796  0.0858699960466230   T   T   T
  0.9131820942211696  0.9362640242154199  0.0858282811686474   T   T   T
  0.6631622253146731  0.5611242776660681  0.1130781894645569   T   T   T
  0.8298220660202841  0.5611225334354180  0.1130764761334336   T   T   T
  0.9965000570800679  0.5611391303129433  0.1130501538213309   T   T   T
  0.6631978528523337  0.8111409505191954  0.1130785823807415   T   T   T
  0.8298208280733327  0.8111504213475061  0.1130643639500505   T   T   T
  0.9964966389859929  0.8111498664899811  0.1130468615759347   T   T   T
  0.0365368353780108  0.1776045199610665  0.0276032024583066   T   T   T
  0.2029587172144961  0.1775686804415078  0.0276754194093824   T   T   T
  0.3696696813452212  0.1775204299584580  0.0276734432614421   T   T   T
  0.0362916877607163  0.4276319059159275  0.0276293166963310   T   T   T
  0.2026671189540285  0.4275443407523795  0.0276707104436266   T   T   T
  0.3693463392818629  0.4275115112386915  0.0276737253633489   T   T   T
  0.1622241661105028  0.0264807307443525  0.0450495220999999   T   T   T
  0.3288229449329486  0.0264898622941994  0.0450627285539268   T   T   T
  0.4955630131461952  0.0265321401272718  0.0450887819266218   T   T   T
  0.1620997216162643  0.2765282315102099  0.0450593560367811   T   T   T
  0.3287061960474358  0.2765116136084538  0.0450690512912711   T   T   T
  0.4954501284529627  0.2765109735818019  0.0450760654963999   T   T   T
  0.4144385505651273  0.4014723826073637  0.2074189579398315   T   T   T
  0.4143171124580309  0.1513393504625699  0.2073928375951086   T   T   T
  0.0810981735178567  0.1512618251130673  0.2073876446345253   T   T   T
  0.2477700602393208  0.1513952003887077  0.2074132586327497   T   T   T
  0.0810671263950143  0.4013081977314720  0.2074334617232541   T   T   T
  0.2476815486430060  0.4013926520917975  0.2074114004462854   T   T   T
  0.0411898684641375  0.0523210238304531  0.2247743991907757   T   T   T
  0.2077699600115661  0.0523758423656304  0.2248088191122384   T   T   T
  0.3744685060467154  0.0524180489522815  0.2247907030603178   T   T   T
  0.0358436793462065  0.3027708906441875  0.2255054469013330   T   T   T
  0.2077170538910321  0.3024238933256107  0.2248283607990571   T   T   T
  0.3747114587878820  0.3023301577581173  0.2247530069533688   T   T   T
  0.0364086386830129  0.6775950027087813  0.0276677536429193   T   T   T
  0.2030296370076232  0.6775487326683906  0.0276755592351875   T   T   T
  0.3697296721998422  0.6775225070463857  0.0276838268765993   T   T   T
  0.0361363713420331  0.9275220293120858  0.0276303130177652   T   T   T
  0.2026849264524184  0.9274728562366483  0.0276507184239210   T   T   T
  0.3694820805035388  0.9274939473292545  0.0276639853418919   T   T   T
  0.1621692055441796  0.5264965277844201  0.0450808743589867   T   T   T
  0.3288454022106258  0.5264959359538892  0.0450842878860473   T   T   T
  0.4955313459630421  0.5264954631788398  0.0450922302266082   T   T   T
  0.1621160537979108  0.7764243419624804  0.0450566192373649   T   T   T
  0.3287647672163480  0.7764648161106098  0.0450613859821028   T   T   T
  0.4955236826813922  0.7765186505504452  0.0450951055980515   T   T   T
  0.4143486944837821  0.9013870833309666  0.2074109375594433   T   T   T
  0.4143641609755538  0.6514575286233808  0.2074205802470940   T   T   T
  0.0810748639328676  0.6514703999560184  0.2074190224573847   T   T   T
  0.2477502263941995  0.6515084281244024  0.2074453088760004   T   T   T
  0.0810889523060812  0.9013561156152450  0.2073899261988484   T   T   T
  0.2477602806080428  0.9013757380357219  0.2073980482140457   T   T   T
  0.0408591602108643  0.5531456851689841  0.2247943551552658   T   T   T
  0.2076399346543709  0.5529742574018952  0.2247550590876931   T   T   T
  0.3741818085447741  0.5528653764539032  0.2247817060927727   T   T   T
  0.0409842184634378  0.8025935897959554  0.2248231992789294   T   T   T
  0.2074017814584858  0.8027563079341455  0.2248550487142411   T   T   T
  0.3746433756125457  0.8024208723480388  0.2247665125430079   T   T   T
  0.5366579714773129  0.1775820744245423  0.0276618203078144   T   T   T
  0.7027863571970341  0.1776018751483400  0.0278086348281193   T   T   T
  0.8693638017953750  0.1775480593862163  0.0276408636813940   T   T   T
  0.5365014920132953  0.4275581960949337  0.0276675742604951   T   T   T
  0.7026133010680126  0.4274442876341191  0.0277303943263034   T   T   T
  0.8691066701021438  0.4275238776472008  0.0276785589877882   T   T   T
  0.6622582162247702  0.0265388132699977  0.0451575456328370   T   T   T
  0.8285695435026132  0.0265341167383037  0.0451129276398874   T   T   T
  0.9954400596267156  0.0265114735785597  0.0450242364183644   T   T   T
  0.6620369591621352  0.2763806643883086  0.0451811011777338   T   T   T
  0.8286905814313512  0.2764542848501943  0.0451125577591713   T   T   T
  0.9953447898505977  0.2765854185613300  0.0450273484473223   T   T   T
  0.9141319338793699  0.4020880532972606  0.2074185516184376   T   T   T
  0.9149949386209885  0.1504840866521752  0.2070289346443327   T   T   T
  0.5806241538596967  0.1511489816930069  0.2072799149438012   T   T   T
  0.7480874575545883  0.1527019103473465  0.2080603069297615   T   T   T
  0.5806509576701965  0.4017865771681347  0.2073985457256211   T   T   T
  0.7467976417883558  0.4014479992587157  0.2074769550790767   T   T   T
  0.5407477578972858  0.0526729888041134  0.2248627240653481   T   T   T
  0.7078665506950019  0.0520137375491908  0.2249626429760307   T   T   T
  0.8745808033014442  0.0521847007203374  0.2248682959689461   T   T   T
  0.5431854742926356  0.3009945187361321  0.2239086162745467   T   T   T
  0.6894035817081756  0.3103234150955209  0.2284158567053629   T   T   T
  0.8910894095868132  0.2953431393356182  0.2228143425512156   T   T   T
  0.7735940334912361  0.3061122727973931  0.2736608090889969   T   T   T
  0.7465111663384649  0.2381404116259971  0.2931740559593067   T   T   T
  0.7860561805680359  0.3196894001494675  0.3029000018567999   T   T   T
  0.6572713712759360  0.1945210486408475  0.3098088285684785   T   T   T
  0.7106807599120647  0.1300631177548117  0.3022953172680354   T   T   T
  0.8252647560726731  0.3662965661752887  0.3336053534744586   T   T   T
  0.7422338390866029  0.3771023854434272  0.3308902568912869   T   T   T
  0.7595166314399427  0.3957013803988976  0.2519994822790574   T   T   T
  0.7933118131323975  0.3232878433922438  0.2385254074628739   T   T   T
  0.5365026788668382  0.6775908774094009  0.0276808198081355   T   T   T
  0.7029345790238783  0.6775530535145864  0.0277139097804954   T   T   T
  0.8694498296018570  0.6775570619773184  0.0276980466245943   T   T   T
  0.5362585095246118  0.9275724297454712  0.0276882520723463   T   T   T
  0.7025964973413856  0.9275118877789913  0.0277138118434174   T   T   T
  0.8691855776164276  0.9275838308667710  0.0276829118075715   T   T   T
  0.6621360686030699  0.5264756430501775  0.0451030894438970   T   T   T
  0.8287995523802961  0.5264768582259446  0.0450978226633455   T   T   T
  0.9954177921902985  0.5265030887246995  0.0450726038807958   T   T   T
  0.6620274772964051  0.7765301208633290  0.0451145844311488   T   T   T
  0.8286509457214908  0.7765016067813250  0.0450951366832004   T   T   T
  0.9952434405257581  0.7764557152342486  0.0450694393102498   T   T   T
  0.9144534281364748  0.9014774804725205  0.2074088585410725   T   T   T
  0.9144456832570982  0.6515059836067171  0.2074268388382151   T   T   T
  0.5810523632406822  0.6514643957285424  0.2074418313350753   T   T   T
  0.7478462136277693  0.6516029801463239  0.2074696237449452   T   T   T
  0.5810519433980922  0.9015006207178111  0.2074630054948392   T   T   T
  0.7478434722699070  0.9014416882244366  0.2074632808763605   T   T   T
  0.5404278033068125  0.5532631527006062  0.2248186232951414   T   T   T
  0.7077020900348090  0.5541081884206368  0.2246001054586577   T   T   T
  0.8741863046635666  0.5533495350379196  0.2247477535689984   T   T   T
  0.5410331200196202  0.8025579924292073  0.2248343100979992   T   T   T
  0.7073658783000399  0.8028202565784228  0.2248862846197714   T   T   T
  0.8747094303799188  0.8023854010326100  0.2247680234999321   T   T   T
  0.0842333012917800  0.1657058438639522  0.0337365524848257   T   T   T
  0.2507503204018748  0.1658047916192729  0.0337696807191872   T   T   T
  0.4174360024592873  0.1657663631059281  0.0337803807908579   T   T   T
  0.0840268818051751  0.4158261506829985  0.0337561301131182   T   T   T
  0.2505104946858469  0.4160084015578606  0.0337798605323271   T   T   T
  0.4171837396835693  0.4159629653222610  0.0337804031574559   T   T   T
  0.1599268525513029  0.0410566794515016  0.2186504437505486   T   T   T
  0.3265835323193201  0.0410776827013253  0.2186618238966365   T   T   T
  0.4929880491343148  0.0410906270281610  0.2186795559870122   T   T   T
  0.1598994449796191  0.2910552039267615  0.2186685479008635   T   T   T
  0.3267882759220324  0.2911834265966112  0.2186420203037077   T   T   T
  0.4938773872548766  0.2912287641882686  0.2185395627629437   T   T   T
  0.0841374677665981  0.6657390943278513  0.0337781547251901   T   T   T
  0.2508020946807592  0.6657986888035400  0.0337789649888836   T   T   T
  0.4174863177952639  0.6657758825570252  0.0337912095924832   T   T   T
  0.0838986395007690  0.9155808700736547  0.0337102948463574   T   T   T
  0.2505152132340464  0.9158258971910747  0.0337421896039629   T   T   T
  0.4172796994194062  0.9158247394148121  0.0337707484465296   T   T   T
  0.1598085111571642  0.5410468160383474  0.2186887453113958   T   T   T
  0.3263520327138009  0.5410903621116796  0.2186841485349010   T   T   T
  0.4926993181356898  0.5410649120810798  0.2187260770707987   T   T   T
  0.1596783750058712  0.7910429377533491  0.2186850385105577   T   T   T
  0.3267262274122022  0.7912134825941582  0.2186522809551273   T   T   T
  0.4932037042112006  0.7910168237406606  0.2187019003756353   T   T   T
  0.5843413586527816  0.1656899384492255  0.0338011160508670   T   T   T
  0.7506087514472291  0.1661554715917580  0.0339332707513263   T   T   T
  0.9171776580312583  0.1655436557063267  0.0336769907561348   T   T   T
  0.5842201708069962  0.4157833998876850  0.0338042659565138   T   T   T
  0.7504728794626742  0.4158621646946427  0.0338150209210358   T   T   T
  0.9169867908289028  0.4160053623006412  0.0337588095616785   T   T   T
  0.6599700365908275  0.0410706903793465  0.2187863424675301   T   T   T
  0.8267088808873506  0.0411002757159825  0.2187106376683870   T   T   T
  0.9933559741322359  0.0412604219029797  0.2185787327473400   T   T   T
  0.6498448243629383  0.2911694113823387  0.2187904981007258   T   T   T
  0.8394661033743662  0.2914894709707138  0.2186873233656784   T   T   T
  0.9898826752765190  0.2888725654655547  0.2185326658302762   T   T   T
  0.7853200303926838  0.2797824348725779  0.2895688743968409   T   T   T
  0.6904883209099851  0.1791317522690161  0.2976253298730377   T   T   T
  0.7875480748758866  0.3772329272154024  0.3223472719981049   T   T   T
  0.7572845962042881  0.3401573225029017  0.2509067138938910   T   T   T
  0.5842283824515385  0.6657545942263886  0.0337978215760399   T   T   T
  0.7507398957193185  0.6657784096404251  0.0337991367089733   T   T   T
  0.9172679809774458  0.6658751179890233  0.0337844354047799   T   T   T
  0.5840117810043813  0.9159005374837282  0.0338213397239838   T   T   T
  0.7504495689917630  0.9159593966483075  0.0338102563206258   T   T   T
  0.9170267274718129  0.9159896349442010  0.0337762316039826   T   T   T
  0.6599069386877496  0.5412363185649678  0.2186915822926549   T   T   T
  0.8264219488701031  0.5411115404722791  0.2186889748675171   T   T   T
  0.9931168680847847  0.5411668955673579  0.2186735649009517   T   T   T
  0.6596320128397312  0.7909751221049113  0.2187441089498956   T   T   T
  0.8267743757583113  0.7912710341207049  0.2186559186142144   T   T   T
  0.9931724671665754  0.7910946157726472  0.2186693663980881   T   T   T
  0.2469001256301341  0.1217055525081690  0.0599416879769998   T   T   T
  0.4135609342524311  0.1217051363328356  0.0599565590833694   T   T   T
  0.0801871338819671  0.3717398264658860  0.0599332709899474   T   T   T
  0.2468564761672127  0.3717906337928316  0.0599353313484815   T   T   T
  0.4135304465571197  0.3717726855387586  0.0599434281893068   T   T   T
  0.0802336025028739  0.1216714529674874  0.0599189659714973   T   T   T
  0.4964699011494827  0.4985524005192812  0.1396728079605653   T   T   T
  0.1631796741803411  0.4985107393192235  0.1396589244749051   T   T   T
  0.3297958990828717  0.4985159140740597  0.1396624943517804   T   T   T
  0.4964982958618964  0.2485108587864271  0.1396562884228386   T   T   T
  0.1632201630663098  0.2484455794386872  0.1396369344985653   T   T   T
  0.3298109506220424  0.2484628591325872  0.1396501937044295   T   T   T
  0.0799774390952105  0.1230551957284923  0.1658374846713049   T   T   T
  0.2465670557508287  0.1232000238992458  0.1658981249492919   T   T   T
  0.4131797053485656  0.1231656379045741  0.1658962802472042   T   T   T
  0.0799568620293108  0.3732651338910581  0.1658942374948294   T   T   T
  0.2465281788802141  0.3732291465966272  0.1658984301581591   T   T   T
  0.4131594659304375  0.3732785016712669  0.1659144383016977   T   T   T
  0.1631766220569954  0.4966902397538958  0.1925290623849965   T   T   T
  0.3297937972148748  0.4967159973775734  0.1925254403696443   T   T   T
  0.4963281555589827  0.4969245859428945  0.1925292454478067   T   T   T
  0.1633326354183507  0.2467780396088480  0.1925325692877720   T   T   T
  0.4962912366442842  0.2466166287266135  0.1924711048424669   T   T   T
  0.3298785249346472  0.2467209945025567  0.1925080727374318   T   T   T
  0.4965966317108814  0.4982759082933255  0.0865863322279450   T   T   T
  0.1632608206465580  0.4982987797959428  0.0865721677741261   T   T   T
  0.3299489201294448  0.4982906604473562  0.0865773547350110   T   T   T
  0.4965440280261980  0.2482926773409238  0.0865735059619445   T   T   T
  0.1632332214473768  0.2482719409602226  0.0865555023487698   T   T   T
  0.3299139803114128  0.2482858464098574  0.0865645445584479   T   T   T
  0.0798518187613371  0.1234286600525860  0.1127621810549332   T   T   T
  0.2465053285463005  0.1234601116873624  0.1128155938384384   T   T   T
  0.4131668138436725  0.1235045154293027  0.1128151430531753   T   T   T
  0.0799096954552850  0.3735130323215601  0.1127974214360710   T   T   T
  0.2465580821695124  0.3734999251457348  0.1128295826964660   T   T   T
  0.4132124647931760  0.3735199378866882  0.1128210105442856   T   T   T
  0.2469137652095304  0.6217040494028717  0.0599527203615099   T   T   T
  0.4135966102658265  0.6217039053865352  0.0599684055868673   T   T   T
  0.0801772008309756  0.8716297736171627  0.0599041077450944   T   T   T
  0.2468667612815718  0.8717163570546256  0.0599117565231231   T   T   T
  0.4135496908532957  0.8717233639898473  0.0599434106858449   T   T   T
  0.0802044105681597  0.6216865890067258  0.0599589564807435   T   T   T
  0.4965081653433744  0.9984369890047503  0.1396526950062177   T   T   T
  0.1632250051380476  0.9984141351169223  0.1396160096436889   T   T   T
  0.3298210560438347  0.9984466691544164  0.1396385085640366   T   T   T
  0.4965094948244781  0.7485289248580422  0.1396681798886495   T   T   T
  0.1631653287044041  0.7484866180876552  0.1396458381193703   T   T   T
  0.3297829790070509  0.7484952979449848  0.1396452336718716   T   T   T
  0.0798690147179074  0.6233247193012585  0.1659049692912401   T   T   T
  0.2464880760587939  0.6232451063551722  0.1659193198181881   T   T   T
  0.4131242199996308  0.6233391270152200  0.1659108242148476   T   T   T
  0.0798813555251756  0.8732287209309174  0.1658800525549868   T   T   T
  0.2465325741223590  0.8732173371825452  0.1658896811401530   T   T   T
  0.4131878482491789  0.8732560116941187  0.1659064313995804   T   T   T
  0.1632496660942867  0.9966813342026327  0.1925090936729256   T   T   T
  0.3298893607331897  0.9967089943832043  0.1925131814913620   T   T   T
  0.4965056310220043  0.9967228504470350  0.1925232031602539   T   T   T
  0.1632055853099810  0.7467584689050500  0.1925231944259311   T   T   T
  0.4965465185600213  0.7467594994444905  0.1925352734200471   T   T   T
  0.3298869193175881  0.7467927926823730  0.1925254489765409   T   T   T
  0.4965880451833899  0.9982997632605839  0.0865809749432883   T   T   T
  0.1632522529778099  0.9982322573760618  0.0865390885168617   T   T   T
  0.3299432135645404  0.9982604415567791  0.0865583125645681   T   T   T
  0.4965917373706202  0.7482867491773000  0.0865892321197525   T   T   T
  0.1632436375619322  0.7482413098926722  0.0865545234237586   T   T   T
  0.3299229845161705  0.7482647967935261  0.0865613080619754   T   T   T
  0.0798314764191377  0.6235302819400503  0.1128133099021883   T   T   T
  0.2465079061049868  0.6234963488533636  0.1128338328947509   T   T   T
  0.4131726295953737  0.6235264064841850  0.1128259345735950   T   T   T
  0.0799054475969266  0.8734093637211232  0.1127708398603543   T   T   T
  0.2465662650273722  0.8734435818289266  0.1128048375050074   T   T   T
  0.4132227336374047  0.8734794628565582  0.1128094557241006   T   T   T
  0.7468595524514688  0.1217997003936626  0.0600673802738193   T   T   T
  0.9134997947331596  0.1217401440133777  0.0598884509561568   T   T   T
  0.5802292286413177  0.3717157915188296  0.0599894058397288   T   T   T
  0.7468491187019537  0.3717165901644496  0.0599927078242488   T   T   T
  0.9134825057176282  0.3718258567393222  0.0599304171979454   T   T   T
  0.5802506521410327  0.1217276575420635  0.0599920242138055   T   T   T
  0.9965127054274214  0.4985415597641413  0.1396458020668175   T   T   T
  0.6631248783645083  0.4985068267474909  0.1396817884771406   T   T   T
  0.8298276675658665  0.4985001852720978  0.1396753325321009   T   T   T
  0.9965176282975062  0.2483680905591780  0.1395552700577131   T   T   T
  0.6630200456627577  0.2485854511572727  0.1397955370745743   T   T   T
  0.8299508804960669  0.2484477551677929  0.1396678517353260   T   T   T
  0.5797238588733079  0.1231381184611711  0.1658744678208150   T   T   T
  0.7464914202584407  0.1240946829631972  0.1662829611767240   T   T   T
  0.9133520137416999  0.1225569873637596  0.1656403756158772   T   T   T
  0.5796865539447867  0.3734664895237103  0.1659530163098040   T   T   T
  0.7464258103712869  0.3732224762987196  0.1659573649998923   T   T   T
  0.9133428775845128  0.3734598288547550  0.1658865891790476   T   T   T
  0.6630561990656506  0.4969552738244874  0.1925255579842642   T   T   T
  0.8298685830185484  0.4968499468349157  0.1925222247182797   T   T   T
  0.9966137993456925  0.4969101484424214  0.1925036127697287   T   T   T
  0.6620383819276640  0.2475119213247206  0.1929107689856966   T   T   T
  0.9966257854275454  0.2457549413972318  0.1921350511862464   T   T   T
  0.8311834167222869  0.2464951234193083  0.1923340577723740   T   T   T
  0.9966066351764524  0.4982886287485087  0.0865682142563117   T   T   T
  0.6632882268088969  0.4982787697452770  0.0865990241928628   T   T   T
  0.8299178924034686  0.4982843894357479  0.0865911364363624   T   T   T
  0.9965854169410521  0.2482734179349469  0.0865193412321945   T   T   T
  0.6632519187150121  0.2483106101514086  0.0866635081683086   T   T   T
  0.8299091215650529  0.2483172361523159  0.0866016362196641   T   T   T
  0.5798244488729652  0.1235548002238412  0.1128475163031623   T   T   T
  0.7464778903463116  0.1236136440358001  0.1129604995470778   T   T   T
  0.9131846278963874  0.1234262271093218  0.1127462846489030   T   T   T