C H O Si                                
   1.00000000000000     
    18.5749199999999988    0.0000000000000000    0.0000000000000000
     0.0000000000000000   17.5126199999999983    0.0000000000000000
     0.0000000000000000    0.0000000000000000   58.0000000000000000
   C    H    O    Si
   144   105    52   144
Selective dynamics
Direct
  0.4967692537461725  0.0632120071850673  0.0605132551919256   T   T   T
  0.1634237783381059  0.0631511751762721  0.0604781850858531   T   T   T
  0.3300748714843956  0.0631585617399121  0.0604885131591090   T   T   T
  0.4967901426959140  0.3132158383191366  0.0604963355848750   T   T   T
  0.1634399462798035  0.3131865972546081  0.0604861797582235   T   T   T
  0.3300800639554251  0.3132098470006023  0.0604901883255425   T   T   T
  0.0798842000880453  0.1860559444558096  0.1393942671664405   T   T   T
  0.2465084613467928  0.1861042556002457  0.1394268458350950   T   T   T
  0.4131378901279884  0.1861446105470875  0.1394318460277945   T   T   T
  0.0798307968093890  0.4361806608296771  0.1394219072351663   T   T   T
  0.2464911309095517  0.4362000483068559  0.1394309926201623   T   T   T
  0.4131391212052889  0.4362031929912731  0.1394354768579644   T   T   T
  0.1631965837675120  0.0611006271200429  0.1666211581385231   T   T   T
  0.3298055558209806  0.0611286125881219  0.1666311487538279   T   T   T
  0.4964319954114381  0.0610469048227396  0.1666233096010145   T   T   T
  0.1631621482415752  0.3111493679784976  0.1666345574442284   T   T   T
  0.3297927817830379  0.3111862544983789  0.1666378439704127   T   T   T
  0.4964094919234249  0.3112418302415919  0.1666314068268110   T   T   T
  0.0801264014105877  0.1879699393216477  0.1919844428216521   T   T   T
  0.2466364285196364  0.1880775341800416  0.1919974513417949   T   T   T
  0.4131655345447030  0.1879861170663315  0.1919699700694581   T   T   T
  0.0798548020930755  0.4380352243444113  0.1920144540755048   T   T   T
  0.2465432698295186  0.4380671246276848  0.1919949498165687   T   T   T
  0.4131799753727861  0.4381144368219174  0.1920038822896309   T   T   T
  0.0798802446307304  0.1862112976619919  0.0857946972151799   T   T   T
  0.2465479211866133  0.1861977914740985  0.0858277219928432   T   T   T
  0.4132057366295867  0.1862121059969379  0.0858317895284733   T   T   T
  0.0799205712557860  0.4362519017136151  0.0858177912646081   T   T   T
  0.2465915464774286  0.4362496374267107  0.0858306061202760   T   T   T
  0.4132557797739624  0.4362500792650692  0.0858303279467361   T   T   T
  0.1631403483003558  0.0610575099842285  0.1130072088812113   T   T   T
  0.3298151837596348  0.0610967560817972  0.1130289346808701   T   T   T
  0.4964769057387901  0.0611339000511870  0.1130526917660940   T   T   T
  0.1632220463675177  0.3111124998259382  0.1130366457717701   T   T   T
  0.3298856044763554  0.3111097462670641  0.1130439460362181   T   T   T
  0.4965161199499766  0.3111166862918541  0.1130509899062533   T   T   T
  0.4967812575539209  0.5631897058786052  0.0605147766639209   T   T   T
  0.1634398339659414  0.5631811046250530  0.0605015908306257   T   T   T
  0.3300944570548049  0.5631900880851346  0.0605073411462609   T   T   T
  0.4968050151146226  0.8132070847947376  0.0605177320911169   T   T   T
  0.1634444331660081  0.8131215080655840  0.0604770916764765   T   T   T
  0.3301071072554062  0.8131630400479040  0.0604805759134515   T   T   T
  0.0797964970226941  0.6861976456066350  0.1394269340803608   T   T   T
  0.2464535445461340  0.6861588073732697  0.1394380280060854   T   T   T
  0.4131089746182889  0.6862136337911413  0.1394337226937983   T   T   T
  0.0799302996887811  0.9360409467773292  0.1393677366711304   T   T   T
  0.2465502027434004  0.9361102114305535  0.1394021487002284   T   T   T
  0.4131683321092590  0.9361370446552507  0.1394130703163935   T   T   T
  0.1630788830012743  0.5612199605719645  0.1666630646695829   T   T   T
  0.3297605859233665  0.5612500752975030  0.1666641765938477   T   T   T
  0.4963618909477724  0.5614121601741724  0.1666544212016336   T   T   T
  0.1631388351225037  0.8111965198419629  0.1666393027399139   T   T   T
  0.3297986807342224  0.8111993012043313  0.1666344757684118   T   T   T
  0.4964965846954562  0.8112759227212526  0.1666695880202994   T   T   T
  0.0799274358549632  0.6881210187561105  0.1920006796941725   T   T   T
  0.2465921186111617  0.6881309825413475  0.1920218581543630   T   T   T
  0.4132702929728604  0.6881222877089418  0.1920047850104876   T   T   T
  0.0799581543330706  0.9380498188078781  0.1919780612627056   T   T   T
  0.2466178866183610  0.9380637198004187  0.1919813852381976   T   T   T
  0.4132562071658199  0.9380617866879527  0.1919954197302890   T   T   T
  0.0798721117904462  0.6862263628844963  0.0858270686067788   T   T   T
  0.2465666541588806  0.6861835530182517  0.0858331795699379   T   T   T
  0.4132453790757242  0.6862172889917931  0.0858393456074546   T   T   T
  0.0799170108354417  0.9361621893244818  0.0857897615337019   T   T   T
  0.2466016885292953  0.9361891597331405  0.0858133873823196   T   T   T
  0.4132718281120217  0.9362274417573966  0.0858255330150728   T   T   T
  0.1631426486931481  0.5611333563609694  0.1130471472694297   T   T   T
  0.3298207357791489  0.5611290873207042  0.1130484011642441   T   T   T
  0.4964728398661989  0.5611436351568004  0.1130578533374999   T   T   T
  0.1632372068807403  0.8110662694911414  0.1130259501369897   T   T   T
  0.3298889793212363  0.8110941165438439  0.1130326284918936   T   T   T
  0.4965844218425515  0.8111675689520513  0.1130625124492556   T   T   T
  0.9967195798703383  0.0631865729420295  0.0604549127945841   T   T   T
  0.6634300129516952  0.0632329281588904  0.0605742425583122   T   T   T
  0.8300342174372803  0.0632427079454353  0.0605255499723482   T   T   T
  0.9967180230680875  0.3132359952324846  0.0604640287491438   T   T   T
  0.6634448502342803  0.3131724244788229  0.0605775508636164   T   T   T
  0.8300986889927170  0.3132178559178940  0.0605201389805814   T   T   T
  0.5797863134575280  0.1861652241276205  0.1394380198026599   T   T   T
  0.7464661039781623  0.1863317424243004  0.1396387222530548   T   T   T
  0.9132269446421972  0.1859896450552465  0.1393428639778248   T   T   T
  0.5797876952711614  0.4362327113544703  0.1394490772361194   T   T   T
  0.7464967302836825  0.4361187619466930  0.1394792604256578   T   T   T
  0.9131900386346995  0.4362197943795028  0.1394206490027161   T   T   T
  0.6633468378310651  0.0615971858305104  0.1668128973077392   T   T   T
  0.8295854031537153  0.0614747282912123  0.1667408757781226   T   T   T
  0.9966821003613764  0.0608169413790552  0.1665195237849874   T   T   T
  0.6629926740057325  0.3113755076489373  0.1668347903240005   T   T   T
  0.8299623877062390  0.3113199009730502  0.1667032267213071   T   T   T
  0.9965400656139313  0.3111624776087355  0.1665674645341861   T   T   T
  0.5796160384572170  0.1876646806893343  0.1918283013429664   T   T   T
  0.7466268542711255  0.1899907149758063  0.1927770924403605   T   T   T
  0.9136605822988093  0.1869946900620414  0.1915814437700407   T   T   T
  0.5796983000980506  0.4385422240041894  0.1920124494028747   T   T   T
  0.7464998696374221  0.4380846026728253  0.1920388017206394   T   T   T
  0.9133076912142524  0.4384171904953564  0.1919554132657856   T   T   T
  0.5798888531015391  0.1862586128598441  0.0858543840104196   T   T   T
  0.7465542501265131  0.1863130396548074  0.0859634630376496   T   T   T
  0.9131998115495513  0.1862315505192787  0.0857837101461094   T   T   T
  0.5799301578319828  0.4362440563926993  0.0858552807427455   T   T   T
  0.7466008574986219  0.4362353553010770  0.0858690117815224   T   T   T
  0.9132532523001922  0.4362481685620834  0.0858270020570483   T   T   T
  0.6631607315976292  0.0612164339814814  0.1131147841711937   T   T   T
  0.8297545543506235  0.0611831282744222  0.1130806451134888   T   T   T
  0.9964945043121605  0.0610408712456294  0.1129784997827442   T   T   T
  0.6631698997327146  0.3111429854367471  0.1131451512161565   T   T   T
  0.8298827156885782  0.3111331314450073  0.1130886951351832   T   T   T
  0.9966025904612338  0.3111133316142325  0.1130005020347783   T   T   T
  0.9967324727744603  0.5631879483472689  0.0604958057584448   T   T   T
  0.6634245491413266  0.5631775475334697  0.0605176519742036   T   T   T
  0.8300943554797907  0.5631820744142911  0.0605156740164801   T   T   T
  0.9966759496344041  0.8131879387509879  0.0604832342756374   T   T   T
  0.6634196998694771  0.8132246688176058  0.0605355917170888   T   T   T
  0.8300465275686222  0.8132054488109585  0.0605153083491731   T   T   T
  0.5798019491416274  0.6861924834971216  0.1394436440510531   T   T   T
  0.7464534085671974  0.6862096700073221  0.1394477992094965   T   T   T
  0.9131028083374756  0.6861830120458422  0.1394401163547847   T   T   T
  0.5799289261581967  0.9362838519159272  0.1394701749551699   T   T   T
  0.7464397918074009  0.9362374737805639  0.1394562371176799   T   T   T
  0.9130582973810057  0.9362652575257199  0.1394310153931111   T   T   T
  0.6631428620768569  0.5613553576333377  0.1666649966649701   T   T   T
  0.8297022406043083  0.5612860869946338  0.1666668420904204   T   T   T
  0.9965041488622416  0.5613301661024984  0.1666362778207253   T   T   T
  0.6631420692242946  0.8112883791241101  0.1666901111381277   T   T   T
  0.8297905383092556  0.8112757137989940  0.1666564511397837   T   T   T
  0.9964650568361605  0.8112374682562118  0.1666394536890041   T   T   T
  0.5799143229737639  0.6881125152578830  0.1920238327312632   T   T   T
  0.7465802012780961  0.6882111465961983  0.1920465587031940   T   T   T
  0.9132815978095322  0.6881127359157966  0.1919996369288030   T   T   T
  0.5799268068414992  0.9381772289244314  0.1920484680144103   T   T   T
  0.7465704453515388  0.9381456238314682  0.1920518954591138   T   T   T
  0.9132839649450144  0.9381026710179042  0.1919846106401097   T   T   T
  0.5798972068492879  0.6862109750149814  0.0858516557136651   T   T   T
  0.7465469952735614  0.6862075674195486  0.0858520969543097   T   T   T
  0.9131988491035261  0.6862174563747074  0.0858391514901210   T   T   T
  0.5799401195083773  0.9363157211261796  0.0858702813389640   T   T   T
  0.7465708944576932  0.9362907808362502  0.0858597967325489   T   T   T
  0.9132042311811821  0.9362595362502805  0.0858287538569240   T   T   T
  0.6631778719397317  0.5611055992786254  0.1130702411459464   T   T   T
  0.8298125843358966  0.5611131370581262  0.1130669603504147   T   T   T
  0.9964933018544404  0.5611433475882938  0.1130416851234500   T   T   T
  0.6632040632281683  0.8111288179117436  0.1130755940120851   T   T   T
  0.8298198421442717  0.8111339579191230  0.1130646349571052   T   T   T
  0.9965141631751238  0.8111549721887210  0.1130403552306769   T   T   T
  0.0365277835591266  0.1774955854460898  0.0276222137062709   T   T   T
  0.2029404514633340  0.1774762710102485  0.0276869539300751   T   T   T
  0.3696590231885720  0.1774219450658073  0.0276858732724685   T   T   T
  0.0362604377032001  0.4275501733278847  0.0276346955899431   T   T   T
  0.2026308029908510  0.4274756652945044  0.0276691101349802   T   T   T
  0.3693115841335040  0.4274364803450361  0.0276750561917847   T   T   T
  0.1622243043072428  0.0264954527721122  0.0450598864792213   T   T   T
  0.3288211918355530  0.0264947398328809  0.0450673288799885   T   T   T
  0.4955632952192410  0.0265401434649422  0.0450935444989694   T   T   T
  0.1620722551021966  0.2765406384085562  0.0450637950456197   T   T   T
  0.3286791404266746  0.2765223476172738  0.0450758171102151   T   T   T
  0.4954203511490656  0.2765203431048839  0.0450834792730336   T   T   T
  0.4144364036759131  0.4014696321933735  0.2074228952224240   T   T   T
  0.4143080097707063  0.1513424355588560  0.2073859644002786   T   T   T
  0.0811140206777410  0.1512489778835402  0.2073823976682308   T   T   T
  0.2477646241343844  0.1513968275580327  0.2074100723652638   T   T   T
  0.0810569291703893  0.4013249695409281  0.2074292180927580   T   T   T
  0.2476768358951922  0.4014028929448015  0.2074107058267633   T   T   T
  0.0412469435565488  0.0523438332038974  0.2248257096889259   T   T   T
  0.2078096451285012  0.0523855333518236  0.2248544041821570   T   T   T
  0.3745148098305787  0.0524285513441563  0.2248364643913467   T   T   T
  0.0358197745538766  0.3026376751574241  0.2255015096895974   T   T   T
  0.2077355497951524  0.3024446944925685  0.2248810354710924   T   T   T
  0.3747750631643135  0.3023271421958377  0.2247949446188611   T   T   T
  0.0363960197421451  0.6774960762261106  0.0276809743069783   T   T   T
  0.2030085922710955  0.6774532777126852  0.0276870464830989   T   T   T
  0.3697135681126651  0.6774215550491335  0.0276978621844812   T   T   T
  0.0360903315558832  0.9274497403556765  0.0276348870523234   T   T   T
  0.2026302857663112  0.9274082705001602  0.0276501209381548   T   T   T
  0.3694449986051569  0.9274199652673749  0.0276668284463857   T   T   T
  0.1621648719721148  0.5265059125431228  0.0450859262297330   T   T   T
  0.3288421937817159  0.5265106449096373  0.0450931298545970   T   T   T
  0.4955313992848004  0.5265042510991687  0.0450982280185760   T   T   T
  0.1620874336208814  0.7764437861289590  0.0450634844357482   T   T   T
  0.3287350799227226  0.7764716506547807  0.0450666851787421   T   T   T
  0.4954954684557258  0.7765275773797508  0.0451010358082072   T   T   T
  0.4143470391127911  0.9013997146962702  0.2074105380002859   T   T   T
  0.4143577540636560  0.6514624357587168  0.2074211022528309   T   T   T
  0.0810689380976519  0.6514743330519741  0.2074192677944939   T   T   T
  0.2477410509242060  0.6515107063913534  0.2074473874360497   T   T   T
  0.0810868778499089  0.9013748505969648  0.2073890272750984   T   T   T
  0.2477551166328439  0.9013923652992952  0.2073967562109613   T   T   T
  0.0408712689190460  0.5531751285451127  0.2248395814658591   T   T   T
  0.2076616375597461  0.5530043759635347  0.2247950028528124   T   T   T
  0.3742053347902068  0.5528854542372812  0.2248236700354470   T   T   T
  0.0409996499258981  0.8026104221584949  0.2248712267781869   T   T   T
  0.2074149995665987  0.8027716863744185  0.2249008215721582   T   T   T
  0.3746989235389228  0.8024377648832544  0.2248154084928587   T   T   T
  0.5366606897431196  0.1774723536758246  0.0276796581916574   T   T   T
  0.7027817632372518  0.1775155477571962  0.0278112493736744   T   T   T
  0.8693270134355027  0.1774676547215425  0.0276496151171087   T   T   T
  0.5364812661046103  0.4274617997928091  0.0276799985104302   T   T   T
  0.7025818254453174  0.4273733407316023  0.0277306329854079   T   T   T
  0.8690623990914786  0.4274563659130478  0.0276778027725805   T   T   T
  0.6622473529630356  0.0265410339959317  0.0451625818753148   T   T   T
  0.8285755809406717  0.0265335473058719  0.0451194565994356   T   T   T
  0.9954367696711417  0.0265310610626181  0.0450371634857320   T   T   T
  0.6620038939206402  0.2763846546077561  0.0451875454163803   T   T   T
  0.8286643675529441  0.2764717818250209  0.0451245117275509   T   T   T
  0.9953174809020415  0.2766117584213855  0.0450379967781983   T   T   T
  0.9141436292960552  0.4020970713759827  0.2074217899550474   T   T   T
  0.9150253879246192  0.1504764888499547  0.2070206027789064   T   T   T
  0.5806258210807437  0.1511397779493833  0.2072788876555526   T   T   T
  0.7481114282249697  0.1527186292033147  0.2080597286857077   T   T   T
  0.5806620424601244  0.4017892734095162  0.2074005169213705   T   T   T
  0.7468011132689081  0.4014781546803447  0.2074699071787644   T   T   T
  0.5407634983415569  0.0526772080758164  0.2249061112203253   T   T   T
  0.7078857859986619  0.0520024523017169  0.2250016282784595   T   T   T
  0.8746303753970559  0.0521995020618848  0.2249151131130986   T   T   T
  0.5432035697497766  0.3009905430986717  0.2239177926576443   T   T   T
  0.6894525020784790  0.3103485926015064  0.2284492128145403   T   T   T
  0.8910897050362965  0.2953266198720578  0.2228098787753983   T   T   T
  0.7736029042005487  0.3060864344007014  0.2736629024530915   T   T   T
  0.7465587704062279  0.2381677251951162  0.2931750492292481   T   T   T
  0.7860393757422171  0.3195631012475773  0.3028909201992631   T   T   T
  0.6573319337135847  0.1945204827693632  0.3098080554715363   T   T   T
  0.7106284683279186  0.1301058600976352  0.3022995232806262   T   T   T
  0.8252849566256925  0.3662817552260100  0.3336089654760140   T   T   T
  0.7421744217491794  0.3770259471902682  0.3308787056237368   T   T   T
  0.7594914013550865  0.3957084687108566  0.2519928424361970   T   T   T
  0.7933499900551197  0.3232397256350283  0.2385014014996197   T   T   T
  0.5365006832374982  0.6774837561307346  0.0276978986965264   T   T   T
  0.7029210157549164  0.6774587261534663  0.0277258090318042   T   T   T
  0.8694270503778841  0.6774694573757307  0.0277064036079755   T   T   T
  0.5362326524586911  0.9274958396435692  0.0276896344960663   T   T   T
  0.7025622483560366  0.9274449284407645  0.0277114427716914   T   T   T
  0.8691442875771631  0.9275179693165087  0.0276796058228213   T   T   T
  0.6621323493657814  0.5264784243291913  0.0451098927889700   T   T   T
  0.8287911418254734  0.5264898882900607  0.0451067720409144   T   T   T
  0.9954097326284891  0.5265132084353011  0.0450790412826875   T   T   T
  0.6620036498679797  0.7765461862550085  0.0451261050069836   T   T   T
  0.8286258409513749  0.7765156435948467  0.0451044746042245   T   T   T
  0.9952235035883791  0.7764652888128117  0.0450762136724169   T   T   T
  0.9144570235297749  0.9014900965378856  0.2074120340786390   T   T   T
  0.9144382199376905  0.6515058930747024  0.2074279805008974   T   T   T
  0.5810458715494921  0.6514622120867514  0.2074458692143545   T   T   T
  0.7478405873444272  0.6516050889414627  0.2074705843111235   T   T   T
  0.5810546427423536  0.9015119861821210  0.2074632320611042   T   T   T
  0.7478500949238339  0.9014634265467344  0.2074612984398166   T   T   T
  0.5404518964500516  0.5532828259697856  0.2248575512992987   T   T   T
  0.7077474057394569  0.5541597624665527  0.2246410192001776   T   T   T
  0.8742140149284366  0.5533826843445970  0.2247927067470769   T   T   T
  0.5410512389219236  0.8025768455632346  0.2248806057070102   T   T   T
  0.7073794496302090  0.8028284099623836  0.2249279472360597   T   T   T
  0.8747534501767347  0.8023905643142873  0.2248118910652264   T   T   T
  0.0844038799170173  0.1657749751970974  0.0336587675778285   T   T   T
  0.2508638366339010  0.1658488286573788  0.0337101239131319   T   T   T
  0.4175705394603371  0.1658146021325898  0.0337201177379744   T   T   T
  0.0841318948141166  0.4158952222042263  0.0336876514976651   T   T   T
  0.2505638001533824  0.4160833559384745  0.0337199716594069   T   T   T
  0.4172550673276771  0.4160545522052445  0.0337174392740974   T   T   T
  0.1600527962547451  0.0410956788287404  0.2186585694794349   T   T   T
  0.3267259406761556  0.0411147079390847  0.2186632416789390   T   T   T
  0.4931359729209817  0.0410935872138005  0.2186756825656776   T   T   T
  0.1600275951968552  0.2910700391764817  0.2186638420446325   T   T   T
  0.3268916163418243  0.2912563514632849  0.2186435734189446   T   T   T
  0.4937799459355826  0.2913371716854261  0.2185553761833214   T   T   T
  0.0842825978904611  0.6657841068778041  0.0337191769372208   T   T   T
  0.2509250068321229  0.6658461056753333  0.0337230836263926   T   T   T
  0.4176346600343873  0.6658212352183492  0.0337349513943444   T   T   T
  0.0840130810325614  0.9156340758433302  0.0336284426385870   T   T   T
  0.2505884117601251  0.9158943882075130  0.0336712685551657   T   T   T
  0.4173658169113075  0.9158879077484754  0.0337072053911319   T   T   T
  0.1599415895620275  0.5410542113947003  0.2186856047765411   T   T   T
  0.3264937316818482  0.5410936965445609  0.2186768483777140   T   T   T
  0.4928429514529387  0.5410101899804470  0.2187318983562142   T   T   T
  0.1598009612525046  0.7910326387310023  0.2186769250124370   T   T   T
  0.3268742772046502  0.7912394799411288  0.2186427240940447   T   T   T
  0.4933442573385982  0.7910095696526818  0.2186941683012880   T   T   T
  0.5845031046919452  0.1657220493942068  0.0337407303365499   T   T   T
  0.7506879088130489  0.1661936637688352  0.0338995522501377   T   T   T
  0.9173098533284123  0.1656013614354954  0.0335831848462800   T   T   T
  0.5843503248124130  0.4158333451475944  0.0337449858169701   T   T   T
  0.7505366209174238  0.4159161277473950  0.0337601501292628   T   T   T
  0.9170571413362868  0.4160989766640609  0.0336912443361730   T   T   T
  0.6600886003058088  0.0410925818895913  0.2187829879323066   T   T   T
  0.8268417505542711  0.0410835276363403  0.2186954552298712   T   T   T
  0.9934712129007449  0.0412864659826196  0.2185901803422500   T   T   T
  0.6500822975861363  0.2911436064956005  0.2187738977377050   T   T   T
  0.8395319825351710  0.2915554972544491  0.2186926690334802   T   T   T
  0.9898457861065915  0.2887046155346034  0.2185265588024902   T   T   T
  0.7853717964265151  0.2798218193438021  0.2895505748572800   T   T   T
  0.6905429871754426  0.1792047704068297  0.2976228868414899   T   T   T
  0.7875556439154557  0.3773825962654621  0.3223960456103883   T   T   T
  0.7572129614625183  0.3401352905080034  0.2509061713255260   T   T   T
  0.5843881889304549  0.6657897031665888  0.0337384642593272   T   T   T
  0.7508455558763980  0.6658173482824715  0.0337403336670214   T   T   T
  0.9173824170345306  0.6659416791001320  0.0337223873782502   T   T   T
  0.5841072336342240  0.9159519079677805  0.0337666028960818   T   T   T
  0.7505043858706497  0.9160221340946569  0.0337523381876287   T   T   T
  0.9170898423751617  0.9160761676709150  0.0337167883835856   T   T   T
  0.6600480949684611  0.5412442654498892  0.2186894840297902   T   T   T
  0.8265668297309672  0.5410880228462310  0.2186850857704702   T   T   T
  0.9932546537137251  0.5411473925783428  0.2186674468891013   T   T   T
  0.6597555157961937  0.7909487742256047  0.2187382819702646   T   T   T
  0.8268979096441149  0.7913092228483497  0.2186425925769205   T   T   T
  0.9933195200595748  0.7910881869799801  0.2186582850011470   T   T   T
  0.2468646580645928  0.1217607988894539  0.0599256261118272   T   T   T
  0.4135303667018738  0.1217599690015262  0.0599425033979888   T   T   T
  0.0802163323219040  0.3718004839867298  0.0599178495411026   T   T   T
  0.2468584407306979  0.3718444442138634  0.0599229592245441   T   T   T
  0.4135442490677169  0.3718251187474846  0.0599251284091582   T   T   T
  0.0802091303318927  0.1217547962745556  0.0598949187787742   T   T   T
  0.4964831362374079  0.4985994994467183  0.1396793650608771   T   T   T
  0.1631960138527239  0.4985543190096284  0.1396619683784733   T   T   T
  0.3298124206383423  0.4985678404790204  0.1396674307496624   T   T   T
  0.4965109416057154  0.2485354493870377  0.1396638699133612   T   T   T
  0.1632559293792450  0.2484559043695585  0.1396378109250752   T   T   T
  0.3298151507696264  0.2484969604925209  0.1396547484139525   T   T   T
  0.0798937110545750  0.1230614536780372  0.1658405617591888   T   T   T
  0.2464910562280972  0.1231968712016165  0.1658901523792443   T   T   T
  0.4131196706028704  0.1231679766222741  0.1658935957186654   T   T   T
  0.0798954422024029  0.3732743049686280  0.1658824597765654   T   T   T
  0.2464740089012680  0.3732528759931630  0.1658824700582525   T   T   T
  0.4130970219489196  0.3732741590230935  0.1659016846812567   T   T   T
  0.1631670718003732  0.4966514928552275  0.1925413345913383   T   T   T
  0.3298071154143271  0.4966616006983297  0.1925365556845508   T   T   T
  0.4962836854192851  0.4969258408530786  0.1925323706997360   T   T   T
  0.1633298038941413  0.2467008327940818  0.1925311461615724   T   T   T
  0.4963298813497131  0.2465848292255987  0.1924893964749096   T   T   T
  0.3299330557436139  0.2466402355148284  0.1925103589899630   T   T   T
  0.4965786492056224  0.4982536993182819  0.0865997837883829   T   T   T
  0.1632497751348140  0.4982521816630460  0.0865881100975313   T   T   T
  0.3299410620458327  0.4982480501263522  0.0865901938205536   T   T   T
  0.4965284507210306  0.2482563226387954  0.0865927035070270   T   T   T
  0.1632238845118699  0.2482356787200752  0.0865730638431849   T   T   T
  0.3299040698632060  0.2482503610780662  0.0865836118136973   T   T   T
  0.0797682959336286  0.1234241480781569  0.1127725850117058   T   T   T
  0.2464357298536436  0.1234685495433700  0.1128235348410868   T   T   T
  0.4130998734530787  0.1235026095183099  0.1128248382358033   T   T   T
  0.0798886311180091  0.3735329083080354  0.1127998558382917   T   T   T
  0.2465340599383317  0.3735265151362386  0.1128290876175277   T   T   T
  0.4131724339957570  0.3735343661448149  0.1128174474639548   T   T   T
  0.2468925368817566  0.6217651173973012  0.0599364374574802   T   T   T
  0.4135565523800234  0.6217525579173435  0.0599509144550830   T   T   T
  0.0801780676102660  0.8716937603498925  0.0598922021130847   T   T   T
  0.2468695538814681  0.8717782506202846  0.0599016658171500   T   T   T
  0.4135611390663147  0.8717766960981634  0.0599329466901199   T   T   T
  0.0802223863430497  0.6217495162403698  0.0599416855636702   T   T   T
  0.4965227977127536  0.9984841811663744  0.1396546048300639   T   T   T
  0.1632772413142396  0.9984402941866863  0.1396128146274450   T   T   T
  0.3298395875858381  0.9985044082462357  0.1396375988240092   T   T   T
  0.4965259439414959  0.7485700661010019  0.1396782255078771   T   T   T
  0.1631817829520177  0.7485158480702516  0.1396497710053122   T   T   T
  0.3297815970359871  0.7485317192211298  0.1396513046048219   T   T   T
  0.0797797506671487  0.6233459293394694  0.1658972763433341   T   T   T
  0.2464045208943294  0.6232804058443125  0.1659159208944874   T   T   T
  0.4130308926366478  0.6233651025851692  0.1659037983856067   T   T   T
  0.0798085391468417  0.8732570377257810  0.1658687218633612   T   T   T
  0.2464632066218266  0.8732467471988038  0.1658729937716752   T   T   T
  0.4131245610048779  0.8732719015473491  0.1658915023790732   T   T   T
  0.1632280596803816  0.9965959907615536  0.1925064445453403   T   T   T
  0.3298998755959989  0.9966250856920364  0.1925161137472801   T   T   T
  0.4964903019830186  0.9966683914872342  0.1925337281946209   T   T   T
  0.1631989025499324  0.7466754115430025  0.1925228122703955   T   T   T
  0.4965412029999038  0.7466831123622181  0.1925366303627086   T   T   T
  0.3299143118242425  0.7466763543972927  0.1925067729401861   T   T   T
  0.4965686839783292  0.9982656350729604  0.0866021882921248   T   T   T
  0.1632424286283649  0.9981644847657103  0.0865538844786382   T   T   T
  0.3299461745867960  0.9982133446855620  0.0865755661888267   T   T   T
  0.4965771389947689  0.7482471192683766  0.0866060307366446   T   T   T
  0.1632416051661067  0.7482019698838100  0.0865752106096210   T   T   T
  0.3299324237725487  0.7482179675801529  0.0865787752189639   T   T   T
  0.0797750732514641  0.6235359010253005  0.1128192652893445   T   T   T
  0.2464488994919218  0.6234925513658139  0.1128410242121501   T   T   T
  0.4131060676976933  0.6235257584965533  0.1128300157887430   T   T   T
  0.0798958263350530  0.8734435912453168  0.1127768235263375   T   T   T
  0.2465460865267196  0.8734623626478361  0.1128091923274586   T   T   T
  0.4131968161933401  0.8735063559084768  0.1128139131678000   T   T   T
  0.7468341934051074  0.1218577234497634  0.0600697773444456   T   T   T
  0.9134891743125130  0.1218045081956557  0.0598686514378822   T   T   T
  0.5802762891329916  0.3717828016373411  0.0599666293569394   T   T   T
  0.7468713616636832  0.3717815815610529  0.0599743840581011   T   T   T
  0.9134935019307235  0.3718846516315252  0.0599011048885099   T   T   T
  0.5802285412372319  0.1217731524410582  0.0599748845940634   T   T   T
  0.9965202026865996  0.4985856335712681  0.1396541419192211   T   T   T
  0.6631404517456529  0.4985616856093514  0.1396878411165631   T   T   T
  0.8298422411367806  0.4985513362478728  0.1396787093714913   T   T   T
  0.9965586660975841  0.2483603251569350  0.1395550824375412   T   T   T
  0.6630214755688602  0.2486143155091783  0.1397954173751806   T   T   T
  0.8299803602685409  0.2484325117442818  0.1396707544278075   T   T   T
  0.5796682443448806  0.1231544506132258  0.1658689036784966   T   T   T
  0.7464411262632442  0.1241349497817490  0.1662766044977987   T   T   T
  0.9133273626937768  0.1225792596738476  0.1656553603319031   T   T   T
  0.5796128060870932  0.3734903823482985  0.1659429669960792   T   T   T
  0.7463569329833191  0.3732090637003107  0.1659462640742542   T   T   T
  0.9132801224233372  0.3734671389674820  0.1658739409398384   T   T   T
  0.6630267323324427  0.4969034265948982  0.1925329964688453   T   T   T
  0.8298584083146743  0.4968074835501581  0.1925266543617247   T   T   T
  0.9965793309118081  0.4968651718715211  0.1925094429731476   T   T   T
  0.6620399054372993  0.2475080553877177  0.1929138308817039   T   T   T
  0.9966034565766810  0.2457508411666803  0.1921293716267559   T   T   T
  0.8311874809106770  0.2464636042495440  0.1923430543255448   T   T   T
  0.9965989260608945  0.4982458596485257  0.0865858182408717   T   T   T
  0.6632923273675098  0.4982510333516705  0.0866067136376464   T   T   T
  0.8299157987356441  0.4982545373208270  0.0866060781861155   T   T   T
  0.9965811921317699  0.2482115635412012  0.0865458374399443   T   T   T
  0.6632193907639358  0.2482912985418791  0.0866763765737461   T   T   T
  0.8298809232644127  0.2482774874522189  0.0866176252680758   T   T   T
  0.5797732053960573  0.1235468294026513  0.1128548048220400   T   T   T
  0.7464297646861504  0.1235805819309778  0.1129500491126523   T   T   T
  0.9131246524046306  0.1234407486751484  0.1127601447285489   T   T   T