C H O Si                                
   1.00000000000000     
     9.2874599999999994    0.0000000000000000    0.0000000000000000
     0.0000000000000000   17.5126199999999983    0.0000000000000000
     0.0000000000000000    0.0000000000000000   58.0000000000000000
   C    H    O    Si
    72    57    28    72
Selective dynamics
Direct
  0.9957116243817273  0.0649072155938980  0.0595601660368815   T   T   T
  0.3291448250377050  0.0649666535024876  0.0596311265880186   T   T   T
  0.6624201185634163  0.0649687232987628  0.0596383576561039   T   T   T
  0.9957675346295524  0.3149917244809719  0.0595593113231039   T   T   T
  0.3291099836338230  0.3148947504425801  0.0595769874939555   T   T   T
  0.6625397364600302  0.3148908111721406  0.0596019725460673   T   T   T
  0.1631070417845428  0.1875588887051588  0.1384977142283012   T   T   T
  0.4964188571791453  0.1878004504077651  0.1387068925036511   T   T   T
  0.8299378993023803  0.1875844522402602  0.1384878273995552   T   T   T
  0.1630484875007168  0.4377569757436431  0.1385030658450661   T   T   T
  0.4964360165976615  0.4378782933077922  0.1381641077324880   T   T   T
  0.8299298718027246  0.4376836570295859  0.1385454055677733   T   T   T
  0.3306607858242471  0.0629413418778064  0.1657677107248374   T   T   T
  0.6630754537623056  0.0630099364128314  0.1657535379398792   T   T   T
  0.9968975582123355  0.0624646797824304  0.1655781769188551   T   T   T
  0.3293583912266206  0.3129612249996482  0.1655838000854905   T   T   T
  0.6639660011578984  0.3128129570205399  0.1656754846963052   T   T   T
  0.9967701608203058  0.3128374556191251  0.1656038713109805   T   T   T
  0.1644243048876660  0.1895580939201038  0.1908353266563910   T   T   T
  0.4969582708373519  0.1917961418089211  0.1916261502171839   T   T   T
  0.8311157187640295  0.1893850114342396  0.1907963001596670   T   T   T
  0.1628054150702237  0.4400086010089067  0.1910874823367476   T   T   T
  0.4972126663884949  0.4462428579462243  0.1881235178040253   T   T   T
  0.8316180996624127  0.4399198118062317  0.1911264206036165   T   T   T
  0.1625804743897754  0.1876582811371846  0.0849812586319227   T   T   T
  0.4958548028514784  0.1877098498479308  0.0850954518593454   T   T   T
  0.8293342730213762  0.1876772694156974  0.0849796888971444   T   T   T
  0.1626432136605570  0.4377514850096893  0.0849816608347422   T   T   T
  0.4959030235743413  0.4377335097323262  0.0848828611193659   T   T   T
  0.8292972909827245  0.4377460623226932  0.0849954686965189   T   T   T
  0.3295683997060075  0.0626192821876582  0.1121892724596322   T   T   T
  0.6628665059376734  0.0626310947908040  0.1121926158551999   T   T   T
  0.9961171518388912  0.0625259037633142  0.1121191957674008   T   T   T
  0.3293333159221781  0.3125272374053554  0.1120993237844033   T   T   T
  0.6630083394756608  0.3125475793962347  0.1121294881587766   T   T   T
  0.9961196380872667  0.3126216866686979  0.1121001902395793   T   T   T
  0.9957106135140551  0.5650647019495530  0.0595872031671135   T   T   T
  0.3290525122019753  0.5650675282570182  0.0595894258087110   T   T   T
  0.6624433541533714  0.5650426630835761  0.0595991749298998   T   T   T
  0.9957643406800490  0.8150261461012396  0.0596182049662394   T   T   T
  0.3291837378831266  0.8149409852713859  0.0596378755161047   T   T   T
  0.6624727644778418  0.8149443326543205  0.0596429566250087   T   T   T
  0.1632750520299872  0.6876354189498206  0.1385583097217926   T   T   T
  0.4964714771825185  0.6875771709666894  0.1386091150115178   T   T   T
  0.8297503587474795  0.6876149708300633  0.1385527262248548   T   T   T
  0.1634187678207032  0.9376349931117920  0.1385726666407860   T   T   T
  0.4964618277577305  0.9375831872341306  0.1385864090090380   T   T   T
  0.8296439612258593  0.9376519203906061  0.1385807076945493   T   T   T
  0.3299690176646187  0.5629768546293374  0.1656088192068648   T   T   T
  0.6635725125385588  0.5628442133485235  0.1656071175538370   T   T   T
  0.9967229235816073  0.5628694572599406  0.1656504602136325   T   T   T
  0.3300862158415922  0.8127413385537989  0.1657241250443565   T   T   T
  0.6634475950502523  0.8127269076978370  0.1657216388213659   T   T   T
  0.9966487468082104  0.8128116475479824  0.1657205159526098   T   T   T
  0.1638275480778790  0.6900058711690694  0.1911303142496224   T   T   T
  0.4972554461654048  0.6899973142838137  0.1911935935165135   T   T   T
  0.8306625399770777  0.6899677123540535  0.1911133452326888   T   T   T
  0.1638465446747654  0.9400267317751647  0.1911007369363046   T   T   T
  0.4972027675495764  0.9399922535834374  0.1911160078844593   T   T   T
  0.8304491470638505  0.9401280773783024  0.1911088845882310   T   T   T
  0.1626573925873627  0.6877720812552056  0.0850377287260923   T   T   T
  0.4959125048417612  0.6877227755423473  0.0850646850800773   T   T   T
  0.8293360228224058  0.6877848152239144  0.0850269705703720   T   T   T
  0.1627342191603168  0.9377015148235625  0.0850298255186516   T   T   T
  0.4959314539319729  0.9377176600424399  0.0850441519025794   T   T   T
  0.8292887637099247  0.9377203802932214  0.0850283318778650   T   T   T
  0.3295073149774150  0.5626457318750961  0.1121147363582387   T   T   T
  0.6629837453293914  0.5626234816116212  0.1121238632602023   T   T   T
  0.9961275424013377  0.5626361640409628  0.1121288249034525   T   T   T
  0.3295631555069264  0.8125690268434392  0.1121789490114750   T   T   T
  0.6628800516655110  0.8125763039020480  0.1121834600204177   T   T   T
  0.9960965896999047  0.8126181070081757  0.1121814697259638   T   T   T
  0.0814408540854686  0.1778332510854368  0.0252882642274032   T   T   T
  0.4143233532360584  0.1779070916935930  0.0254407550394826   T   T   T
  0.7472342663477084  0.1777879534542988  0.0253558512424723   T   T   T
  0.0816933671243076  0.4279186062213576  0.0252636165981080   T   T   T
  0.4144741932111419  0.4277493418069292  0.0252497851624948   T   T   T
  0.7471294269655792  0.4277390115673761  0.0253524733981448   T   T   T
  0.3272077595544734  0.0288608939246425  0.0440760467313332   T   T   T
  0.6599587009494409  0.0288692451578577  0.0440822710707682   T   T   T
  0.9935125208641898  0.0288514917116367  0.0439953644541668   T   T   T
  0.3267096876141447  0.2787635188819163  0.0440297492417630   T   T   T
  0.6605423205208578  0.2787188239758775  0.0440597547363437   T   T   T
  0.9935903821840180  0.2789108782602512  0.0440006181346436   T   T   T
  0.8342556440999292  0.4043267078742561  0.2067551259694146   T   T   T
  0.8334948403997974  0.1534476391394064  0.2063830553034909   T   T   T
  0.1662011892468326  0.1538169116804160  0.2064645812642389   T   T   T
  0.4989481399423124  0.1553192246578923  0.2071053188409575   T   T   T
  0.1654790730434151  0.4039655522368878  0.2066269987220049   T   T   T
  0.5405169765150140  0.4634614564380679  0.2609466093975282   T   T   T
  0.0792240846002013  0.0535460940963170  0.2251864703742828   T   T   T
  0.4125878477768208  0.0535031622096722  0.2252494587836678   T   T   T
  0.7445438018135491  0.0535831557394624  0.2253863080499172   T   T   T
  0.0825737539057677  0.3039953531294445  0.2241721831080120   T   T   T
  0.3689540235985675  0.2861341146388308  0.2302118722714573   T   T   T
  0.7740397126325989  0.3000483977946255  0.2232305189550878   T   T   T
  0.4894830083556714  0.2706081320793169  0.2660542876502013   T   T   T
  0.4692060602389502  0.2282278691791532  0.3002530397669481   T   T   T
  0.5176037468933440  0.3129990113134696  0.3077872837556030   T   T   T
  0.2890113338163334  0.1362280190146349  0.2957032863029390   T   T   T
  0.4378333693923487  0.1085153305912670  0.2871216508436513   T   T   T
  0.6379179475964050  0.3855364765299486  0.3348260399448214   T   T   T
  0.5039373709970891  0.4324407546237453  0.3274801826042981   T   T   T
  0.5025418202040663  0.4373026789310427  0.2692179437412865   T   T   T
  0.5634464201568247  0.2686234988206162  0.2411902765482616   T   T   T
  0.0812120561877494  0.6779777327610216  0.0253228492147950   T   T   T
  0.4143713310047630  0.6779835645688984  0.0253864643931652   T   T   T
  0.7474391468969228  0.6779326848579269  0.0253634794629291   T   T   T
  0.0816548800864117  0.9278750823021173  0.0253021457495673   T   T   T
  0.4143603540279437  0.9278070186523595  0.0253739277807975   T   T   T
  0.7471429236815319  0.9277759780283450  0.0253932753821241   T   T   T
  0.3269202346960450  0.5290125222346316  0.0440214633382839   T   T   T
  0.6602494601626974  0.5290082683325594  0.0440258877649306   T   T   T
  0.9935521246729003  0.5290188637360795  0.0440182502564298   T   T   T
  0.3270491707111123  0.7788233120659301  0.0440871229157567   T   T   T
  0.6602167261075567  0.7788274575294950  0.0440906406729827   T   T   T
  0.9936135031605244  0.7788681595555497  0.0440744376542424   T   T   T
  0.8326154648289047  0.9040599806723705  0.2066682350596772   T   T   T
  0.8330667666985505  0.6539171139627608  0.2066789288331473   T   T   T
  0.1656909804520121  0.6540407266944526  0.2067092238302730   T   T   T
  0.4993823330179472  0.6541136189894824  0.2067979806835879   T   T   T
  0.1660381231507186  0.9039562623900697  0.2066542896799780   T   T   T
  0.4995484764652640  0.9039295122277777  0.2066769182751078   T   T   T
  0.0775278437480793  0.5527614443170544  0.2256524461902495   T   T   T
  0.4139599001174112  0.5521037727327149  0.2254567915886538   T   T   T
  0.7426491569165200  0.5516601279830436  0.2261151057148418   T   T   T
  0.0786254846341069  0.8029192061283511  0.2254081736199877   T   T   T
  0.4105789123121206  0.8032396202160778  0.2255191194330497   T   T   T
  0.7475169890396899  0.8024349284822129  0.2252917638397071   T   T   T
  0.1721070005090397  0.1705218535523344  0.0335212360872667   T   T   T
  0.5051620887072276  0.1707859858924006  0.0336386344433656   T   T   T
  0.8381944389162704  0.1705613189998936  0.0335243335874208   T   T   T
  0.1722929436543079  0.4205105929508361  0.0335057920954137   T   T   T
  0.5053734979700794  0.4201711815862628  0.0334029231791683   T   T   T
  0.8380875713494326  0.4206069547926182  0.0335327633132697   T   T   T
  0.3212205135879784  0.0450426117521076  0.2173063907010858   T   T   T
  0.6537627961209258  0.0452670697059368  0.2172639808148879   T   T   T
  0.9881134122790747  0.0455914705733759  0.2171260780051582   T   T   T
  0.3143949610034080  0.3032600292874239  0.2159779648816952   T   T   T
  0.6751370544491802  0.2965545518445125  0.2172663015589139   T   T   T
  0.9886180598206565  0.2938738290942873  0.2171013649913159   T   T   T
  0.5209476501301893  0.2747483889285161  0.2951817698767881   T   T   T
  0.3901684347390184  0.1331789543261533  0.3001163959722864   T   T   T
  0.5365231060061185  0.3806455913555945  0.3307289944615853   T   T   T
  0.4759299159614540  0.2536978984599403  0.2497664865389826   T   T   T
  0.1718735598586246  0.6707908647135823  0.0335718012509364   T   T   T
  0.5051424099131014  0.6708175493935938  0.0336064945296906   T   T   T
  0.8382930263925502  0.6707573031079971  0.0335630583632868   T   T   T
  0.1723069073006756  0.9203876409542749  0.0335309151106383   T   T   T
  0.5052771810879138  0.9204661285320466  0.0335529290331675   T   T   T
  0.8381615186300242  0.9205280936898556  0.0335510915603907   T   T   T
  0.3222688235284313  0.5440902562764380  0.2175603201179322   T   T   T
  0.6535221890159352  0.5446799536105963  0.2174200853534680   T   T   T
  0.9878045781079735  0.5459370874989213  0.2171293480467970   T   T   T
  0.3202608855338805  0.7951703586819806  0.2172508116884338   T   T   T
  0.6559916257007173  0.7952176684909551  0.2172795209300817   T   T   T
  0.9876809170095884  0.7951206471509473  0.2172790296342480   T   T   T
  0.4958174164828629  0.1238154438124842  0.0587819678327388   T   T   T
  0.8291055439717333  0.1237455479952344  0.0586891535194649   T   T   T
  0.1625234076838999  0.3737688437715608  0.0586739524772220   T   T   T
  0.4958465774754169  0.3736129334414949  0.0586000648155220   T   T   T
  0.8291349948764493  0.3737798160503311  0.0586896593298143   T   T   T
  0.1624486238329680  0.1237219959973976  0.0586872321941835   T   T   T
  0.9965596745940122  0.0002787202489749  0.1388047537030068   T   T   T
  0.3301429135923200  0.0005328669950607  0.1389028335278822   T   T   T
  0.6629071196077656  0.0005372372145096  0.1389029201923128   T   T   T
  0.9965423665126161  0.2503400781721276  0.1387494064908354   T   T   T
  0.3295029735508578  0.2503174644978156  0.1387930271377932   T   T   T
  0.6633297742731538  0.2502319571301043  0.1387937481747610   T   T   T
  0.1635279938892555  0.1248387557330752  0.1651820490494357   T   T   T
  0.4966274559782063  0.1259138542467444  0.1655979160027307   T   T   T
  0.8302727715011917  0.1246949546908739  0.1651228248981783   T   T   T
  0.1630966618199453  0.3753633425536018  0.1651706578307626   T   T   T
  0.4964789717701096  0.3739477902271844  0.1648976270549403   T   T   T
  0.8302825061692768  0.3752329954651761  0.1652212422348051   T   T   T
  0.3279584146870307  0.4988963117086039  0.1922516939705462   T   T   T
  0.6663843214463601  0.4988968014160033  0.1922795530203720   T   T   T
  0.9972502707079969  0.4993224005489265  0.1919868311370758   T   T   T
  0.3288515743967770  0.2506759848089414  0.1922242134782359   T   T   T
  0.9976634923209866  0.2479686661093280  0.1916918821208937   T   T   T
  0.6657502817350675  0.2490966061480504  0.1920041572206287   T   T   T
  0.9960237990919251  0.0001163331895726  0.0854058816264939   T   T   T
  0.3294022872566371  0.0001591154324980  0.0854603010529071   T   T   T
  0.6626687804790884  0.0001688437289728  0.0854646083334093   T   T   T
  0.9959808843350325  0.2501065812713215  0.0853785130809972   T   T   T
  0.3291769922010558  0.2500275847685416  0.0853971553961456   T   T   T
  0.6627463007823888  0.2500256667156345  0.0854172691811858   T   T   T
  0.1627449874388075  0.1253702119036996  0.1118272357752649   T   T   T
  0.4961000663847963  0.1254528774865527  0.1119676246513631   T   T   T
  0.8295047743809474  0.1253742647630246  0.1118196957505417   T   T   T
  0.1627398199992529  0.3754230619820085  0.1118064095557777   T   T   T
  0.4960267163319231  0.3750133857762205  0.1116061947481698   T   T   T
  0.8294921852865013  0.3754118624296297  0.1118246219836223   T   T   T
  0.4958037606714546  0.6238649036615409  0.0587433029240864   T   T   T
  0.8291187254030845  0.6239062106293806  0.0587133768216639   T   T   T
  0.1625707348024155  0.8737744669010837  0.0587233136306496   T   T   T
  0.4958609224111172  0.8737834842591007  0.0587394181235713   T   T   T
  0.8290839344079189  0.8738022596636801  0.0587271324507893   T   T   T
  0.1624249763985708  0.6238973959000641  0.0587148845297001   T   T   T
  0.9964836847780101  0.5004957857765262  0.1387889660729808   T   T   T
  0.3295369998293788  0.5003885184800911  0.1387753964456028   T   T   T
  0.6634400764030508  0.5003398488463400  0.1387768725918958   T   T   T
  0.9965000503779432  0.7505804783862551  0.1388862054889235   T   T   T
  0.3298624705542887  0.7504869889183575  0.1388837883729994   T   T   T
  0.6631370391434022  0.7504768777812807  0.1388859398653265   T   T   T
  0.1625426394636557  0.6254471779711944  0.1652992067950739   T   T   T
  0.4967308662362684  0.6252261633727448  0.1653724910530311   T   T   T
  0.8308506611716856  0.6254048540425834  0.1653002736993081   T   T   T
  0.1633825465914464  0.8752038643276792  0.1652901522734377   T   T   T
  0.4966712476432363  0.8751422560624096  0.1653089974992267   T   T   T
  0.8298572394427369  0.8752182678303835  0.1653052999371445   T   T   T
  0.3304448895465976  0.9988021043248076  0.1920372393923573   T   T   T
  0.6636595527479033  0.9988983329038856  0.1920309060701927   T   T   T
  0.9971552828334366  0.9988420617373652  0.1919460098779198   T   T   T
  0.3304121883607067  0.7488542832993819  0.1920290696245520   T   T   T
  0.9971135754722716  0.7489248338034332  0.1920277594281070   T   T   T
  0.6639711643869186  0.7488622341090413  0.1920405306836256   T   T   T
  0.9959875890325135  0.5001718287372402  0.0853956117325470   T   T   T
  0.3292398524575728  0.5001377021070147  0.0853742930573518   T   T   T
  0.6627069341327799  0.5001154155852747  0.0853799024437110   T   T   T
  0.9960026596403668  0.7502191258873244  0.0854508807515347   T   T   T
  0.3293326497984678  0.7501576848116476  0.0854664288623322   T   T   T
  0.6626967990206344  0.7501651821251770  0.0854687093199634   T   T   T
  0.1627205541484479  0.6254539081846979  0.1118533951340589   T   T   T
  0.4961727903175462  0.6254076798485764  0.1118979054595685   T   T   T
  0.8295675607157473  0.6254568026242721  0.1118499507290598   T   T   T
  0.1629400322864741  0.8754968322379758  0.1118902547881743   T   T   T
  0.4961266275473573  0.8754682690791877  0.1118960614241091   T   T   T
  0.8292932463588975  0.8755188532052328  0.1118983943093935   T   T   T
 
  0.00000000E+00  0.00000000E+00  0.00000000E+00
  0.00000000E+00  0.00000000E+00  0.00000000E+00
  0.00000000E+00  0.00000000E+00  0.00000000E+00
  0.00000000E+00  0.00000000E+00  0.00000000E+00
  0.00000000E+00  0.00000000E+00  0.00000000E+00
  0.00000000E+00  0.00000000E+00  0.00000000E+00
  0.00000000E+00  0.00000000E+00  0.00000000E+00
  0.00000000E+00  0.00000000E+00  0.00000000E+00
  0.00000000E+00  0.00000000E+00  0.00000000E+00
  0.00000000E+00  0.00000000E+00  0.00000000E+00
  0.00000000E+00  0.00000000E+00  0.00000000E+00
  0.00000000E+00  0.00000000E+00  0.00000000E+00
  0.00000000E+00  0.00000000E+00  0.00000000E+00
  0.00000000E+00  0.00000000E+00  0.00000000E+00
  0.00000000E+00  0.00000000E+00  0.00000000E+00
  0.00000000E+00  0.00000000E+00  0.00000000E+00
  0.00000000E+00  0.00000000E+00  0.00000000E+00
  0.00000000E+00  0.00000000E+00  0.00000000E+00
  0.00000000E+00  0.00000000E+00  0.00000000E+00
  0.00000000E+00  0.00000000E+00  0.00000000E+00
  0.00000000E+00  0.00000000E+00  0.00000000E+00
  0.00000000E+00  0.00000000E+00  0.00000000E+00
  0.00000000E+00  0.00000000E+00  0.00000000E+00
  0.00000000E+00  0.00000000E+00  0.00000000E+00
  0.00000000E+00  0.00000000E+00  0.00000000E+00
  0.00000000E+00  0.00000000E+00  0.00000000E+00
  0.00000000E+00  0.00000000E+00  0.00000000E+00
  0.00000000E+00  0.00000000E+00  0.00000000E+00
  0.00000000E+00  0.00000000E+00  0.00000000E+00
  0.00000000E+00  0.00000000E+00  0.00000000E+00
  0.00000000E+00  0.00000000E+00  0.00000000E+00
  0.00000000E+00  0.00000000E+00  0.00000000E+00
  0.00000000E+00  0.00000000E+00  0.00000000E+00
  0.00000000E+00  0.00000000E+00  0.00000000E+00
  0.00000000E+00  0.00000000E+00  0.00000000E+00
  0.00000000E+00  0.00000000E+00  0.00000000E+00
  0.00000000E+00  0.00000000E+00  0.00000000E+00
  0.00000000E+00  0.00000000E+00  0.00000000E+00
  0.00000000E+00  0.00000000E+00  0.00000000E+00
  0.00000000E+00  0.00000000E+00  0.00000000E+00
  0.00000000E+00  0.00000000E+00  0.00000000E+00
  0.00000000E+00  0.00000000E+00  0.00000000E+00
  0.00000000E+00  0.00000000E+00  0.00000000E+00
  0.00000000E+00  0.00000000E+00  0.00000000E+00
  0.00000000E+00  0.00000000E+00  0.00000000E+00
  0.00000000E+00  0.00000000E+00  0.00000000E+00
  0.00000000E+00  0.00000000E+00  0.00000000E+00
  0.00000000E+00  0.00000000E+00  0.00000000E+00
  0.00000000E+00  0.00000000E+00  0.00000000E+00
  0.00000000E+00  0.00000000E+00  0.00000000E+00
  0.00000000E+00  0.00000000E+00  0.00000000E+00
  0.00000000E+00  0.00000000E+00  0.00000000E+00
  0.00000000E+00  0.00000000E+00  0.00000000E+00
  0.00000000E+00  0.00000000E+00  0.00000000E+00
  0.00000000E+00  0.00000000E+00  0.00000000E+00
  0.00000000E+00  0.00000000E+00  0.00000000E+00
  0.00000000E+00  0.00000000E+00  0.00000000E+00
  0.00000000E+00  0.00000000E+00  0.00000000E+00
  0.00000000E+00  0.00000000E+00  0.00000000E+00
  0.00000000E+00  0.00000000E+00  0.00000000E+00
  0.00000000E+00  0.00000000E+00  0.00000000E+00
  0.00000000E+00  0.00000000E+00  0.00000000E+00
  0.00000000E+00  0.00000000E+00  0.00000000E+00
  0.00000000E+00  0.00000000E+00  0.00000000E+00
  0.00000000E+00  0.00000000E+00  0.00000000E+00
  0.00000000E+00  0.00000000E+00  0.00000000E+00
  0.00000000E+00  0.00000000E+00  0.00000000E+00
  0.00000000E+00  0.00000000E+00  0.00000000E+00
  0.00000000E+00  0.00000000E+00  0.00000000E+00
  0.00000000E+00  0.00000000E+00  0.00000000E+00
  0.00000000E+00  0.00000000E+00  0.00000000E+00
  0.00000000E+00  0.00000000E+00  0.00000000E+00
  0.00000000E+00  0.00000000E+00  0.00000000E+00
  0.00000000E+00  0.00000000E+00  0.00000000E+00
  0.00000000E+00  0.00000000E+00  0.00000000E+00
  0.00000000E+00  0.00000000E+00  0.00000000E+00
  0.00000000E+00  0.00000000E+00  0.00000000E+00
  0.00000000E+00  0.00000000E+00  0.00000000E+00
  0.00000000E+00  0.00000000E+00  0.00000000E+00
  0.00000000E+00  0.00000000E+00  0.00000000E+00
  0.00000000E+00  0.00000000E+00  0.00000000E+00
  0.00000000E+00  0.00000000E+00  0.00000000E+00
  0.00000000E+00  0.00000000E+00  0.00000000E+00
  0.00000000E+00  0.00000000E+00  0.00000000E+00
  0.00000000E+00  0.00000000E+00  0.00000000E+00
  0.00000000E+00  0.00000000E+00  0.00000000E+00
  0.00000000E+00  0.00000000E+00  0.00000000E+00
  0.00000000E+00  0.00000000E+00  0.00000000E+00
  0.00000000E+00  0.00000000E+00  0.00000000E+00
  0.00000000E+00  0.00000000E+00  0.00000000E+00
  0.00000000E+00  0.00000000E+00  0.00000000E+00
  0.00000000E+00  0.00000000E+00  0.00000000E+00
  0.00000000E+00  0.00000000E+00  0.00000000E+00
  0.00000000E+00  0.00000000E+00  0.00000000E+00
  0.00000000E+00  0.00000000E+00  0.00000000E+00
  0.00000000E+00  0.00000000E+00  0.00000000E+00
  0.00000000E+00  0.00000000E+00  0.00000000E+00
  0.00000000E+00  0.00000000E+00  0.00000000E+00
  0.00000000E+00  0.00000000E+00  0.00000000E+00
  0.00000000E+00  0.00000000E+00  0.00000000E+00
  0.00000000E+00  0.00000000E+00  0.00000000E+00
  0.00000000E+00  0.00000000E+00  0.00000000E+00
  0.00000000E+00  0.00000000E+00  0.00000000E+00
  0.00000000E+00  0.00000000E+00  0.00000000E+00
  0.00000000E+00  0.00000000E+00  0.00000000E+00
  0.00000000E+00  0.00000000E+00  0.00000000E+00
  0.00000000E+00  0.00000000E+00  0.00000000E+00
  0.00000000E+00  0.00000000E+00  0.00000000E+00
  0.00000000E+00  0.00000000E+00  0.00000000E+00
  0.00000000E+00  0.00000000E+00  0.00000000E+00
  0.00000000E+00  0.00000000E+00  0.00000000E+00
  0.00000000E+00  0.00000000E+00  0.00000000E+00
  0.00000000E+00  0.00000000E+00  0.00000000E+00
  0.00000000E+00  0.00000000E+00  0.00000000E+00
  0.00000000E+00  0.00000000E+00  0.00000000E+00
  0.00000000E+00  0.00000000E+00  0.00000000E+00
  0.00000000E+00  0.00000000E+00  0.00000000E+00
  0.00000000E+00  0.00000000E+00  0.00000000E+00
  0.00000000E+00  0.00000000E+00  0.00000000E+00
  0.00000000E+00  0.00000000E+00  0.00000000E+00
  0.00000000E+00  0.00000000E+00  0.00000000E+00
  0.00000000E+00  0.00000000E+00  0.00000000E+00
  0.00000000E+00  0.00000000E+00  0.00000000E+00
  0.00000000E+00  0.00000000E+00  0.00000000E+00
  0.00000000E+00  0.00000000E+00  0.00000000E+00
  0.00000000E+00  0.00000000E+00  0.00000000E+00
  0.00000000E+00  0.00000000E+00  0.00000000E+00
  0.00000000E+00  0.00000000E+00  0.00000000E+00
  0.00000000E+00  0.00000000E+00  0.00000000E+00
  0.00000000E+00  0.00000000E+00  0.00000000E+00
  0.00000000E+00  0.00000000E+00  0.00000000E+00
  0.00000000E+00  0.00000000E+00  0.00000000E+00
  0.00000000E+00  0.00000000E+00  0.00000000E+00
  0.00000000E+00  0.00000000E+00  0.00000000E+00
  0.00000000E+00  0.00000000E+00  0.00000000E+00
  0.00000000E+00  0.00000000E+00  0.00000000E+00
  0.00000000E+00  0.00000000E+00  0.00000000E+00
  0.00000000E+00  0.00000000E+00  0.00000000E+00
  0.00000000E+00  0.00000000E+00  0.00000000E+00
  0.00000000E+00  0.00000000E+00  0.00000000E+00
  0.00000000E+00  0.00000000E+00  0.00000000E+00
  0.00000000E+00  0.00000000E+00  0.00000000E+00
  0.00000000E+00  0.00000000E+00  0.00000000E+00
  0.00000000E+00  0.00000000E+00  0.00000000E+00
  0.00000000E+00  0.00000000E+00  0.00000000E+00
  0.00000000E+00  0.00000000E+00  0.00000000E+00
  0.00000000E+00  0.00000000E+00  0.00000000E+00
  0.00000000E+00  0.00000000E+00  0.00000000E+00
  0.00000000E+00  0.00000000E+00  0.00000000E+00
  0.00000000E+00  0.00000000E+00  0.00000000E+00
  0.00000000E+00  0.00000000E+00  0.00000000E+00
  0.00000000E+00  0.00000000E+00  0.00000000E+00
  0.00000000E+00  0.00000000E+00  0.00000000E+00
  0.00000000E+00  0.00000000E+00  0.00000000E+00
  0.00000000E+00  0.00000000E+00  0.00000000E+00
  0.00000000E+00  0.00000000E+00  0.00000000E+00
  0.00000000E+00  0.00000000E+00  0.00000000E+00
  0.00000000E+00  0.00000000E+00  0.00000000E+00
  0.00000000E+00  0.00000000E+00  0.00000000E+00
  0.00000000E+00  0.00000000E+00  0.00000000E+00
  0.00000000E+00  0.00000000E+00  0.00000000E+00
  0.00000000E+00  0.00000000E+00  0.00000000E+00
  0.00000000E+00  0.00000000E+00  0.00000000E+00
  0.00000000E+00  0.00000000E+00  0.00000000E+00
  0.00000000E+00  0.00000000E+00  0.00000000E+00
  0.00000000E+00  0.00000000E+00  0.00000000E+00
  0.00000000E+00  0.00000000E+00  0.00000000E+00
  0.00000000E+00  0.00000000E+00  0.00000000E+00
  0.00000000E+00  0.00000000E+00  0.00000000E+00
  0.00000000E+00  0.00000000E+00  0.00000000E+00
  0.00000000E+00  0.00000000E+00  0.00000000E+00
  0.00000000E+00  0.00000000E+00  0.00000000E+00
  0.00000000E+00  0.00000000E+00  0.00000000E+00
  0.00000000E+00  0.00000000E+00  0.00000000E+00
  0.00000000E+00  0.00000000E+00  0.00000000E+00
  0.00000000E+00  0.00000000E+00  0.00000000E+00
  0.00000000E+00  0.00000000E+00  0.00000000E+00
  0.00000000E+00  0.00000000E+00  0.00000000E+00
  0.00000000E+00  0.00000000E+00  0.00000000E+00
  0.00000000E+00  0.00000000E+00  0.00000000E+00
  0.00000000E+00  0.00000000E+00  0.00000000E+00
  0.00000000E+00  0.00000000E+00  0.00000000E+00
  0.00000000E+00  0.00000000E+00  0.00000000E+00
  0.00000000E+00  0.00000000E+00  0.00000000E+00
  0.00000000E+00  0.00000000E+00  0.00000000E+00
  0.00000000E+00  0.00000000E+00  0.00000000E+00
  0.00000000E+00  0.00000000E+00  0.00000000E+00
  0.00000000E+00  0.00000000E+00  0.00000000E+00
  0.00000000E+00  0.00000000E+00  0.00000000E+00
  0.00000000E+00  0.00000000E+00  0.00000000E+00
  0.00000000E+00  0.00000000E+00  0.00000000E+00
  0.00000000E+00  0.00000000E+00  0.00000000E+00
  0.00000000E+00  0.00000000E+00  0.00000000E+00
  0.00000000E+00  0.00000000E+00  0.00000000E+00
  0.00000000E+00  0.00000000E+00  0.00000000E+00
  0.00000000E+00  0.00000000E+00  0.00000000E+00
  0.00000000E+00  0.00000000E+00  0.00000000E+00
  0.00000000E+00  0.00000000E+00  0.00000000E+00
  0.00000000E+00  0.00000000E+00  0.00000000E+00
  0.00000000E+00  0.00000000E+00  0.00000000E+00
  0.00000000E+00  0.00000000E+00  0.00000000E+00
  0.00000000E+00  0.00000000E+00  0.00000000E+00
  0.00000000E+00  0.00000000E+00  0.00000000E+00
  0.00000000E+00  0.00000000E+00  0.00000000E+00
  0.00000000E+00  0.00000000E+00  0.00000000E+00
  0.00000000E+00  0.00000000E+00  0.00000000E+00
  0.00000000E+00  0.00000000E+00  0.00000000E+00
  0.00000000E+00  0.00000000E+00  0.00000000E+00
  0.00000000E+00  0.00000000E+00  0.00000000E+00
  0.00000000E+00  0.00000000E+00  0.00000000E+00
  0.00000000E+00  0.00000000E+00  0.00000000E+00
  0.00000000E+00  0.00000000E+00  0.00000000E+00
  0.00000000E+00  0.00000000E+00  0.00000000E+00
  0.00000000E+00  0.00000000E+00  0.00000000E+00
  0.00000000E+00  0.00000000E+00  0.00000000E+00
  0.00000000E+00  0.00000000E+00  0.00000000E+00
  0.00000000E+00  0.00000000E+00  0.00000000E+00
  0.00000000E+00  0.00000000E+00  0.00000000E+00
  0.00000000E+00  0.00000000E+00  0.00000000E+00
  0.00000000E+00  0.00000000E+00  0.00000000E+00
  0.00000000E+00  0.00000000E+00  0.00000000E+00
  0.00000000E+00  0.00000000E+00  0.00000000E+00
  0.00000000E+00  0.00000000E+00  0.00000000E+00
  0.00000000E+00  0.00000000E+00  0.00000000E+00
  0.00000000E+00  0.00000000E+00  0.00000000E+00
  0.00000000E+00  0.00000000E+00  0.00000000E+00
  0.00000000E+00  0.00000000E+00  0.00000000E+00
  0.00000000E+00  0.00000000E+00  0.00000000E+00
  0.00000000E+00  0.00000000E+00  0.00000000E+00
