C H O Si                                
   1.00000000000000     
     9.2874599999999994    0.0000000000000000    0.0000000000000000
     0.0000000000000000   17.5126199999999983    0.0000000000000000
     0.0000000000000000    0.0000000000000000   58.0000000000000000
   C    H    O    Si
    72    57    28    72
Selective dynamics
Direct
  0.9957326868309404  0.0649268782752748  0.0595528536342779   T   T   T
  0.3291182914850079  0.0649889848210348  0.0596249431509485   T   T   T
  0.6623462791717568  0.0649915083883782  0.0596296469564162   T   T   T
  0.9957856533369110  0.3150123697308936  0.0595540044395433   T   T   T
  0.3290894536504073  0.3149216220374297  0.0595697573809687   T   T   T
  0.6624836427823545  0.3149115472430720  0.0595927197084870   T   T   T
  0.1631154326909600  0.1875435234570838  0.1385163662434427   T   T   T
  0.4964183598636482  0.1877590484297666  0.1387078182035776   T   T   T
  0.8299241049919991  0.1875489611115575  0.1385052042615058   T   T   T
  0.1631007913417433  0.4377478129908596  0.1385208318361155   T   T   T
  0.4964075071285267  0.4378156089466728  0.1381831796944721   T   T   T
  0.8299257441633154  0.4376351761229464  0.1385497682660461   T   T   T
  0.3304488164156239  0.0629709432898027  0.1657610055529562   T   T   T
  0.6627739259978843  0.0629852945041924  0.1657533602404009   T   T   T
  0.9967161204874940  0.0624582758522964  0.1655719658092257   T   T   T
  0.3291279459832349  0.3129966412546543  0.1655808311791523   T   T   T
  0.6636974002223288  0.3128523114988945  0.1656707144488543   T   T   T
  0.9965880592230949  0.3128294063712151  0.1655894248449953   T   T   T
  0.1642657466573132  0.1896339024494293  0.1908371176387957   T   T   T
  0.4969472475639123  0.1917091441234303  0.1916068737494837   T   T   T
  0.8310567824119754  0.1894201085326831  0.1907960598963775   T   T   T
  0.1628332111916433  0.4400558231621043  0.1910895201972305   T   T   T
  0.4971321250326492  0.4463240620233261  0.1881246161157131   T   T   T
  0.8315834739062281  0.4400071659305972  0.1911407868283074   T   T   T
  0.1624904562854416  0.1876467125996028  0.0849854045430962   T   T   T
  0.4959098510511147  0.1877250682184501  0.0851197680956296   T   T   T
  0.8293000456514856  0.1876765316202350  0.0849911066019764   T   T   T
  0.1626047080773489  0.4377508125621989  0.0849935564032399   T   T   T
  0.4958244808241629  0.4377279725273807  0.0848952621610190   T   T   T
  0.8292932364275115  0.4377387267410376  0.0850082834880709   T   T   T
  0.3293596983940590  0.0625995821214658  0.1121924224115972   T   T   T
  0.6626000940795176  0.0626231814245743  0.1121978520957464   T   T   T
  0.9960215673007091  0.0625015576258840  0.1121228767991247   T   T   T
  0.3291508614372918  0.3125218073253795  0.1121078170808921   T   T   T
  0.6627475716607938  0.3125494175650366  0.1121387359053014   T   T   T
  0.9959918055913812  0.3126150840902495  0.1121077091385219   T   T   T
  0.9957361029044598  0.5650886273852208  0.0595786115054959   T   T   T
  0.3290775058489429  0.5650829145188663  0.0595816965925084   T   T   T
  0.6624298902373472  0.5650662691874765  0.0595870662302142   T   T   T
  0.9957677778898163  0.8150194874713548  0.0596146794040101   T   T   T
  0.3291661865719994  0.8149366158417127  0.0596345093992538   T   T   T
  0.6624018488430983  0.8149432013535817  0.0596365945258187   T   T   T
  0.1632797276470788  0.6875962906614169  0.1385681673848004   T   T   T
  0.4964646040014240  0.6875240307666235  0.1386059367624481   T   T   T
  0.8297717345910509  0.6875729098918382  0.1385667393347285   T   T   T
  0.1633943382497052  0.9376048695256289  0.1385747370006057   T   T   T
  0.4965379685300684  0.9375410414411763  0.1385911539063567   T   T   T
  0.8296668476948700  0.9376143391743267  0.1385928513907757   T   T   T
  0.3297609334019251  0.5629933406766583  0.1656132829274623   T   T   T
  0.6634107449399390  0.5629240269801710  0.1656145402851988   T   T   T
  0.9965785191643090  0.5629007606490104  0.1656433878754793   T   T   T
  0.3298604618816060  0.8127487824674153  0.1657099142243652   T   T   T
  0.6631656418852369  0.8127489455412104  0.1657119615001134   T   T   T
  0.9964953051962995  0.8128194031467593  0.1657056465214750   T   T   T
  0.1638346892713337  0.6900460823509883  0.1911236747544362   T   T   T
  0.4972298111075779  0.6900239208551487  0.1912041007111573   T   T   T
  0.8306348835401385  0.6899738058540875  0.1911070351574769   T   T   T
  0.1638380593815586  0.9400879176686021  0.1910955805382183   T   T   T
  0.4971870513928047  0.9400433932616007  0.1911181625890036   T   T   T
  0.8304145755572225  0.9401732779473421  0.1911098318936169   T   T   T
  0.1625950815014824  0.6877772825734396  0.0850524838840294   T   T   T
  0.4959449157257951  0.6877317058379312  0.0850813719678469   T   T   T
  0.8292866920159743  0.6877785009995327  0.0850498201211391   T   T   T
  0.1626963398296225  0.9377108976613014  0.0850417710246823   T   T   T
  0.4960085685794727  0.9377149597914064  0.0850512688142550   T   T   T
  0.8292762997793313  0.9377106635929403  0.0850424141840036   T   T   T
  0.3293586067987889  0.5626511592074882  0.1121230261736449   T   T   T
  0.6627374847444449  0.5626222692371466  0.1121286024150953   T   T   T
  0.9960093477835887  0.5626429592936480  0.1121365698394927   T   T   T
  0.3293545389346704  0.8125634297007484  0.1121891709454103   T   T   T
  0.6625913280185332  0.8125663845851542  0.1121920866398186   T   T   T
  0.9959450482460827  0.8126413973665070  0.1121872455189738   T   T   T
  0.0814337806404511  0.1778275804314105  0.0252954199192559   T   T   T
  0.4143100283308832  0.1778980751918176  0.0254494575136750   T   T   T
  0.7472379820366611  0.1777823984002697  0.0253631548685801   T   T   T
  0.0816731589101117  0.4279117698288286  0.0252686890544805   T   T   T
  0.4144413986106141  0.4277422018610097  0.0252544740873140   T   T   T
  0.7471189491428002  0.4277338052297777  0.0253574979404305   T   T   T
  0.3272254800531310  0.0288728764975539  0.0440740117254127   T   T   T
  0.6599743232440959  0.0288789622575912  0.0440789953954863   T   T   T
  0.9935299474439864  0.0288677933709018  0.0439941610964341   T   T   T
  0.3267374632165623  0.2787672604140465  0.0440328588643950   T   T   T
  0.6605527798882687  0.2787174744794536  0.0440601834841618   T   T   T
  0.9936090986083892  0.2789126819556079  0.0439992697594215   T   T   T
  0.8342677227363401  0.4043212034277798  0.2067557760391913   T   T   T
  0.8335113672055515  0.1534431198796368  0.2063803599558438   T   T   T
  0.1661922457532452  0.1538136857748072  0.2064570986807840   T   T   T
  0.4989417132422827  0.1553393273709277  0.2071075723437457   T   T   T
  0.1654681807415615  0.4039626204423843  0.2066250199887152   T   T   T
  0.5404842444969089  0.4634608971735536  0.2609363081142955   T   T   T
  0.0792433416662748  0.0535599433269752  0.2251825415889419   T   T   T
  0.4126237031309496  0.0535339822342272  0.2252447268880231   T   T   T
  0.7445929395218472  0.0535893327077450  0.2253815147492206   T   T   T
  0.0826566286311883  0.3039733846227040  0.2241547743946866   T   T   T
  0.3688992159442727  0.2860850351742045  0.2302086958582542   T   T   T
  0.7741147135635538  0.3000266915015398  0.2232388544087880   T   T   T
  0.4895109769973971  0.2705775117398172  0.2660475685173099   T   T   T
  0.4691770231631768  0.2282518662946005  0.3002569925498650   T   T   T
  0.5175927250645405  0.3130020442788580  0.3077910362832313   T   T   T
  0.2889977276931094  0.1362207828952446  0.2956829828119106   T   T   T
  0.4378849740636928  0.1085647552193642  0.2870914597223592   T   T   T
  0.6380082254895767  0.3855353873925140  0.3348281170825170   T   T   T
  0.5039625491488888  0.4324921250821559  0.3274930153008852   T   T   T
  0.5025234656027228  0.4372921109731690  0.2692076431419539   T   T   T
  0.5634457731392548  0.2685878399711742  0.2411890028161372   T   T   T
  0.0812083935720040  0.6779735863094996  0.0253276991081600   T   T   T
  0.4143776721574238  0.6779772296038176  0.0253932984225354   T   T   T
  0.7474363080867676  0.6779237463337867  0.0253705002022707   T   T   T
  0.0816209728357534  0.9278741045667072  0.0253041849631077   T   T   T
  0.4143270384235830  0.9278019157810310  0.0253774995019246   T   T   T
  0.7471219338684577  0.9277694579993259  0.0253975743689152   T   T   T
  0.3269342999506712  0.5290149600378256  0.0440217516146260   T   T   T
  0.6602644381200877  0.5290070043545647  0.0440252419662641   T   T   T
  0.9935661927184088  0.5290249442212349  0.0440162710081989   T   T   T
  0.3270703955707541  0.7788232949983351  0.0440837116382092   T   T   T
  0.6602334600414347  0.7788271474274175  0.0440868094917406   T   T   T
  0.9936308309462800  0.7788669455576457  0.0440720427185595   T   T   T
  0.8326187868710581  0.9040667904251303  0.2066614390169089   T   T   T
  0.8330806564530858  0.6539364589073472  0.2066775834939059   T   T   T
  0.1656958291046567  0.6540606525195394  0.2067042033467103   T   T   T
  0.4993897997135560  0.6541165593038233  0.2067990524860776   T   T   T
  0.1660401880319547  0.9039662294469039  0.2066476791896327   T   T   T
  0.4995541709669640  0.9039360785609104  0.2066722181048974   T   T   T
  0.0775638610872176  0.5527788948862816  0.2256470074236095   T   T   T
  0.4139424333434941  0.5520856049589876  0.2254661585213565   T   T   T
  0.7427589303854910  0.5516925981621144  0.2261087678928763   T   T   T
  0.0786743708227553  0.8029182853720186  0.2254049296661926   T   T   T
  0.4105886978026528  0.8032428693091016  0.2255121770547406   T   T   T
  0.7475995653819779  0.8024347780838921  0.2252915953268500   T   T   T
  0.1720334436430555  0.1705382624221995  0.0335429042984834   T   T   T
  0.5051274279097235  0.1708202839663841  0.0336529917120604   T   T   T
  0.8381470310613318  0.1705734585471044  0.0335438265566490   T   T   T
  0.1722380930451090  0.4205127159818064  0.0335196784458888   T   T   T
  0.5053440207667713  0.4201738063897985  0.0334107212199920   T   T   T
  0.8380483291294818  0.4206064263300375  0.0335474392347797   T   T   T
  0.3212514262386371  0.0450082153337217  0.2173062151657457   T   T   T
  0.6538086787473781  0.0452438708042673  0.2172596869402179   T   T   T
  0.9881773313868552  0.0455781531377875  0.2171121175094360   T   T   T
  0.3142702118007075  0.3032711698851171  0.2159889245517253   T   T   T
  0.6752156499153884  0.2965698024129906  0.2172669354870821   T   T   T
  0.9887529724299270  0.2938156088040849  0.2170763185004895   T   T   T
  0.5209329716295236  0.2747595804501626  0.2951820013332554   T   T   T
  0.3901725695048793  0.1331607160537656  0.3001026143651510   T   T   T
  0.5365610561832468  0.3806810916287137  0.3307418349135029   T   T   T
  0.4759321687866134  0.2536710839135756  0.2497613508156161   T   T   T
  0.1717954755723989  0.6708054841838842  0.0335942067466809   T   T   T
  0.5050470857250673  0.6708189881336506  0.0336339909015023   T   T   T
  0.8382664904797779  0.6707771096149632  0.0335782233866986   T   T   T
  0.1722569384470896  0.9203948437005081  0.0335409150974037   T   T   T
  0.5052497632391199  0.9204781285877336  0.0335611764671190   T   T   T
  0.8381475399035343  0.9205482120860018  0.0335603510505277   T   T   T
  0.3223440805495849  0.5440869130964313  0.2175503845210638   T   T   T
  0.6537403369190998  0.5446162882621897  0.2174013566157827   T   T   T
  0.9878945391527744  0.5458904720688409  0.2171182606499343   T   T   T
  0.3202914940633311  0.7951330539458739  0.2172418711835036   T   T   T
  0.6560923567652871  0.7952047852446978  0.2172756339652811   T   T   T
  0.9876919918176348  0.7951027177657246  0.2172821286971351   T   T   T
  0.4958096537751835  0.1237728661843919  0.0587809874980614   T   T   T
  0.8291156158280473  0.1237092526781532  0.0586855006880644   T   T   T
  0.1625661546936410  0.3737408373479462  0.0586788633671115   T   T   T
  0.4958883974174962  0.3735811436169696  0.0586059029844332   T   T   T
  0.8291467494867995  0.3737429592166002  0.0586918543951415   T   T   T
  0.1624642306822165  0.1236940249905254  0.0586873470485464   T   T   T
  0.9966296316436664  0.0002804256789648  0.1388050368896529   T   T   T
  0.3302381993407128  0.0005406811403514  0.1389028383826555   T   T   T
  0.6629713416537550  0.0005392582950589  0.1389083113957202   T   T   T
  0.9966176815791215  0.2503534460137249  0.1387520329250587   T   T   T
  0.3295932595490204  0.2503216948651766  0.1387904643449261   T   T   T
  0.6633942798244922  0.2502461041308441  0.1387949392504830   T   T   T
  0.1636615232643352  0.1248564162852172  0.1651795357830360   T   T   T
  0.4966493557993329  0.1258948826714487  0.1656045858684823   T   T   T
  0.8303717369053003  0.1247083695847457  0.1651189153388419   T   T   T
  0.1631244646051252  0.3753722570042702  0.1651746998945918   T   T   T
  0.4966212410919711  0.3739366880566345  0.1648801428515234   T   T   T
  0.8304082053410897  0.3752340341174158  0.1652141437463451   T   T   T
  0.3280476150905192  0.4989206754050995  0.1922544986664875   T   T   T
  0.6664965054478535  0.4988941765554696  0.1922712602826717   T   T   T
  0.9973461921033641  0.4993135767488887  0.1919752073275603   T   T   T
  0.3289226529547513  0.2506531136097814  0.1922316194673317   T   T   T
  0.9977254383095663  0.2479560491346845  0.1916906044107718   T   T   T
  0.6658454468087759  0.2490721544706648  0.1920064735756606   T   T   T
  0.9960427580159246  0.0001254492981792  0.0853964850855833   T   T   T
  0.3294551644618634  0.0001672550961322  0.0854600513834448   T   T   T
  0.6627047500070742  0.0001749675240333  0.0854611738008732   T   T   T
  0.9960015941765308  0.2501133478018635  0.0853738083313648   T   T   T
  0.3292306397323711  0.2500385841025574  0.0853906437136683   T   T   T
  0.6627632617195004  0.2500289329612596  0.0854112458399059   T   T   T
  0.1628359422809285  0.1253586939566544  0.1118203975001080   T   T   T
  0.4961921203149519  0.1254697408892340  0.1119643638226190   T   T   T
  0.8295993573538814  0.1253612561111487  0.1118106210587548   T   T   T
  0.1628046792733219  0.3754251173003693  0.1117936429336528   T   T   T
  0.4961199280690562  0.3750223154512083  0.1115937015138938   T   T   T
  0.8295811510352209  0.3753984488001624  0.1118118551318874   T   T   T
  0.4957986820040988  0.6238278724611470  0.0587419828501862   T   T   T
  0.8291201956430143  0.6238607400593306  0.0587118372987101   T   T   T
  0.1625884262935713  0.8737526248735639  0.0587288407672732   T   T   T
  0.4958426639672033  0.8737583615855486  0.0587413493701184   T   T   T
  0.8291194529417554  0.8737678086879601  0.0587272104890398   T   T   T
  0.1624246672961472  0.6238637695402043  0.0587146171380007   T   T   T
  0.9965737956472716  0.5004895776498646  0.1387943266492651   T   T   T
  0.3295961694635249  0.5003739567697958  0.1387665597269869   T   T   T
  0.6635118396028375  0.5003421308906627  0.1387742359172647   T   T   T
  0.9966185532907693  0.7505770881842202  0.1388916945234314   T   T   T
  0.3299505777993644  0.7505052509147393  0.1388859774658077   T   T   T
  0.6632608779033956  0.7504973093965933  0.1388869385077910   T   T   T
  0.1626393649508791  0.6254660855975798  0.1653055265861165   T   T   T
  0.4967322332273904  0.6252440579801031  0.1653742808122266   T   T   T
  0.8309380320540191  0.6254465442006327  0.1652935517157604   T   T   T
  0.1634559102024031  0.8752143144581899  0.1652891780177837   T   T   T
  0.4967202658468463  0.8751653507603994  0.1653086598380853   T   T   T
  0.8298961155869982  0.8752521563597013  0.1653031550309663   T   T   T
  0.3305469242599515  0.9987951189333983  0.1920297688914581   T   T   T
  0.6637685575390966  0.9988595280011139  0.1920261413663799   T   T   T
  0.9971889262805766  0.9987887648168930  0.1919446413738806   T   T   T
  0.3305374951411233  0.7488342217962892  0.1920249017225615   T   T   T
  0.9972116934411402  0.7488919618373268  0.1920227454684364   T   T   T
  0.6640776043876230  0.7488201530788237  0.1920378602434890   T   T   T
  0.9960199582520876  0.5001726573979760  0.0853866472044666   T   T   T
  0.3292968380518813  0.5001313272284539  0.0853630535811113   T   T   T
  0.6627163767332360  0.5001070495153215  0.0853660366423829   T   T   T
  0.9960519519181544  0.7502180942146636  0.0854447378419423   T   T   T
  0.3293986496307723  0.7501672236763751  0.0854636249858956   T   T   T
  0.6627183425413825  0.7501667335052210  0.0854630846042084   T   T   T
  0.1627820280161174  0.6254791978563037  0.1118451652829816   T   T   T
  0.4962632745104848  0.6254277829470680  0.1118829981622534   T   T   T
  0.8297234709633080  0.6254781601410605  0.1118413035788242   T   T   T
  0.1630704213002823  0.8755029424770728  0.1118840587111593   T   T   T
  0.4962264715776804  0.8754742204538565  0.1118881091163478   T   T   T
  0.8293814944663551  0.8755172489621683  0.1118893933284912   T   T   T
 
  0.00000000E+00  0.00000000E+00  0.00000000E+00
  0.00000000E+00  0.00000000E+00  0.00000000E+00
  0.00000000E+00  0.00000000E+00  0.00000000E+00
  0.00000000E+00  0.00000000E+00  0.00000000E+00
  0.00000000E+00  0.00000000E+00  0.00000000E+00
  0.00000000E+00  0.00000000E+00  0.00000000E+00
  0.00000000E+00  0.00000000E+00  0.00000000E+00
  0.00000000E+00  0.00000000E+00  0.00000000E+00
  0.00000000E+00  0.00000000E+00  0.00000000E+00
  0.00000000E+00  0.00000000E+00  0.00000000E+00
  0.00000000E+00  0.00000000E+00  0.00000000E+00
  0.00000000E+00  0.00000000E+00  0.00000000E+00
  0.00000000E+00  0.00000000E+00  0.00000000E+00
  0.00000000E+00  0.00000000E+00  0.00000000E+00
  0.00000000E+00  0.00000000E+00  0.00000000E+00
  0.00000000E+00  0.00000000E+00  0.00000000E+00
  0.00000000E+00  0.00000000E+00  0.00000000E+00
  0.00000000E+00  0.00000000E+00  0.00000000E+00
  0.00000000E+00  0.00000000E+00  0.00000000E+00
  0.00000000E+00  0.00000000E+00  0.00000000E+00
  0.00000000E+00  0.00000000E+00  0.00000000E+00
  0.00000000E+00  0.00000000E+00  0.00000000E+00
  0.00000000E+00  0.00000000E+00  0.00000000E+00
  0.00000000E+00  0.00000000E+00  0.00000000E+00
  0.00000000E+00  0.00000000E+00  0.00000000E+00
  0.00000000E+00  0.00000000E+00  0.00000000E+00
  0.00000000E+00  0.00000000E+00  0.00000000E+00
  0.00000000E+00  0.00000000E+00  0.00000000E+00
  0.00000000E+00  0.00000000E+00  0.00000000E+00
  0.00000000E+00  0.00000000E+00  0.00000000E+00
  0.00000000E+00  0.00000000E+00  0.00000000E+00
  0.00000000E+00  0.00000000E+00  0.00000000E+00
  0.00000000E+00  0.00000000E+00  0.00000000E+00
  0.00000000E+00  0.00000000E+00  0.00000000E+00
  0.00000000E+00  0.00000000E+00  0.00000000E+00
  0.00000000E+00  0.00000000E+00  0.00000000E+00
  0.00000000E+00  0.00000000E+00  0.00000000E+00
  0.00000000E+00  0.00000000E+00  0.00000000E+00
  0.00000000E+00  0.00000000E+00  0.00000000E+00
  0.00000000E+00  0.00000000E+00  0.00000000E+00
  0.00000000E+00  0.00000000E+00  0.00000000E+00
  0.00000000E+00  0.00000000E+00  0.00000000E+00
  0.00000000E+00  0.00000000E+00  0.00000000E+00
  0.00000000E+00  0.00000000E+00  0.00000000E+00
  0.00000000E+00  0.00000000E+00  0.00000000E+00
  0.00000000E+00  0.00000000E+00  0.00000000E+00
  0.00000000E+00  0.00000000E+00  0.00000000E+00
  0.00000000E+00  0.00000000E+00  0.00000000E+00
  0.00000000E+00  0.00000000E+00  0.00000000E+00
  0.00000000E+00  0.00000000E+00  0.00000000E+00
  0.00000000E+00  0.00000000E+00  0.00000000E+00
  0.00000000E+00  0.00000000E+00  0.00000000E+00
  0.00000000E+00  0.00000000E+00  0.00000000E+00
  0.00000000E+00  0.00000000E+00  0.00000000E+00
  0.00000000E+00  0.00000000E+00  0.00000000E+00
  0.00000000E+00  0.00000000E+00  0.00000000E+00
  0.00000000E+00  0.00000000E+00  0.00000000E+00
  0.00000000E+00  0.00000000E+00  0.00000000E+00
  0.00000000E+00  0.00000000E+00  0.00000000E+00
  0.00000000E+00  0.00000000E+00  0.00000000E+00
  0.00000000E+00  0.00000000E+00  0.00000000E+00
  0.00000000E+00  0.00000000E+00  0.00000000E+00
  0.00000000E+00  0.00000000E+00  0.00000000E+00
  0.00000000E+00  0.00000000E+00  0.00000000E+00
  0.00000000E+00  0.00000000E+00  0.00000000E+00
  0.00000000E+00  0.00000000E+00  0.00000000E+00
  0.00000000E+00  0.00000000E+00  0.00000000E+00
  0.00000000E+00  0.00000000E+00  0.00000000E+00
  0.00000000E+00  0.00000000E+00  0.00000000E+00
  0.00000000E+00  0.00000000E+00  0.00000000E+00
  0.00000000E+00  0.00000000E+00  0.00000000E+00
  0.00000000E+00  0.00000000E+00  0.00000000E+00
  0.00000000E+00  0.00000000E+00  0.00000000E+00
  0.00000000E+00  0.00000000E+00  0.00000000E+00
  0.00000000E+00  0.00000000E+00  0.00000000E+00
  0.00000000E+00  0.00000000E+00  0.00000000E+00
  0.00000000E+00  0.00000000E+00  0.00000000E+00
  0.00000000E+00  0.00000000E+00  0.00000000E+00
  0.00000000E+00  0.00000000E+00  0.00000000E+00
  0.00000000E+00  0.00000000E+00  0.00000000E+00
  0.00000000E+00  0.00000000E+00  0.00000000E+00
  0.00000000E+00  0.00000000E+00  0.00000000E+00
  0.00000000E+00  0.00000000E+00  0.00000000E+00
  0.00000000E+00  0.00000000E+00  0.00000000E+00
  0.00000000E+00  0.00000000E+00  0.00000000E+00
  0.00000000E+00  0.00000000E+00  0.00000000E+00
  0.00000000E+00  0.00000000E+00  0.00000000E+00
  0.00000000E+00  0.00000000E+00  0.00000000E+00
  0.00000000E+00  0.00000000E+00  0.00000000E+00
  0.00000000E+00  0.00000000E+00  0.00000000E+00
  0.00000000E+00  0.00000000E+00  0.00000000E+00
  0.00000000E+00  0.00000000E+00  0.00000000E+00
  0.00000000E+00  0.00000000E+00  0.00000000E+00
  0.00000000E+00  0.00000000E+00  0.00000000E+00
  0.00000000E+00  0.00000000E+00  0.00000000E+00
  0.00000000E+00  0.00000000E+00  0.00000000E+00
  0.00000000E+00  0.00000000E+00  0.00000000E+00
  0.00000000E+00  0.00000000E+00  0.00000000E+00
  0.00000000E+00  0.00000000E+00  0.00000000E+00
  0.00000000E+00  0.00000000E+00  0.00000000E+00
  0.00000000E+00  0.00000000E+00  0.00000000E+00
  0.00000000E+00  0.00000000E+00  0.00000000E+00
  0.00000000E+00  0.00000000E+00  0.00000000E+00
  0.00000000E+00  0.00000000E+00  0.00000000E+00
  0.00000000E+00  0.00000000E+00  0.00000000E+00
  0.00000000E+00  0.00000000E+00  0.00000000E+00
  0.00000000E+00  0.00000000E+00  0.00000000E+00
  0.00000000E+00  0.00000000E+00  0.00000000E+00
  0.00000000E+00  0.00000000E+00  0.00000000E+00
  0.00000000E+00  0.00000000E+00  0.00000000E+00
  0.00000000E+00  0.00000000E+00  0.00000000E+00
  0.00000000E+00  0.00000000E+00  0.00000000E+00
  0.00000000E+00  0.00000000E+00  0.00000000E+00
  0.00000000E+00  0.00000000E+00  0.00000000E+00
  0.00000000E+00  0.00000000E+00  0.00000000E+00
  0.00000000E+00  0.00000000E+00  0.00000000E+00
  0.00000000E+00  0.00000000E+00  0.00000000E+00
  0.00000000E+00  0.00000000E+00  0.00000000E+00
  0.00000000E+00  0.00000000E+00  0.00000000E+00
  0.00000000E+00  0.00000000E+00  0.00000000E+00
  0.00000000E+00  0.00000000E+00  0.00000000E+00
  0.00000000E+00  0.00000000E+00  0.00000000E+00
  0.00000000E+00  0.00000000E+00  0.00000000E+00
  0.00000000E+00  0.00000000E+00  0.00000000E+00
  0.00000000E+00  0.00000000E+00  0.00000000E+00
  0.00000000E+00  0.00000000E+00  0.00000000E+00
  0.00000000E+00  0.00000000E+00  0.00000000E+00
  0.00000000E+00  0.00000000E+00  0.00000000E+00
  0.00000000E+00  0.00000000E+00  0.00000000E+00
  0.00000000E+00  0.00000000E+00  0.00000000E+00
  0.00000000E+00  0.00000000E+00  0.00000000E+00
  0.00000000E+00  0.00000000E+00  0.00000000E+00
  0.00000000E+00  0.00000000E+00  0.00000000E+00
  0.00000000E+00  0.00000000E+00  0.00000000E+00
  0.00000000E+00  0.00000000E+00  0.00000000E+00
  0.00000000E+00  0.00000000E+00  0.00000000E+00
  0.00000000E+00  0.00000000E+00  0.00000000E+00
  0.00000000E+00  0.00000000E+00  0.00000000E+00
  0.00000000E+00  0.00000000E+00  0.00000000E+00
  0.00000000E+00  0.00000000E+00  0.00000000E+00
  0.00000000E+00  0.00000000E+00  0.00000000E+00
  0.00000000E+00  0.00000000E+00  0.00000000E+00
  0.00000000E+00  0.00000000E+00  0.00000000E+00
  0.00000000E+00  0.00000000E+00  0.00000000E+00
  0.00000000E+00  0.00000000E+00  0.00000000E+00
  0.00000000E+00  0.00000000E+00  0.00000000E+00
  0.00000000E+00  0.00000000E+00  0.00000000E+00
  0.00000000E+00  0.00000000E+00  0.00000000E+00
  0.00000000E+00  0.00000000E+00  0.00000000E+00
  0.00000000E+00  0.00000000E+00  0.00000000E+00
  0.00000000E+00  0.00000000E+00  0.00000000E+00
  0.00000000E+00  0.00000000E+00  0.00000000E+00
  0.00000000E+00  0.00000000E+00  0.00000000E+00
  0.00000000E+00  0.00000000E+00  0.00000000E+00
  0.00000000E+00  0.00000000E+00  0.00000000E+00
  0.00000000E+00  0.00000000E+00  0.00000000E+00
  0.00000000E+00  0.00000000E+00  0.00000000E+00
  0.00000000E+00  0.00000000E+00  0.00000000E+00
  0.00000000E+00  0.00000000E+00  0.00000000E+00
  0.00000000E+00  0.00000000E+00  0.00000000E+00
  0.00000000E+00  0.00000000E+00  0.00000000E+00
  0.00000000E+00  0.00000000E+00  0.00000000E+00
  0.00000000E+00  0.00000000E+00  0.00000000E+00
  0.00000000E+00  0.00000000E+00  0.00000000E+00
  0.00000000E+00  0.00000000E+00  0.00000000E+00
  0.00000000E+00  0.00000000E+00  0.00000000E+00
  0.00000000E+00  0.00000000E+00  0.00000000E+00
  0.00000000E+00  0.00000000E+00  0.00000000E+00
  0.00000000E+00  0.00000000E+00  0.00000000E+00
  0.00000000E+00  0.00000000E+00  0.00000000E+00
  0.00000000E+00  0.00000000E+00  0.00000000E+00
  0.00000000E+00  0.00000000E+00  0.00000000E+00
  0.00000000E+00  0.00000000E+00  0.00000000E+00
  0.00000000E+00  0.00000000E+00  0.00000000E+00
  0.00000000E+00  0.00000000E+00  0.00000000E+00
  0.00000000E+00  0.00000000E+00  0.00000000E+00
  0.00000000E+00  0.00000000E+00  0.00000000E+00
  0.00000000E+00  0.00000000E+00  0.00000000E+00
  0.00000000E+00  0.00000000E+00  0.00000000E+00
  0.00000000E+00  0.00000000E+00  0.00000000E+00
  0.00000000E+00  0.00000000E+00  0.00000000E+00
  0.00000000E+00  0.00000000E+00  0.00000000E+00
  0.00000000E+00  0.00000000E+00  0.00000000E+00
  0.00000000E+00  0.00000000E+00  0.00000000E+00
  0.00000000E+00  0.00000000E+00  0.00000000E+00
  0.00000000E+00  0.00000000E+00  0.00000000E+00
  0.00000000E+00  0.00000000E+00  0.00000000E+00
  0.00000000E+00  0.00000000E+00  0.00000000E+00
  0.00000000E+00  0.00000000E+00  0.00000000E+00
  0.00000000E+00  0.00000000E+00  0.00000000E+00
  0.00000000E+00  0.00000000E+00  0.00000000E+00
  0.00000000E+00  0.00000000E+00  0.00000000E+00
  0.00000000E+00  0.00000000E+00  0.00000000E+00
  0.00000000E+00  0.00000000E+00  0.00000000E+00
  0.00000000E+00  0.00000000E+00  0.00000000E+00
  0.00000000E+00  0.00000000E+00  0.00000000E+00
  0.00000000E+00  0.00000000E+00  0.00000000E+00
  0.00000000E+00  0.00000000E+00  0.00000000E+00
  0.00000000E+00  0.00000000E+00  0.00000000E+00
  0.00000000E+00  0.00000000E+00  0.00000000E+00
  0.00000000E+00  0.00000000E+00  0.00000000E+00
  0.00000000E+00  0.00000000E+00  0.00000000E+00
  0.00000000E+00  0.00000000E+00  0.00000000E+00
  0.00000000E+00  0.00000000E+00  0.00000000E+00
  0.00000000E+00  0.00000000E+00  0.00000000E+00
  0.00000000E+00  0.00000000E+00  0.00000000E+00
  0.00000000E+00  0.00000000E+00  0.00000000E+00
  0.00000000E+00  0.00000000E+00  0.00000000E+00
  0.00000000E+00  0.00000000E+00  0.00000000E+00
  0.00000000E+00  0.00000000E+00  0.00000000E+00
  0.00000000E+00  0.00000000E+00  0.00000000E+00
  0.00000000E+00  0.00000000E+00  0.00000000E+00
  0.00000000E+00  0.00000000E+00  0.00000000E+00
  0.00000000E+00  0.00000000E+00  0.00000000E+00
  0.00000000E+00  0.00000000E+00  0.00000000E+00
  0.00000000E+00  0.00000000E+00  0.00000000E+00
  0.00000000E+00  0.00000000E+00  0.00000000E+00
  0.00000000E+00  0.00000000E+00  0.00000000E+00
  0.00000000E+00  0.00000000E+00  0.00000000E+00
  0.00000000E+00  0.00000000E+00  0.00000000E+00
  0.00000000E+00  0.00000000E+00  0.00000000E+00
  0.00000000E+00  0.00000000E+00  0.00000000E+00
  0.00000000E+00  0.00000000E+00  0.00000000E+00
  0.00000000E+00  0.00000000E+00  0.00000000E+00
  0.00000000E+00  0.00000000E+00  0.00000000E+00
  0.00000000E+00  0.00000000E+00  0.00000000E+00
  0.00000000E+00  0.00000000E+00  0.00000000E+00
  0.00000000E+00  0.00000000E+00  0.00000000E+00
  0.00000000E+00  0.00000000E+00  0.00000000E+00
