C H O Si                                
   1.00000000000000     
     9.2874599999999994    0.0000000000000000    0.0000000000000000
     0.0000000000000000    8.7563099999999991    0.0000000000000000
     0.0000000000000000    0.0000000000000000   58.0000000000000000
   C    H    O    Si
    36    33    16    36
Selective dynamics
Direct
  0.9959650025027130  0.1308304716248798  0.0594653198432850   T   T   T
  0.3294821100671991  0.1309943447699467  0.0595076386986540   T   T   T
  0.6626794801803864  0.1310196683579616  0.0595604436838551   T   T   T
  0.9960128113006056  0.6313154905442124  0.0594866321152923   T   T   T
  0.3293398580575844  0.6307151374195290  0.0595278114662633   T   T   T
  0.6627674100996653  0.6307020304645312  0.0595572952596816   T   T   T
  0.1614905618054603  0.3766378302866740  0.1382075741487964   T   T   T
  0.4949320026293776  0.3767496885156691  0.1386960216860128   T   T   T
  0.8281432705268745  0.3765857502361291  0.1382869758112547   T   T   T
  0.1617962233668611  0.8764043616123459  0.1383457253088102   T   T   T
  0.4949467513685825  0.8744214644029210  0.1383959630987467   T   T   T
  0.8277507091285388  0.8763549086889630  0.1384412316348428   T   T   T
  0.3280267997717765  0.1267523707024142  0.1656854781630968   T   T   T
  0.6614406346562323  0.1269777951099569  0.1658122255836486   T   T   T
  0.9948189111955871  0.1256478449467154  0.1653370079175593   T   T   T
  0.3277729258821703  0.6264817767586398  0.1657288983613438   T   T   T
  0.6618053659830585  0.6266293244931852  0.1657298587184677   T   T   T
  0.9948243575433209  0.6267156718905117  0.1653451155901520   T   T   T
  0.1608604805128020  0.3780848665466265  0.1902209141455719   T   T   T
  0.4939119668960446  0.3849384343799013  0.1918265188926221   T   T   T
  0.8284072902450882  0.3791001617854593  0.1904934189998689   T   T   T
  0.1616581649200067  0.8807081127729411  0.1907427134707475   T   T   T
  0.4949884727510049  0.8774026852856619  0.1913448044496450   T   T   T
  0.8286868654872596  0.8811655288689109  0.1909315654973069   T   T   T
  0.1618691835375319  0.3767360854211008  0.0847948408797499   T   T   T
  0.4951634941773528  0.3768277761545828  0.0850162918448828   T   T   T
  0.8284746101802174  0.3766769998021858  0.0848340654949362   T   T   T
  0.1618730316564953  0.8769111954755601  0.0848450487387101   T   T   T
  0.4951529434042252  0.8768169523706004  0.0848014568296714   T   T   T
  0.8283011041627028  0.8769798308240635  0.0849030168164969   T   T   T
  0.3284077377554091  0.1263157733646675  0.1121006524415640   T   T   T
  0.6612492644532274  0.1262694144846299  0.1121652596550363   T   T   T
  0.9948320845888530  0.1262982785844917  0.1119857815992253   T   T   T
  0.3281954472788552  0.6264208082841131  0.1120721263283916   T   T   T
  0.6614816758312476  0.6262901579997872  0.1120887593194386   T   T   T
  0.9947915142360919  0.6267857748365248  0.1119677445841563   T   T   T
  0.0772094416249660  0.3621934547763486  0.0265258762190880   T   T   T
  0.4110462792443535  0.3623937928818770  0.0266288304914017   T   T   T
  0.7436431381460848  0.3620851055884906  0.0265590868141119   T   T   T
  0.0775158970084982  0.8623804182625906  0.0265641338531900   T   T   T
  0.4109694327742792  0.8619075796129066  0.0264917705228846   T   T   T
  0.7430531398425216  0.8619280159387946  0.0266504811663329   T   T   T
  0.3276722814785643  0.0582210695839711  0.0440213502260853   T   T   T
  0.6601173262342436  0.0579626225090814  0.0441047937496058   T   T   T
  0.9936234981392180  0.0581995905733604  0.0439727373180060   T   T   T
  0.3268822745733730  0.5579709600758699  0.0440386333112898   T   T   T
  0.6606593093159422  0.5578048223478181  0.0440853054094941   T   T   T
  0.9934451186545560  0.5589015153801961  0.0439612956525619   T   T   T
  0.8307777289133621  0.8074393218852921  0.2063166167651405   T   T   T
  0.8317384903465638  0.3065999797319190  0.2059672982932122   T   T   T
  0.1630574059910180  0.3055312029498906  0.2057161897050868   T   T   T
  0.4965755721210954  0.3104593981696778  0.2071337052864806   T   T   T
  0.1633907021453281  0.8070179038115065  0.2061056428240939   T   T   T
  0.5376036171831657  0.9294823245659731  0.2612675029110741   T   T   T
  0.0899687195400665  0.1110131853191759  0.2226520610998437   T   T   T
  0.4174339228997629  0.1022073825305226  0.2238903535979120   T   T   T
  0.7557785111624322  0.1155786671423062  0.2222781294772629   T   T   T
  0.0939862326839416  0.5999170946005218  0.2221020945991297   T   T   T
  0.3665627511377835  0.5674643019504021  0.2302889304589707   T   T   T
  0.7830279358605305  0.5908627206163712  0.2224735169410301   T   T   T
  0.5048117232690227  0.5447539484445787  0.2661619165389029   T   T   T
  0.4727981695003122  0.4559486883251964  0.3007198278078096   T   T   T
  0.5210927870107134  0.6233925828438101  0.3090018500786949   T   T   T
  0.2900922487901351  0.2734207632557754  0.2964582533796944   T   T   T
  0.4393951909291366  0.2160248590005191  0.2885641208635507   T   T   T
  0.6387082563545829  0.7723199373413445  0.3349635026486744   T   T   T
  0.5027203347067115  0.8624027752724961  0.3275310857444262   T   T   T
  0.5068047214324427  0.8811521306610515  0.2707571763756749   T   T   T
  0.5698692303784686  0.5380761506321361  0.2403853545885494   T   T   T
  0.1716529382128467  0.3369386626780828  0.0328894722478947   T   T   T
  0.5054294698514231  0.3377893350625904  0.0330557595895880   T   T   T
  0.8381715320820693  0.3371102691297074  0.0329211244672602   T   T   T
  0.1720188976185177  0.8370848830494341  0.0329001151353678   T   T   T
  0.5053508436670004  0.8364132945374841  0.0328687466185779   T   T   T
  0.8377991813979768  0.8371687864264635  0.0329407999088144   T   T   T
  0.3212478164391123  0.0882948265349274  0.2173442028283088   T   T   T
  0.6579328198457621  0.0889994199357756  0.2175602551633849   T   T   T
  0.9921651267861424  0.0875920767905973  0.2173928717503522   T   T   T
  0.2965118192963310  0.5882063217291049  0.2176002404558113   T   T   T
  0.6807179125127478  0.5831520769764803  0.2182514081892544   T   T   T
  0.9931825972112254  0.5844675428856683  0.2170695406779410   T   T   T
  0.5286656006103064  0.5477590231951999  0.2963292363668574   T   T   T
  0.3905657220368154  0.2673823608124580  0.3012554863580126   T   T   T
  0.5366636186133222  0.7604641718029428  0.3314904752839487   T   T   T
  0.4867688777931747  0.5073941517237438  0.2502764900858457   T   T   T
  0.4962771382980952  0.2483385028724980  0.0590293459848719   T   T   T
  0.8294887579231358  0.2480825994057632  0.0589116935074532   T   T   T
  0.1630343819006017  0.7482174786728106  0.0589107016702205   T   T   T
  0.4962536401657248  0.7480254139756539  0.0589338550840660   T   T   T
  0.8293467079354435  0.7483126458504935  0.0589566759774410   T   T   T
  0.1628714856081666  0.2480026208223199  0.0588902544523122   T   T   T
  0.9947772510868547  0.0004279033131973  0.1386871063451869   T   T   T
  0.3298653202400246  0.0007351492292257  0.1389611538361820   T   T   T
  0.6599471268517786  0.0008560565371414  0.1390525943339244   T   T   T
  0.9949260665527289  0.5011294260094008  0.1386104079487347   T   T   T
  0.3284824920040472  0.5018827898434181  0.1389596710818505   T   T   T
  0.6614127125649286  0.5018497033705536  0.1389446813848496   T   T   T
  0.1621280526922338  0.2488416931997733  0.1646794374011183   T   T   T
  0.4945296824697760  0.2513105144906637  0.1655713662322869   T   T   T
  0.8276172491021287  0.2490180400643839  0.1648079679871604   T   T   T
  0.1621223112522218  0.7507586208995312  0.1649977009288901   T   T   T
  0.4947726134106152  0.7537853294960558  0.1664183665071309   T   T   T
  0.8278884648105080  0.7509639096042083  0.1651347909236759   T   T   T
  0.3340215166910344  0.9909970587082256  0.1917037505733871   T   T   T
  0.6555883062896610  0.9913748722947202  0.1919192410879275   T   T   T
  0.9953774723361706  0.9971145350315548  0.1913812946412533   T   T   T
  0.3244625305142237  0.5003732821454373  0.1920451011540470   T   T   T
  0.9951162712708687  0.4955333082321491  0.1909744696752040   T   T   T
  0.6632564370294092  0.4990872241462070  0.1917825811299827   T   T   T
  0.9952365374326014  0.0009836933273501  0.0855253683662870   T   T   T
  0.3288762578950819  0.0011130732832890  0.0855920720745591   T   T   T
  0.6616494547180840  0.0012344948744094  0.0856399832638268   T   T   T
  0.9952769560813557  0.5010596547281648  0.0855143448459338   T   T   T
  0.3286472818882462  0.5011154221693559  0.0856182049976589   T   T   T
  0.6619840326093511  0.5010390750231242  0.0856314210024237   T   T   T
  0.1618641965354288  0.2512451886403081  0.1118275464825064   T   T   T
  0.4948578225036279  0.2513810720910247  0.1121198348355293   T   T   T
  0.8279123898287820  0.2510658945749597  0.1118750834502122   T   T   T
  0.1618139565526241  0.7513537736728438  0.1118856842907734   T   T   T
  0.4948875903759463  0.7517017480968204  0.1119891592020740   T   T   T
  0.8278474558340843  0.7513925325875349  0.1119449187357093   T   T   T
 
  0.00000000E+00  0.00000000E+00  0.00000000E+00
  0.00000000E+00  0.00000000E+00  0.00000000E+00
  0.00000000E+00  0.00000000E+00  0.00000000E+00
  0.00000000E+00  0.00000000E+00  0.00000000E+00
  0.00000000E+00  0.00000000E+00  0.00000000E+00
  0.00000000E+00  0.00000000E+00  0.00000000E+00
  0.00000000E+00  0.00000000E+00  0.00000000E+00
  0.00000000E+00  0.00000000E+00  0.00000000E+00
  0.00000000E+00  0.00000000E+00  0.00000000E+00
  0.00000000E+00  0.00000000E+00  0.00000000E+00
  0.00000000E+00  0.00000000E+00  0.00000000E+00
  0.00000000E+00  0.00000000E+00  0.00000000E+00
  0.00000000E+00  0.00000000E+00  0.00000000E+00
  0.00000000E+00  0.00000000E+00  0.00000000E+00
  0.00000000E+00  0.00000000E+00  0.00000000E+00
  0.00000000E+00  0.00000000E+00  0.00000000E+00
  0.00000000E+00  0.00000000E+00  0.00000000E+00
  0.00000000E+00  0.00000000E+00  0.00000000E+00
  0.00000000E+00  0.00000000E+00  0.00000000E+00
  0.00000000E+00  0.00000000E+00  0.00000000E+00
  0.00000000E+00  0.00000000E+00  0.00000000E+00
  0.00000000E+00  0.00000000E+00  0.00000000E+00
  0.00000000E+00  0.00000000E+00  0.00000000E+00
  0.00000000E+00  0.00000000E+00  0.00000000E+00
  0.00000000E+00  0.00000000E+00  0.00000000E+00
  0.00000000E+00  0.00000000E+00  0.00000000E+00
  0.00000000E+00  0.00000000E+00  0.00000000E+00
  0.00000000E+00  0.00000000E+00  0.00000000E+00
  0.00000000E+00  0.00000000E+00  0.00000000E+00
  0.00000000E+00  0.00000000E+00  0.00000000E+00
  0.00000000E+00  0.00000000E+00  0.00000000E+00
  0.00000000E+00  0.00000000E+00  0.00000000E+00
  0.00000000E+00  0.00000000E+00  0.00000000E+00
  0.00000000E+00  0.00000000E+00  0.00000000E+00
  0.00000000E+00  0.00000000E+00  0.00000000E+00
  0.00000000E+00  0.00000000E+00  0.00000000E+00
  0.00000000E+00  0.00000000E+00  0.00000000E+00
  0.00000000E+00  0.00000000E+00  0.00000000E+00
  0.00000000E+00  0.00000000E+00  0.00000000E+00
  0.00000000E+00  0.00000000E+00  0.00000000E+00
  0.00000000E+00  0.00000000E+00  0.00000000E+00
  0.00000000E+00  0.00000000E+00  0.00000000E+00
  0.00000000E+00  0.00000000E+00  0.00000000E+00
  0.00000000E+00  0.00000000E+00  0.00000000E+00
  0.00000000E+00  0.00000000E+00  0.00000000E+00
  0.00000000E+00  0.00000000E+00  0.00000000E+00
  0.00000000E+00  0.00000000E+00  0.00000000E+00
  0.00000000E+00  0.00000000E+00  0.00000000E+00
  0.00000000E+00  0.00000000E+00  0.00000000E+00
  0.00000000E+00  0.00000000E+00  0.00000000E+00
  0.00000000E+00  0.00000000E+00  0.00000000E+00
  0.00000000E+00  0.00000000E+00  0.00000000E+00
  0.00000000E+00  0.00000000E+00  0.00000000E+00
  0.00000000E+00  0.00000000E+00  0.00000000E+00
  0.00000000E+00  0.00000000E+00  0.00000000E+00
  0.00000000E+00  0.00000000E+00  0.00000000E+00
  0.00000000E+00  0.00000000E+00  0.00000000E+00
  0.00000000E+00  0.00000000E+00  0.00000000E+00
  0.00000000E+00  0.00000000E+00  0.00000000E+00
  0.00000000E+00  0.00000000E+00  0.00000000E+00
  0.00000000E+00  0.00000000E+00  0.00000000E+00
  0.00000000E+00  0.00000000E+00  0.00000000E+00
  0.00000000E+00  0.00000000E+00  0.00000000E+00
  0.00000000E+00  0.00000000E+00  0.00000000E+00
  0.00000000E+00  0.00000000E+00  0.00000000E+00
  0.00000000E+00  0.00000000E+00  0.00000000E+00
  0.00000000E+00  0.00000000E+00  0.00000000E+00
  0.00000000E+00  0.00000000E+00  0.00000000E+00
  0.00000000E+00  0.00000000E+00  0.00000000E+00
  0.00000000E+00  0.00000000E+00  0.00000000E+00
  0.00000000E+00  0.00000000E+00  0.00000000E+00
  0.00000000E+00  0.00000000E+00  0.00000000E+00
  0.00000000E+00  0.00000000E+00  0.00000000E+00
  0.00000000E+00  0.00000000E+00  0.00000000E+00
  0.00000000E+00  0.00000000E+00  0.00000000E+00
  0.00000000E+00  0.00000000E+00  0.00000000E+00
  0.00000000E+00  0.00000000E+00  0.00000000E+00
  0.00000000E+00  0.00000000E+00  0.00000000E+00
  0.00000000E+00  0.00000000E+00  0.00000000E+00
  0.00000000E+00  0.00000000E+00  0.00000000E+00
  0.00000000E+00  0.00000000E+00  0.00000000E+00
  0.00000000E+00  0.00000000E+00  0.00000000E+00
  0.00000000E+00  0.00000000E+00  0.00000000E+00
  0.00000000E+00  0.00000000E+00  0.00000000E+00
  0.00000000E+00  0.00000000E+00  0.00000000E+00
  0.00000000E+00  0.00000000E+00  0.00000000E+00
  0.00000000E+00  0.00000000E+00  0.00000000E+00
  0.00000000E+00  0.00000000E+00  0.00000000E+00
  0.00000000E+00  0.00000000E+00  0.00000000E+00
  0.00000000E+00  0.00000000E+00  0.00000000E+00
  0.00000000E+00  0.00000000E+00  0.00000000E+00
  0.00000000E+00  0.00000000E+00  0.00000000E+00
  0.00000000E+00  0.00000000E+00  0.00000000E+00
  0.00000000E+00  0.00000000E+00  0.00000000E+00
  0.00000000E+00  0.00000000E+00  0.00000000E+00
  0.00000000E+00  0.00000000E+00  0.00000000E+00
  0.00000000E+00  0.00000000E+00  0.00000000E+00
  0.00000000E+00  0.00000000E+00  0.00000000E+00
  0.00000000E+00  0.00000000E+00  0.00000000E+00
  0.00000000E+00  0.00000000E+00  0.00000000E+00
  0.00000000E+00  0.00000000E+00  0.00000000E+00
  0.00000000E+00  0.00000000E+00  0.00000000E+00
  0.00000000E+00  0.00000000E+00  0.00000000E+00
  0.00000000E+00  0.00000000E+00  0.00000000E+00
  0.00000000E+00  0.00000000E+00  0.00000000E+00
  0.00000000E+00  0.00000000E+00  0.00000000E+00
  0.00000000E+00  0.00000000E+00  0.00000000E+00
  0.00000000E+00  0.00000000E+00  0.00000000E+00
  0.00000000E+00  0.00000000E+00  0.00000000E+00
  0.00000000E+00  0.00000000E+00  0.00000000E+00
  0.00000000E+00  0.00000000E+00  0.00000000E+00
  0.00000000E+00  0.00000000E+00  0.00000000E+00
  0.00000000E+00  0.00000000E+00  0.00000000E+00
  0.00000000E+00  0.00000000E+00  0.00000000E+00
  0.00000000E+00  0.00000000E+00  0.00000000E+00
  0.00000000E+00  0.00000000E+00  0.00000000E+00
  0.00000000E+00  0.00000000E+00  0.00000000E+00
  0.00000000E+00  0.00000000E+00  0.00000000E+00
  0.00000000E+00  0.00000000E+00  0.00000000E+00
  0.00000000E+00  0.00000000E+00  0.00000000E+00
  0.00000000E+00  0.00000000E+00  0.00000000E+00
