C H O Si                                
   1.00000000000000     
     9.2874599999999994    0.0000000000000000    0.0000000000000000
     0.0000000000000000    8.7562999999999995    0.0000000000000000
     0.0000000000000000    0.0000000000000000   58.0000000000000000
   C    H    O    Si
    36    24    12    36
Selective dynamics
Direct
  0.0021583066508834  0.1357249397973002  0.4342495975933038   T   T   T
  0.0021583066508834  0.6357249397973003  0.4342495975933038   T   T   T
  0.3354916399838851  0.1357249397973002  0.4342495975933038   T   T   T
  0.3354916399838851  0.6357249397973003  0.4342495975933038   T   T   T
  0.6688249733178817  0.1357249397973002  0.4342495975933038   T   T   T
  0.6688249733178817  0.6357249397973003  0.4342495975933038   T   T   T
  0.1686049867362406  0.3811513974759351  0.4596588736229098   T   T   T
  0.1686049867362406  0.8811513974759425  0.4596588736229098   T   T   T
  0.5019383200702371  0.3811513974759351  0.4596588736229098   T   T   T
  0.5019383200702371  0.8811513974759425  0.4596588736229098   T   T   T
  0.8352716534032388  0.3811513974759351  0.4596588736229098   T   T   T
  0.8352716534032388  0.8811513974759425  0.4596588736229098   T   T   T
  0.0018091413759646  0.1309163482756282  0.4867936173866583   T   T   T
  0.0018091413759646  0.6309163482756283  0.4867936173866583   T   T   T
  0.3351424747089665  0.1309163482756282  0.4867936173866583   T   T   T
  0.3351424747089665  0.6309163482756283  0.4867936173866583   T   T   T
  0.6684758080429698  0.1309163482756282  0.4867936173866583   T   T   T
  0.6684758080429698  0.6309163482756283  0.4867936173866583   T   T   T
  0.1684758965739657  0.3809165170846235  0.5132063826133419   T   T   T
  0.1684758965739657  0.8809165170846235  0.5132063826133419   T   T   T
  0.5018092299079693  0.3809165170846235  0.5132063826133419   T   T   T
  0.5018092299079693  0.8809165170846235  0.5132063826133419   T   T   T
  0.8351425632409710  0.3809165170846235  0.5132063826133419   T   T   T
  0.8351425632409710  0.8809165170846235  0.5132063826133419   T   T   T
  0.0019382315382394  0.1311512286669400  0.5403411263770902   T   T   T
  0.0019382315382394  0.6311512286669473  0.5403411263770902   T   T   T
  0.3352715648712339  0.1311512286669400  0.5403411263770902   T   T   T
  0.3352715648712339  0.6311512286669473  0.5403411263770902   T   T   T
  0.6686048982052376  0.1311512286669400  0.5403411263770902   T   T   T
  0.6686048982052376  0.6311512286669473  0.5403411263770902   T   T   T
  0.1688250618488845  0.3857251086062954  0.5657504024066961   T   T   T
  0.1688250618488845  0.8857251086062955  0.5657504024066961   T   T   T
  0.5021583951828812  0.3857251086062954  0.5657504024066961   T   T   T
  0.5021583951828812  0.8857251086062955  0.5657504024066961   T   T   T
  0.8354917285158829  0.3857251086062954  0.5657504024066961   T   T   T
  0.8354917285158829  0.8857251086062955  0.5657504024066961   T   T   T
  0.0042941278153365  0.0633991770337064  0.4187103483833920   T   T   T
  0.0042941278153365  0.5633991770337063  0.4187103483833920   T   T   T
  0.3376274611493402  0.0633991770337064  0.4187103483833920   T   T   T
  0.3376274611493402  0.5633991770337063  0.4187103483833920   T   T   T
  0.6709607944823418  0.0633991770337064  0.4187103483833920   T   T   T
  0.6709607944823418  0.5633991770337063  0.4187103483833920   T   T   T
  0.1709610463593393  0.3133993458427089  0.5812896516166079   T   T   T
  0.1709610463593393  0.8133993458427087  0.5812896516166079   T   T   T
  0.5042943796933358  0.3133993458427089  0.5812896516166079   T   T   T
  0.5042943796933358  0.8133993458427087  0.5812896516166079   T   T   T
  0.8376277130263375  0.3133993458427089  0.5812896516166079   T   T   T
  0.8376277130263375  0.8133993458427087  0.5812896516166079   T   T   T
  0.0836639345407710  0.1125018881541968  0.5999405758878077   T   T   T
  0.0836639345407710  0.6125018881541967  0.5999405758878077   T   T   T
  0.4169972678737728  0.1125018881541968  0.5999405758878077   T   T   T
  0.4169972678737728  0.6125018881541967  0.5999405758878077   T   T   T
  0.7503306012067673  0.1125018881541968  0.5999405758878077   T   T   T
  0.7503306012067673  0.6125018881541967  0.5999405758878077   T   T   T
  0.2503305706547727  0.3625021325911937  0.4000594241121924   T   T   T
  0.2503305706547727  0.8625021325911936  0.4000594241121924   T   T   T
  0.5836639039877672  0.3625021325911937  0.4000594241121924   T   T   T
  0.5836639039877672  0.8625021325911936  0.4000594241121924   T   T   T
  0.9169972373207690  0.3625021325911937  0.4000594241121924   T   T   T
  0.9169972373207690  0.8625021325911936  0.4000594241121924   T   T   T
  0.1592823548594824  0.3463336179817159  0.4081125376550541   T   T   T
  0.1592823548594824  0.8463336179817159  0.4081125376550541   T   T   T
  0.4926156881934790  0.3463336179817159  0.4081125376550541   T   T   T
  0.4926156881934790  0.8463336179817159  0.4081125376550541   T   T   T
  0.8259490215264806  0.3463336179817159  0.4081125376550541   T   T   T
  0.8259490215264806  0.8463336179817159  0.4081125376550541   T   T   T
  0.9926156683264837  0.0963334491727136  0.5918874623449460   T   T   T
  0.9926156683264837  0.5963334491727136  0.5918874623449460   T   T   T
  0.3259490016604804  0.0963334491727136  0.5918874623449460   T   T   T
  0.3259490016604804  0.5963334491727136  0.5918874623449460   T   T   T
  0.6592823349934820  0.0963334491727136  0.5918874623449460   T   T   T
  0.6592823349934820  0.5963334491727136  0.5918874623449460   T   T   T
  0.1687788653238280  0.2534357267029611  0.4333612781946131   T   T   T
  0.1687788653238280  0.7534357267029611  0.4333612781946131   T   T   T
  0.5021121986578245  0.2534357267029611  0.4333612781946131   T   T   T
  0.5021121986578245  0.7534357267029611  0.4333612781946131   T   T   T
  0.8354455319908263  0.2534357267029611  0.4333612781946131   T   T   T
  0.8354455319908263  0.7534357267029611  0.4333612781946131   T   T   T
  0.0019072021276649  0.0060869875995504  0.4600945788427168   T   T   T
  0.0019072021276649  0.5060869875995503  0.4600945788427168   T   T   T
  0.3352405354606667  0.0060869875995504  0.4600945788427168   T   T   T
  0.3352405354606667  0.5060869875995503  0.4600945788427168   T   T   T
  0.6685738687946630  0.0060869875995504  0.4600945788427168   T   T   T
  0.6685738687946630  0.5060869875995503  0.4600945788427168   T   T   T
  0.1684777467648393  0.2563887095040062  0.4865160203214193   T   T   T
  0.1684777467648393  0.7563887095040063  0.4865160203214193   T   T   T
  0.5018110800988360  0.2563887095040062  0.4865160203214193   T   T   T
  0.5018110800988360  0.7563887095040063  0.4865160203214193   T   T   T
  0.8351444134318378  0.2563887095040062  0.4865160203214193   T   T   T
  0.8351444134318378  0.7563887095040063  0.4865160203214193   T   T   T
  0.0018109915668381  0.0063885406940091  0.5134839796785807   T   T   T
  0.0018109915668381  0.5063885406940092  0.5134839796785807   T   T   T
  0.3351443248998398  0.0063885406940091  0.5134839796785807   T   T   T
  0.3351443248998398  0.5063885406940092  0.5134839796785807   T   T   T
  0.6684776582338365  0.0063885406940091  0.5134839796785807   T   T   T
  0.6684776582338365  0.5063885406940092  0.5134839796785807   T   T   T
  0.1685739573256661  0.2560871564095475  0.5399054211572835   T   T   T
  0.1685739573256661  0.7560871564095474  0.5399054211572835   T   T   T
  0.5019072906596624  0.2560871564095475  0.5399054211572835   T   T   T
  0.5019072906596624  0.7560871564095474  0.5399054211572835   T   T   T
  0.8352406239926642  0.2560871564095475  0.5399054211572835   T   T   T
  0.8352406239926642  0.7560871564095474  0.5399054211572835   T   T   T
  0.0021121101258268  0.0034355578929639  0.5666387218053869   T   T   T
  0.0021121101258268  0.5034355578929640  0.5666387218053869   T   T   T
  0.3354454434588284  0.0034355578929639  0.5666387218053869   T   T   T
  0.3354454434588284  0.5034355578929640  0.5666387218053869   T   T   T
  0.6687787767928250  0.0034355578929639  0.5666387218053869   T   T   T
  0.6687787767928250  0.5034355578929640  0.5666387218053869   T   T   T
 
  0.00000000E+00  0.00000000E+00  0.00000000E+00
  0.00000000E+00  0.00000000E+00  0.00000000E+00
  0.00000000E+00  0.00000000E+00  0.00000000E+00
  0.00000000E+00  0.00000000E+00  0.00000000E+00
  0.00000000E+00  0.00000000E+00  0.00000000E+00
  0.00000000E+00  0.00000000E+00  0.00000000E+00
  0.00000000E+00  0.00000000E+00  0.00000000E+00
  0.00000000E+00  0.00000000E+00  0.00000000E+00
  0.00000000E+00  0.00000000E+00  0.00000000E+00
  0.00000000E+00  0.00000000E+00  0.00000000E+00
  0.00000000E+00  0.00000000E+00  0.00000000E+00
  0.00000000E+00  0.00000000E+00  0.00000000E+00
  0.00000000E+00  0.00000000E+00  0.00000000E+00
  0.00000000E+00  0.00000000E+00  0.00000000E+00
  0.00000000E+00  0.00000000E+00  0.00000000E+00
  0.00000000E+00  0.00000000E+00  0.00000000E+00
  0.00000000E+00  0.00000000E+00  0.00000000E+00
  0.00000000E+00  0.00000000E+00  0.00000000E+00
  0.00000000E+00  0.00000000E+00  0.00000000E+00
  0.00000000E+00  0.00000000E+00  0.00000000E+00
  0.00000000E+00  0.00000000E+00  0.00000000E+00
  0.00000000E+00  0.00000000E+00  0.00000000E+00
  0.00000000E+00  0.00000000E+00  0.00000000E+00
  0.00000000E+00  0.00000000E+00  0.00000000E+00
  0.00000000E+00  0.00000000E+00  0.00000000E+00
  0.00000000E+00  0.00000000E+00  0.00000000E+00
  0.00000000E+00  0.00000000E+00  0.00000000E+00
  0.00000000E+00  0.00000000E+00  0.00000000E+00
  0.00000000E+00  0.00000000E+00  0.00000000E+00
  0.00000000E+00  0.00000000E+00  0.00000000E+00
  0.00000000E+00  0.00000000E+00  0.00000000E+00
  0.00000000E+00  0.00000000E+00  0.00000000E+00
  0.00000000E+00  0.00000000E+00  0.00000000E+00
  0.00000000E+00  0.00000000E+00  0.00000000E+00
  0.00000000E+00  0.00000000E+00  0.00000000E+00
  0.00000000E+00  0.00000000E+00  0.00000000E+00
  0.00000000E+00  0.00000000E+00  0.00000000E+00
  0.00000000E+00  0.00000000E+00  0.00000000E+00
  0.00000000E+00  0.00000000E+00  0.00000000E+00
  0.00000000E+00  0.00000000E+00  0.00000000E+00
  0.00000000E+00  0.00000000E+00  0.00000000E+00
  0.00000000E+00  0.00000000E+00  0.00000000E+00
  0.00000000E+00  0.00000000E+00  0.00000000E+00
  0.00000000E+00  0.00000000E+00  0.00000000E+00
  0.00000000E+00  0.00000000E+00  0.00000000E+00
  0.00000000E+00  0.00000000E+00  0.00000000E+00
  0.00000000E+00  0.00000000E+00  0.00000000E+00
  0.00000000E+00  0.00000000E+00  0.00000000E+00
  0.00000000E+00  0.00000000E+00  0.00000000E+00
  0.00000000E+00  0.00000000E+00  0.00000000E+00
  0.00000000E+00  0.00000000E+00  0.00000000E+00
  0.00000000E+00  0.00000000E+00  0.00000000E+00
  0.00000000E+00  0.00000000E+00  0.00000000E+00
  0.00000000E+00  0.00000000E+00  0.00000000E+00
  0.00000000E+00  0.00000000E+00  0.00000000E+00
  0.00000000E+00  0.00000000E+00  0.00000000E+00
  0.00000000E+00  0.00000000E+00  0.00000000E+00
  0.00000000E+00  0.00000000E+00  0.00000000E+00
  0.00000000E+00  0.00000000E+00  0.00000000E+00
  0.00000000E+00  0.00000000E+00  0.00000000E+00
  0.00000000E+00  0.00000000E+00  0.00000000E+00
  0.00000000E+00  0.00000000E+00  0.00000000E+00
  0.00000000E+00  0.00000000E+00  0.00000000E+00
  0.00000000E+00  0.00000000E+00  0.00000000E+00
  0.00000000E+00  0.00000000E+00  0.00000000E+00
  0.00000000E+00  0.00000000E+00  0.00000000E+00
  0.00000000E+00  0.00000000E+00  0.00000000E+00
  0.00000000E+00  0.00000000E+00  0.00000000E+00
  0.00000000E+00  0.00000000E+00  0.00000000E+00
  0.00000000E+00  0.00000000E+00  0.00000000E+00
  0.00000000E+00  0.00000000E+00  0.00000000E+00
  0.00000000E+00  0.00000000E+00  0.00000000E+00
  0.00000000E+00  0.00000000E+00  0.00000000E+00
  0.00000000E+00  0.00000000E+00  0.00000000E+00
  0.00000000E+00  0.00000000E+00  0.00000000E+00
  0.00000000E+00  0.00000000E+00  0.00000000E+00
  0.00000000E+00  0.00000000E+00  0.00000000E+00
  0.00000000E+00  0.00000000E+00  0.00000000E+00
  0.00000000E+00  0.00000000E+00  0.00000000E+00
  0.00000000E+00  0.00000000E+00  0.00000000E+00
  0.00000000E+00  0.00000000E+00  0.00000000E+00
  0.00000000E+00  0.00000000E+00  0.00000000E+00
  0.00000000E+00  0.00000000E+00  0.00000000E+00
  0.00000000E+00  0.00000000E+00  0.00000000E+00
  0.00000000E+00  0.00000000E+00  0.00000000E+00
  0.00000000E+00  0.00000000E+00  0.00000000E+00
  0.00000000E+00  0.00000000E+00  0.00000000E+00
  0.00000000E+00  0.00000000E+00  0.00000000E+00
  0.00000000E+00  0.00000000E+00  0.00000000E+00
  0.00000000E+00  0.00000000E+00  0.00000000E+00
  0.00000000E+00  0.00000000E+00  0.00000000E+00
  0.00000000E+00  0.00000000E+00  0.00000000E+00
  0.00000000E+00  0.00000000E+00  0.00000000E+00
  0.00000000E+00  0.00000000E+00  0.00000000E+00
  0.00000000E+00  0.00000000E+00  0.00000000E+00
  0.00000000E+00  0.00000000E+00  0.00000000E+00
  0.00000000E+00  0.00000000E+00  0.00000000E+00
  0.00000000E+00  0.00000000E+00  0.00000000E+00
  0.00000000E+00  0.00000000E+00  0.00000000E+00
  0.00000000E+00  0.00000000E+00  0.00000000E+00
  0.00000000E+00  0.00000000E+00  0.00000000E+00
  0.00000000E+00  0.00000000E+00  0.00000000E+00
  0.00000000E+00  0.00000000E+00  0.00000000E+00
  0.00000000E+00  0.00000000E+00  0.00000000E+00
  0.00000000E+00  0.00000000E+00  0.00000000E+00
  0.00000000E+00  0.00000000E+00  0.00000000E+00
  0.00000000E+00  0.00000000E+00  0.00000000E+00
  0.00000000E+00  0.00000000E+00  0.00000000E+00
