C H O Si                                
   1.00000000000000     
     9.2874599999999994    0.0000000000000000    0.0000000000000000
     0.0000000000000000    8.7562999999999995    0.0000000000000000
     0.0000000000000000    0.0000000000000000   90.0000000000000000
   C    H    O    Si
    36    33    16    36
Selective dynamics
Direct
  0.0007956554478216  0.1350812046361244  0.4232344624061748   T   T   T
  0.0007634090199459  0.6352076132351341  0.4232427872938179   T   T   T
  0.3340732158996638  0.1351389988987639  0.4232904403179031   T   T   T
  0.3340524659689119  0.6350725033993173  0.4233014353298396   T   T   T
  0.6673882257756713  0.1350294836247730  0.4232838593630111   T   T   T
  0.6674025673147689  0.6350251231542037  0.4232830770108152   T   T   T
  0.1676167187508044  0.3814161407642241  0.4396051896353715   T   T   T
  0.1676696378666660  0.8814125559142765  0.4396188657652970   T   T   T
  0.5009660698162912  0.3813730178357708  0.4396755854603419   T   T   T
  0.5009338437756500  0.8813417356932252  0.4396426178776817   T   T   T
  0.8342359831521619  0.3814242129979226  0.4395797014821349   T   T   T
  0.8341583678601299  0.8814518639377898  0.4396089923690739   T   T   T
  0.0008893355024294  0.1310605983319564  0.4570860341328508   T   T   T
  0.0008549087592400  0.6312938698924835  0.4570953728466430   T   T   T
  0.3343590668493058  0.1310917996545742  0.4571437493909282   T   T   T
  0.3342927969585276  0.6310027910041951  0.4571609965712430   T   T   T
  0.6674200143159016  0.1311840649507875  0.4571435387683180   T   T   T
  0.6674981017151722  0.6311288969942985  0.4571392964470314   T   T   T
  0.1676360575380599  0.3810762387363104  0.4740727390985660   T   T   T
  0.1678563892562552  0.8811972546854064  0.4741079340836168   T   T   T
  0.5009008712224110  0.3815144665525474  0.4742375254374346   T   T   T
  0.5009121785673151  0.8809015292013608  0.4741509711199195   T   T   T
  0.8341968032194937  0.3810587171963176  0.4740556590283659   T   T   T
  0.8339935736259320  0.8812977307079498  0.4741135463882802   T   T   T
  0.0011032741173362  0.1308456666557500  0.4915069428835249   T   T   T
  0.0010740703032571  0.6315071212336818  0.4915668624593468   T   T   T
  0.3348264527095435  0.1319329369235357  0.4916712421503928   T   T   T
  0.3340699297389628  0.6316180197313017  0.4917271310165841   T   T   T
  0.6669798954277509  0.1318508728368409  0.4916717910342156   T   T   T
  0.6679332643585792  0.6317257753275705  0.4916649430481067   T   T   T
  0.1672484352960463  0.3833470540436487  0.5077814079908499   T   T   T
  0.1671636219207288  0.8857109650325322  0.5079691524407649   T   T   T
  0.5008390979214167  0.3890857704569740  0.5084743047655020   T   T   T
  0.5006807419846245  0.8849886719001145  0.5080401114726407   T   T   T
  0.8349788763923187  0.3828702063600704  0.5077188433106035   T   T   T
  0.8342457954155739  0.8856785491184833  0.5079392071490489   T   T   T
  0.0033977247396797  0.0619857676792085  0.4132864639624071   T   T   T
  0.0033143875618973  0.5621228193634130  0.4132929732358543   T   T   T
  0.3366957999033740  0.0619508445309094  0.4133479624417876   T   T   T
  0.3365214454463736  0.5618104082160590  0.4133658247005690   T   T   T
  0.6695694551964562  0.0618011356581841  0.4133438846281762   T   T   T
  0.6698113135039363  0.5617996673327816  0.4133435318964094   T   T   T
  0.1691349385372813  0.3108037985843841  0.5177640711174850   T   T   T
  0.1689147772708060  0.8122624211482727  0.5178893585951961   T   T   T
  0.5039800202040525  0.3146545439590186  0.5183302436525561   T   T   T
  0.5014166965202730  0.8119334892434987  0.5179964892068347   T   T   T
  0.8376837049794916  0.3102258653522201  0.5176945018902821   T   T   T
  0.8362612726669355  0.8131020182220369  0.5179081504968371   T   T   T
  0.0885074011962813  0.1189120048768248  0.5287469957160924   T   T   T
  0.0897138863912672  0.6115818755044675  0.5285724338685536   T   T   T
  0.4218927915811633  0.1193262002248743  0.5287991870515156   T   T   T
  0.3827012620064811  0.6361586320550034  0.5309730956840562   T   T   T
  0.7573524860162375  0.1174509858613081  0.5287415376752180   T   T   T
  0.7901239333915591  0.6002390924585075  0.5278011091255101   T   T   T
  0.2570121534215334  0.3672060821890422  0.4024889262589136   T   T   T
  0.2571594128670553  0.8671497479272596  0.4025032873947961   T   T   T
  0.5896381688472470  0.3674026781646028  0.4025218014738667   T   T   T
  0.5895190241630099  0.8672553887850065  0.4024907813773854   T   T   T
  0.9217572592549786  0.3679884201949642  0.4024033096225734   T   T   T
  0.9217324157616407  0.8681473676596777  0.4024254193530789   T   T   T
  0.5464607791770953  0.6177676945548485  0.5594660839010273   T   T   T
  0.4891959700751727  0.4777615934647527  0.5717977676139507   T   T   T
  0.5682629036782426  0.6394166139877411  0.5783770246613064   T   T   T
  0.3087253736349991  0.3835244639571104  0.5823367479997237   T   T   T
  0.4224279327375403  0.2592522286998279  0.5782081869106935   T   T   T
  0.6461075557767195  0.7351345019544816  0.5981285413367151   T   T   T
  0.4819968481536553  0.7666112058961667  0.5958903671673359   T   T   T
  0.5334651675391717  0.8047630625937943  0.5465951115143309   T   T   T
  0.5944888431837005  0.6582234761792947  0.5374984014656883   T   T   T
  0.1607424274472564  0.3406381272952303  0.4060469777801325   T   T   T
  0.1608601661710181  0.8407184243544883  0.4060632623576403   T   T   T
  0.4935263585904686  0.3407574944627156  0.4061192861345512   T   T   T
  0.4934217743521904  0.8405387839420387  0.4060875160506518   T   T   T
  0.8260333039136115  0.3403426469909822  0.4060284832036028   T   T   T
  0.8260208996321687  0.8405510251012083  0.4060559074521197   T   T   T
  0.9927742044887412  0.0916575765391608  0.5250895401061715   T   T   T
  0.9922252682551373  0.5880631271764662  0.5249843903763979   T   T   T
  0.3262700236738627  0.0910444763904898  0.5251930822110884   T   T   T
  0.3044037766977945  0.5898723205586259  0.5252268775032071   T   T   T
  0.6609547691266064  0.0913704094115975  0.5251738164788958   T   T   T
  0.6870079766934256  0.5913239524176617  0.5252308914793079   T   T   T
  0.5667759803448029  0.5607035037620118  0.5697144885560733   T   T   T
  0.3779325281057270  0.3536852370961052  0.5746969609664861   T   T   T
  0.5735854525369055  0.7586282661085184  0.5906111319395624   T   T   T
  0.5223057027367531  0.6945195463608449  0.5454804422746200   T   T   T
  0.1672551340768888  0.2522921366602797  0.4229894348171603   T   T   T
  0.1672882139983890  0.7523013458371960  0.4230019728296791   T   T   T
  0.5005408020134947  0.2521974608035813  0.4230512035949220   T   T   T
  0.5005237702933414  0.7521431986399563  0.4230279426957528   T   T   T
  0.8338109666257635  0.2521399852409122  0.4229773747088759   T   T   T
  0.8337628429346781  0.7522402194612680  0.4229988198155978   T   T   T
  0.0009160855046886  0.0052199992143214  0.4400807094274157   T   T   T
  0.0009072287887688  0.5053244798061290  0.4400828407897632   T   T   T
  0.3343273927689177  0.0052444998473071  0.4401223885667470   T   T   T
  0.3342899988598304  0.5052048495864676  0.4401372263312607   T   T   T
  0.6674631313091410  0.0052813508868245  0.4401233367127252   T   T   T
  0.6675479476954964  0.5052273837747706  0.4401195081256636   T   T   T
  0.1676368155254374  0.2555816108062839  0.4569699068361019   T   T   T
  0.1677419678136239  0.7556488419142137  0.4569947453471164   T   T   T
  0.5008656685404376  0.2557545134331283  0.4570694597669605   T   T   T
  0.5008527395381992  0.7555591363978014  0.4570158160035123   T   T   T
  0.8342170374557341  0.2555824244485631  0.4569507064050479   T   T   T
  0.8340973552576582  0.7557387032565605  0.4569925405626265   T   T   T
  0.0009847548619942  0.0053423867147789  0.4741843474755921   T   T   T
  0.0009386556805975  0.5056425616056446  0.4741823722542303   T   T   T
  0.3345888781217294  0.0058320385415748  0.4742644588671521   T   T   T
  0.3340790200945828  0.5057807036611943  0.4743034130877967   T   T   T
  0.6671822385850882  0.0058274404591075  0.4742645266109981   T   T   T
  0.6677125395057670  0.5057004908998801  0.4742460145100454   T   T   T
  0.1675710708555724  0.2546046947139627  0.4910207872337629   T   T   T
  0.1675847412083919  0.7557307640212584  0.4911376012898290   T   T   T
  0.5008669254382501  0.2570494105970771  0.4913498692345407   T   T   T
  0.5007894843642923  0.7552258236218207  0.4911775444682407   T   T   T
  0.8345230333993173  0.2540640462013650  0.4909644323238220   T   T   T
  0.8345900587188729  0.7557314263893932  0.4911234660227943   T   T   T
  0.0004963102506693  0.0027741712391159  0.5081732845104415   T   T   T
  0.0009095755897979  0.5004252192958213  0.5079805219005596   T   T   T
  0.3336337107919541  0.0026103693066876  0.5082652016662005   T   T   T
  0.3313728322733295  0.5038056163829204  0.5084600737726694   T   T   T
  0.6673654677563267  0.0024969540810655  0.5082646229548793   T   T   T
  0.6701730169185312  0.5017964897809051  0.5081172732329634   T   T   T
 
  0.00000000E+00  0.00000000E+00  0.00000000E+00
  0.00000000E+00  0.00000000E+00  0.00000000E+00
  0.00000000E+00  0.00000000E+00  0.00000000E+00
  0.00000000E+00  0.00000000E+00  0.00000000E+00
  0.00000000E+00  0.00000000E+00  0.00000000E+00
  0.00000000E+00  0.00000000E+00  0.00000000E+00
  0.00000000E+00  0.00000000E+00  0.00000000E+00
  0.00000000E+00  0.00000000E+00  0.00000000E+00
  0.00000000E+00  0.00000000E+00  0.00000000E+00
  0.00000000E+00  0.00000000E+00  0.00000000E+00
  0.00000000E+00  0.00000000E+00  0.00000000E+00
  0.00000000E+00  0.00000000E+00  0.00000000E+00
  0.00000000E+00  0.00000000E+00  0.00000000E+00
  0.00000000E+00  0.00000000E+00  0.00000000E+00
  0.00000000E+00  0.00000000E+00  0.00000000E+00
  0.00000000E+00  0.00000000E+00  0.00000000E+00
  0.00000000E+00  0.00000000E+00  0.00000000E+00
  0.00000000E+00  0.00000000E+00  0.00000000E+00
  0.00000000E+00  0.00000000E+00  0.00000000E+00
  0.00000000E+00  0.00000000E+00  0.00000000E+00
  0.00000000E+00  0.00000000E+00  0.00000000E+00
  0.00000000E+00  0.00000000E+00  0.00000000E+00
  0.00000000E+00  0.00000000E+00  0.00000000E+00
  0.00000000E+00  0.00000000E+00  0.00000000E+00
  0.00000000E+00  0.00000000E+00  0.00000000E+00
  0.00000000E+00  0.00000000E+00  0.00000000E+00
  0.00000000E+00  0.00000000E+00  0.00000000E+00
  0.00000000E+00  0.00000000E+00  0.00000000E+00
  0.00000000E+00  0.00000000E+00  0.00000000E+00
  0.00000000E+00  0.00000000E+00  0.00000000E+00
  0.00000000E+00  0.00000000E+00  0.00000000E+00
  0.00000000E+00  0.00000000E+00  0.00000000E+00
  0.00000000E+00  0.00000000E+00  0.00000000E+00
  0.00000000E+00  0.00000000E+00  0.00000000E+00
  0.00000000E+00  0.00000000E+00  0.00000000E+00
  0.00000000E+00  0.00000000E+00  0.00000000E+00
  0.00000000E+00  0.00000000E+00  0.00000000E+00
  0.00000000E+00  0.00000000E+00  0.00000000E+00
  0.00000000E+00  0.00000000E+00  0.00000000E+00
  0.00000000E+00  0.00000000E+00  0.00000000E+00
  0.00000000E+00  0.00000000E+00  0.00000000E+00
  0.00000000E+00  0.00000000E+00  0.00000000E+00
  0.00000000E+00  0.00000000E+00  0.00000000E+00
  0.00000000E+00  0.00000000E+00  0.00000000E+00
  0.00000000E+00  0.00000000E+00  0.00000000E+00
  0.00000000E+00  0.00000000E+00  0.00000000E+00
  0.00000000E+00  0.00000000E+00  0.00000000E+00
  0.00000000E+00  0.00000000E+00  0.00000000E+00
  0.00000000E+00  0.00000000E+00  0.00000000E+00
  0.00000000E+00  0.00000000E+00  0.00000000E+00
  0.00000000E+00  0.00000000E+00  0.00000000E+00
  0.00000000E+00  0.00000000E+00  0.00000000E+00
  0.00000000E+00  0.00000000E+00  0.00000000E+00
  0.00000000E+00  0.00000000E+00  0.00000000E+00
  0.00000000E+00  0.00000000E+00  0.00000000E+00
  0.00000000E+00  0.00000000E+00  0.00000000E+00
  0.00000000E+00  0.00000000E+00  0.00000000E+00
  0.00000000E+00  0.00000000E+00  0.00000000E+00
  0.00000000E+00  0.00000000E+00  0.00000000E+00
  0.00000000E+00  0.00000000E+00  0.00000000E+00
  0.00000000E+00  0.00000000E+00  0.00000000E+00
  0.00000000E+00  0.00000000E+00  0.00000000E+00
  0.00000000E+00  0.00000000E+00  0.00000000E+00
  0.00000000E+00  0.00000000E+00  0.00000000E+00
  0.00000000E+00  0.00000000E+00  0.00000000E+00
  0.00000000E+00  0.00000000E+00  0.00000000E+00
  0.00000000E+00  0.00000000E+00  0.00000000E+00
  0.00000000E+00  0.00000000E+00  0.00000000E+00
  0.00000000E+00  0.00000000E+00  0.00000000E+00
  0.00000000E+00  0.00000000E+00  0.00000000E+00
  0.00000000E+00  0.00000000E+00  0.00000000E+00
  0.00000000E+00  0.00000000E+00  0.00000000E+00
  0.00000000E+00  0.00000000E+00  0.00000000E+00
  0.00000000E+00  0.00000000E+00  0.00000000E+00
  0.00000000E+00  0.00000000E+00  0.00000000E+00
  0.00000000E+00  0.00000000E+00  0.00000000E+00
  0.00000000E+00  0.00000000E+00  0.00000000E+00
  0.00000000E+00  0.00000000E+00  0.00000000E+00
  0.00000000E+00  0.00000000E+00  0.00000000E+00
  0.00000000E+00  0.00000000E+00  0.00000000E+00
  0.00000000E+00  0.00000000E+00  0.00000000E+00
  0.00000000E+00  0.00000000E+00  0.00000000E+00
  0.00000000E+00  0.00000000E+00  0.00000000E+00
  0.00000000E+00  0.00000000E+00  0.00000000E+00
  0.00000000E+00  0.00000000E+00  0.00000000E+00
  0.00000000E+00  0.00000000E+00  0.00000000E+00
  0.00000000E+00  0.00000000E+00  0.00000000E+00
  0.00000000E+00  0.00000000E+00  0.00000000E+00
  0.00000000E+00  0.00000000E+00  0.00000000E+00
  0.00000000E+00  0.00000000E+00  0.00000000E+00
  0.00000000E+00  0.00000000E+00  0.00000000E+00
  0.00000000E+00  0.00000000E+00  0.00000000E+00
  0.00000000E+00  0.00000000E+00  0.00000000E+00
  0.00000000E+00  0.00000000E+00  0.00000000E+00
  0.00000000E+00  0.00000000E+00  0.00000000E+00
  0.00000000E+00  0.00000000E+00  0.00000000E+00
  0.00000000E+00  0.00000000E+00  0.00000000E+00
  0.00000000E+00  0.00000000E+00  0.00000000E+00
  0.00000000E+00  0.00000000E+00  0.00000000E+00
  0.00000000E+00  0.00000000E+00  0.00000000E+00
  0.00000000E+00  0.00000000E+00  0.00000000E+00
  0.00000000E+00  0.00000000E+00  0.00000000E+00
  0.00000000E+00  0.00000000E+00  0.00000000E+00
  0.00000000E+00  0.00000000E+00  0.00000000E+00
  0.00000000E+00  0.00000000E+00  0.00000000E+00
  0.00000000E+00  0.00000000E+00  0.00000000E+00
  0.00000000E+00  0.00000000E+00  0.00000000E+00
  0.00000000E+00  0.00000000E+00  0.00000000E+00
  0.00000000E+00  0.00000000E+00  0.00000000E+00
  0.00000000E+00  0.00000000E+00  0.00000000E+00
  0.00000000E+00  0.00000000E+00  0.00000000E+00
  0.00000000E+00  0.00000000E+00  0.00000000E+00
  0.00000000E+00  0.00000000E+00  0.00000000E+00
  0.00000000E+00  0.00000000E+00  0.00000000E+00
  0.00000000E+00  0.00000000E+00  0.00000000E+00
  0.00000000E+00  0.00000000E+00  0.00000000E+00
  0.00000000E+00  0.00000000E+00  0.00000000E+00
  0.00000000E+00  0.00000000E+00  0.00000000E+00
  0.00000000E+00  0.00000000E+00  0.00000000E+00
  0.00000000E+00  0.00000000E+00  0.00000000E+00
  0.00000000E+00  0.00000000E+00  0.00000000E+00
