C H O Si                                
   1.00000000000000     
    18.5749199999999988    0.0000000000000000    0.0000000000000000
     0.0000000000000000   17.5126199999999983    0.0000000000000000
     0.0000000000000000    0.0000000000000000   58.0000000000000000
   C    H    O    Si
   144   105    52   144
Selective dynamics
Direct
  0.4992432387208223  0.0652143439359232  0.0600817483452624   T   T   T
  0.1659212089216117  0.0652429199465445  0.0600826884497332   T   T   T
  0.3325707398033800  0.0652699884425873  0.0600943414312313   T   T   T
  0.4992041460965623  0.3152591406373728  0.0600625824048769   T   T   T
  0.1659183656114428  0.3152751442373203  0.0600781628001009   T   T   T
  0.3325171397858541  0.3152816601871218  0.0600927730522558   T   T   T
  0.0828904264065179  0.1878076473876777  0.1390212324491047   T   T   T
  0.2495571288880335  0.1877940870122796  0.1390321472711846   T   T   T
  0.4162343275770954  0.1878369747787375  0.1390422013074336   T   T   T
  0.0829367989368812  0.4378153370290320  0.1390265067701392   T   T   T
  0.2495454112372154  0.4378296016939497  0.1390321185808739   T   T   T
  0.4161558236316832  0.4378473857439574  0.1390223267019934   T   T   T
  0.1664689240082899  0.0628798440888748  0.1661714009378678   T   T   T
  0.3330262290040308  0.0629278353729119  0.1661829362702278   T   T   T
  0.4996867712980910  0.0629095483836776  0.1661550055415696   T   T   T
  0.1664887487567363  0.3128657578543257  0.1661678622071067   T   T   T
  0.3329793329457175  0.3128807834610648  0.1661778495083237   T   T   T
  0.4995783788545528  0.3130107427451250  0.1661268466934256   T   T   T
  0.0833186701541977  0.1900147747408603  0.1915657292645470   T   T   T
  0.2499101299017969  0.1901163698139462  0.1915844422847064   T   T   T
  0.4165279437234352  0.1901535656646930  0.1916031282094039   T   T   T
  0.0833504245318512  0.4399517523408283  0.1915984200726576   T   T   T
  0.2498370907923122  0.4400307633774024  0.1915858920842868   T   T   T
  0.4163310187697731  0.4400287445263731  0.1915820254749276   T   T   T
  0.0826479456329998  0.1880005438748849  0.0854716300445761   T   T   T
  0.2492819340190200  0.1880241749506394  0.0854771289985179   T   T   T
  0.4159926305609579  0.1880383528330706  0.0854785005805632   T   T   T
  0.0826667549841268  0.4380379001788376  0.0854768065651857   T   T   T
  0.2492908421147448  0.4380682509073064  0.0854769744201124   T   T   T
  0.4159902054552410  0.4380659834601284  0.0854721925120615   T   T   T
  0.1660786063820451  0.0628024518651466  0.1126180224337639   T   T   T
  0.3326978735489597  0.0628330686234177  0.1126219780911579   T   T   T
  0.4993741622461392  0.0628312631879562  0.1126349900984422   T   T   T
  0.1661237658779437  0.3128157587891930  0.1126066175222293   T   T   T
  0.3326950371749740  0.3128241014829400  0.1126121938574082   T   T   T
  0.4993714053791500  0.3128670323970655  0.1126026759873338   T   T   T
  0.4992359297281433  0.5653591169715554  0.0600838012452943   T   T   T
  0.1659362952701227  0.5653374271883627  0.0600914368531549   T   T   T
  0.3325569138711512  0.5653465226165592  0.0600962072850730   T   T   T
  0.4992631215814741  0.8152881639059246  0.0601161587181697   T   T   T
  0.1658992646975037  0.8152539400092120  0.0600957559011230   T   T   T
  0.3325275869090064  0.8152854263964761  0.0601006675781601   T   T   T
  0.0829022797282617  0.6878421403963744  0.1390537276345583   T   T   T
  0.2495311796206466  0.6878421561587508  0.1390513534731566   T   T   T
  0.4161570686730657  0.6878935795508212  0.1390326110645081   T   T   T
  0.0828668289617470  0.9377478137846236  0.1390397823659673   T   T   T
  0.2495457860773189  0.9378201991249216  0.1390453946421195   T   T   T
  0.4162399436172604  0.9378031767065620  0.1390483438790862   T   T   T
  0.1664804200411472  0.5628883615880798  0.1661888970537199   T   T   T
  0.3329114572580649  0.5629159619220288  0.1661850337236992   T   T   T
  0.4993579328826560  0.5630352906122746  0.1661604978259953   T   T   T
  0.1664276716465262  0.8129164196563076  0.1662067574848422   T   T   T
  0.3329788999786906  0.8129344557902957  0.1661941895785225   T   T   T
  0.4996690824168361  0.8129504942971982  0.1662128222232874   T   T   T
  0.0831556284907383  0.6901131608521131  0.1916095736066400   T   T   T
  0.2497790563906268  0.6901046972081479  0.1916046447461391   T   T   T
  0.4164010154375281  0.6901279986407656  0.1915856234850016   T   T   T
  0.0831341680520755  0.9401245825692640  0.1916037796324665   T   T   T
  0.2498318619228416  0.9401357499452776  0.1916003847380144   T   T   T
  0.4165022182706731  0.9401643257465592  0.1916100124770238   T   T   T
  0.0826460072217165  0.6880429565459008  0.0854945495614713   T   T   T
  0.2492826996713885  0.6880746378422370  0.0854859216199365   T   T   T
  0.4159817204988785  0.6881102105186978  0.0854899279170212   T   T   T
  0.0825954181569937  0.9379401802075646  0.0854899532705384   T   T   T
  0.2492788200062050  0.9380319998878579  0.0854789341475635   T   T   T
  0.4160215918072239  0.9379931321785639  0.0854978241062124   T   T   T
  0.1661136374513684  0.5628593343889243  0.1126247107907980   T   T   T
  0.3326646708250673  0.5628705329224214  0.1126176850797176   T   T   T
  0.4992929324256648  0.5629110952778270  0.1126144468627082   T   T   T
  0.1660961670673353  0.8128097878116425  0.1126271677134285   T   T   T
  0.3326780759271747  0.8128486839616373  0.1126252278051102   T   T   T
  0.4994668836354135  0.8128432542111684  0.1126652556030765   T   T   T
  0.9992658189415031  0.0652115870433990  0.0600739598331186   T   T   T
  0.6659546645959522  0.0652401547403012  0.0601454103682385   T   T   T
  0.8325471882487808  0.0652653957983790  0.0601449112112834   T   T   T
  0.9992605074153593  0.3152769714704733  0.0600683153130861   T   T   T
  0.6658465795981161  0.3151540239224908  0.0600498419105326   T   T   T
  0.8325708262744074  0.3151874463616353  0.0600745021387344   T   T   T
  0.5827977790580700  0.1878097460959403  0.1390198537670903   T   T   T
  0.7494960197806448  0.1880626788583332  0.1391842908671489   T   T   T
  0.9163090020842808  0.1878344027305479  0.1389848960684888   T   T   T
  0.5827001406566887  0.4379785278452867  0.1389869140914847   T   T   T
  0.7495237608972203  0.4382966631516987  0.1385912065463011   T   T   T
  0.9163798931443720  0.4378739777115440  0.1390416049953589   T   T   T
  0.6666286697538947  0.0631673022356586  0.1662810169807641   T   T   T
  0.8327989430572830  0.0632234064136675  0.1662753209410494   T   T   T
  0.9997858444328940  0.0627962546479526  0.1661210703368840   T   T   T
  0.6659109717179106  0.3132423497088927  0.1660300329589964   T   T   T
  0.8332379931790143  0.3130376219186154  0.1661556317740419   T   T   T
  0.9998253847859373  0.3129801980196781  0.1661324129593905   T   T   T
  0.5833773626760866  0.1899576423753296  0.1913989509327743   T   T   T
  0.7496059397850531  0.1919643461804674  0.1920861205100508   T   T   T
  0.9167076396258256  0.1895614626880784  0.1912890008628520   T   T   T
  0.5823367453654169  0.4402208080733580  0.1915811912423633   T   T   T
  0.7497806030402192  0.4471513243590369  0.1882894085292989   T   T   T
  0.9172448850530431  0.4399648054491987  0.1916463774855538   T   T   T
  0.5825827133622768  0.1879437133639586  0.0854706784845670   T   T   T
  0.7492963289116122  0.1880090703803328  0.0855473034859925   T   T   T
  0.9160543379319506  0.1879950386037025  0.0854564151942809   T   T   T
  0.5826100390911340  0.4380131131758637  0.0854616219345782   T   T   T
  0.7492852727954714  0.4380308570082599  0.0853615988155402   T   T   T
  0.9160376646489995  0.4380452294542824  0.0854790446300474   T   T   T
  0.6661093655008787  0.0628776897784674  0.1126863049196301   T   T   T
  0.8326569145441682  0.0628774694509511  0.1126849906168474   T   T   T
  0.9993778436627226  0.0628229509830300  0.1126209951531368   T   T   T
  0.6660118731066019  0.3127384095926511  0.1125592347288086   T   T   T
  0.8327913753100773  0.3127589976631064  0.1125824166607225   T   T   T
  0.9994490627491146  0.3128753413563265  0.1126025870157947   T   T   T
  0.9992526628162681  0.5653324368473188  0.0600915297930674   T   T   T
  0.6659212855193936  0.5653324529448430  0.0600849187360710   T   T   T
  0.8325560716149807  0.5653299573737962  0.0600950278156136   T   T   T
  0.9992009320571519  0.8152472521190729  0.0601262256401225   T   T   T
  0.6659321967836452  0.8152048310543495  0.0601719903649122   T   T   T
  0.8325231872244527  0.8152378669315946  0.0601726195508158   T   T   T
  0.5828840990542985  0.6877393983919071  0.1390694760687598   T   T   T
  0.7495607882451664  0.6877486583162460  0.1391130566167086   T   T   T
  0.9161706537516007  0.6876702180817040  0.1390825858553628   T   T   T
  0.5829354171804085  0.9379128676729036  0.1391125814323893   T   T   T
  0.7495338315211804  0.9377755277409859  0.1391166811276064   T   T   T
  0.9161539348863980  0.9379115665600833  0.1391034814752860   T   T   T
  0.6663593022910771  0.5630907860673412  0.1660359725471550   T   T   T
  0.8330012391387048  0.5629009707630883  0.1660757125243909   T   T   T
 -0.0000111260950074  0.5629093502373832  0.1661758546606810   T   T   T
  0.6663829684522389  0.8128590715136247  0.1662620505974136   T   T   T
  0.8330047727498041  0.8128605979751038  0.1662566091053827   T   T   T
  0.9996502760963273  0.8129382206727679  0.1662228903149017   T   T   T
  0.5829902631156122  0.6900223758082723  0.1916606715369796   T   T   T
  0.7497727376205910  0.6899758299586636  0.1916993455230513   T   T   T
  0.9165634935270018  0.6899485307691674  0.1916606412076496   T   T   T
  0.5831114642076728  0.9401806080124666  0.1916327238069704   T   T   T
  0.7498125475140620  0.9401568588973906  0.1916645599773265   T   T   T
  0.9164652677968385  0.9402401876929921  0.1916323315377444   T   T   T
  0.5826165390419000  0.6880336210388989  0.0855073517823082   T   T   T
  0.7493073571656230  0.6880023957534618  0.0855503110864151   T   T   T
  0.9160197918991019  0.6880190687160456  0.0855234084174708   T   T   T
  0.5826704243658913  0.9379990351382034  0.0855453927327648   T   T   T
  0.7492964771412255  0.9379982568446210  0.0855630643772726   T   T   T
  0.9159489288742222  0.9380239298372843  0.0855388508790100   T   T   T
  0.6660531553733157  0.5628858225437541  0.1125763988943402   T   T   T
  0.8327323606914746  0.5628491124601515  0.1125831980302552   T   T   T
  0.9994716849824257  0.5628634249436317  0.1126356201718413   T   T   T
  0.6660970970122149  0.8127671865652655  0.1126924311386054   T   T   T
  0.8326844195531389  0.8127520867578927  0.1126941334603438   T   T   T
  0.9993000156601255  0.8128039465834147  0.1126729769954956   T   T   T
  0.0419926715098584  0.1780696624749474  0.0257538859650622   T   T   T
  0.2085599924494391  0.1781148365586702  0.0258000104328591   T   T   T
  0.3751839763248321  0.1780816186802399  0.0257981614889848   T   T   T
  0.0420157142084479  0.4280857764061272  0.0257335348850708   T   T   T
  0.2085512075158666  0.4280612168339358  0.0257628461312522   T   T   T
  0.3751366061529165  0.4280601735088884  0.0257842322144885   T   T   T
  0.1647874563891929  0.0291334516641868  0.0445394674393008   T   T   T
  0.3314412413620460  0.0291404429124813  0.0445495292319948   T   T   T
  0.4980489066101008  0.0290876035855032  0.0445419550817304   T   T   T
  0.1647710445432173  0.2791489723694132  0.0445371637461761   T   T   T
  0.3313975974141545  0.2791422509657362  0.0445497012936471   T   T   T
  0.4980185906260537  0.2791362596945288  0.0445208072123633   T   T   T
  0.4175424148306090  0.4039495574771960  0.2071521074784774   T   T   T
  0.4177395512634367  0.1539871878149263  0.2071497895076832   T   T   T
  0.0843695382285166  0.1538987479763141  0.2071186324971745   T   T   T
  0.2510360603450059  0.1539799744815098  0.2071364022661929   T   T   T
  0.0846126015741919  0.4038598576138800  0.2071646318102253   T   T   T
  0.2510047926232144  0.4039542041431899  0.2071463891231614   T   T   T
  0.0407258393109145  0.0532901528177516  0.2258183861491324   T   T   T
  0.2072220491648708  0.0534674716750581  0.2258269325188406   T   T   T
  0.3738536603540272  0.0533879160440980  0.2258630609588800   T   T   T
  0.0380121367548455  0.3029987836952830  0.2262715693904395   T   T   T
  0.2070605228136192  0.3034476152138321  0.2258686141522185   T   T   T
  0.3735078248633698  0.3033885111686002  0.2260124103958292   T   T   T
  0.0419603292592703  0.6781792511048580  0.0257825086619520   T   T   T
  0.2085718842338851  0.6781731521809302  0.0257965406468704   T   T   T
  0.3751979918347308  0.6781637133390539  0.0257908715323259   T   T   T
  0.0419444449916940  0.9280454804079573  0.0257577563395229   T   T   T
  0.2085134917766631  0.9280364058900366  0.0257748150007473   T   T   T
  0.3751596239279706  0.9279858358499981  0.0257888793170572   T   T   T
  0.1647796801189491  0.5292153193506223  0.0445464320090320   T   T   T
  0.3314611875392070  0.5292317989505319  0.0445454747726193   T   T   T
  0.4981080248819923  0.5292588097514028  0.0445333411373055   T   T   T
  0.1647507378606904  0.7790974792458069  0.0445586778980302   T   T   T
  0.3314118862537543  0.7791201613680515  0.0445614275506840   T   T   T
  0.4981611964018112  0.7791361434674061  0.0445804534650916   T   T   T
  0.4175857839340944  0.9040884702046084  0.2071749835551519   T   T   T
  0.4174677140135956  0.6539314655943205  0.2071276378643326   T   T   T
  0.0843844838355217  0.6539424226414750  0.2071530580926123   T   T   T
  0.2509145565396383  0.6539576605820300  0.2071548242738424   T   T   T
  0.0843166140087240  0.9040455764179307  0.2071648853320418   T   T   T
  0.2509710900618506  0.9040522957160668  0.2071632717504662   T   T   T
  0.0406969631432507  0.5531190398356700  0.2259480292317775   T   T   T
  0.2072379407312732  0.5527492366516894  0.2259443502897988   T   T   T
  0.3738310958932769  0.5528714013635694  0.2259025309151561   T   T   T
  0.0404403981166240  0.8031127954262343  0.2259226790891438   T   T   T
  0.2069950417519509  0.8032255952326786  0.2259578780518333   T   T   T
  0.3741430201678376  0.8028501206785308  0.2258279107507955   T   T   T
  0.5421246791547482  0.1780345785789928  0.0257563888278049   T   T   T
  0.7085441262482111  0.1780593214608482  0.0258573560567879   T   T   T
  0.8751379562510949  0.1779684813025086  0.0257845905225935   T   T   T
  0.5420729391540384  0.4281240310939352  0.0257234975995891   T   T   T
  0.7086366474338350  0.4279939769644453  0.0256801352199261   T   T   T
  0.8751413597518817  0.4279711280444896  0.0257742303487692   T   T   T
  0.6648755308619264  0.0290825589256342  0.0446115165092556   T   T   T
  0.8313393770810208  0.0290833552307663  0.0446095189551187   T   T   T
  0.9981424411941860  0.0290991526310958  0.0445310260433610   T   T   T
  0.6645595114532832  0.2790090101293289  0.0445073782848822   T   T   T
  0.8315779431194786  0.2789991650350586  0.0445388804395804   T   T   T
  0.9981048518873776  0.2791579115697985  0.0445253204049763   T   T   T
  0.9185453908671694  0.4044136630554746  0.2072909604039006   T   T   T
  0.9178715053706370  0.1536659920362196  0.2068903081209646   T   T   T
  0.5845142575312687  0.1541544300750971  0.2070245284467861   T   T   T
  0.7506194202100702  0.1554076776406002  0.2075555740071130   T   T   T
  0.5837122243413010  0.4043047545392390  0.2071440990475306   T   T   T
  0.7711391227284515  0.4630215908103698  0.2612782409472205   T   T   T
  0.5406378291526560  0.0537319924723030  0.2257736762331644   T   T   T
  0.7073265465403414  0.0534754884466703  0.2258302869914853   T   T   T
  0.8736239466543754  0.0536559361057002  0.2259519729506525   T   T   T
  0.5449211547296787  0.3042993821573470  0.2242817621179705   T   T   T
  0.6860833119015532  0.2865628952588202  0.2306890140823838   T   T   T
  0.8877255038954506  0.3005306367486595  0.2236102847035774   T   T   T
  0.7452011965988825  0.2703541932486956  0.2664091266519139   T   T   T
  0.7347346648055565  0.2277681476819507  0.3004041863794414   T   T   T
  0.7587889231275133  0.3126736607962760  0.3078353059840702   T   T   T
  0.6445023009766944  0.1357989881772146  0.2958536735126424   T   T   T
  0.7186124114684649  0.1081852687511292  0.2869937779056094   T   T   T
  0.8185184743540295  0.3857555602906962  0.3347425356563012   T   T   T
  0.7517439704502356  0.4324489872508742  0.3271249971961234   T   T   T
  0.7513253169256143  0.4363411630967336  0.2691948411892870   T   T   T
  0.7825724886210301  0.2684284864015402  0.2415864094291373   T   T   T
  0.5420396248249273  0.6781875876984456  0.0257730535292598   T   T   T
  0.7086090800292871  0.6781851395550780  0.0258243147007789   T   T   T
  0.8751770791733500  0.6781560771738203  0.0258085516772161   T   T   T
  0.5422421614981158  0.9280201795987046  0.0257922709905897   T   T   T
  0.7086523835697744  0.9279676525615106  0.0258500515040278   T   T   T
  0.8750946544792009  0.9280054974571708  0.0258422206886532   T   T   T
  0.6648042095080225  0.5292875858266921  0.0445219319070732   T   T   T
  0.8314347129712871  0.5292696194375682  0.0445299587211717   T   T   T
  0.9981161992443337  0.5292191794685770  0.0445445318461150   T   T   T
  0.6647854955279612  0.7790953195312420  0.0446252062595643   T   T   T
  0.8313790259480495  0.7790839450639210  0.0446317515327787   T   T   T
  0.9979901069442564  0.7791020371041312  0.0445895857791134   T   T   T
  0.9176006230129601  0.9042207992417931  0.2072092375292197   T   T   T
  0.9178682016355127  0.6538756741578376  0.2072363280422868   T   T   T
  0.5838624598567170  0.6540335674725976  0.2072481011114009   T   T   T
  0.7509082526411076  0.6540972355779863  0.2073030434130758   T   T   T
  0.5842525924292051  0.9041339701142499  0.2072019391231872   T   T   T
  0.7510059398759531  0.9040834360793838  0.2072326274078311   T   T   T
  0.5395232995642244  0.5525881591351617  0.2262343743254065   T   T   T
  0.7080217996112002  0.5525484798580791  0.2259339947782249   T   T   T
  0.8718424094725087  0.5514154559770788  0.2268516223469029   T   T   T
  0.5404233588095455  0.8030680113089069  0.2259126745512388   T   T   T
  0.7068429380168347  0.8031598807964562  0.2260058064563397   T   T   T
  0.8741725428661388  0.8028490950784820  0.2258673425958108   T   T   T
  0.0873826541575084  0.1705867843814231  0.0339497753526610   T   T   T
  0.2540162921200831  0.1705703759856749  0.0339555755286593   T   T   T
  0.4206423120839815  0.1705928250523206  0.0339545363400593   T   T   T
  0.0873853992753339  0.4206457597550339  0.0339442121461051   T   T   T
  0.2539772828943089  0.4206132389707953  0.0339404879215558   T   T   T
  0.4206093988935919  0.4205452288050990  0.0339389258402740   T   T   T
  0.1617103093626868  0.0451596917360764  0.2177815787250991   T   T   T
  0.3283767334815642  0.0451657904112928  0.2177943155465660   T   T   T
  0.4950622269327538  0.0452208287829857  0.2177866226113778   T   T   T
  0.1615945884270390  0.2949834008399493  0.2177888594060824   T   T   T
  0.3283239257522058  0.2951851570564711  0.2177838508673767   T   T   T
  0.4970199388105950  0.2944872184059070  0.2178067002298928   T   T   T
  0.0873777859053350  0.6705860191094334  0.0339500280321114   T   T   T
  0.2540248348736638  0.6706326703322585  0.0339529406801010   T   T   T
  0.4206543493654205  0.6706483612365531  0.0339514000594748   T   T   T
  0.0873343865069722  0.9204117183737431  0.0339388245893359   T   T   T
  0.2539606114262843  0.9205198820278742  0.0339339810874138   T   T   T
  0.4206129825086342  0.9204956597370262  0.0339487262942085   T   T   T
  0.1618088479039185  0.5450945106527134  0.2177867464406772   T   T   T
  0.3283376473853949  0.5450075377568112  0.2177976507081642   T   T   T
  0.4946559505638979  0.5455061854523209  0.2177480971284475   T   T   T
  0.1615814666161538  0.7949763207226442  0.2178430681645280   T   T   T
  0.3285104946869707  0.7950720724839141  0.2178082634719120   T   T   T
  0.4949294400732587  0.7950430801767471  0.2178214648717529   T   T   T
  0.5874969088635815  0.1704783157352810  0.0339573830007266   T   T   T
  0.7539836307954271  0.1706284248972949  0.0340334184639045   T   T   T
  0.9206000308787733  0.1705249821952162  0.0339462545447732   T   T   T
  0.5874231333676145  0.4206435216527211  0.0339447662178899   T   T   T
  0.7540306114016122  0.4203657073651696  0.0338680092566231   T   T   T
  0.9205670121633316  0.4205839822280985  0.0339528106236346   T   T   T
  0.6616814594387135  0.0451403097980916  0.2178526585394848   T   T   T
  0.8282213175752886  0.0452866618196193  0.2178429374015995   T   T   T
  0.9951777211211469  0.0452478471840350  0.2177601159690480   T   T   T
  0.6591451611477409  0.3040801254772254  0.2163677032501199   T   T   T
  0.8381359778107482  0.2967581788568515  0.2177365013986344   T   T   T
  0.9935930684318921  0.2942594449794448  0.2176686715818915   T   T   T
  0.7611880350878112  0.2739461347492128  0.2953702842434297   T   T   T
  0.6951327006762458  0.1322311419550957  0.3001666991935245   T   T   T
  0.7677237388211294  0.3808304673472233  0.3307541761097214   T   T   T
  0.7385851867485965  0.2536705794651459  0.2500756165026113   T   T   T
  0.5874401256173107  0.6706544160337792  0.0339690625164382   T   T   T
  0.7540013976261443  0.6707047914150511  0.0340144586616287   T   T   T
  0.9205973480254802  0.6706924053920514  0.0339847903543337   T   T   T
  0.5875643606052023  0.9205733759157296  0.0340288786883289   T   T   T
  0.7540513432264109  0.9204158102490807  0.0340265981058640   T   T   T
  0.9205654892092499  0.9203790946548096  0.0339910942693647   T   T   T
  0.6622215677743650  0.5442472258051991  0.2180416518954973   T   T   T
  0.8276779951371211  0.5446950400564000  0.2179443542564257   T   T   T
  0.9953305563076335  0.5451648462579780  0.2177743603680324   T   T   T
  0.6614845572556463  0.7949081015637078  0.2178626016830588   T   T   T
  0.8285237137258692  0.7948639968657030  0.2178425950308915   T   T   T
  0.9949488054720314  0.7950247360980277  0.2178273439107573   T   T   T
  0.2492589180817986  0.1240567337409339  0.0591708813553557   T   T   T
  0.4159168580053759  0.1240480723722967  0.0591677470472370   T   T   T
  0.0826229426159309  0.3740835749077883  0.0591612894632729   T   T   T
  0.2492583547862827  0.3740907057521530  0.0591665328527695   T   T   T
  0.4158943589166577  0.3740540691673041  0.0591621757668653   T   T   T
  0.0825971284016759  0.1240446554075694  0.0591580894387493   T   T   T
  0.4995230488800020  0.0006481236730861  0.1393431898051052   T   T   T
  0.1662266867313165  0.0006428807358805  0.1393246930741564   T   T   T
  0.3328641950238549  0.0006711132269095  0.1393372452731224   T   T   T
  0.4995064548145811  0.2506326871853149  0.1392888876265851   T   T   T
  0.1662746883614482  0.2506205272099816  0.1393141176987834   T   T   T
  0.3328513759799095  0.2506229193557543  0.1393266779868576   T   T   T
  0.0830934526185661  0.1251905641613373  0.1657160678247604   T   T   T
  0.2497140218461170  0.1253166363371902  0.1657505303384253   T   T   T
  0.4163682169856574  0.1253219068662068  0.1657635802331178   T   T   T
  0.0832465502324469  0.3752788266755637  0.1657355371185564   T   T   T
  0.2497040034729021  0.3752842653438379  0.1657396963367137   T   T   T
  0.4162047440429255  0.3752843211734299  0.1657383109110005   T   T   T
  0.1666035930884864  0.4988577369278120  0.1925200969191167   T   T   T
  0.3329695991678999  0.4988681428515356  0.1925182024511552   T   T   T
  0.4990991857753681  0.4992273616659255  0.1925248679776050   T   T   T
  0.1665722110244442  0.2488951766304678  0.1925216028969881   T   T   T
  0.4999616892999647  0.2486559198895807  0.1924476415255585   T   T   T
  0.3331626200347277  0.2489253919774436  0.1925297904917610   T   T   T
  0.4993187417729602  0.0004049005107947  0.0859072737969873   T   T   T
  0.1659831538046696  0.0003966517042388  0.0858915309594007   T   T   T
  0.3326307892466637  0.0004090142838656  0.0859010726433320   T   T   T
  0.4992933773534399  0.2503955069403989  0.0858676438994825   T   T   T
  0.1660081834795299  0.2504141088874835  0.0858781455792391   T   T   T
  0.3326195568902859  0.2504053071249222  0.0858891273933174   T   T   T
  0.0827257965306221  0.1256578854098685  0.1123137619832144   T   T   T
  0.2493829049524402  0.1256690087507015  0.1123275715071418   T   T   T
  0.4160351459757921  0.1256893182873861  0.1123301880559818   T   T   T
  0.0828227193516436  0.3756652826859310  0.1123100610878680   T   T   T
  0.2493993756522883  0.3756707926038833  0.1123196491620741   T   T   T
  0.4159722890227054  0.3756721350646651  0.1123103516142144   T   T   T
  0.2492727075510778  0.6241195605107958  0.0591734710302210   T   T   T
  0.4158931137970794  0.6241343867608057  0.0591714317529582   T   T   T
  0.0825834213450670  0.8740157575966914  0.0591744242449289   T   T   T
  0.2492503233067107  0.8740543411326485  0.0591713562063574   T   T   T
  0.4159100874145690  0.8740485636336732  0.0591773010666983   T   T   T
  0.0826191376171790  0.6241182967519638  0.0591743267175262   T   T   T
  0.4992645324679028  0.5007210646292739  0.1392846971871218   T   T   T
  0.1662859983620941  0.5006625576125698  0.1393212491060928   T   T   T
  0.3327793294960049  0.5006620182274172  0.1393199018118458   T   T   T
  0.4993607904967330  0.7507198718643912  0.1393793126237019   T   T   T
  0.1662774450715951  0.7507039448807707  0.1393518894913795   T   T   T
  0.3327986529062429  0.7507186869235146  0.1393411179262455   T   T   T
  0.0832811556843602  0.6253913475200158  0.1657680385560357   T   T   T
  0.2496718485831600  0.6253372697541935  0.1657638653812310   T   T   T
  0.4160186060360483  0.6254123543020634  0.1657457372308807   T   T   T
  0.0830528870997018  0.8753156294689666  0.1657872787265240   T   T   T
  0.2496777451592400  0.8753342948853398  0.1657752668782602   T   T   T
  0.4162890095085893  0.8753419434113209  0.1657884491393020   T   T   T
  0.1664505242379808  0.9988812007169069  0.1925190867309269   T   T   T
  0.3331029143748134  0.9989182693944918  0.1925275327517601   T   T   T
  0.4997514388018962  0.9989618040372811  0.1925180759948831   T   T   T
  0.1664624382879798  0.7488998058343457  0.1925502919028345   T   T   T
  0.4995879954884107  0.7489373698332611  0.1925482041968172   T   T   T
  0.3330234135927215  0.7489030699412300  0.1925254231821708   T   T   T
  0.4992706641618821  0.5004343318514940  0.0858749157319868   T   T   T
  0.1660247900229936  0.5004592977105777  0.0858868200861970   T   T   T
  0.3326172666661003  0.5004547608807727  0.0858870800694050   T   T   T
  0.4992999269786791  0.7504436444814420  0.0859207179214517   T   T   T
  0.1660095598039452  0.7504299336525347  0.0858980114790396   T   T   T
  0.3326161806381355  0.7504490367754048  0.0859003911706172   T   T   T
  0.0828029723050708  0.6257085602968304  0.1123341350666404   T   T   T
  0.2493784368005450  0.6257152396252899  0.1123359636611097   T   T   T
  0.4159329119394184  0.6257429319556586  0.1123192262377800   T   T   T
  0.0827475143633596  0.8756410043804218  0.1123451998351880   T   T   T
  0.2493814762356512  0.8757006352961696  0.1123318820867427   T   T   T
  0.4159976708126426  0.8756821758970501  0.1123519192504912   T   T   T
  0.7492722970397138  0.1240213356710791  0.0592290779650033   T   T   T
  0.9159418418322421  0.1239900484611980  0.0591559425103321   T   T   T
  0.5825454634720987  0.3740228618752399  0.0591423729064392   T   T   T
  0.7492327290996973  0.3738590480924657  0.0590558125145801   T   T   T
  0.9159509980581310  0.3740194847577752  0.0591578995620455   T   T   T
  0.5825825682298102  0.1239687726326199  0.0591684379425623   T   T   T
  0.9995905184692258  0.0005540168597164  0.1393106832617167   T   T   T
  0.6663362260686129  0.0007953873521764  0.1394233884126816   T   T   T
  0.8327035463977555  0.0007710584719427  0.1394198020635258   T   T   T
  0.9996483453926324  0.2505706876152183  0.1392617092069932   T   T   T
  0.6660089924322251  0.2505062095723298  0.1392396301472609   T   T   T
  0.8329670270616552  0.2504123362545951  0.1392475769504523   T   T   T
  0.5830852881777403  0.1252115333554953  0.1657381105549323   T   T   T
  0.7496029027771630  0.1261101221486842  0.1660818780186932   T   T   T
  0.9164271809308259  0.1249414211579308  0.1656291356109711   T   T   T
  0.5826327747329273  0.3755606374164267  0.1656520007050654   T   T   T
  0.7495562231173012  0.3739062027748699  0.1652909449542419   T   T   T
  0.9166192817595514  0.3753568500970865  0.1657061690909724   T   T   T
  0.6647378580430136  0.4991542012707609  0.1927798721134551   T   T   T
  0.8348631487661959  0.4990581170646825  0.1928501781120024   T   T   T
  0.0005049921168406  0.4990765553072123  0.1925302197252918   T   T   T
  0.6656865196745730  0.2509669150038637  0.1927207487632222   T   T   T
  0.9999179158679418  0.2483510488175672  0.1923134516228300   T   T   T
  0.8339773691905648  0.2491469367024430  0.1924909001350872   T   T   T
  0.9993284661492619  0.0003821077087852  0.0858959203459416   T   T   T
  0.6659931127678861  0.0004342785215313  0.0859645354953234   T   T   T
  0.8326080760740289  0.0004086310492149  0.0859598262847717   T   T   T
  0.9993864779363441  0.2503883452650919  0.0858656920899268   T   T   T
  0.6659010587103601  0.2502656453451000  0.0858482197813327   T   T   T
  0.8326914057596257  0.2502476422591666  0.0858614353006564   T   T   T
  0.5826668253711952  0.1256357007562466  0.1123269581033722   T   T   T
  0.7493615270469303  0.1256896322028958  0.1124279494023066   T   T   T
  0.9160574990657201  0.1256253989844734  0.1122918509599485   T   T   T