C H O Si                                
   1.00000000000000     
    18.5749199999999988    0.0000000000000000    0.0000000000000000
     0.0000000000000000   17.5126199999999983    0.0000000000000000
     0.0000000000000000    0.0000000000000000   58.0000000000000000
   C    H    O    Si
   144   105    52   144
Selective dynamics
Direct
  0.4992018873490794  0.0652715368677837  0.0600898585408941   T   T   T
  0.1658655971120878  0.0652974597691436  0.0600930977231332   T   T   T
  0.3325499706714530  0.0653101680444054  0.0600964628225267   T   T   T
  0.4992023943308460  0.3153028936089652  0.0600686284222024   T   T   T
  0.1658935849516721  0.3153260129281067  0.0600861457452098   T   T   T
  0.3325388626057703  0.3153166500388385  0.0600948705358690   T   T   T
  0.0829233239331563  0.1878024405453909  0.1390224410887243   T   T   T
  0.2495822180242487  0.1877703424367815  0.1390327709065540   T   T   T
  0.4162417072068101  0.1878317259791134  0.1390407361252666   T   T   T
  0.0829721168434012  0.4377829080271154  0.1390284325313960   T   T   T
  0.2495633003218880  0.4377931295188914  0.1390258557531807   T   T   T
  0.4161520365864651  0.4378125600394003  0.1390179717006418   T   T   T
  0.1663904748812439  0.0628898461977983  0.1661897960063637   T   T   T
  0.3330282282403353  0.0629286452436622  0.1662012559453449   T   T   T
  0.4996851904924615  0.0628891760827421  0.1661850760309949   T   T   T
  0.1664248782283305  0.3128667455754342  0.1661799688022091   T   T   T
  0.3330111080878995  0.3129045465110161  0.1661899843076620   T   T   T
  0.4995851751615737  0.3129782015282759  0.1661543958460758   T   T   T
  0.0833455238410404  0.1900402995989985  0.1915704980203030   T   T   T
  0.2498615823200776  0.1901304584740549  0.1915896952068880   T   T   T
  0.4165014843389175  0.1901747922881558  0.1916124714115356   T   T   T
  0.0833728362755334  0.4399460179179068  0.1916085952719495   T   T   T
  0.2497983903883068  0.4400446877789421  0.1915914469574742   T   T   T
  0.4162877443353857  0.4400028185764155  0.1915932951536635   T   T   T
  0.0826670342502947  0.1880156316219758  0.0854723657613539   T   T   T
  0.2493217217797368  0.1880033577211568  0.0854837973481423   T   T   T
  0.4159956592497947  0.1880123386230767  0.0854823734240131   T   T   T
  0.0827093517795675  0.4380443548067858  0.0854762639687559   T   T   T
  0.2493454747123884  0.4380291510382406  0.0854812530365962   T   T   T
  0.4159809653814566  0.4380407270435692  0.0854764249592160   T   T   T
  0.1659830577689426  0.0628179519377602  0.1125973994214969   T   T   T
  0.3326748890669418  0.0628374504461245  0.1126050825366560   T   T   T
  0.4993171627479051  0.0628333605910659  0.1126113343349485   T   T   T
  0.1660454700165946  0.3127962376910674  0.1125929009686256   T   T   T
  0.3326526602394961  0.3127915376667977  0.1126022793414121   T   T   T
  0.4992989039785862  0.3128445836585074  0.1125798055773705   T   T   T
  0.4991990998841804  0.5654004554626649  0.0600915476049284   T   T   T
  0.1658834066079752  0.5653882852559934  0.0600952819324661   T   T   T
  0.3325504901322713  0.5653839754809985  0.0600942080878105   T   T   T
  0.4992418636482750  0.8153260780733409  0.0601247447108818   T   T   T
  0.1658833539638498  0.8152957740684250  0.0601008676853165   T   T   T
  0.3325468477859226  0.8153219963889443  0.0600989448875529   T   T   T
  0.0829550102247769  0.6878407519801046  0.1390548600660612   T   T   T
  0.2495785333570677  0.6878340023309912  0.1390490914189378   T   T   T
  0.4161665421496761  0.6878667373620335  0.1390273144971142   T   T   T
  0.0829029170104171  0.9377034185620847  0.1390364309389407   T   T   T
  0.2495671552652709  0.9377781869117308  0.1390423380009376   T   T   T
  0.4162146344093482  0.9377527063114848  0.1390522809915859   T   T   T
  0.1664142445360982  0.5629114348056413  0.1662021237494808   T   T   T
  0.3329315862004569  0.5629159569136902  0.1662015312453286   T   T   T
  0.4992913141257907  0.5630159977634506  0.1661792065084437   T   T   T
  0.1663574173419956  0.8129208376146408  0.1662242691549458   T   T   T
  0.3330032995830435  0.8129237899026576  0.1662149302092356   T   T   T
  0.4996910999821099  0.8129240732046499  0.1662363186208402   T   T   T
  0.0831548250981760  0.6901288771537535  0.1916130106621718   T   T   T
  0.2497606682821213  0.6901175594132943  0.1916089436482151   T   T   T
  0.4163658715233834  0.6901235327253394  0.1915936344423247   T   T   T
  0.0831337435250563  0.9401178005091978  0.1916030294222063   T   T   T
  0.2497907605764291  0.9401378928478543  0.1916044375598056   T   T   T
  0.4164585854086781  0.9401661944884414  0.1916159429416515   T   T   T
  0.0826642429943278  0.6880415985234282  0.0855030476358585   T   T   T
  0.2493345617048757  0.6880282848078734  0.0854939903452917   T   T   T
  0.4159957713995924  0.6880746797107551  0.0854888850816637   T   T   T
  0.0826216209987583  0.9379530840873199  0.0855019534785988   T   T   T
  0.2493320787258987  0.9380050503153677  0.0854901290456556   T   T   T
  0.4160075158830943  0.9379789096443277  0.0855053544959444   T   T   T
  0.1660189694399300  0.5628883814541911  0.1126075348644140   T   T   T
  0.3326209276751329  0.5628895399419191  0.1126044179719412   T   T   T
  0.4992248314423314  0.5629110796022161  0.1125998622379283   T   T   T
  0.1660040520147633  0.8127978271724960  0.1126173484795817   T   T   T
  0.3326468002426904  0.8128217489316418  0.1126181373849566   T   T   T
  0.4994096653982986  0.8128050392630215  0.1126526475025918   T   T   T
  0.9992156580999140  0.0652644409092367  0.0600839111589265   T   T   T
  0.6659124831835268  0.0652930889692893  0.0601593298145311   T   T   T
  0.8325541037298225  0.0652979876756776  0.0601503895462569   T   T   T
  0.9992423652297884  0.3153256356241220  0.0600756638220467   T   T   T
  0.6658237319266576  0.3151784561559969  0.0600539553414286   T   T   T
  0.8325830457223553  0.3152207994236574  0.0600767977401409   T   T   T
  0.5828499714030859  0.1878007600000018  0.1390181245369054   T   T   T
  0.7495693862024243  0.1880424600145291  0.1391779792794853   T   T   T
  0.9162874787399340  0.1878050140627522  0.1389891077614445   T   T   T
  0.5827477614376608  0.4379690829884400  0.1389912079835407   T   T   T
  0.7495592091479971  0.4382635825977707  0.1386173794793419   T   T   T
  0.9163453455083332  0.4378478266650584  0.1390352076964625   T   T   T
  0.6665915959915368  0.0631924115278717  0.1662983702241909   T   T   T
  0.8327828157297880  0.0632059434331102  0.1662947136218129   T   T   T
  0.9997987769366872  0.0627776520320913  0.1661383928170481   T   T   T
  0.6658277784623119  0.3132515847612075  0.1660459050461353   T   T   T
  0.8332931301367953  0.3130207087215133  0.1661740165682671   T   T   T
  0.9998485277780697  0.3129294022599525  0.1661588177673440   T   T   T
  0.5833620094592492  0.1900083806791008  0.1914059958038523   T   T   T
  0.7496158659764076  0.1919031077776142  0.1920796119428159   T   T   T
  0.9167140647744568  0.1896741313662597  0.1913076572995215   T   T   T
  0.5823334695317214  0.4402568558265951  0.1915764365105888   T   T   T
  0.7497893930191154  0.4471387207345579  0.1883179488197791   T   T   T
  0.9172638598874129  0.4399794878363301  0.1916582870899355   T   T   T
  0.5825990632989502  0.1879525324375987  0.0854741497294817   T   T   T
  0.7493181142124787  0.1879888500356099  0.0855588244757452   T   T   T
  0.9160353934080757  0.1879902926327612  0.0854573416028660   T   T   T
  0.5826390348557942  0.4380267604633308  0.0854688374417907   T   T   T
  0.7493241211413795  0.4379831488038659  0.0853782925976775   T   T   T
  0.9160393704452300  0.4380244315535398  0.0854892728927285   T   T   T
  0.6660012830237554  0.0629088770211849  0.1126861084766272   T   T   T
  0.8326055062589546  0.0629077869558180  0.1126809347528132   T   T   T
  0.9993194309651904  0.0628306434912724  0.1125956428050823   T   T   T
  0.6659261400918671  0.3127287379196886  0.1125518417615710   T   T   T
  0.8327856931853902  0.3127325603233896  0.1125775817817112   T   T   T
  0.9994006237048548  0.3128398417157288  0.1125840528196499   T   T   T
  0.9992159127112900  0.5653804246393932  0.0600976068805751   T   T   T
  0.6658702482665690  0.5653771178442709  0.0600947199777147   T   T   T
  0.8325530887036063  0.5653579823567381  0.0600956662378747   T   T   T
  0.9991859769313792  0.8152751888568370  0.0601365919316305   T   T   T
  0.6658968396444762  0.8152309585645970  0.0601832767870036   T   T   T
  0.8325393622051417  0.8152190494264934  0.0601868332357115   T   T   T
  0.5829509982247021  0.6877252392253616  0.1390617990373460   T   T   T
  0.7495782160961373  0.6877336300491990  0.1391099965037110   T   T   T
  0.9161763885544508  0.6876568454268334  0.1390755919927129   T   T   T
  0.5829858597132522  0.9378965559726439  0.1391024866552224   T   T   T
  0.7495515933614226  0.9377245086186192  0.1391150913049593   T   T   T
  0.9161295982043419  0.9378572153034341  0.1391057690289610   T   T   T
  0.6663195686325549  0.5631033807474642  0.1660496688687030   T   T   T
  0.8330286475822420  0.5629157812379184  0.1660850768541258   T   T   T
  0.0000137604758982  0.5628815038219428  0.1661994483443493   T   T   T
  0.6663393537252211  0.8128754520613125  0.1662835064557220   T   T   T
  0.8330316406044245  0.8128547465534033  0.1662803417293030   T   T   T
  0.9996626712646127  0.8129192526140512  0.1662460425290953   T   T   T
  0.5830408930762301  0.6900429325635430  0.1916725293345548   T   T   T
  0.7497529411261539  0.6899798602124642  0.1917062350143567   T   T   T
  0.9165282990789745  0.6899583653250249  0.1916805392851455   T   T   T
  0.5831209141781218  0.9401954498654500  0.1916378834328731   T   T   T
  0.7498084053206623  0.9401688187814132  0.1916725668692686   T   T   T
  0.9164387056695217  0.9402528249096839  0.1916351177324082   T   T   T
  0.5826603945080877  0.6880254299128161  0.0855109885951094   T   T   T
  0.7493185639452359  0.6879907630043119  0.0855607305891432   T   T   T
  0.9159902520163568  0.6880099054944540  0.0855244967208683   T   T   T
  0.5826803840177108  0.9380101479038875  0.0855442521732810   T   T   T
  0.7493051595153035  0.9379697775668354  0.0855698784745997   T   T   T
  0.9159579296613528  0.9379904235323732  0.0855400573100040   T   T   T
  0.6659512231800017  0.5629016211912028  0.1125663436166606   T   T   T
  0.8327042882049864  0.5628483138378735  0.1125706786541558   T   T   T
  0.9994115530946099  0.5628661367073277  0.1126061323746034   T   T   T
  0.6659981636788530  0.8127620944277707  0.1126895193366771   T   T   T
  0.8326347347093508  0.8127527242367654  0.1126960594728123   T   T   T
  0.9992082051674673  0.8127751552944231  0.1126632457846298   T   T   T
  0.0419658868894084  0.1780572689155132  0.0257634332606441   T   T   T
  0.2085406849517528  0.1780978027592580  0.0258131832207499   T   T   T
  0.3751658030293822  0.1780633652526769  0.0258111823613208   T   T   T
  0.0420066413784475  0.4280794031395408  0.0257401836946627   T   T   T
  0.2085416084066040  0.4280510946692515  0.0257692781291069   T   T   T
  0.3751321209276892  0.4280411251529460  0.0257967683532511   T   T   T
  0.1647996021341181  0.0291339340861131  0.0445465873339255   T   T   T
  0.3314539687580871  0.0291313119946007  0.0445537215944661   T   T   T
  0.4980601869827161  0.0290910911028153  0.0445485607152103   T   T   T
  0.1647786172527271  0.2791406076098273  0.0445451645809951   T   T   T
  0.3314018919087421  0.2791284589312097  0.0445544987472682   T   T   T
  0.4980199399246910  0.2791231568356676  0.0445256345038804   T   T   T
  0.4175447712989487  0.4039485671037543  0.2071536221813633   T   T   T
  0.4177433420051701  0.1539832575021885  0.2071392501139055   T   T   T
  0.0843726320976800  0.1538881439880748  0.2071078359615569   T   T   T
  0.2510403847801571  0.1539761261173072  0.2071256131105500   T   T   T
  0.0846235310263521  0.4038581097893884  0.2071642726997087   T   T   T
  0.2510135273999569  0.4039534384539366  0.2071465659977478   T   T   T
  0.0407651025626453  0.0533073916038794  0.2258101796481244   T   T   T
  0.2072678190125818  0.0534954479904357  0.2258226046649492   T   T   T
  0.3738935240873037  0.0534163519627228  0.2258617941803175   T   T   T
  0.0380866608495181  0.3030017222019508  0.2262530254805101   T   T   T
  0.2070911742267613  0.3034763108975742  0.2258680874413761   T   T   T
  0.3735747586318990  0.3034198417740401  0.2260058012151644   T   T   T
  0.0419361167452836  0.6781619458320168  0.0257944799360108   T   T   T
  0.2085598303462863  0.6781546374046292  0.0258105524317078   T   T   T
  0.3751872381592130  0.6781452475391605  0.0258046772791931   T   T   T
  0.0419186730642542  0.9280418829912525  0.0257608548684048   T   T   T
  0.2085057343342850  0.9280253015264183  0.0257834571964175   T   T   T
  0.3751370259451934  0.9279772218840765  0.0257957019080546   T   T   T
  0.1647918638123969  0.5292156788588491  0.0445549349007458   T   T   T
  0.3314737943007647  0.5292246634416407  0.0445501437412188   T   T   T
  0.4981216401163395  0.5292711586699009  0.0445425989615567   T   T   T
  0.1647543498696793  0.7790901722310304  0.0445666367634284   T   T   T
  0.3314179233605067  0.7791038281162787  0.0445665095895585   T   T   T
  0.4981648463596037  0.7791258922609383  0.0445850368349736   T   T   T
  0.4175883578324571  0.9040899099765052  0.2071726029814214   T   T   T
  0.4174779415993007  0.6539201829825687  0.2071222682583532   T   T   T
  0.0843928639670563  0.6539362046483439  0.2071410915797317   T   T   T
  0.2509153435740050  0.6539591839458146  0.2071463124934277   T   T   T
  0.0843262562847091  0.9040483463423837  0.2071633845232417   T   T   T
  0.2509770972918015  0.9040597597248302  0.2071617287987484   T   T   T
  0.0407014679333858  0.5531097395203443  0.2259271973344927   T   T   T
  0.2072796163789368  0.5527457724792019  0.2259410447824502   T   T   T
  0.3738702669029374  0.5528714013949790  0.2258932337987772   T   T   T
  0.0404772797229637  0.8031072216256685  0.2259066805763566   T   T   T
  0.2070324796402097  0.8032414424303508  0.2259556184397500   T   T   T
  0.3741828938463286  0.8028343742317360  0.2258097014849586   T   T   T
  0.5420953048697081  0.1780216088397019  0.0257665060009830   T   T   T
  0.7085157185271580  0.1780492666295482  0.0258674432081580   T   T   T
  0.8751208739608105  0.1779492656445938  0.0258013136694891   T   T   T
  0.5420587470286878  0.4281151079358738  0.0257297413815653   T   T   T
  0.7086075795110858  0.4279811825480981  0.0256879579470853   T   T   T
  0.8751310416347206  0.4279544044452445  0.0257874806547731   T   T   T
  0.6648893312418326  0.0291026222158212  0.0446209317442607   T   T   T
  0.8313466251793034  0.0290932680936052  0.0446167881683773   T   T   T
  0.9981516223091926  0.0291039942627610  0.0445383287939872   T   T   T
  0.6645705359531173  0.2789974476338927  0.0445160363249868   T   T   T
  0.8315750803208078  0.2789857732415653  0.0445471372424937   T   T   T
  0.9981056048603220  0.2791478836288508  0.0445320912360654   T   T   T
  0.9185539377607552  0.4044174725829145  0.2072915729003320   T   T   T
  0.9178995706099817  0.1536535840947189  0.2068788926870500   T   T   T
  0.5844914047393258  0.1541285462520622  0.2070099015759186   T   T   T
  0.7506361360755975  0.1554021578120890  0.2075499871499621   T   T   T
  0.5836999419654814  0.4043273959452037  0.2071368999362803   T   T   T
  0.7711140305715852  0.4630174050103168  0.2612637499965041   T   T   T
  0.5406755485574587  0.0537532939862471  0.2257645671771099   T   T   T
  0.7073496575314890  0.0535008058801821  0.2258112602532857   T   T   T
  0.8736799540410579  0.0536826804207668  0.2259495187103435   T   T   T
  0.5449729795450305  0.3042732918021855  0.2242489362633754   T   T   T
  0.6860899004671064  0.2864788390014634  0.2307002823802735   T   T   T
  0.8877170233952918  0.3004801604050280  0.2235916996870434   T   T   T
  0.7452158019254651  0.2703144725967701  0.2663901281798147   T   T   T
  0.7346771668111841  0.2278410339891497  0.3003959811580955   T   T   T
  0.7587780735168053  0.3127183891477230  0.3078239544943467   T   T   T
  0.6445228220786771  0.1358183417784072  0.2958288516228331   T   T   T
  0.7186603278923139  0.1082752561243536  0.2869531429139348   T   T   T
  0.8185612512990406  0.3857863988819703  0.3347377984875347   T   T   T
  0.7518072041629683  0.4324956936110050  0.3271410922324102   T   T   T
  0.7513208197870066  0.4363357836343272  0.2691775639602687   T   T   T
  0.7825701839196535  0.2683854428361820  0.2415808300444012   T   T   T
  0.5420143388386456  0.6781714763622961  0.0257846539266402   T   T   T
  0.7085823238361928  0.6781714872666332  0.0258330833217573   T   T   T
  0.8751532410529184  0.6781383124249450  0.0258205867887568   T   T   T
  0.5422216574807630  0.9280113979399023  0.0257997290133857   T   T   T
  0.7086440706130419  0.9279555387170202  0.0258574800451311   T   T   T
  0.8750799672549540  0.9279904290472138  0.0258517416986313   T   T   T
  0.6648164417799234  0.5293002218144492  0.0445351774423379   T   T   T
  0.8314496974781337  0.5292646297719131  0.0445397412679144   T   T   T
  0.9981294036533175  0.5292228976801729  0.0445538294670449   T   T   T
  0.6647953616358845  0.7791023074284392  0.0446339639546355   T   T   T
  0.8313882602781669  0.7790828339156505  0.0446365863380598   T   T   T
  0.9979966691611103  0.7790981554752598  0.0445932599742260   T   T   T
  0.9176015726404431  0.9042321469800412  0.2072028212640437   T   T   T
  0.9178790589670128  0.6538591943091174  0.2072331693712299   T   T   T
  0.5838709275720374  0.6540323870244600  0.2072418110317983   T   T   T
  0.7509139249253020  0.6540930291869647  0.2073002091238820   T   T   T
  0.5842597226191617  0.9041316704297266  0.2071979255623499   T   T   T
  0.7510185895516792  0.9040847524701743  0.2072248064670958   T   T   T
  0.5396191280556746  0.5526304567387814  0.2262399298276107   T   T   T
  0.7080163880695427  0.5525168467550792  0.2259359437472103   T   T   T
  0.8719369409926453  0.5514586540638251  0.2268352274541567   T   T   T
  0.5404598670131454  0.8030652332179855  0.2258987234240969   T   T   T
  0.7068742891901028  0.8031690212318606  0.2259959183724878   T   T   T
  0.8742125434890801  0.8028303430383805  0.2258449752928679   T   T   T
  0.0873820029862450  0.1706106033019955  0.0339494954323644   T   T   T
  0.2540294625029008  0.1705751356670678  0.0339532242777451   T   T   T
  0.4206560223659801  0.1706149158669709  0.0339513804683694   T   T   T
  0.0873444866199233  0.4206332472711466  0.0339576151127234   T   T   T
  0.2539500433275728  0.4205901519894195  0.0339467429142410   T   T   T
  0.4206072761459665  0.4205311461338407  0.0339436632925402   T   T   T
  0.1617568740292165  0.0451036479894234  0.2177846871289108   T   T   T
  0.3284311095910871  0.0451068381440924  0.2177934724430098   T   T   T
  0.4950961276522128  0.0451558456332639  0.2177901356769703   T   T   T
  0.1616204388395313  0.2949047693255982  0.2177966372704021   T   T   T
  0.3283685595063855  0.2951248160737858  0.2177926059436038   T   T   T
  0.4969921331463992  0.2943903284428665  0.2178202359287030   T   T   T
  0.0873790897016573  0.6705881973579794  0.0339472133383382   T   T   T
  0.2540281109306495  0.6706218494136812  0.0339540503952318   T   T   T
  0.4206558043541151  0.6706479973343730  0.0339536478727509   T   T   T
  0.0873232468772084  0.9204120512149463  0.0339337325324327   T   T   T
  0.2539385708192420  0.9204880128880801  0.0339383999391253   T   T   T
  0.4206058986092870  0.9204938166087782  0.0339451387522859   T   T   T
  0.1618502690030812  0.5450475795703608  0.2177906499454945   T   T   T
  0.3283517275964556  0.5449583376468596  0.2178057568740575   T   T   T
  0.4947489221044635  0.5454241694383049  0.2177555102828561   T   T   T
  0.1616171564671432  0.7948961344922264  0.2178521987428366   T   T   T
  0.3285269843912628  0.7950201341923018  0.2178100185135536   T   T   T
  0.4949366630238158  0.7949977078835967  0.2178264951735585   T   T   T
  0.5874949633148487  0.1705021881719997  0.0339583218969449   T   T   T
  0.7539959225162511  0.1706357591513640  0.0340277648472944   T   T   T
  0.9206276835376137  0.1705583251821139  0.0339429843654961   T   T   T
  0.5873895809703652  0.4206353013125645  0.0339542112836308   T   T   T
  0.7540428294809541  0.4203661672629838  0.0338617351960878   T   T   T
  0.9205729135609729  0.4205679616699045  0.0339524856409800   T   T   T
  0.6616922262835859  0.0450847707687132  0.2178508906755433   T   T   T
  0.8282565952650828  0.0452375444664866  0.2178526760214455   T   T   T
  0.9951997453475947  0.0451619772392747  0.2177716296626333   T   T   T
  0.6591081365437969  0.3040608081706087  0.2164061087538740   T   T   T
  0.8380827457386206  0.2967043864227972  0.2177556268163853   T   T   T
  0.9936804893161102  0.2941168387414734  0.2176602833093691   T   T   T
  0.7612225027127461  0.2739477569705843  0.2953685133573372   T   T   T
  0.6951092693318551  0.1320894366846790  0.3001402129655452   T   T   T
  0.7677509276998620  0.3808901239475633  0.3307923174378182   T   T   T
  0.7385699456705559  0.2536698371120819  0.2500626707077928   T   T   T
  0.5874335229168902  0.6706536173787871  0.0339686304455705   T   T   T
  0.7540134321277834  0.6706880116068956  0.0340075479315972   T   T   T
  0.9206182471990761  0.6707053511687373  0.0339782302188253   T   T   T
  0.5875428063399446  0.9205762173780764  0.0340374345116850   T   T   T
  0.7540398784075398  0.9203915108899845  0.0340318476083158   T   T   T
  0.9205900073144481  0.9203797653891527  0.0339823299085573   T   T   T
  0.6622338698801935  0.5442671596504106  0.2180271526596260   T   T   T
  0.8278039345402224  0.5446456530606526  0.2179228348756551   T   T   T
  0.9953074837759165  0.5450980513415488  0.2177811840909314   T   T   T
  0.6615159434750475  0.7948372628036400  0.2178635523527876   T   T   T
  0.8285240351794769  0.7948024517677013  0.2178431243795856   T   T   T
  0.9949551801565306  0.7949689485680517  0.2178323439560470   T   T   T
  0.2492499661612466  0.1240897844356994  0.0591705920522554   T   T   T
  0.4159101697620323  0.1241032683741543  0.0591628562285370   T   T   T
  0.0826006644161334  0.3741114285907686  0.0591516814268931   T   T   T
  0.2492293676354789  0.3741124572369627  0.0591573628979559   T   T   T
  0.4158586988924353  0.3740928303510007  0.0591550553321515   T   T   T
  0.0825831009721420  0.1240837660554586  0.0591582170450684   T   T   T
  0.4995564545210860  0.0006559127805042  0.1393267402460045   T   T   T
  0.1662572594995563  0.0006429970213711  0.1393115589055136   T   T   T
  0.3329100198198793  0.0006751578566877  0.1393201842940656   T   T   T
  0.4995397406015704  0.2506483401420123  0.1392751500869713   T   T   T
  0.1663036280206869  0.2506341304912728  0.1392944719583893   T   T   T
  0.3328943171707604  0.2506435019053547  0.1393117823545377   T   T   T
  0.0830972402642813  0.1252326523662222  0.1657320368110404   T   T   T
  0.2497100297647492  0.1253166039756597  0.1657658915236564   T   T   T
  0.4163702226998073  0.1253127597152326  0.1657720994237970   T   T   T
  0.0832297930738566  0.3753076961003394  0.1657447301373213   T   T   T
  0.2497010271977635  0.3753043024514696  0.1657523283844424   T   T   T
  0.4162086533655863  0.3752966760697137  0.1657315810140203   T   T   T
  0.1666056867279167  0.4989322690668018  0.1925129721948568   T   T   T
  0.3329936562254544  0.4989056472129070  0.1925113524804803   T   T   T
  0.4991395570836380  0.4992191680420651  0.1925026298495536   T   T   T
  0.1665783126375191  0.2489484403001037  0.1925069956899678   T   T   T
  0.4999539192229046  0.2486573599526612  0.1924409963840029   T   T   T
  0.3331626527222154  0.2489653896263523  0.1925179960280013   T   T   T
  0.4993318197482567  0.0004009927271624  0.0859076014377774   T   T   T
  0.1660156611235893  0.0003911741500122  0.0858977838737627   T   T   T
  0.3326830369214009  0.0004163082188461  0.0859022328367411   T   T   T
  0.4993113958464118  0.2503819440099368  0.0858715210754558   T   T   T
  0.1660344170432836  0.2503946199316233  0.0858841854777752   T   T   T
  0.3326597927835053  0.2503832854613576  0.0858938984856313   T   T   T
  0.0826756076659901  0.1256678943864376  0.1122969293576788   T   T   T
  0.2493298781421337  0.1256742066382318  0.1123113806678951   T   T   T
  0.4159851300511454  0.1257000439849263  0.1123188979997944   T   T   T
  0.0827862841991517  0.3756655234443417  0.1122968783925439   T   T   T
  0.2493570523177155  0.3756578185864852  0.1123081352462370   T   T   T
  0.4159343554619899  0.3756548490927314  0.1123000717375392   T   T   T
  0.2492448636243359  0.6241584243251800  0.0591703179607233   T   T   T
  0.4158844450241383  0.6241932308134069  0.0591643824763672   T   T   T
  0.0825493335963689  0.8740396738958203  0.0591688984642615   T   T   T
  0.2492173120809773  0.8740910048619767  0.0591615451984209   T   T   T
  0.4158860444339513  0.8740787797825456  0.0591703552206741   T   T   T
  0.0825924490177142  0.6241570520154954  0.0591700651109789   T   T   T
  0.4993195242306936  0.5007126384238830  0.1392729617711733   T   T   T
  0.1663100321015798  0.5006693597457419  0.1393051751349973   T   T   T
  0.3328370974393507  0.5006719524659125  0.1393082174064738   T   T   T
  0.4993946485697251  0.7507212401716228  0.1393650733722619   T   T   T
  0.1663163840149597  0.7507130415010500  0.1393318711912224   T   T   T
  0.3328409243310325  0.7507207313705871  0.1393270719551921   T   T   T
  0.0832917383555910  0.6254070108911671  0.1657777489479776   T   T   T
  0.2496321164503463  0.6253437525583992  0.1657780751583585   T   T   T
  0.4159870616720883  0.6254730326959981  0.1657474484928228   T   T   T
  0.0830524173287593  0.8753162839846830  0.1657830390448987   T   T   T
  0.2496788490026080  0.8753404387271739  0.1657770643019501   T   T   T
  0.4162809444571061  0.8753570518140047  0.1657961576177747   T   T   T
  0.1664550106599346  0.9989259126747838  0.1925040815908286   T   T   T
  0.3331028902534497  0.9989525539793036  0.1925106135941558   T   T   T
  0.4997502647623572  0.9989964931467189  0.1925073655318457   T   T   T
  0.1664638752313648  0.7489611462118198  0.1925449055643607   T   T   T
  0.4996046863811133  0.7489564061041586  0.1925410976548175   T   T   T
  0.3330168371804298  0.7489292234953101  0.1925169140694011   T   T   T
  0.4992812167596395  0.5004385906483491  0.0858807000745943   T   T   T
  0.1660649754790102  0.5004591943354542  0.0858965529442257   T   T   T
  0.3326659733226321  0.5004475904017466  0.0858969808137022   T   T   T
  0.4993082143699923  0.7504393228382099  0.0859261977800397   T   T   T
  0.1660336219193947  0.7504103444398115  0.0859062019856106   T   T   T
  0.3326436727650259  0.7504323664582524  0.0859053715858459   T   T   T
  0.0827709158743962  0.6257344522888905  0.1123253374657947   T   T   T
  0.2493276944949862  0.6257314746711318  0.1123232998620374   T   T   T
  0.4158879051603187  0.6257306826015266  0.1123069846998756   T   T   T
  0.0827094056677966  0.8756264892690516  0.1123424541077556   T   T   T
  0.2493278523985216  0.8756883503499078  0.1123242245144387   T   T   T
  0.4159494002557539  0.8756699046693375  0.1123466903356389   T   T   T
  0.7492461299912118  0.1240452003015696  0.0592287400432963   T   T   T
  0.9159321173525752  0.1240360247846577  0.0591497232285855   T   T   T
  0.5825251092253151  0.3740588441418700  0.0591352454317435   T   T   T
  0.7492128140671716  0.3738178115798260  0.0590552603185372   T   T   T
  0.9159305223015355  0.3740512204327343  0.0591527934319109   T   T   T
  0.5825725652222431  0.1240051528996378  0.0591688414928992   T   T   T
  0.9996234365533594  0.0005742201445719  0.1392987886116102   T   T   T
  0.6663735690552529  0.0007984677446246  0.1394108295745373   T   T   T
  0.8327582916992565  0.0007484764509549  0.1393996362806863   T   T   T
  0.9996555730661552  0.2506005670487201  0.1392490209788357   T   T   T
  0.6660583163791254  0.2505166709606008  0.1392338557515908   T   T   T
  0.8330343379980397  0.2504387246149480  0.1392333112548766   T   T   T
  0.5831006448838606  0.1252411562096616  0.1657566091105994   T   T   T
  0.7496153758411098  0.1261086190997018  0.1660821260815679   T   T   T
  0.9164134506554660  0.1249476607574140  0.1656349769771073   T   T   T
  0.5825907710856444  0.3755695391159112  0.1656532262571054   T   T   T
  0.7495410190148084  0.3738435215847458  0.1652924209903690   T   T   T
  0.9166541020685167  0.3753666174623744  0.1657039033217553   T   T   T
  0.6647630849301158  0.4991410381459470  0.1927674151660723   T   T   T
  0.8348488987267736  0.4990414131709739  0.1928310995077162   T   T   T
  0.0004734677360294  0.4991209493685708  0.1925327391668931   T   T   T
  0.6657050677901913  0.2509672609791363  0.1927042968296615   T   T   T
 -0.0000380649007151  0.2483565783910602  0.1922921837713295   T   T   T
  0.8339237963244874  0.2492174417634015  0.1925119398090321   T   T   T
  0.9993399257521696  0.0003857538293679  0.0858983924531957   T   T   T
  0.6660265207629726  0.0004108782288260  0.0859690580214099   T   T   T
  0.8326453627001096  0.0004245760673295  0.0859648920806938   T   T   T
  0.9993934949169376  0.2503813652547019  0.0858650901720660   T   T   T
  0.6659374299326510  0.2502045466882015  0.0858497594383865   T   T   T
  0.8327442543394404  0.2502294765957691  0.0858634135739177   T   T   T
  0.5826054018332626  0.1256561668996417  0.1123143938200974   T   T   T
  0.7492953970097781  0.1257144137798573  0.1124235192125150   T   T   T
  0.9160036728578179  0.1256429489285193  0.1122815196944712   T   T   T