C H O Si                                
   1.00000000000000     
     9.2874599999999994    0.0000000000000000    0.0000000000000000
     0.0000000000000000    8.7563099999999991    0.0000000000000000
     0.0000000000000000    0.0000000000000000   58.0000000000000000
   C    H    O    Si
    36    33    16    36
Selective dynamics
Direct
  0.9963426943419231  0.1302102731682220  0.0595699818283730   T   T   T
  0.3297600297617220  0.1302893845776006  0.0596242202491136   T   T   T
  0.6629906297659960  0.1302982027871546  0.0596332661435006   T   T   T
  0.9963298703112443  0.6304946321358551  0.0595881902531639   T   T   T
  0.3296555290333295  0.6301405545338105  0.0595776709309082   T   T   T
  0.6630007372761578  0.6302068755541925  0.0595938363229163   T   T   T
  0.1620930788066717  0.3761676129918076  0.1384191481424679   T   T   T
  0.4955183468549012  0.3762708533923610  0.1387210332818543   T   T   T
  0.8290118347631090  0.3761983044651455  0.1384352333885646   T   T   T
  0.1623892039293483  0.8765227878467150  0.1384993701903709   T   T   T
  0.4956337902159083  0.8752850076018298  0.1383509309416300   T   T   T
  0.8287176046814790  0.8762907190046275  0.1385562090376716   T   T   T
  0.3287581855470142  0.1268265943254870  0.1657695814641146   T   T   T
  0.6621001739540046  0.1268980865240265  0.1658391100930935   T   T   T
  0.9953780342398814  0.1259733048527284  0.1655332742008475   T   T   T
  0.3281725401358779  0.6264645946038416  0.1656566695499708   T   T   T
  0.6624100168695922  0.6263695411744907  0.1657357173136500   T   T   T
  0.9954496342959395  0.6263812750931798  0.1655745665625105   T   T   T
  0.1624102990965527  0.3790612669118070  0.1906680528144369   T   T   T
  0.4953465142688176  0.3844199604380494  0.1916724337314200   T   T   T
  0.8297121793615201  0.3791880114133614  0.1907469201077524   T   T   T
  0.1618653590722874  0.8809231470630002  0.1910179049775617   T   T   T
  0.4954141180982969  0.8858662180755891  0.1896272085516092   T   T   T
  0.8293737361273787  0.8807117068438688  0.1911182907155425   T   T   T
  0.1624292620991738  0.3761427666058268  0.0849221820532279   T   T   T
  0.4958316753667574  0.3761652695675820  0.0850701558897278   T   T   T
  0.8291382930627873  0.3761043639075451  0.0849220406220883   T   T   T
  0.1625168431108677  0.8761882985149875  0.0849499336006675   T   T   T
  0.4957889937219676  0.8760261630804785  0.0848656600199604   T   T   T
  0.8290478114608636  0.8762286423446740  0.0849834009941129   T   T   T
  0.3289451937468653  0.1260196517581695  0.1121712227501069   T   T   T
  0.6620766585213724  0.1260377268969285  0.1122065450856722   T   T   T
  0.9954837886685405  0.1260478122012315  0.1121144609347125   T   T   T
  0.3288383068410503  0.6259083970305848  0.1121363906951726   T   T   T
  0.6622355978605191  0.6258731520095492  0.1121489382129271   T   T   T
  0.9955490883941702  0.6262042398027576  0.1121183938985106   T   T   T
  0.0799805534405263  0.3585797091873327  0.0259433847143116   T   T   T
  0.4125042913120344  0.3587143752012151  0.0261594433152551   T   T   T
  0.7450735830544144  0.3581179679685485  0.0260584163627274   T   T   T
  0.0801562559650528  0.8588845401469426  0.0259808505401679   T   T   T
  0.4124928363294528  0.8581251861340197  0.0259299005887983   T   T   T
  0.7446875367075868  0.8581482600125085  0.0261402217403508   T   T   T
  0.3276867558187410  0.0577953536438556  0.0441061099054590   T   T   T
  0.6602666194599800  0.0577586841353698  0.0441203693432761   T   T   T
  0.9938665178177168  0.0576241356651696  0.0440642143298474   T   T   T
  0.3269440336936617  0.5575181580028663  0.0440758074548722   T   T   T
  0.6609331389560793  0.5574794291201307  0.0441025381998348   T   T   T
  0.9938051356607072  0.5580363005276350  0.0440674110646782   T   T   T
  0.8327050324187241  0.8082756373093524  0.2066208938292232   T   T   T
  0.8322082690776095  0.3065604189381342  0.2062525812674136   T   T   T
  0.1654473505681076  0.3073861391991455  0.2062690971616858   T   T   T
  0.4977270224053116  0.3108452906268475  0.2070767312837530   T   T   T
  0.1647095133226753  0.8079048053883847  0.2064610560882307   T   T   T
  0.5384202947949516  0.9269367708389080  0.2603703857530379   T   T   T
  0.0824459412059413  0.1087661890928209  0.2243479925478438   T   T   T
  0.4173022178844937  0.1047833813216197  0.2244057873915778   T   T   T
  0.7477209342848723  0.1073419010172993  0.2247143202392591   T   T   T
  0.0868188511970639  0.6082539210462822  0.2231036556911491   T   T   T
  0.3677732183322019  0.5704082342148759  0.2301752806958829   T   T   T
  0.7769823073634097  0.5990536184504861  0.2227548964114474   T   T   T
  0.4947115143226383  0.5426860607559462  0.2659199669848830   T   T   T
  0.4699157925051261  0.4573847483150648  0.3004219808054052   T   T   T
  0.5183694310548115  0.6260937071213326  0.3081860756972266   T   T   T
  0.2900501397832136  0.2729789951257425  0.2958261455291933   T   T   T
  0.4394217804067700  0.2169502845344626  0.2877126874825927   T   T   T
  0.6388393523009431  0.7700675764306395  0.3348745420767221   T   T   T
  0.5031127132164097  0.8626292538784145  0.3279784270494455   T   T   T
  0.5024449307740794  0.8757157073063034  0.2690164012783343   T   T   T
  0.5651062190623715  0.5377065967620639  0.2406400611719945   T   T   T
  0.1730389637228730  0.3372583777185384  0.0330831134191236   T   T   T
  0.5059466120250493  0.3379102630000741  0.0332385459146783   T   T   T
  0.8387185804761242  0.3371995934517992  0.0330554609632176   T   T   T
  0.1732000258235150  0.8374293247328021  0.0331249184147874   T   T   T
  0.5058894418600430  0.8369111114169613  0.0329873136448079   T   T   T
  0.8384003754923792  0.8374360378265148  0.0331164084218246   T   T   T
  0.3222438270189216  0.0883907677085023  0.2175943921800946   T   T   T
  0.6538980862846245  0.0881690769283075  0.2176850053907772   T   T   T
  0.9882082709265685  0.0878960315489132  0.2175411097685709   T   T   T
  0.3062314832991970  0.5998483662413997  0.2166267267628783   T   T   T
  0.6762721627115330  0.5890736745185495  0.2177573938895037   T   T   T
  0.9895427139423801  0.5862240805727166  0.2172811057313020   T   T   T
  0.5215469861109052  0.5505013283968136  0.2954489104893415   T   T   T
  0.3900981069937487  0.2641964789118244  0.3007241457301965   T   T   T
  0.5368594260234214  0.7593831437030087  0.3312142187661305   T   T   T
  0.4796219596328571  0.5069546967941129  0.2498221445766880   T   T   T
  0.4965273594519938  0.2476289021179395  0.0589389992352973   T   T   T
  0.8298069800360477  0.2475187218237199  0.0588156133102878   T   T   T
  0.1632997014143083  0.7475860252825145  0.0588474240776837   T   T   T
  0.4964717913875110  0.7474592190758049  0.0587781353078441   T   T   T
  0.8297076429493944  0.7476291395911203  0.0588624414882632   T   T   T
  0.1632428419100868  0.2475203420596271  0.0588317925604188   T   T   T
  0.9955425683382378  0.0009081751505437  0.1387747133337252   T   T   T
  0.3297540672851240  0.0011238351587236  0.1389352121880691   T   T   T
  0.6614761392340193  0.0011344756438862  0.1389765078094763   T   T   T
  0.9956163489246567  0.5010878995507553  0.1387353987400765   T   T   T
  0.3287721495003065  0.5012848572579467  0.1388836264823868   T   T   T
  0.6622404644854410  0.5011880779084038  0.1388757147689108   T   T   T
  0.1621712095856444  0.2498980971601797  0.1649934516996108   T   T   T
  0.4952978910141486  0.2516319085539134  0.1655877358977603   T   T   T
  0.8289901684384864  0.2498211422181868  0.1649887540865402   T   T   T
  0.1622797372176675  0.7511432800560436  0.1651270910022659   T   T   T
  0.4952032634325654  0.7506619227193325  0.1655353989450327   T   T   T
  0.8287133827453055  0.7509750244569880  0.1651986028389562   T   T   T
  0.3300577241790580  0.9955786825160122  0.1920174780208263   T   T   T
  0.6608754261606662  0.9952943001010544  0.1921376442034118   T   T   T
  0.9956460940387348  0.9980519420717769  0.1917394359360988   T   T   T
  0.3265822395048422  0.5013034479370690  0.1920950388875903   T   T   T
  0.9961552071511498  0.4961100599078794  0.1914667454203340   T   T   T
  0.6644281672487454  0.4987781048933795  0.1918936051679063   T   T   T
  0.9958737042198877  0.0005245627159669  0.0855435149221413   T   T   T
  0.3293402772043644  0.0004937826962443  0.0855682367642323   T   T   T
  0.6624071914038620  0.0005418303794630  0.0855866004332080   T   T   T
  0.9958480929346541  0.5005412452692413  0.0855310874988693   T   T   T
  0.3292163859823665  0.5005301133160608  0.0855598600926310   T   T   T
  0.6625572956543346  0.5005164675458225  0.0855647755889338   T   T   T
  0.1622965874076491  0.2510065382332851  0.1118635164927675   T   T   T
  0.4955490474171119  0.2511515286195469  0.1120540700049613   T   T   T
  0.8288188342791157  0.2510020425507455  0.1118678254149980   T   T   T
  0.1624273255817633  0.7512480216515176  0.1119052700579297   T   T   T
  0.4955686581268371  0.7508666009341481  0.1118341260831346   T   T   T
  0.8287698764121606  0.7511611320895316  0.1119335399486074   T   T   T
 
  0.00000000E+00  0.00000000E+00  0.00000000E+00
  0.00000000E+00  0.00000000E+00  0.00000000E+00
  0.00000000E+00  0.00000000E+00  0.00000000E+00
  0.00000000E+00  0.00000000E+00  0.00000000E+00
  0.00000000E+00  0.00000000E+00  0.00000000E+00
  0.00000000E+00  0.00000000E+00  0.00000000E+00
  0.00000000E+00  0.00000000E+00  0.00000000E+00
  0.00000000E+00  0.00000000E+00  0.00000000E+00
  0.00000000E+00  0.00000000E+00  0.00000000E+00
  0.00000000E+00  0.00000000E+00  0.00000000E+00
  0.00000000E+00  0.00000000E+00  0.00000000E+00
  0.00000000E+00  0.00000000E+00  0.00000000E+00
  0.00000000E+00  0.00000000E+00  0.00000000E+00
  0.00000000E+00  0.00000000E+00  0.00000000E+00
  0.00000000E+00  0.00000000E+00  0.00000000E+00
  0.00000000E+00  0.00000000E+00  0.00000000E+00
  0.00000000E+00  0.00000000E+00  0.00000000E+00
  0.00000000E+00  0.00000000E+00  0.00000000E+00
  0.00000000E+00  0.00000000E+00  0.00000000E+00
  0.00000000E+00  0.00000000E+00  0.00000000E+00
  0.00000000E+00  0.00000000E+00  0.00000000E+00
  0.00000000E+00  0.00000000E+00  0.00000000E+00
  0.00000000E+00  0.00000000E+00  0.00000000E+00
  0.00000000E+00  0.00000000E+00  0.00000000E+00
  0.00000000E+00  0.00000000E+00  0.00000000E+00
  0.00000000E+00  0.00000000E+00  0.00000000E+00
  0.00000000E+00  0.00000000E+00  0.00000000E+00
  0.00000000E+00  0.00000000E+00  0.00000000E+00
  0.00000000E+00  0.00000000E+00  0.00000000E+00
  0.00000000E+00  0.00000000E+00  0.00000000E+00
  0.00000000E+00  0.00000000E+00  0.00000000E+00
  0.00000000E+00  0.00000000E+00  0.00000000E+00
  0.00000000E+00  0.00000000E+00  0.00000000E+00
  0.00000000E+00  0.00000000E+00  0.00000000E+00
  0.00000000E+00  0.00000000E+00  0.00000000E+00
  0.00000000E+00  0.00000000E+00  0.00000000E+00
  0.00000000E+00  0.00000000E+00  0.00000000E+00
  0.00000000E+00  0.00000000E+00  0.00000000E+00
  0.00000000E+00  0.00000000E+00  0.00000000E+00
  0.00000000E+00  0.00000000E+00  0.00000000E+00
  0.00000000E+00  0.00000000E+00  0.00000000E+00
  0.00000000E+00  0.00000000E+00  0.00000000E+00
  0.00000000E+00  0.00000000E+00  0.00000000E+00
  0.00000000E+00  0.00000000E+00  0.00000000E+00
  0.00000000E+00  0.00000000E+00  0.00000000E+00
  0.00000000E+00  0.00000000E+00  0.00000000E+00
  0.00000000E+00  0.00000000E+00  0.00000000E+00
  0.00000000E+00  0.00000000E+00  0.00000000E+00
  0.00000000E+00  0.00000000E+00  0.00000000E+00
  0.00000000E+00  0.00000000E+00  0.00000000E+00
  0.00000000E+00  0.00000000E+00  0.00000000E+00
  0.00000000E+00  0.00000000E+00  0.00000000E+00
  0.00000000E+00  0.00000000E+00  0.00000000E+00
  0.00000000E+00  0.00000000E+00  0.00000000E+00
  0.00000000E+00  0.00000000E+00  0.00000000E+00
  0.00000000E+00  0.00000000E+00  0.00000000E+00
  0.00000000E+00  0.00000000E+00  0.00000000E+00
  0.00000000E+00  0.00000000E+00  0.00000000E+00
  0.00000000E+00  0.00000000E+00  0.00000000E+00
  0.00000000E+00  0.00000000E+00  0.00000000E+00
  0.00000000E+00  0.00000000E+00  0.00000000E+00
  0.00000000E+00  0.00000000E+00  0.00000000E+00
  0.00000000E+00  0.00000000E+00  0.00000000E+00
  0.00000000E+00  0.00000000E+00  0.00000000E+00
  0.00000000E+00  0.00000000E+00  0.00000000E+00
  0.00000000E+00  0.00000000E+00  0.00000000E+00
  0.00000000E+00  0.00000000E+00  0.00000000E+00
  0.00000000E+00  0.00000000E+00  0.00000000E+00
  0.00000000E+00  0.00000000E+00  0.00000000E+00
  0.00000000E+00  0.00000000E+00  0.00000000E+00
  0.00000000E+00  0.00000000E+00  0.00000000E+00
  0.00000000E+00  0.00000000E+00  0.00000000E+00
  0.00000000E+00  0.00000000E+00  0.00000000E+00
  0.00000000E+00  0.00000000E+00  0.00000000E+00
  0.00000000E+00  0.00000000E+00  0.00000000E+00
  0.00000000E+00  0.00000000E+00  0.00000000E+00
  0.00000000E+00  0.00000000E+00  0.00000000E+00
  0.00000000E+00  0.00000000E+00  0.00000000E+00
  0.00000000E+00  0.00000000E+00  0.00000000E+00
  0.00000000E+00  0.00000000E+00  0.00000000E+00
  0.00000000E+00  0.00000000E+00  0.00000000E+00
  0.00000000E+00  0.00000000E+00  0.00000000E+00
  0.00000000E+00  0.00000000E+00  0.00000000E+00
  0.00000000E+00  0.00000000E+00  0.00000000E+00
  0.00000000E+00  0.00000000E+00  0.00000000E+00
  0.00000000E+00  0.00000000E+00  0.00000000E+00
  0.00000000E+00  0.00000000E+00  0.00000000E+00
  0.00000000E+00  0.00000000E+00  0.00000000E+00
  0.00000000E+00  0.00000000E+00  0.00000000E+00
  0.00000000E+00  0.00000000E+00  0.00000000E+00
  0.00000000E+00  0.00000000E+00  0.00000000E+00
  0.00000000E+00  0.00000000E+00  0.00000000E+00
  0.00000000E+00  0.00000000E+00  0.00000000E+00
  0.00000000E+00  0.00000000E+00  0.00000000E+00
  0.00000000E+00  0.00000000E+00  0.00000000E+00
  0.00000000E+00  0.00000000E+00  0.00000000E+00
  0.00000000E+00  0.00000000E+00  0.00000000E+00
  0.00000000E+00  0.00000000E+00  0.00000000E+00
  0.00000000E+00  0.00000000E+00  0.00000000E+00
  0.00000000E+00  0.00000000E+00  0.00000000E+00
  0.00000000E+00  0.00000000E+00  0.00000000E+00
  0.00000000E+00  0.00000000E+00  0.00000000E+00
  0.00000000E+00  0.00000000E+00  0.00000000E+00
  0.00000000E+00  0.00000000E+00  0.00000000E+00
  0.00000000E+00  0.00000000E+00  0.00000000E+00
  0.00000000E+00  0.00000000E+00  0.00000000E+00
  0.00000000E+00  0.00000000E+00  0.00000000E+00
  0.00000000E+00  0.00000000E+00  0.00000000E+00
  0.00000000E+00  0.00000000E+00  0.00000000E+00
  0.00000000E+00  0.00000000E+00  0.00000000E+00
  0.00000000E+00  0.00000000E+00  0.00000000E+00
  0.00000000E+00  0.00000000E+00  0.00000000E+00
  0.00000000E+00  0.00000000E+00  0.00000000E+00
  0.00000000E+00  0.00000000E+00  0.00000000E+00
  0.00000000E+00  0.00000000E+00  0.00000000E+00
  0.00000000E+00  0.00000000E+00  0.00000000E+00
  0.00000000E+00  0.00000000E+00  0.00000000E+00
  0.00000000E+00  0.00000000E+00  0.00000000E+00
  0.00000000E+00  0.00000000E+00  0.00000000E+00
  0.00000000E+00  0.00000000E+00  0.00000000E+00
  0.00000000E+00  0.00000000E+00  0.00000000E+00
