C H O Si                                
   1.00000000000000     
    18.5749199999999988    0.0000000000000000    0.0000000000000000
     0.0000000000000000   17.5126199999999983    0.0000000000000000
     0.0000000000000000    0.0000000000000000   58.0000000000000000
   C    H    O    Si
   144   105    52   144
Selective dynamics
Direct
  0.4968318187423627  0.0631473403095451  0.0605025719177164   T   T   T
  0.1634606434271846  0.0630973447810787  0.0604717195840685   T   T   T
  0.3301552824319794  0.0631325847303970  0.0604833231271239   T   T   T
  0.4967749725134124  0.3131341663145679  0.0605015920446293   T   T   T
  0.1634076341258843  0.3131547070678442  0.0604796775091404   T   T   T
  0.3301021675181580  0.3131467352041287  0.0604898768005512   T   T   T
  0.0798936591875489  0.1860389399313336  0.1393962765113342   T   T   T
  0.2465190921204128  0.1860600410064907  0.1394233104328880   T   T   T
  0.4131693522082294  0.1860795936806161  0.1394301388679063   T   T   T
  0.0798447539990956  0.4361120160914093  0.1394291715505828   T   T   T
  0.2464923197285471  0.4361017246460346  0.1394349494756729   T   T   T
  0.4131389349039011  0.4361433945828357  0.1394400890736869   T   T   T
  0.1632688240918909  0.0610590318499528  0.1665915110887296   T   T   T
  0.3298829198198150  0.0610865339839492  0.1665997412806021   T   T   T
  0.4964656896674316  0.0610155527721916  0.1665979122307549   T   T   T
  0.1632029532132854  0.3111214892828513  0.1666125263746518   T   T   T
  0.3298826856484873  0.3111622783633105  0.1666205601197247   T   T   T
  0.4964691991662977  0.3112367479175212  0.1666018798081720   T   T   T
  0.0802365701802012  0.1879062968846536  0.1919681547121800   T   T   T
  0.2466474777214222  0.1880442062372334  0.1919859807058924   T   T   T
  0.4130849846418560  0.1879303553233652  0.1919590921835175   T   T   T
  0.0799327664140575  0.4380413823321730  0.1920161810485642   T   T   T
  0.2466057970955678  0.4380713774441728  0.1919913066199978   T   T   T
  0.4132278645011890  0.4381705213435624  0.1920002213101077   T   T   T
  0.0799913922890685  0.1861962289229398  0.0857953040662721   T   T   T
  0.2466244678637160  0.1861944224761971  0.0858345506816151   T   T   T
  0.4132832157781425  0.1862108929015813  0.0858343524831292   T   T   T
  0.0799726452259304  0.4362270535992615  0.0858244494214582   T   T   T
  0.2466177559114583  0.4362111320476534  0.0858428060641898   T   T   T
  0.4132795932715349  0.4362107864346706  0.0858439285355041   T   T   T
  0.1632323441299144  0.0610546648003278  0.1130170164135540   T   T   T
  0.3299021201030546  0.0610857919882524  0.1130382133618655   T   T   T
  0.4965495904013644  0.0610949890131127  0.1130569381365037   T   T   T
  0.1632222764900151  0.3110921809996505  0.1130352840711395   T   T   T
  0.3299077892220197  0.3110992042795142  0.1130475314129629   T   T   T
  0.4965375119193777  0.3111111789156391  0.1130511152500079   T   T   T
  0.4968247096055470  0.5631220031223667  0.0605076973722184   T   T   T
  0.1634338416510146  0.5631384672706646  0.0604930359414221   T   T   T
  0.3301637457333770  0.5631517829993981  0.0604954749928051   T   T   T
  0.4967886965612675  0.8131387837016087  0.0605136561918721   T   T   T
  0.1634063548751430  0.8130911459882278  0.0604691460374715   T   T   T
  0.3301199241743724  0.8131296430999889  0.0604787453187933   T   T   T
  0.0798286047204495  0.6861320480206519  0.1394273753652697   T   T   T
  0.2464805987185969  0.6860887201328429  0.1394373253288199   T   T   T
  0.4131493250142398  0.6861538068852313  0.1394346366150618   T   T   T
  0.0799263990372392  0.9359770014042199  0.1393871863086050   T   T   T
  0.2465273963697109  0.9360282276819847  0.1394108683214165   T   T   T
  0.4131729338262821  0.9360546653930207  0.1394204098839383   T   T   T
  0.1631529580438965  0.5611693511598987  0.1666323970939280   T   T   T
  0.3298547335383442  0.5612018469345915  0.1666338101570551   T   T   T
  0.4964458415594536  0.5613521261221722  0.1666237997566369   T   T   T
  0.1631885848903447  0.8111577162259455  0.1666171980866739   T   T   T
  0.3298849330279617  0.8111741985866296  0.1666173706222114   T   T   T
  0.4965409707018678  0.8112442279656963  0.1666345741749928   T   T   T
  0.0799998262354587  0.6881779793679295  0.1920036499854530   T   T   T
  0.2466339115872155  0.6881488729032157  0.1920069698442284   T   T   T
  0.4132485893567190  0.6881983159895063  0.1920104037044334   T   T   T
  0.0800275759294465  0.9380871841219807  0.1919875855179995   T   T   T
  0.2466440132870179  0.9380646626541044  0.1919855940328546   T   T   T
  0.4132562892777680  0.9380988783008356  0.1919976405729644   T   T   T
  0.0799543546654860  0.6862157047751635  0.0858289855444203   T   T   T
  0.2466382370198490  0.6861886503290298  0.0858364027663287   T   T   T
  0.4133088288185287  0.6862222638726097  0.0858433833304470   T   T   T
  0.0799781912852327  0.9361515129686000  0.0858006510253112   T   T   T
  0.2466355375172624  0.9361752602186457  0.0858221725549247   T   T   T
  0.4132941023209747  0.9362051292869952  0.0858333787565686   T   T   T
  0.1631932049172588  0.5611158143475740  0.1130462424573400   T   T   T
  0.3298960729846811  0.5611191758636136  0.1130527508358621   T   T   T
  0.4965434850356837  0.5611190482646241  0.1130612578070804   T   T   T
  0.1632344677932889  0.8110539641817487  0.1130239935350106   T   T   T
  0.3299129727061040  0.8110805536638228  0.1130367514178402   T   T   T
  0.4965947213208793  0.8111584641177445  0.1130654877904376   T   T   T
  0.9967551276858009  0.0631148247544205  0.0604553928077086   T   T   T
  0.6634612738048319  0.0631923949445698  0.0605811560765105   T   T   T
  0.8300919935169192  0.0631728842696552  0.0605359689289970   T   T   T
  0.9967125613427366  0.3131646961064072  0.0604581605266791   T   T   T
  0.6633869079577112  0.3131082157783953  0.0605789752500156   T   T   T
  0.8300883425968126  0.3131333127372046  0.0605284834718723   T   T   T
  0.5798152886477824  0.1861046276217311  0.1394452247961118   T   T   T
  0.7464940704614004  0.1863702591670963  0.1396578084221160   T   T   T
  0.9132228606832001  0.1860121980928034  0.1393439420717674   T   T   T
  0.5797986334909303  0.4361683646462896  0.1394649360633100   T   T   T
  0.7465128740126045  0.4360875674052015  0.1394935367144364   T   T   T
  0.9132160664731895  0.4361452070717595  0.1394319574516245   T   T   T
  0.6633796598887857  0.0615035292945960  0.1667753462148190   T   T   T
  0.8296233946833689  0.0613693332875953  0.1667070342517709   T   T   T
  0.9967497024007769  0.0608549433386294  0.1665163354608200   T   T   T
  0.6630640054033445  0.3113058828031603  0.1668181379601629   T   T   T
  0.8300519885977840  0.3113133695482494  0.1666902997614591   T   T   T
  0.9966289909347633  0.3111519814401120  0.1665714873269152   T   T   T
  0.5796429383162414  0.1875851484974671  0.1918087367795795   T   T   T
  0.7466426790026680  0.1899668963862976  0.1927778975674490   T   T   T
  0.9136888296509603  0.1869012185843565  0.1915713127511882   T   T   T
  0.5798382356628083  0.4384964876165653  0.1920002174642259   T   T   T
  0.7465717314434771  0.4380578270269385  0.1920496860023391   T   T   T
  0.9133822056893277  0.4384563938760678  0.1919594187282213   T   T   T
  0.5799541500064104  0.1862244034384977  0.0858773329159980   T   T   T
  0.7466081384741508  0.1862642773436228  0.0859787973549685   T   T   T
  0.9132753633292208  0.1862103451748559  0.0858018439475538   T   T   T
  0.5799730682913324  0.4362045192883530  0.0858742186680827   T   T   T
  0.7466168312316925  0.4361976259978836  0.0858938130693794   T   T   T
  0.9132689025047230  0.4361994508920295  0.0858406275804457   T   T   T
  0.6632271456313741  0.0611846202750311  0.1131297101292804   T   T   T
  0.8298429430165063  0.0611694138303103  0.1130942315563720   T   T   T
  0.9965819488514709  0.0610346859864207  0.1129984553476852   T   T   T
  0.6631959516403496  0.3111193246800734  0.1131595196614125   T   T   T
  0.8299179097382202  0.3111241674459717  0.1130977495680190   T   T   T
  0.9965946233006250  0.3110956430801332  0.1130125524234324   T   T   T
  0.9967454119691211  0.5631302370645487  0.0604961655657919   T   T   T
  0.6634347445019997  0.5631262514619038  0.0605270253935800   T   T   T
  0.8301270725061423  0.5631319164005748  0.0605172267726128   T   T   T
  0.9966881433805631  0.8131154446417305  0.0604865762572953   T   T   T
  0.6633885481533635  0.8131502358839822  0.0605370520362628   T   T   T
  0.8300659298450007  0.8131409253895914  0.0605148257913103   T   T   T
  0.5798288564296233  0.6861487584042638  0.1394565207758804   T   T   T
  0.7464796033188941  0.6861594882374924  0.1394609394202339   T   T   T
  0.9131283783061576  0.6861233350330602  0.1394453168463773   T   T   T
  0.5799445449295394  0.9362312779421321  0.1394927911036855   T   T   T
  0.7464733535827882  0.9361434381564434  0.1394761913537836   T   T   T
  0.9130880309608309  0.9361904596245895  0.1394522747593397   T   T   T
  0.6631847563391441  0.5612566638008508  0.1666343023824071   T   T   T
  0.8298012384054841  0.5612065431859106  0.1666365585869647   T   T   T
  0.9965750976475757  0.5613027761326771  0.1666102451462380   T   T   T
  0.6631867967628218  0.8112103929238277  0.1666583816280784   T   T   T
  0.8298608661234319  0.8112255046343422  0.1666400195951288   T   T   T
  0.9965279258350960  0.8112329773524607  0.1666156616164907   T   T   T
  0.5799796628442869  0.6881739002885189  0.1920248728612362   T   T   T
  0.7466407701789821  0.6881638233914044  0.1920267664855948   T   T   T
  0.9132648026241221  0.6881716471191743  0.1920040461781490   T   T   T
  0.5800246446704492  0.9381896796864628  0.1920432459554343   T   T   T
  0.7466518970768812  0.9381374832635704  0.1920567865732057   T   T   T
  0.9132906471263413  0.9381724391408800  0.1919979016603657   T   T   T
  0.5799772425536406  0.6862039050457802  0.0858691085662830   T   T   T
  0.7466064115004045  0.6862090448302287  0.0858765137464041   T   T   T
  0.9132369564770676  0.6862093693531165  0.0858538750106738   T   T   T
  0.5799847570701081  0.9362490869104236  0.0858840063191044   T   T   T
  0.7465963981077569  0.9362320944572216  0.0858846783549380   T   T   T
  0.9132287939367371  0.9362223741809983  0.0858421230793550   T   T   T
  0.6632132482863068  0.5610954048955547  0.1130788292109956   T   T   T
  0.8298756508457861  0.5610963592767853  0.1130741992426171   T   T   T
  0.9965541003533913  0.5611245436445765  0.1130456772609374   T   T   T
  0.6632224137234416  0.8111222763562462  0.1130775505203858   T   T   T
  0.8298549149337041  0.8111256548097628  0.1130650626448156   T   T   T
  0.9965272228638449  0.8111184467031087  0.1130460440475483   T   T   T
  0.0362051421654765  0.1779251196928884  0.0277174583957985   T   T   T
  0.2026831602036224  0.1778808944037821  0.0277815266495887   T   T   T
  0.3693707772196079  0.1778483596377208  0.0277793175402278   T   T   T
  0.0360690393629034  0.4279545451332765  0.0277456157156572   T   T   T
  0.2025826238081446  0.4278498384496140  0.0277865648334789   T   T   T
  0.3692329204877132  0.4278035723666775  0.0277965417072514   T   T   T
  0.1622948104578625  0.0264398856892698  0.0450525328392621   T   T   T
  0.3288891174481313  0.0264555245947019  0.0450658617539465   T   T   T
  0.4956502425684622  0.0264861402941403  0.0450831678701165   T   T   T
  0.1621737392076882  0.2764765659788670  0.0450613527271208   T   T   T
  0.3288007377069435  0.2764644788525066  0.0450734634751039   T   T   T
  0.4955292891061812  0.2764727687545195  0.0450829712327494   T   T   T
  0.4144498157164061  0.4014733822573913  0.2074156774386088   T   T   T
  0.4143308889994544  0.1513264256680443  0.2073921575164566   T   T   T
  0.0811045532240642  0.1512499347129892  0.2073824833814688   T   T   T
  0.2477682078572792  0.1513790498456033  0.2074076370351073   T   T   T
  0.0810906911527267  0.4012993232254574  0.2074288475550873   T   T   T
  0.2476882018560053  0.4013900854758451  0.2074072609362449   T   T   T
  0.0412168949911167  0.0526140123786727  0.2246510152228605   T   T   T
  0.2078061757796312  0.0526686822234962  0.2246729974107326   T   T   T
  0.3744797810590931  0.0526998505365370  0.2246555788139253   T   T   T
  0.0361552992962005  0.3032852341385201  0.2253681876363135   T   T   T
  0.2078190035755297  0.3026744085995929  0.2246732409104508   T   T   T
  0.3746510441812396  0.3026262418303376  0.2246342431176497   T   T   T
  0.0360663889211505  0.6779253243676845  0.0277730941432011   T   T   T
  0.2027142672594949  0.6778720546166637  0.0277789360044100   T   T   T
  0.3694079993321503  0.6778506511857729  0.0277881379436463   T   T   T
  0.0359268346408620  0.9278365939672817  0.0277508658649019   T   T   T
  0.2025556183412409  0.9277824226404000  0.0277697103178793   T   T   T
  0.3693001377580519  0.9278090431967368  0.0277778357644538   T   T   T
  0.1622277851674068  0.5264499910343274  0.0450781210196098   T   T   T
  0.3289225629883722  0.5264508553329037  0.0450850101168814   T   T   T
  0.4956109203593565  0.5264460768852550  0.0450914608723053   T   T   T
  0.1621805978468678  0.7763924038856933  0.0450587842930594   T   T   T
  0.3288414850724259  0.7764268521427393  0.0450660371596241   T   T   T
  0.4956013242482311  0.7764717623010282  0.0450955831395919   T   T   T
  0.4143399934623301  0.9013825546207005  0.2074073387994291   T   T   T
  0.4143584732069607  0.6514618735955174  0.2074175797591080   T   T   T
  0.0810673227839124  0.6514737067324992  0.2074155064168484   T   T   T
  0.2477330966094072  0.6515076964203859  0.2074323055115553   T   T   T
  0.0811012326919641  0.9013486758143207  0.2073916604637464   T   T   T
  0.2477638291889147  0.9013722634434126  0.2073992208789226   T   T   T
  0.0410398223143199  0.5533592611502923  0.2246528028193831   T   T   T
  0.2077326929085367  0.5531751042453830  0.2246233097383392   T   T   T
  0.3743193733991974  0.5530974104831359  0.2246508223096725   T   T   T
  0.0410746893862867  0.8028852252017870  0.2246840677270641   T   T   T
  0.2076192999003350  0.8030378548707215  0.2247114757245937   T   T   T
  0.3746206131874548  0.8027368042770187  0.2246465213622161   T   T   T
  0.5363755575095558  0.1779234139660914  0.0277768407132276   T   T   T
  0.7026059227445369  0.1779149020216875  0.0279173524105688   T   T   T
  0.8691816357262255  0.1778572675956457  0.0277689395012963   T   T   T
  0.5362048142113178  0.4278818889984296  0.0277857142854296   T   T   T
  0.7024012972120843  0.4277403017067140  0.0278537848489438   T   T   T
  0.8689333600983932  0.4278039453584707  0.0278075195878046   T   T   T
  0.6623211410005031  0.0264950911329415  0.0451620100919533   T   T   T
  0.8286436007344294  0.0264902621226163  0.0451205520448366   T   T   T
  0.9954980292701389  0.0264707764774882  0.0450301061512675   T   T   T
  0.6621042420355033  0.2763524193430083  0.0451821191904236   T   T   T
  0.8287609787464643  0.2764028678076911  0.0451215032180970   T   T   T
  0.9954217150860957  0.2765311457983393  0.0450320196933559   T   T   T
  0.9141018915792216  0.4020521758416360  0.2074184412308838   T   T   T
  0.9149340867714532  0.1504941404230783  0.2070458648684381   T   T   T
  0.5806112309293875  0.1511312513857908  0.2072770715320473   T   T   T
  0.7480327666868678  0.1526993003653125  0.2080662283969136   T   T   T
  0.5806302244418186  0.4017536069608912  0.2073966736234991   T   T   T
  0.7467975709533072  0.4014209821363207  0.2074828987235139   T   T   T
  0.5408352563171370  0.0529823012975488  0.2247320859337359   T   T   T
  0.7079223199673822  0.0523405388149335  0.2248345546685630   T   T   T
  0.8746098256106912  0.0524936880744912  0.2247517561269447   T   T   T
  0.5432841868921211  0.3009109580299413  0.2238330813578279   T   T   T
  0.6892516628515476  0.3104343450864778  0.2283447965280422   T   T   T
  0.8911397923463206  0.2954292879641783  0.2228168686380845   T   T   T
  0.7737398585936435  0.3062410895502769  0.2735739295569590   T   T   T
  0.7469058056301598  0.2383202798680243  0.2930822020429550   T   T   T
  0.7861157701411767  0.3197216788594278  0.3028371154900542   T   T   T
  0.6565203035464996  0.1937316155042344  0.3100658389520463   T   T   T
  0.7107807298828247  0.1296162078585239  0.3024302398220164   T   T   T
  0.8253043702993538  0.3662666419907021  0.3336090515202329   T   T   T
  0.7423702512893440  0.3775663694720799  0.3309284722443015   T   T   T
  0.7598429194846443  0.3957451957573593  0.2520135842861329   T   T   T
  0.7935172711284025  0.3232211141998628  0.2385388424314580   T   T   T
  0.5361952650999169  0.6779202803353606  0.0277919607411617   T   T   T
  0.7026706379335270  0.6778783360849365  0.0278260037820701   T   T   T
  0.8692101820033734  0.6778761316663535  0.0278127440368835   T   T   T
  0.5360568719882738  0.9278907653935997  0.0278067424252994   T   T   T
  0.7024524065389409  0.9278134108552583  0.0278361849377729   T   T   T
  0.8690910898419937  0.9278747864216553  0.0278074456362974   T   T   T
  0.6622051024514654  0.5264386210609295  0.0451098824791784   T   T   T
  0.8288608550986311  0.5264469565467110  0.0451008117067418   T   T   T
  0.9954731408725971  0.5264701361235934  0.0450753010215538   T   T   T
  0.6621111857524771  0.7764758122196074  0.0451159705626813   T   T   T
  0.8287244301643628  0.7764615231807216  0.0450997592920902   T   T   T
  0.9953317568889801  0.7764180335011363  0.0450729780087717   T   T   T
  0.9144561274747272  0.9014701566811583  0.2074138338831897   T   T   T
  0.9144357761540222  0.6515011906498263  0.2074243934876233   T   T   T
  0.5810475218951754  0.6514641930321121  0.2074380922662985   T   T   T
  0.7478276226560542  0.6515743259581160  0.2074592871958093   T   T   T
  0.5810491384512181  0.9014938633385000  0.2074597785481924   T   T   T
  0.7478414123144033  0.9014251812542742  0.2074647607285293   T   T   T
  0.5406446608154237  0.5534985558602689  0.2246871580328590   T   T   T
  0.7077636978388443  0.5542435514188320  0.2244904534802953   T   T   T
  0.8743604429975912  0.5535740175995598  0.2246123480897654   T   T   T
  0.5411150915721920  0.8028584070869904  0.2246928857129021   T   T   T
  0.7075711524328210  0.8030957824961475  0.2247364135826660   T   T   T
  0.8746669105346876  0.8026917093136915  0.2246492261535336   T   T   T
  0.0839758111667029  0.1656387678368475  0.0337292066999888   T   T   T
  0.2505319815985895  0.1657565682493327  0.0337685573709616   T   T   T
  0.4172038529743012  0.1657350118271431  0.0337755911278912   T   T   T
  0.0838565059644471  0.4157883523440067  0.0337648514047420   T   T   T
  0.2504448480953983  0.4158083528840864  0.0337761578125177   T   T   T
  0.4170952450530975  0.4157389475182689  0.0337826984571388   T   T   T
  0.1599065435312171  0.0411679003876693  0.2186143928702336   T   T   T
  0.3265562399604152  0.0411708736696337  0.2186201230193409   T   T   T
  0.4930609493604619  0.0410911475515253  0.2186492410343635   T   T   T
  0.1599236061743387  0.2911711394519523  0.2186167681849758   T   T   T
  0.3266924616654809  0.2911885702403215  0.2186132703073994   T   T   T
  0.4938902672925369  0.2910146691379398  0.2185221641940932   T   T   T
  0.0838642805859200  0.6657328192466556  0.0337798446994550   T   T   T
  0.2505527967151541  0.6657681081274026  0.0337774717539574   T   T   T
  0.4172346262627334  0.6657724961279918  0.0337942707656121   T   T   T
  0.0837537250257192  0.9156714460976700  0.0337450725810819   T   T   T
  0.2504216400582246  0.9157463455057016  0.0337583032996395   T   T   T
  0.4171432505122298  0.9157219884119923  0.0337729693786141   T   T   T
  0.1598506879739280  0.5411714590926775  0.2186351545536715   T   T   T
  0.3264448419107646  0.5411464365609927  0.2186469704176931   T   T   T
  0.4928769075784479  0.5412388046217790  0.2186651413265509   T   T   T
  0.1598097222818813  0.7911527963645011  0.2186524341751289   T   T   T
  0.3266533833133078  0.7912761633212585  0.2186346527416874   T   T   T
  0.4932237439117900  0.7912528095708882  0.2186412391397112   T   T   T
  0.5841324082390318  0.1658463686807064  0.0338373964927867   T   T   T
  0.7504732537976169  0.1659976559143013  0.0339283469975038   T   T   T
  0.9170382509900250  0.1656414128119582  0.0337284158572403   T   T   T
  0.5839884037269377  0.4157848745317889  0.0338235934988423   T   T   T
  0.7502915174521236  0.4157324115795201  0.0338306149578777   T   T   T
  0.9168393320668138  0.4157185359809181  0.0337559195393806   T   T   T
  0.6599977611455077  0.0412198368425821  0.2187286328713290   T   T   T
  0.8266697056862007  0.0412899539726660  0.2186711724269593   T   T   T
  0.9933109151518258  0.0413344178274746  0.2185657503107683   T   T   T
  0.6496855874977687  0.2911934617256822  0.2187579957809679   T   T   T
  0.8395791046756406  0.2915312762304679  0.2186910559404775   T   T   T
  0.9901184862539252  0.2887254391434722  0.2185454600253221   T   T   T
  0.7855701636125771  0.2799081985786502  0.2895197010112882   T   T   T
  0.6900429770430428  0.1783743621016320  0.2974407080873203   T   T   T
  0.7876446539873997  0.3775385575317710  0.3223575257350810   T   T   T
  0.7574014035355141  0.3401855833100806  0.2509274720297378   T   T   T
  0.5839939630601695  0.6658256670438659  0.0338208580091303   T   T   T
  0.7505207884909921  0.6658119850307547  0.0338212677811606   T   T   T
  0.9170747121274889  0.6657925817541370  0.0337944517342412   T   T   T
  0.5838731545365653  0.9158096243431075  0.0338227293119347   T   T   T
  0.7503383933851564  0.9157524857574169  0.0338085207491737   T   T   T
  0.9169574913496523  0.9157209402642653  0.0337727333330328   T   T   T
  0.6599276973503975  0.5412964636270600  0.2186475702636764   T   T   T
  0.8265380377327644  0.5412493918185383  0.2186403569930678   T   T   T
  0.9932294077528143  0.5412830144031223  0.2186292152260640   T   T   T
  0.6597781764634464  0.7911485204349364  0.2186797556223993   T   T   T
  0.8266885123580777  0.7912507943705319  0.2186438985877359   T   T   T
  0.9932062336571514  0.7912009698328902  0.2186313663293243   T   T   T
  0.2468768187795169  0.1216670510605308  0.0599674599158514   T   T   T
  0.4135434238486562  0.1216780649275167  0.0599769399649753   T   T   T
  0.0801537626092884  0.3716893638886281  0.0599648424594880   T   T   T
  0.2468425765773601  0.3716991666738955  0.0599725812442891   T   T   T
  0.4135053558732932  0.3716709708428136  0.0599856623597956   T   T   T
  0.0801971998745341  0.1216241443628402  0.0599375876722459   T   T   T
  0.4964825058738150  0.4985091653836819  0.1396611958777626   T   T   T
  0.1631908366329545  0.4984717558808803  0.1396452758628222   T   T   T
  0.3298030688927369  0.4984769535782340  0.1396515412289311   T   T   T
  0.4965152779087117  0.2484717217595623  0.1396456149418443   T   T   T
  0.1632371243650002  0.2484198019173307  0.1396261191208275   T   T   T
  0.3298277188423208  0.2484350244789191  0.1396426856118621   T   T   T
  0.0800087537748266  0.1230226372109519  0.1658203090871185   T   T   T
  0.2465837393109144  0.1231715309121790  0.1658790832166427   T   T   T
  0.4131863468152616  0.1231253283241600  0.1658801704199840   T   T   T
  0.0799704567209900  0.3732408233692071  0.1658837161850340   T   T   T
  0.2465501572543832  0.3732024572905128  0.1658858992603386   T   T   T
  0.4131803300359356  0.3732466652660608  0.1659013822222723   T   T   T
  0.1631832438882071  0.4966584047523351  0.1924926712585092   T   T   T
  0.3298208337824677  0.4966893065214860  0.1924949908871456   T   T   T
  0.4963868436043715  0.4968847042220635  0.1924877835727358   T   T   T
  0.1633039313616739  0.2467211645352385  0.1924938961507879   T   T   T
  0.4962884807728298  0.2464853234727265  0.1924387740997534   T   T   T
  0.3298611159544835  0.2466499073680414  0.1924763884033638   T   T   T
  0.4966113915034217  0.4982247120195845  0.0866021410295363   T   T   T
  0.1632722952294654  0.4982443450414135  0.0865846493757789   T   T   T
  0.3299671014081775  0.4982358658260664  0.0865935090671931   T   T   T
  0.4965932381084458  0.2482401272667782  0.0865959246007562   T   T   T
  0.1632642621915650  0.2482247164625370  0.0865705133820324   T   T   T
  0.3299566283315081  0.2482265511239969  0.0865852557222284   T   T   T
  0.0799095744790752  0.1234006132838130  0.1127753470096910   T   T   T
  0.2465647488120595  0.1234229311363207  0.1128264525820230   T   T   T
  0.4132220964688289  0.1234561913042367  0.1128241653894752   T   T   T
  0.0799148069152965  0.3734753425703172  0.1128088498994859   T   T   T
  0.2465651932001416  0.3734512240620529  0.1128377723950255   T   T   T
  0.4132262760172616  0.3734769810115722  0.1128339317103172   T   T   T
  0.2468782312311717  0.6216659068107844  0.0599737932788152   T   T   T
  0.4135639735374300  0.6216807863290764  0.0599874138615755   T   T   T
  0.0801289462941010  0.8715951100693933  0.0599494060075965   T   T   T
  0.2468394559390537  0.8716478892514856  0.0599541934680167   T   T   T
  0.4135216329389296  0.8716630621601363  0.0599772463488666   T   T   T
  0.0801672900101666  0.6216625320516516  0.0599758079780166   T   T   T
  0.4965073399885054  0.9983903989583129  0.1396438562783650   T   T   T
  0.1632458952556362  0.9983641563729243  0.1396055304080225   T   T   T
  0.3298254884874028  0.9984034475408813  0.1396256050399926   T   T   T
  0.4965184632772997  0.7484875525252134  0.1396566045630306   T   T   T
  0.1631765484673438  0.7484487832842086  0.1396347918890678   T   T   T
  0.3297948745712638  0.7484570562679992  0.1396387987376854   T   T   T
  0.0798903545675002  0.6233019266882772  0.1658912344645446   T   T   T
  0.2465062537667334  0.6232291975631222  0.1659029730903147   T   T   T
  0.4131392433513882  0.6233214332397486  0.1659021905969850   T   T   T
  0.0798883626347474  0.8732144360733836  0.1658743405251798   T   T   T
  0.2465365216970049  0.8731956824395729  0.1658796264310824   T   T   T
  0.4131953660249673  0.8732328050569689  0.1658927384261258   T   T   T
  0.1632240617773252  0.9966407498944496  0.1924749796086630   T   T   T
  0.3298670805753685  0.9966670194313527  0.1924774635643643   T   T   T
  0.4965098685087740  0.9966728105654479  0.1925010220472776   T   T   T
  0.1632051843468733  0.7467256875174502  0.1924949221114472   T   T   T
  0.4965256904587056  0.7467376929695300  0.1925020378871440   T   T   T
  0.3298570500255209  0.7467447991938745  0.1924913534467452   T   T   T
  0.4966116092187385  0.9982417317706783  0.0865958477728020   T   T   T
  0.1632726207992137  0.9981859071656313  0.0865610856387668   T   T   T
  0.3299696353613641  0.9982124919821844  0.0865763969188551   T   T   T
  0.4966349647875695  0.7482455429522278  0.0866061698924801   T   T   T
  0.1632744339416547  0.7482024967330968  0.0865713154208196   T   T   T
  0.3299672773581063  0.7482159986167329  0.0865806351449494   T   T   T
  0.0798753517034499  0.6234858734929357  0.1128230488549778   T   T   T
  0.2465510111972421  0.6234590032695261  0.1128402002389776   T   T   T
  0.4132213316734374  0.6234818864681791  0.1128356311494463   T   T   T
  0.0799155203003887  0.8733877678421688  0.1127867941317826   T   T   T
  0.2465690773152028  0.8734094580112425  0.1128174675807415   T   T   T
  0.4132379844275264  0.8734442896371083  0.1128203876059422   T   T   T
  0.7468548518715132  0.1217289626227310  0.0600991549547263   T   T   T
  0.9134867429541770  0.1216732291670725  0.0599463735864128   T   T   T
  0.5801840113699303  0.3716736057177026  0.0600150187731507   T   T   T
  0.7468031428137176  0.3716229958604272  0.0600293615850943   T   T   T
  0.9134388996149519  0.3717023048595173  0.0599676462165231   T   T   T
  0.5802260277993890  0.1217076906090077  0.0600208693037038   T   T   T
  0.9965307278204919  0.4985103461508522  0.1396379386290309   T   T   T
  0.6631302087132258  0.4984616671446496  0.1396716737411913   T   T   T
  0.8298395384742808  0.4984608905098324  0.1396649468123517   T   T   T
  0.9965325865816553  0.2483564448977134  0.1395598124541454   T   T   T
  0.6630355760465778  0.2485447746992339  0.1397920968544197   T   T   T
  0.8299671238022824  0.2484310779547548  0.1396700098774591   T   T   T
  0.5797416089956569  0.1230779369099234  0.1658544972429845   T   T   T
  0.7465051693876072  0.1240714591577301  0.1662792926905750   T   T   T
  0.9133577626282697  0.1225443760582461  0.1656363252126291   T   T   T
  0.5797169932697993  0.3734047129816991  0.1659386650357523   T   T   T
  0.7464458823953339  0.3731799616255419  0.1659518317591484   T   T   T
  0.9133675061994997  0.3734242849860218  0.1658829264616944   T   T   T
  0.6630724589175540  0.4968886873555796  0.1924926416510738   T   T   T
  0.8298957841146107  0.4968064223208503  0.1924917673019521   T   T   T
  0.9966264137575997  0.4968809887496993  0.1924770609486628   T   T   T
  0.6620053554229530  0.2474557827591151  0.1928862223969250   T   T   T
  0.9966631563997470  0.2456658584403108  0.1921217217854342   T   T   T
  0.8311981028123842  0.2464962711855848  0.1923402415454049   T   T   T
  0.9966209757878365  0.4982279728649139  0.0865867711821429   T   T   T
  0.6633028617817459  0.4982294852969819  0.0866208500960421   T   T   T
  0.8299244868290816  0.4982218376224146  0.0866105934448984   T   T   T
  0.9966378558144897  0.2482190034339691  0.0865456534613119   T   T   T
  0.6632735685521395  0.2482548720195847  0.0866840060336770   T   T   T
  0.8299307582731132  0.2482463892459573  0.0866273387928867   T   T   T
  0.5798733419391952  0.1234983321336205  0.1128641315291734   T   T   T
  0.7465264034544522  0.1235757352922427  0.1129784152446856   T   T   T
  0.9132433546196302  0.1234007547836386  0.1127724998947477   T   T   T