C H O Si                                
   1.00000000000000     
    18.5749199999999988    0.0000000000000000    0.0000000000000000
     0.0000000000000000   17.5126199999999983    0.0000000000000000
     0.0000000000000000    0.0000000000000000   58.0000000000000000
   C    H    O    Si
   144   105    52   144
Selective dynamics
Direct
  0.4968043142317284  0.0631409399133031  0.0605072660623479   T   T   T
  0.1634574244745034  0.0630842451542907  0.0604806374567869   T   T   T
  0.3301041456373506  0.0631024205007424  0.0604922213493571   T   T   T
  0.4967675905363149  0.3131309096835903  0.0605070325158059   T   T   T
  0.1634184012435165  0.3131158263299660  0.0604874535867144   T   T   T
  0.3300717671497503  0.3131090806199666  0.0604993612828859   T   T   T
  0.0798785531907112  0.1860641646806090  0.1393934154745672   T   T   T
  0.2465078929259091  0.1860911516322124  0.1394239318543694   T   T   T
  0.4131490138128072  0.1861163448630198  0.1394278136245476   T   T   T
  0.0798187098459639  0.4361450793525938  0.1394274851490647   T   T   T
  0.2464707199653193  0.4361378289974921  0.1394295744093675   T   T   T
  0.4131235676378599  0.4361705076282198  0.1394374777401551   T   T   T
  0.1632573614071525  0.0610801910764160  0.1665939810179292   T   T   T
  0.3298267935286137  0.0611106089529916  0.1666028717989836   T   T   T
  0.4964414735733713  0.0610220712880876  0.1666008680830126   T   T   T
  0.1631820755067251  0.3111580087565728  0.1666141886442795   T   T   T
  0.3298293024418762  0.3111876642126107  0.1666199986489460   T   T   T
  0.4964185852024248  0.3112230929671604  0.1666061173424426   T   T   T
  0.0801817576987609  0.1878457172300745  0.1919611208915668   T   T   T
  0.2466383044513556  0.1880034423319876  0.1919868604649970   T   T   T
  0.4131346910036533  0.1878892162913569  0.1919632783349617   T   T   T
  0.0798985804407617  0.4379808301716202  0.1920057235142139   T   T   T
  0.2465767176343954  0.4380320764264708  0.1919890795367848   T   T   T
  0.4132364022557333  0.4380832452263930  0.1919947743499052   T   T   T
  0.0799457904156988  0.1861802717897061  0.0858053774539201   T   T   T
  0.2466142725810167  0.1862010011992014  0.0858399809345298   T   T   T
  0.4132811390159755  0.1862146151818324  0.0858473464115912   T   T   T
  0.0799373802423040  0.4362220363036771  0.0858353456341623   T   T   T
  0.2466182047013268  0.4362096071908045  0.0858496329881851   T   T   T
  0.4132860656056423  0.4362165049615717  0.0858532357073104   T   T   T
  0.1632308755652319  0.0610485627383900  0.1130200980378852   T   T   T
  0.3298983791226995  0.0610795599609094  0.1130345016298266   T   T   T
  0.4965400329076414  0.0611156385601262  0.1130559112656803   T   T   T
  0.1632389505579000  0.3110884376748500  0.1130371723693310   T   T   T
  0.3298956690337450  0.3111004403772082  0.1130476183661572   T   T   T
  0.4965439636609443  0.3111164344632460  0.1130554456534844   T   T   T
  0.4968060807149700  0.5631113868808424  0.0605134116893556   T   T   T
  0.1634409045537386  0.5631184390792462  0.0604969099154417   T   T   T
  0.3301166294779722  0.5631141429295552  0.0605071840405948   T   T   T
  0.4967788823051917  0.8131333234951450  0.0605178190303031   T   T   T
  0.1634137892339711  0.8130648925389418  0.0604800985312237   T   T   T
  0.3300842443929351  0.8130885646335845  0.0604894518514138   T   T   T
  0.0797985050898298  0.6861537468483082  0.1394251494725915   T   T   T
  0.2464593158430669  0.6861238110945905  0.1394296092812997   T   T   T
  0.4131213862584319  0.6861799688838490  0.1394344799166393   T   T   T
  0.0799207529999207  0.9360041953157436  0.1393802371953234   T   T   T
  0.2465170675547821  0.9360735281137521  0.1394091724042894   T   T   T
  0.4131470819318599  0.9360885556450764  0.1394151939774881   T   T   T
  0.1631227634489423  0.5611920625556476  0.1666335641414823   T   T   T
  0.3297910603342979  0.5612322950706596  0.1666379940607216   T   T   T
  0.4964064403411334  0.5613741263363250  0.1666292860803008   T   T   T
  0.1631581352291567  0.8111752948450662  0.1666176743840040   T   T   T
  0.3298263499785612  0.8111820122696385  0.1666167480830979   T   T   T
  0.4965026600034151  0.8112373214122698  0.1666359217653155   T   T   T
  0.0799480420353960  0.6880922763311933  0.1919961136478988   T   T   T
  0.2466083462472390  0.6881078007252180  0.1920064875936470   T   T   T
  0.4132592148185668  0.6881154545063276  0.1920050694127158   T   T   T
  0.0799740724978129  0.9380279339565103  0.1919839419203133   T   T   T
  0.2466226539550399  0.9380315877341706  0.1919846830704466   T   T   T
  0.4132602369396875  0.9380246859530296  0.1919923609544871   T   T   T
  0.0799376047355849  0.6862182280312672  0.0858417979894568   T   T   T
  0.2466290903928083  0.6861910324919741  0.0858465759019589   T   T   T
  0.4133111149491991  0.6862170926854456  0.0858580872352912   T   T   T
  0.0799512779343409  0.9361439148986834  0.0858064603852182   T   T   T
  0.2466262474074043  0.9361715400027528  0.0858308189186509   T   T   T
  0.4133012321730539  0.9362101091788037  0.0858424871411387   T   T   T
  0.1632103662361095  0.5611268767215324  0.1130501900998553   T   T   T
  0.3298836309283478  0.5611310225106092  0.1130542384684799   T   T   T
  0.4965311560427669  0.5611213979447210  0.1130621344364414   T   T   T
  0.1632369241937212  0.8110518743466718  0.1130253983888279   T   T   T
  0.3299080850290691  0.8110819703967672  0.1130364658822386   T   T   T
  0.4965981390233696  0.8111543680907716  0.1130699500203032   T   T   T
  0.9967558440453622  0.0631122739650175  0.0604590210594147   T   T   T
  0.6634300356546455  0.0631185792544123  0.0605891739425579   T   T   T
  0.8300721757705529  0.0631348928613295  0.0605442718877769   T   T   T
  0.9967343777121472  0.3131469903223691  0.0604654758985695   T   T   T
  0.6633909704410074  0.3130686886294714  0.0605883982079766   T   T   T
  0.8300559102869249  0.3130953567461356  0.0605328666589621   T   T   T
  0.5797820097387227  0.1861315747679768  0.1394381400206815   T   T   T
  0.7464881535235250  0.1863215312252708  0.1396587599428115   T   T   T
  0.9132196894485241  0.1860189432584526  0.1393517887865776   T   T   T
  0.5797735871190359  0.4361901874517483  0.1394529706839838   T   T   T
  0.7464941399695608  0.4360778185003719  0.1394863018215463   T   T   T
  0.9131892315218985  0.4361794448308460  0.1394313477763054   T   T   T
  0.6633763635503811  0.0615492743562502  0.1667762119590841   T   T   T
  0.8295865956656512  0.0614299254776836  0.1667212910024873   T   T   T
  0.9967137756160628  0.0608480297196872  0.1665197964024528   T   T   T
  0.6630503729702014  0.3113496008846870  0.1668099624523474   T   T   T
  0.8299823653398708  0.3113312195752449  0.1666893318868196   T   T   T
  0.9965707339041460  0.3111745699718989  0.1665733076986361   T   T   T
  0.5796292972638442  0.1875352299641694  0.1918121795011482   T   T   T
  0.7466297770014346  0.1899420118485786  0.1927816749276090   T   T   T
  0.9136516476822371  0.1868781319225058  0.1915795451870982   T   T   T
  0.5797635673304256  0.4384532514301643  0.1920032935616550   T   T   T
  0.7465705268971662  0.4380255385680210  0.1920456829637391   T   T   T
  0.9133783395179933  0.4383442255718075  0.1919517161013857   T   T   T
  0.5799472758493570  0.1862316456088741  0.0858766263361513   T   T   T
  0.7466045358531180  0.1862999096017707  0.0859811867063559   T   T   T
  0.9132702836748382  0.1862198148477478  0.0858093132080669   T   T   T
  0.5799600298813351  0.4362105345431551  0.0858762706400013   T   T   T
  0.7466161592300554  0.4361981407877660  0.0858858879921045   T   T   T
  0.9132766256659380  0.4362140441687702  0.0858534460758776   T   T   T
  0.6632350258743923  0.0611971278721381  0.1131277640599724   T   T   T
  0.8298053911752896  0.0611757443867224  0.1130936873776587   T   T   T
  0.9965958407977952  0.0610414627850046  0.1130005087985225   T   T   T
  0.6632068933752032  0.3111261932127970  0.1131546619705004   T   T   T
  0.8298956990639451  0.3111370856744136  0.1130962176065171   T   T   T
  0.9966029467319494  0.3111128645463357  0.1130111788410160   T   T   T
  0.9967390291197632  0.5631194627812182  0.0605001226165923   T   T   T
  0.6634448687630241  0.5630840354757900  0.0605308036376117   T   T   T
  0.8300985554569550  0.5630980284012553  0.0605214623306385   T   T   T
  0.9966959798772241  0.8130869551783996  0.0604917449014579   T   T   T
  0.6634028966459092  0.8131057379952482  0.0605416116128203   T   T   T
  0.8300392999717359  0.8131131498179600  0.0605211318854967   T   T   T
  0.5798026439646535  0.6861774058797266  0.1394461818701719   T   T   T
  0.7464549679427249  0.6861944243258848  0.1394492105387541   T   T   T
  0.9131064256904372  0.6861561454340017  0.1394386312536705   T   T   T
  0.5799282556535574  0.9362527148548353  0.1394823383209043   T   T   T
  0.7464528271544328  0.9361747783595840  0.1394636218142996   T   T   T
  0.9130821930486424  0.9362083606380571  0.1394397270064610   T   T   T
  0.6631594105651470  0.5613086017830761  0.1666367605937945   T   T   T
  0.8297206311588708  0.5612507847119594  0.1666385194841721   T   T   T
  0.9965312072312150  0.5613140860691787  0.1666124501827772   T   T   T
  0.6631519956395934  0.8112533637898391  0.1666669407284794   T   T   T
  0.8298064089148538  0.8112508204019199  0.1666398536171508   T   T   T
  0.9964838593998424  0.8112218714692799  0.1666188769460383   T   T   T
  0.5799350773882325  0.6880918402081108  0.1920209148529215   T   T   T
  0.7466068438817176  0.6881233515746827  0.1920277892211702   T   T   T
  0.9132713842077634  0.6880857388598571  0.1919996137539251   T   T   T
  0.5799706822085559  0.9381024584269765  0.1920389734211163   T   T   T
  0.7466269010128229  0.9381003610822249  0.1920577215227260   T   T   T
  0.9132966428287738  0.9380926174225201  0.1919935328865357   T   T   T
  0.5799635342685263  0.6862099572730372  0.0858734861321135   T   T   T
  0.7466009915776809  0.6862082285569669  0.0858743653107614   T   T   T
  0.9132621638917625  0.6862236809996604  0.0858612866733811   T   T   T
  0.5799681861933552  0.9362498303649185  0.0858858687926944   T   T   T
  0.7465980797246453  0.9362483405025046  0.0858765153842626   T   T   T
  0.9132455050184650  0.9362364827162938  0.0858574602573710   T   T   T
  0.6632321360079383  0.5611041092766128  0.1130812843290965   T   T   T
  0.8298548993744383  0.5611083149148510  0.1130740383890561   T   T   T
  0.9965579773933747  0.5611337157796027  0.1130478554358265   T   T   T
  0.6632276826138603  0.8111310853838150  0.1130827423493457   T   T   T
  0.8298451242977815  0.8111320257015879  0.1130696835237344   T   T   T
  0.9965240063285916  0.8111310528019962  0.1130505495267678   T   T   T
  0.0361791298777224  0.1778776936070059  0.0277155947253094   T   T   T
  0.2026519252091936  0.1778417538318650  0.0277765559948557   T   T   T
  0.3693430259306331  0.1778041839305100  0.0277751394930359   T   T   T
  0.0360401688313626  0.4279126815773087  0.0277407180238838   T   T   T
  0.2025446469254248  0.4278099520713612  0.0277815705352871   T   T   T
  0.3691996829561731  0.4277643785442086  0.0277911203278428   T   T   T
  0.1622987913571687  0.0264360918384431  0.0450548224569150   T   T   T
  0.3288964131811921  0.0264543174560985  0.0450692318295233   T   T   T
  0.4956578471669276  0.0264808815488835  0.0450848760448726   T   T   T
  0.1621685538177146  0.2764726880740573  0.0450618616442677   T   T   T
  0.3287919689489307  0.2764663462226268  0.0450752002112634   T   T   T
  0.4955231905178882  0.2764704471121486  0.0450853716614991   T   T   T
  0.4144324184260919  0.4014602501916714  0.2074218569882436   T   T   T
  0.4143179144923207  0.1513043932023577  0.2073979732711017   T   T   T
  0.0810935348137431  0.1512257037935068  0.2073910199187498   T   T   T
  0.2477546162669227  0.1513659636582309  0.2074110018525985   T   T   T
  0.0810646229819847  0.4012960774599314  0.2074298180503589   T   T   T
  0.2476712033796898  0.4013784298258592  0.2074114212798489   T   T   T
  0.0412520502567574  0.0525978593631698  0.2246726899611698   T   T   T
  0.2078471964160950  0.0526506497983148  0.2246962135715276   T   T   T
  0.3745208700969602  0.0526815361191299  0.2246794264878439   T   T   T
  0.0361459644576577  0.3031936812267745  0.2253716083805865   T   T   T
  0.2078483370887704  0.3026743037717999  0.2247051899831236   T   T   T
  0.3747087285924867  0.3026089097958280  0.2246556306790727   T   T   T
  0.0360412296362309  0.6778815808697608  0.0277681533274531   T   T   T
  0.2026776525278827  0.6778325020233775  0.0277726209556636   T   T   T
  0.3693779264933876  0.6778048814233203  0.0277843386021461   T   T   T
  0.0358901526322788  0.9278006042535041  0.0277437903213580   T   T   T
  0.2025099147469954  0.9277443524918250  0.0277642364686142   T   T   T
  0.3692645984424223  0.9277676865972497  0.0277739178867354   T   T   T
  0.1622349671078172  0.5264420177202274  0.0450780032814562   T   T   T
  0.3289292272010905  0.5264471930920068  0.0450863432337505   T   T   T
  0.4956179293863823  0.5264409656400550  0.0450933508612909   T   T   T
  0.1621734551781257  0.7763916270967900  0.0450611970537358   T   T   T
  0.3288353098911220  0.7764307322452195  0.0450703756689910   T   T   T
  0.4955986881390781  0.7764675680397144  0.0450958912412519   T   T   T
  0.4143294868226680  0.9013669089975148  0.2074123244058696   T   T   T
  0.4143400881736217  0.6514430171232827  0.2074228475461246   T   T   T
  0.0810499994263214  0.6514555993540786  0.2074222530806754   T   T   T
  0.2477142726011443  0.6514980328570052  0.2074382181272661   T   T   T
  0.0810847654075183  0.9013323716192364  0.2073957445906964   T   T   T
  0.2477480179205099  0.9013576407482731  0.2074017614984200   T   T   T
  0.0410753489926413  0.5533733320195517  0.2246826687807306   T   T   T
  0.2077749599868946  0.5531865033075766  0.2246485629133403   T   T   T
  0.3743635888698646  0.5531082292563111  0.2246799448213580   T   T   T
  0.0411161296404772  0.8028846778763628  0.2247138059102405   T   T   T
  0.2076556297881588  0.8030473269105023  0.2247440852817481   T   T   T
  0.3746657186745598  0.8027193680256525  0.2246684827874574   T   T   T
  0.5363596192728795  0.1778653988674631  0.0277760818572685   T   T   T
  0.7025878999900789  0.1778672411510297  0.0279122518862740   T   T   T
  0.8691607293686111  0.1778184934289811  0.0277618789567882   T   T   T
  0.5361741876358778  0.4278356051394870  0.0277826648921200   T   T   T
  0.7023688423409542  0.4277065631067928  0.0278447404867263   T   T   T
  0.8688858742529493  0.4277781576505408  0.0277979739638590   T   T   T
  0.6623288856302515  0.0264975451673932  0.0451618259333943   T   T   T
  0.8286478414723654  0.0264893171544345  0.0451220394943184   T   T   T
  0.9955069991096814  0.0264745441945187  0.0450360034124073   T   T   T
  0.6620975964329822  0.2763448261791230  0.0451783249248547   T   T   T
  0.8287557351487075  0.2763985676505484  0.0451212816346823   T   T   T
  0.9954134381387261  0.2765285059878620  0.0450317439571669   T   T   T
  0.9140922124040056  0.4020474636341489  0.2074259955268916   T   T   T
  0.9149482542118010  0.1504859825403115  0.2070528753726436   T   T   T
  0.5806038357221668  0.1511029128774482  0.2072844522054006   T   T   T
  0.7480400505900979  0.1526809548427416  0.2080761642639087   T   T   T
  0.5806201536120404  0.4017484802485187  0.2074027700152038   T   T   T
  0.7467837585271141  0.4014222653575040  0.2074862191405252   T   T   T
  0.5408789221591912  0.0529786902079801  0.2247627406938741   T   T   T
  0.7079623161280404  0.0523184364966038  0.2248610559752469   T   T   T
  0.8746437984908477  0.0524745923810111  0.2247742965329855   T   T   T
  0.5432721068028559  0.3009079493843690  0.2238326183947951   T   T   T
  0.6893185900774896  0.3104600640313273  0.2283708441982909   T   T   T
  0.8911872454587820  0.2954226049196699  0.2228234638427380   T   T   T
  0.7737570718110958  0.3062289188615769  0.2735733974529179   T   T   T
  0.7468835340074681  0.2382549637750987  0.2930793964571298   T   T   T
  0.7861282271724618  0.3197364837806617  0.3028508571837343   T   T   T
  0.6565835461417074  0.1938278389477963  0.3100584624973746   T   T   T
  0.7107651008943474  0.1296482535756907  0.3024274619973847   T   T   T
  0.8252732224987323  0.3662570293112926  0.3336227181818041   T   T   T
  0.7423549801548854  0.3774600807577680  0.3309362405400933   T   T   T
  0.7598457689261887  0.3957018949312958  0.2520024898219844   T   T   T
  0.7935732726249811  0.3232203724023819  0.2385460399880740   T   T   T
  0.5361733713826778  0.6778689634451113  0.0277898520762104   T   T   T
  0.7026433845639916  0.6778316289329782  0.0278218442265661   T   T   T
  0.8691797109015771  0.6778361657606277  0.0278065266313709   T   T   T
  0.5360290003035956  0.9278493871763394  0.0278019227897069   T   T   T
  0.7024146984071078  0.9277791127360410  0.0278287297034844   T   T   T
  0.8690514359607646  0.9278449348120987  0.0277982080266170   T   T   T
  0.6622106183725482  0.5264314441658844  0.0451098221137648   T   T   T
  0.8288630071088788  0.5264370945949797  0.0451008338575374   T   T   T
  0.9954804751063444  0.5264684643948028  0.0450767859074353   T   T   T
  0.6621043021500161  0.7764768288006105  0.0451174969100359   T   T   T
  0.8287151155374259  0.7764552142910095  0.0450997237900704   T   T   T
  0.9953270194577246  0.7764204264497409  0.0450742981531242   T   T   T
  0.9144467905167267  0.9014564268206386  0.2074183538187161   T   T   T
  0.9144200168178697  0.6514769841150844  0.2074316455465971   T   T   T
  0.5810321541137888  0.6514442626919306  0.2074446255954330   T   T   T
  0.7478121010385718  0.6515576712624221  0.2074689836993351   T   T   T
  0.5810334630082227  0.9014766332806989  0.2074678017530511   T   T   T
  0.7478365911776451  0.9014044577302714  0.2074724015588348   T   T   T
  0.5406742299656645  0.5535214196802325  0.2247199269648523   T   T   T
  0.7078119093085915  0.5542725671628757  0.2245156578732801   T   T   T
  0.8743950816523558  0.5535877897515178  0.2246413873927707   T   T   T
  0.5411579126908744  0.8028558631631577  0.2247224837247060   T   T   T
  0.7075959817119236  0.8031023782943750  0.2247692455191422   T   T   T
  0.8747011771450436  0.8026719779383243  0.2246696563502099   T   T   T
  0.0840388980184906  0.1656563444460358  0.0336766577084283   T   T   T
  0.2505489864280757  0.1657405398215084  0.0337347509697575   T   T   T
  0.4172434854124442  0.1657516308723563  0.0337353061823367   T   T   T
  0.0838920482004075  0.4158078102645825  0.0337242514178220   T   T   T
  0.2504617583891718  0.4158173472747522  0.0337354519323601   T   T   T
  0.4171160584466698  0.4157390552936224  0.0337486511190191   T   T   T
  0.1599616976134388  0.0412398067787593  0.2186231108091927   T   T   T
  0.3266378298653794  0.0412424683750578  0.2186231510362655   T   T   T
  0.4931551619834104  0.0411274490289685  0.2186562187975663   T   T   T
  0.1599798145339501  0.2912431452017021  0.2186199276465196   T   T   T
  0.3267423577665090  0.2912852360909707  0.2186244643568364   T   T   T
  0.4938350669725573  0.2910697059557465  0.2185344056621710   T   T   T
  0.0839127374646999  0.6657573853652609  0.0337390193708099   T   T   T
  0.2505752382880772  0.6657664017137199  0.0337438719007553   T   T   T
  0.4172803596192993  0.6657991056662160  0.0337519688727564   T   T   T
  0.0837866117515115  0.9156885322559652  0.0337057517015839   T   T   T
  0.2504427985604668  0.9157535850184405  0.0337160738536011   T   T   T
  0.4171749193761794  0.9157362444370265  0.0337321598003975   T   T   T
  0.1599206006325437  0.5412273089906908  0.2186332991837274   T   T   T
  0.3265360351656951  0.5411878234924000  0.2186472999536561   T   T   T
  0.4930089472858040  0.5411990814743166  0.2186569171656546   T   T   T
  0.1598942380123451  0.7911838126558760  0.2186518566483974   T   T   T
  0.3267416652179088  0.7913446292528145  0.2186375238357023   T   T   T
  0.4933042757166312  0.7912979238925957  0.2186388440304917   T   T   T
  0.5841978288248442  0.1658768288400598  0.0338067555925987   T   T   T
  0.7505089818627519  0.1659988244835584  0.0339026396025945   T   T   T
  0.9170584004954989  0.1656424319963299  0.0336928862344731   T   T   T
  0.5840380290996942  0.4158125990002885  0.0337836568438400   T   T   T
  0.7502961337554116  0.4157315675819275  0.0337998033191406   T   T   T
  0.9168483083007914  0.4157198684101706  0.0337103574659084   T   T   T
  0.6600699264212794  0.0412851906197286  0.2187198151911414   T   T   T
  0.8267533061766494  0.0413369662925234  0.2186610732402109   T   T   T
  0.9933678931996867  0.0413928306855967  0.2185818185331843   T   T   T
  0.6498381033567033  0.2911845284623844  0.2187515267194320   T   T   T
  0.8395607686048507  0.2916712521221411  0.2187224786372987   T   T   T
  0.9901347670664445  0.2885609974495020  0.2185366564985754   T   T   T
  0.7856590361497673  0.2798769371282512  0.2895025452968593   T   T   T
  0.6900695941494627  0.1783773945715089  0.2974400262376271   T   T   T
  0.7876451954334821  0.3776807921134719  0.3223730094210644   T   T   T
  0.7573037616257152  0.3401660362165173  0.2508972003319604   T   T   T
  0.5840555262311075  0.6658508292262331  0.0337844394811054   T   T   T
  0.7505495742591911  0.6658207742677750  0.0337896676066370   T   T   T
  0.9171036657666518  0.6658008651538275  0.0337606602819638   T   T   T
  0.5839067167500663  0.9158144133347111  0.0337869534803780   T   T   T
  0.7503504798994325  0.9157359398741041  0.0337748449174092   T   T   T
  0.9169628414190241  0.9157167458792872  0.0337357158126862   T   T   T
  0.6600108166305135  0.5413295827073746  0.2186463529536436   T   T   T
  0.8266290407718996  0.5412845264829458  0.2186381302590556   T   T   T
  0.9933074606727312  0.5413195945759434  0.2186329460965105   T   T   T
  0.6598806412231176  0.7911774700278870  0.2186663296715225   T   T   T
  0.8267698422114905  0.7913121578362279  0.2186430078218675   T   T   T
  0.9932829671485880  0.7912440159016816  0.2186352111483572   T   T   T
  0.2468962249577328  0.1216914863430413  0.0599629339376245   T   T   T
  0.4135689459609833  0.1216938177689122  0.0599687784772388   T   T   T
  0.0802028616563110  0.3717163619633579  0.0599530794868625   T   T   T
  0.2468651950033522  0.3717134476960229  0.0599630174757183   T   T   T
  0.4135320414460466  0.3716917096009427  0.0599792608567140   T   T   T
  0.0802494350816551  0.1216627072323554  0.0599261696746461   T   T   T
  0.4964630944467039  0.4985429911290338  0.1396697466897669   T   T   T
  0.1631849374131341  0.4985019781420734  0.1396494463374075   T   T   T
  0.3297877948827138  0.4985108141746459  0.1396563697306837   T   T   T
  0.4964997348339038  0.2485030176750038  0.1396528428647160   T   T   T
  0.1632316730725422  0.2484462865060970  0.1396315064764465   T   T   T
  0.3298211960611018  0.2484656051657962  0.1396459001027980   T   T   T
  0.0799589909610955  0.1229817414750333  0.1658161150938710   T   T   T
  0.2465335660660797  0.1231524059245102  0.1658709802810812   T   T   T
  0.4131324092868596  0.1231120431473458  0.1658762327693092   T   T   T
  0.0799222190534285  0.3732239439537347  0.1658762761477218   T   T   T
  0.2465019958328100  0.3731913761393328  0.1658769540701458   T   T   T
  0.4131377036456636  0.3732421373634972  0.1658953900272328   T   T   T
  0.1632159425636840  0.4966340079146890  0.1924984972091116   T   T   T
  0.3298580469437798  0.4966497272170828  0.1924977070742068   T   T   T
  0.4963999581390384  0.4968766370378614  0.1924911885248839   T   T   T
  0.1633458271008862  0.2466808481706794  0.1924952411767651   T   T   T
  0.4963439816314448  0.2464802425018948  0.1924375213923525   T   T   T
  0.3299080906281218  0.2466182577149127  0.1924823256416757   T   T   T
  0.4966385321218597  0.4982222866373049  0.0866102069010439   T   T   T
  0.1632919995144158  0.4982342005203374  0.0865966274801893   T   T   T
  0.3299825164386684  0.4982308480883509  0.0866031057655270   T   T   T
  0.4966225044147202  0.2482407042330664  0.0866026915732036   T   T   T
  0.1632922113371725  0.2482126031967257  0.0865763249487358   T   T   T
  0.3299797983181979  0.2482248095572909  0.0865938138832356   T   T   T
  0.0799007345657963  0.1234353009638765  0.1127801407463825   T   T   T
  0.2465423095511869  0.1234512920853793  0.1128252093100165   T   T   T
  0.4131988461808542  0.1234940090052954  0.1128244899348875   T   T   T
  0.0799182407018638  0.3735079778429990  0.1128115093038613   T   T   T
  0.2465535923893217  0.3734846027749250  0.1128353880690831   T   T   T
  0.4131984769264366  0.3734980270825766  0.1128335776651157   T   T   T
  0.2468976853358365  0.6216878655970994  0.0599679259426175   T   T   T
  0.4135887103860894  0.6216962761703384  0.0599822103444999   T   T   T
  0.0801825037880600  0.8716306459714386  0.0599370125886080   T   T   T
  0.2468598286452582  0.8716756092593431  0.0599487391115994   T   T   T
  0.4135424241755936  0.8716883445292027  0.0599677576386259   T   T   T
  0.0802075468252666  0.6216791779948857  0.0599712255689879   T   T   T
  0.4964977405806741  0.9984270415200422  0.1396487566766791   T   T   T
  0.1632381320502653  0.9983936230938573  0.1396136065009739   T   T   T
  0.3298191291073900  0.9984370013505967  0.1396319967797864   T   T   T
  0.4965044698063166  0.7485197053166665  0.1396628564343570   T   T   T
  0.1631608954259582  0.7484696276359513  0.1396362085545841   T   T   T
  0.3297929364543740  0.7484838649434421  0.1396413221762692   T   T   T
  0.0798275667405571  0.6232884487279622  0.1658865353067136   T   T   T
  0.2464551908165369  0.6232421497843262  0.1658959979257386   T   T   T
  0.4130766921837296  0.6233171993168971  0.1658926063328945   T   T   T
  0.0798276773524544  0.8731999127389016  0.1658680911349990   T   T   T
  0.2464854290062053  0.8731903556299782  0.1658722636845167   T   T   T
  0.4131405382188423  0.8732214176201574  0.1658853159239228   T   T   T
  0.1632559307467913  0.9966177892302391  0.1924803027238572   T   T   T
  0.3299061698663744  0.9966410616727511  0.1924789735887166   T   T   T
  0.4965376871246146  0.9966312339043008  0.1924978217922929   T   T   T
  0.1632278246219976  0.7466977794511384  0.1924972289055383   T   T   T
  0.4965556423842557  0.7467154603232358  0.1925021794042986   T   T   T
  0.3298949411463722  0.7467210133202061  0.1924975336731792   T   T   T
  0.4966417018051268  0.9982474797916587  0.0866041478877888   T   T   T
  0.1633012135022173  0.9981584371722038  0.0865622794750309   T   T   T
  0.3299945003906040  0.9982016921423953  0.0865832614947588   T   T   T
  0.4966583179695588  0.7482515733806361  0.0866133922848103   T   T   T
  0.1633084055023860  0.7481821827407980  0.0865747613504590   T   T   T
  0.3299992118864040  0.7482043082259313  0.0865856179199877   T   T   T
  0.0798656793424865  0.6235152125107187  0.1128205217625710   T   T   T
  0.2465321517855312  0.6234851127458746  0.1128337032184517   T   T   T
  0.4131977872103984  0.6235086019533548  0.1128346663056576   T   T   T
  0.0799045991099010  0.8734139668714963  0.1127905193002773   T   T   T
  0.2465605637000154  0.8734354402179588  0.1128185815077158   T   T   T
  0.4132148230426871  0.8734727149999630  0.1128233258271216   T   T   T
  0.7468607157621037  0.1217501338101307  0.0600994372693106   T   T   T
  0.9135191466128241  0.1217036458178446  0.0599376239209373   T   T   T
  0.5802254876525668  0.3717029059495632  0.0600085381367366   T   T   T
  0.7468229642277084  0.3716500692234987  0.0600284312587922   T   T   T
  0.9134838596833661  0.3717269176773896  0.0599587257046078   T   T   T
  0.5802649226567779  0.1217308557405464  0.0600154703760535   T   T   T
  0.9965097219549451  0.4985485508991556  0.1396474721394506   T   T   T
  0.6631247819257789  0.4984914260310557  0.1396805258390068   T   T   T
  0.8298317761520869  0.4984895707927169  0.1396735949425042   T   T   T
  0.9965447558784308  0.2483721750770841  0.1395643792688893   T   T   T
  0.6630298825075401  0.2485602567502500  0.1397917959474173   T   T   T
  0.8299496441369160  0.2484462705837371  0.1396709200598944   T   T   T
  0.5797015650838161  0.1230593298276017  0.1658544288312821   T   T   T
  0.7464532511410545  0.1240614004448130  0.1662705533588932   T   T   T
  0.9133133473976864  0.1224867448358871  0.1656302273227552   T   T   T
  0.5796534248363725  0.3734112341238580  0.1659327640135843   T   T   T
  0.7464016310317974  0.3731915802746941  0.1659439883260128   T   T   T
  0.9133234446456515  0.3734121696020138  0.1658729193340470   T   T   T
  0.6630925640730816  0.4968620956113508  0.1924974132996831   T   T   T
  0.8299391888581418  0.4967846862849106  0.1924937028059781   T   T   T
  0.9966403811382817  0.4968459906056847  0.1924748635232142   T   T   T
  0.6620102914961544  0.2474983499155874  0.1928920458167888   T   T   T
  0.9966786781602350  0.2456459587396735  0.1921186973981618   T   T   T
  0.8312355968989676  0.2464521147682655  0.1923380921007496   T   T   T
  0.9966352599001543  0.4982359240687724  0.0865967475242934   T   T   T
  0.6633282572065516  0.4982146139110795  0.0866272374568092   T   T   T
  0.8299513670832394  0.4982276968272757  0.0866175313229448   T   T   T
  0.9966564121244578  0.2481952405992816  0.0865504496772472   T   T   T
  0.6632768346789948  0.2482495762208517  0.0866943735426209   T   T   T
  0.8299542023096084  0.2482486803368298  0.0866328726585026   T   T   T
  0.5798460675039050  0.1235176643118141  0.1128640623504583   T   T   T
  0.7465014338734479  0.1235989568770136  0.1129710355482663   T   T   T
  0.9132275937224645  0.1234338503207179  0.1127750514199728   T   T   T