C H O Si                                
   1.00000000000000     
     9.2874599999999994    0.0000000000000000    0.0000000000000000
     0.0000000000000000    8.7563099999999991    0.0000000000000000
     0.0000000000000000    0.0000000000000000   58.0000000000000000
   C    H    O    Si
    36    32    16    36
Selective dynamics
Direct
  0.9938712655208353  0.1261724222345127  0.0604274418205335   T   T   T
  0.3271128506476205  0.1262510324072078  0.0605459068356819   T   T   T
  0.6604340975383926  0.1262204819120843  0.0605223619655996   T   T   T
  0.9938553406458462  0.6263322957454814  0.0604525399075758   T   T   T
  0.3271400082424413  0.6262127571150390  0.0605814236806848   T   T   T
  0.6604938345858899  0.6261949166513305  0.0604986449231946   T   T   T
  0.1602288771140921  0.3718298163529228  0.1393377089099725   T   T   T
  0.4934813029012095  0.3723622436970628  0.1396045527404336   T   T   T
  0.8267896605926246  0.3717750347976778  0.1392907645433712   T   T   T
  0.1604836366676033  0.8719468925508936  0.1394026651740014   T   T   T
  0.4935293154446375  0.8715901200854922  0.1394714066570279   T   T   T
  0.8266755387886597  0.8718746834019788  0.1393758903882860   T   T   T
  0.3277315536967248  0.1226029954414200  0.1666027345878907   T   T   T
  0.6597487598029192  0.1224946218337219  0.1665995499241719   T   T   T
  0.9938514667564013  0.1215012197965301  0.1663217091284118   T   T   T
  0.3269479353395062  0.6220834980991108  0.1667818931214823   T   T   T
  0.6607904132860803  0.6223654405455205  0.1665044308590918   T   T   T
  0.9938644030949983  0.6221636000161568  0.1664342200067463   T   T   T
  0.1608033443701657  0.3746069219541201  0.1915912972009327   T   T   T
  0.4942457951969456  0.3801961037653537  0.1926562425580032   T   T   T
  0.8282231262955014  0.3743039248985099  0.1914488384466024   T   T   T
  0.1603983116729253  0.8771468978324308  0.1919003776064696   T   T   T
  0.4939029486446709  0.8759768284038209  0.1920261456943617   T   T   T
  0.8275077842409595  0.8770714536381705  0.1918133130450297   T   T   T
  0.1601458062013171  0.3719912392189632  0.0858462101375435   T   T   T
  0.4934891633858304  0.3718871328226030  0.0859764458176879   T   T   T
  0.8267689913262257  0.3719059088070829  0.0858132186947167   T   T   T
  0.1602204023734966  0.8719970789318322  0.0858672809438875   T   T   T
  0.4934724120316196  0.8718527899098287  0.0859239292241007   T   T   T
  0.8267312374021415  0.8719888665002979  0.0858538387608382   T   T   T
  0.3266904884223442  0.1218103449188121  0.1130628155061043   T   T   T
  0.6599139542814606  0.1217360627972505  0.1130585097982302   T   T   T
  0.9932573664356695  0.1216958395059055  0.1129470260246926   T   T   T
  0.3266111623742033  0.6216445079968260  0.1131084797141834   T   T   T
  0.6599310931526193  0.6217551172963165  0.1130182683289035   T   T   T
  0.9932423344088609  0.6218819250749401  0.1129776927137259   T   T   T
  0.0790964167635289  0.3555320036621133  0.0266030874876818   T   T   T
  0.4111765844481131  0.3553781780281309  0.0267858594734013   T   T   T
  0.7441942279165977  0.3550931285793671  0.0266897475619398   T   T   T
  0.0793710284094927  0.8555779235417144  0.0266272651272388   T   T   T
  0.4110016231587115  0.8551940086005000  0.0267744283881892   T   T   T
  0.7443881868207571  0.8552662544680182  0.0267055099935947   T   T   T
  0.3245208903540960  0.0537615743128461  0.0450224137800005   T   T   T
  0.6573625567536743  0.0537610157196000  0.0449981300558772   T   T   T
  0.9910649946235767  0.0537650903606302  0.0449010759843274   T   T   T
  0.3244043432480472  0.5535391933307502  0.0450757831190570   T   T   T
  0.6575994357245628  0.5538357239699747  0.0449643318135970   T   T   T
  0.9910455281698697  0.5539153960910586  0.0449215740923425   T   T   T
  0.8294453024195902  0.8050846951488430  0.2073668862391700   T   T   T
  0.8301112856778321  0.3023977444789308  0.2070282261726866   T   T   T
  0.1616927200511642  0.3026888210897047  0.2071773992700497   T   T   T
  0.4974875960368608  0.3064015546368001  0.2080460684837603   T   T   T
  0.1626644965073840  0.8042769617215639  0.2073778277737050   T   T   T
  0.4942386065601032  0.8042288300915930  0.2076391743158218   T   T   T
  0.0776055307668603  0.1046389066661014  0.2255097624896560   T   T   T
  0.4121038706749666  0.1023012109429305  0.2256863528883045   T   T   T
  0.7461636102712923  0.1037685857802901  0.2255040065311507   T   T   T
  0.0830980117525941  0.5996286773887533  0.2245070574251218   T   T   T
  0.3726374525285014  0.6165790618320386  0.2302138274375548   T   T   T
  0.7786659047677228  0.5925208778137472  0.2233548191151706   T   T   T
  0.5122009670075823  0.6376165806938449  0.2646887005672820   T   T   T
  0.5038885590623615  0.4776788908272309  0.2936668910143401   T   T   T
  0.5759868876795620  0.6309351584741520  0.3026030857448093   T   T   T
  0.3043578933626890  0.3732219551757389  0.3100632233164963   T   T   T
  0.4090712204615636  0.2419277007644453  0.3035513137685061   T   T   T
  0.6495973253182007  0.7419655523148040  0.3369722505105044   T   T   T
  0.4860033617333434  0.7662919925183361  0.3330058282517159   T   T   T
  0.5695557808806898  0.6563138264064220  0.2392543953836100   T   T   T
  0.1711409629261115  0.3343351452080908  0.0340820910606716   T   T   T
  0.5034819380949374  0.3343933822572159  0.0342122344562933   T   T   T
  0.8366328597854737  0.3339845688481061  0.0340586082491110   T   T   T
  0.1713779752892348  0.8343288338149513  0.0341104495076927   T   T   T
  0.5034219291095177  0.8341416429429187  0.0341568917646654   T   T   T
  0.8367753233538874  0.8341980978714998  0.0340945954514937   T   T   T
  0.3190497276651565  0.0854097692229504  0.2182658569944361   T   T   T
  0.6527730190248326  0.0851548252337527  0.2182757501048216   T   T   T
  0.9847497639028875  0.0857882451605190  0.2181328924398352   T   T   T
  0.2986758345835828  0.5856701715373337  0.2184102993693882   T   T   T
  0.6781616370058368  0.5870383376338921  0.2180069758884485   T   T   T
  0.9865662689635676  0.5816031638335450  0.2180578049266413   T   T   T
  0.5748938571213738  0.5580022805241948  0.2894513269121651   T   T   T
  0.3703410631698633  0.3388055007716386  0.2980764238561581   T   T   T
  0.5787497345748833  0.7665584160938068  0.3251388600124578   T   T   T
  0.4881914059085944  0.6857650092862769  0.2494450801959665   T   T   T
  0.4938729190286695  0.2436082832923866  0.0597850478725683   T   T   T
  0.8272295782250669  0.2434771422769673  0.0596585404640671   T   T   T
  0.1607361852285329  0.7436691786690801  0.0596940744866636   T   T   T
  0.4939276141286306  0.7435603486637850  0.0597443195940116   T   T   T
  0.8272491558218907  0.7436015779310350  0.0596864930521811   T   T   T
  0.1606617813776264  0.2436908309851304  0.0596675087928971   T   T   T
  0.9936187549753329  0.9964257996183531  0.1395646330392731   T   T   T
  0.3272632141866534  0.9970352046158915  0.1397236005089985   T   T   T
  0.6597947447399332  0.9969301335690757  0.1397148866767620   T   T   T
  0.9935491384319908  0.4967969524384727  0.1395842488940826   T   T   T
  0.3267021360798245  0.4970994874482950  0.1398407363714567   T   T   T
  0.6603032642595114  0.4969867693030128  0.1396623886913073   T   T   T
  0.1604702176324665  0.2457826556100091  0.1658572734437551   T   T   T
  0.4936333303167934  0.2484350981567073  0.1664075090229579   T   T   T
  0.8273191911614923  0.2452005927758059  0.1657602876698376   T   T   T
  0.1605281030887011  0.7467344935394310  0.1660598997513358   T   T   T
  0.4935463696911324  0.7461671910072624  0.1661142654418274   T   T   T
  0.8273722744908599  0.7467337862775509  0.1659924239827615   T   T   T
  0.3271610570346003  0.9940120799114054  0.1927337268405911   T   T   T
  0.6604913109470620  0.9937564378830100  0.1927392118739690   T   T   T
  0.9938118924144703  0.9943322628238082  0.1925845734943292   T   T   T
  0.3249612598492545  0.4957958426995592  0.1933785206929087   T   T   T
  0.9944586898139613  0.4917255210281564  0.1923162473867447   T   T   T
  0.6635957606150483  0.4937951263587119  0.1925144901924026   T   T   T
  0.9935758070052980  0.9962140446171890  0.0863352095547198   T   T   T
  0.3269078363630137  0.9963420050595834  0.0864314783338082   T   T   T
  0.6600824790721465  0.9963338665658973  0.0864181349183984   T   T   T
  0.9935246880948834  0.4962983923752800  0.0863519941733779   T   T   T
  0.3268746964032644  0.4962919522772327  0.0864708976910910   T   T   T
  0.6601610873716257  0.4963000920237970  0.0863929956234210   T   T   T
  0.1599478734317782  0.2467671227455725  0.1127286332901822   T   T   T
  0.4932375665380256  0.2469439739151508  0.1129017591163384   T   T   T
  0.8265418116009480  0.2467675933423005  0.1126872223443521   T   T   T
  0.1600737750576252  0.7468373765833838  0.1127705808204505   T   T   T
  0.4932371579315060  0.7467118977674132  0.1128159437342078   T   T   T
  0.8264858358313708  0.7468516977344828  0.1127396666030951   T   T   T
 
  0.00000000E+00  0.00000000E+00  0.00000000E+00
  0.00000000E+00  0.00000000E+00  0.00000000E+00
  0.00000000E+00  0.00000000E+00  0.00000000E+00
  0.00000000E+00  0.00000000E+00  0.00000000E+00
  0.00000000E+00  0.00000000E+00  0.00000000E+00
  0.00000000E+00  0.00000000E+00  0.00000000E+00
  0.00000000E+00  0.00000000E+00  0.00000000E+00
  0.00000000E+00  0.00000000E+00  0.00000000E+00
  0.00000000E+00  0.00000000E+00  0.00000000E+00
  0.00000000E+00  0.00000000E+00  0.00000000E+00
  0.00000000E+00  0.00000000E+00  0.00000000E+00
  0.00000000E+00  0.00000000E+00  0.00000000E+00
  0.00000000E+00  0.00000000E+00  0.00000000E+00
  0.00000000E+00  0.00000000E+00  0.00000000E+00
  0.00000000E+00  0.00000000E+00  0.00000000E+00
  0.00000000E+00  0.00000000E+00  0.00000000E+00
  0.00000000E+00  0.00000000E+00  0.00000000E+00
  0.00000000E+00  0.00000000E+00  0.00000000E+00
  0.00000000E+00  0.00000000E+00  0.00000000E+00
  0.00000000E+00  0.00000000E+00  0.00000000E+00
  0.00000000E+00  0.00000000E+00  0.00000000E+00
  0.00000000E+00  0.00000000E+00  0.00000000E+00
  0.00000000E+00  0.00000000E+00  0.00000000E+00
  0.00000000E+00  0.00000000E+00  0.00000000E+00
  0.00000000E+00  0.00000000E+00  0.00000000E+00
  0.00000000E+00  0.00000000E+00  0.00000000E+00
  0.00000000E+00  0.00000000E+00  0.00000000E+00
  0.00000000E+00  0.00000000E+00  0.00000000E+00
  0.00000000E+00  0.00000000E+00  0.00000000E+00
  0.00000000E+00  0.00000000E+00  0.00000000E+00
  0.00000000E+00  0.00000000E+00  0.00000000E+00
  0.00000000E+00  0.00000000E+00  0.00000000E+00
  0.00000000E+00  0.00000000E+00  0.00000000E+00
  0.00000000E+00  0.00000000E+00  0.00000000E+00
  0.00000000E+00  0.00000000E+00  0.00000000E+00
  0.00000000E+00  0.00000000E+00  0.00000000E+00
  0.00000000E+00  0.00000000E+00  0.00000000E+00
  0.00000000E+00  0.00000000E+00  0.00000000E+00
  0.00000000E+00  0.00000000E+00  0.00000000E+00
  0.00000000E+00  0.00000000E+00  0.00000000E+00
  0.00000000E+00  0.00000000E+00  0.00000000E+00
  0.00000000E+00  0.00000000E+00  0.00000000E+00
  0.00000000E+00  0.00000000E+00  0.00000000E+00
  0.00000000E+00  0.00000000E+00  0.00000000E+00
  0.00000000E+00  0.00000000E+00  0.00000000E+00
  0.00000000E+00  0.00000000E+00  0.00000000E+00
  0.00000000E+00  0.00000000E+00  0.00000000E+00
  0.00000000E+00  0.00000000E+00  0.00000000E+00
  0.00000000E+00  0.00000000E+00  0.00000000E+00
  0.00000000E+00  0.00000000E+00  0.00000000E+00
  0.00000000E+00  0.00000000E+00  0.00000000E+00
  0.00000000E+00  0.00000000E+00  0.00000000E+00
  0.00000000E+00  0.00000000E+00  0.00000000E+00
  0.00000000E+00  0.00000000E+00  0.00000000E+00
  0.00000000E+00  0.00000000E+00  0.00000000E+00
  0.00000000E+00  0.00000000E+00  0.00000000E+00
  0.00000000E+00  0.00000000E+00  0.00000000E+00
  0.00000000E+00  0.00000000E+00  0.00000000E+00
  0.00000000E+00  0.00000000E+00  0.00000000E+00
  0.00000000E+00  0.00000000E+00  0.00000000E+00
  0.00000000E+00  0.00000000E+00  0.00000000E+00
  0.00000000E+00  0.00000000E+00  0.00000000E+00
  0.00000000E+00  0.00000000E+00  0.00000000E+00
  0.00000000E+00  0.00000000E+00  0.00000000E+00
  0.00000000E+00  0.00000000E+00  0.00000000E+00
  0.00000000E+00  0.00000000E+00  0.00000000E+00
  0.00000000E+00  0.00000000E+00  0.00000000E+00
  0.00000000E+00  0.00000000E+00  0.00000000E+00
  0.00000000E+00  0.00000000E+00  0.00000000E+00
  0.00000000E+00  0.00000000E+00  0.00000000E+00
  0.00000000E+00  0.00000000E+00  0.00000000E+00
  0.00000000E+00  0.00000000E+00  0.00000000E+00
  0.00000000E+00  0.00000000E+00  0.00000000E+00
  0.00000000E+00  0.00000000E+00  0.00000000E+00
  0.00000000E+00  0.00000000E+00  0.00000000E+00
  0.00000000E+00  0.00000000E+00  0.00000000E+00
  0.00000000E+00  0.00000000E+00  0.00000000E+00
  0.00000000E+00  0.00000000E+00  0.00000000E+00
  0.00000000E+00  0.00000000E+00  0.00000000E+00
  0.00000000E+00  0.00000000E+00  0.00000000E+00
  0.00000000E+00  0.00000000E+00  0.00000000E+00
  0.00000000E+00  0.00000000E+00  0.00000000E+00
  0.00000000E+00  0.00000000E+00  0.00000000E+00
  0.00000000E+00  0.00000000E+00  0.00000000E+00
  0.00000000E+00  0.00000000E+00  0.00000000E+00
  0.00000000E+00  0.00000000E+00  0.00000000E+00
  0.00000000E+00  0.00000000E+00  0.00000000E+00
  0.00000000E+00  0.00000000E+00  0.00000000E+00
  0.00000000E+00  0.00000000E+00  0.00000000E+00
  0.00000000E+00  0.00000000E+00  0.00000000E+00
  0.00000000E+00  0.00000000E+00  0.00000000E+00
  0.00000000E+00  0.00000000E+00  0.00000000E+00
  0.00000000E+00  0.00000000E+00  0.00000000E+00
  0.00000000E+00  0.00000000E+00  0.00000000E+00
  0.00000000E+00  0.00000000E+00  0.00000000E+00
  0.00000000E+00  0.00000000E+00  0.00000000E+00
  0.00000000E+00  0.00000000E+00  0.00000000E+00
  0.00000000E+00  0.00000000E+00  0.00000000E+00
  0.00000000E+00  0.00000000E+00  0.00000000E+00
  0.00000000E+00  0.00000000E+00  0.00000000E+00
  0.00000000E+00  0.00000000E+00  0.00000000E+00
  0.00000000E+00  0.00000000E+00  0.00000000E+00
  0.00000000E+00  0.00000000E+00  0.00000000E+00
  0.00000000E+00  0.00000000E+00  0.00000000E+00
  0.00000000E+00  0.00000000E+00  0.00000000E+00
  0.00000000E+00  0.00000000E+00  0.00000000E+00
  0.00000000E+00  0.00000000E+00  0.00000000E+00
  0.00000000E+00  0.00000000E+00  0.00000000E+00
  0.00000000E+00  0.00000000E+00  0.00000000E+00
  0.00000000E+00  0.00000000E+00  0.00000000E+00
  0.00000000E+00  0.00000000E+00  0.00000000E+00
  0.00000000E+00  0.00000000E+00  0.00000000E+00
  0.00000000E+00  0.00000000E+00  0.00000000E+00
  0.00000000E+00  0.00000000E+00  0.00000000E+00
  0.00000000E+00  0.00000000E+00  0.00000000E+00
  0.00000000E+00  0.00000000E+00  0.00000000E+00
  0.00000000E+00  0.00000000E+00  0.00000000E+00
  0.00000000E+00  0.00000000E+00  0.00000000E+00
  0.00000000E+00  0.00000000E+00  0.00000000E+00
  0.00000000E+00  0.00000000E+00  0.00000000E+00
