C H O Si                                
   1.00000000000000     
     9.2874599999999994    0.0000000000000000    0.0000000000000000
     0.0000000000000000    8.7563099999999991    0.0000000000000000
     0.0000000000000000    0.0000000000000000   58.0000000000000000
   C    H    O    Si
    36    32    16    36
Selective dynamics
Direct
  0.9936142767304943  0.1262156635939449  0.0604504124037128   T   T   T
  0.3270422259761059  0.1260618155580394  0.0605275065325230   T   T   T
  0.6602422678021934  0.1261764273110787  0.0604992096453302   T   T   T
  0.9936420111372820  0.6262461495650330  0.0604668006706856   T   T   T
  0.3270796426832161  0.6260227225202991  0.0605667067286498   T   T   T
  0.6602570702396992  0.6261443311415131  0.0604877144081879   T   T   T
  0.1597735677500465  0.3717738952749484  0.1393129159025309   T   T   T
  0.4929328228689018  0.3721519134704598  0.1395597006163940   T   T   T
  0.8263070677428248  0.3716995166704695  0.1392444477770657   T   T   T
  0.1598918003889440  0.8718709370875152  0.1393663675875920   T   T   T
  0.4929690443877748  0.8715803585195073  0.1394484817709608   T   T   T
  0.8261419001988014  0.8720737718930843  0.1393350734751117   T   T   T
  0.3274097788880487  0.1225124338894144  0.1666398941263864   T   T   T
  0.6595633193670155  0.1226271097504079  0.1666507259461581   T   T   T
  0.9936410783325266  0.1216101415959707  0.1663347262854308   T   T   T
  0.3265954883956321  0.6222494326412751  0.1668071831906192   T   T   T
  0.6601544684742943  0.6222887751488918  0.1665080641837611   T   T   T
  0.9935036864148079  0.6221551064077110  0.1664326568690627   T   T   T
  0.1607168133340468  0.3747499172187567  0.1916416975774739   T   T   T
  0.4940973159539635  0.3799690873065105  0.1926313785460607   T   T   T
  0.8281926468620381  0.3744144564034517  0.1914968856105926   T   T   T
  0.1605302766673949  0.8771756532641515  0.1918759839281940   T   T   T
  0.4940923940329318  0.8762733473857652  0.1920230909659112   T   T   T
  0.8275872717828671  0.8769956043030371  0.1918260167622251   T   T   T
  0.1597626003800381  0.3720259243794879  0.0858326801510439   T   T   T
  0.4930884069064520  0.3719424655483060  0.0859372141452342   T   T   T
  0.8264037521104787  0.3720032370823175  0.0857996561238704   T   T   T
  0.1598107642858601  0.8720229393286999  0.0858658575439760   T   T   T
  0.4931091247398823  0.8719315432966743  0.0858828516005503   T   T   T
  0.8263161611744047  0.8720764403938533  0.0858377554492582   T   T   T
  0.3264656859034392  0.1218870085670953  0.1130067931242673   T   T   T
  0.6596609645112435  0.1219103029512985  0.1130107837329469   T   T   T
  0.9931256693898232  0.1218773135045294  0.1129235723729458   T   T   T
  0.3263955293360026  0.6216891313047181  0.1130750156631387   T   T   T
  0.6597024607082783  0.6218341737017644  0.1129604094635913   T   T   T
  0.9930512988892773  0.6220002468265006  0.1129305575656597   T   T   T
  0.0799835171102837  0.3550351714191989  0.0266831925113933   T   T   T
  0.4118315242387119  0.3549106885743860  0.0268625860986000   T   T   T
  0.7448099102484167  0.3546646513088627  0.0267607488190375   T   T   T
  0.0802933638160638  0.8551370596016119  0.0266880111948893   T   T   T
  0.4117636139502868  0.8546988994888480  0.0268542043413639   T   T   T
  0.7450834719777358  0.8547873515471334  0.0267891327180344   T   T   T
  0.3242207923616873  0.0540493169741728  0.0449562597784120   T   T   T
  0.6569819281539536  0.0539759093714533  0.0449492581062441   T   T   T
  0.9906967290722790  0.0541767236258778  0.0448820260326504   T   T   T
  0.3240682313407160  0.5537773895998074  0.0450225877238736   T   T   T
  0.6572558840028814  0.5540454793360804  0.0449281371410433   T   T   T
  0.9906905957669737  0.5542637358761688  0.0448966491343643   T   T   T
  0.8292466919762415  0.8050060876800667  0.2073738550248150   T   T   T
  0.8298211442755229  0.3022452017504770  0.2070463972772962   T   T   T
  0.1614694287972385  0.3025556225504385  0.2071837477848548   T   T   T
  0.4971508325208484  0.3065024142928873  0.2080386487579240   T   T   T
  0.1623055103152671  0.8041567694577556  0.2073360483368583   T   T   T
  0.4940217607684118  0.8042188780261851  0.2075993339523834   T   T   T
  0.0782033566037798  0.1047865864151451  0.2254857830365357   T   T   T
  0.4130812007405915  0.1027249710181605  0.2257425788454461   T   T   T
  0.7471063821153412  0.1043405529217957  0.2255883137334972   T   T   T
  0.0835067784123689  0.5997368315039691  0.2244859168668446   T   T   T
  0.3742570134128830  0.6168122661508129  0.2303461606765494   T   T   T
  0.7783483733508465  0.5926762376980237  0.2233097741074617   T   T   T
  0.5129980729568090  0.6376549932392207  0.2647270353174675   T   T   T
  0.5050783126635754  0.4779015861050247  0.2935990262917529   T   T   T
  0.5771107098035615  0.6313629767832336  0.3025810521057390   T   T   T
  0.3048950403985320  0.3738708106023923  0.3100650845256678   T   T   T
  0.4089405565584335  0.2422831957050833  0.3035213470091231   T   T   T
  0.6495011327210790  0.7421923151731006  0.3369754642451098   T   T   T
  0.4858903981743222  0.7658801928858867  0.3329699365816669   T   T   T
  0.5694454664219578  0.6559966683386370  0.2392509900837197   T   T   T
  0.1720162074993962  0.3337234471876854  0.0341623221106265   T   T   T
  0.5046123207278631  0.3341340297081356  0.0341802957964775   T   T   T
  0.8375490557895682  0.3339264433687356  0.0340643802403722   T   T   T
  0.1721607766914944  0.8338698704404756  0.0342007881262475   T   T   T
  0.5044681192965923  0.8339445108812230  0.0341688764852052   T   T   T
  0.8377699614062262  0.8340080335718508  0.0341140967303420   T   T   T
  0.3200738474330037  0.0852034818735909  0.2183472790991065   T   T   T
  0.6537951451471486  0.0849436675698344  0.2183920881133399   T   T   T
  0.9853806254242511  0.0855798590870478  0.2181311176572791   T   T   T
  0.3005373827887114  0.5853232549858496  0.2185106336907234   T   T   T
  0.6776105457668525  0.5870601772603261  0.2180850752886936   T   T   T
  0.9870399516276662  0.5814500509543006  0.2181075771733240   T   T   T
  0.5753673314798566  0.5588774901739734  0.2893916611685048   T   T   T
  0.3700593420495823  0.3389265625127800  0.2979840985434661   T   T   T
  0.5787046599735062  0.7661407557271345  0.3251149163110743   T   T   T
  0.4882254608577215  0.6851298218837383  0.2494806464988210   T   T   T
  0.4938031280605760  0.2435973149438689  0.0597636661945020   T   T   T
  0.8271022031697084  0.2435016018892383  0.0596631628520989   T   T   T
  0.1606532162480776  0.7433499987994241  0.0597575225611595   T   T   T
  0.4938414490787882  0.7435140415890130  0.0597444833349818   T   T   T
  0.8271382783800032  0.7435075774497193  0.0596989814043224   T   T   T
  0.1605729861224753  0.2433387773291383  0.0597268285468325   T   T   T
  0.9932212615207421  0.9965881007437765  0.1395518011299890   T   T   T
  0.3266651368986790  0.9971083436027587  0.1397014819377541   T   T   T
  0.6591671933444788  0.9972502425369535  0.1397113225305520   T   T   T
  0.9930812690760793  0.4968598437372329  0.1395456289575983   T   T   T
  0.3262395459765801  0.4971995776989057  0.1398405230616067   T   T   T
  0.6597075418625400  0.4969143986196974  0.1396163311860473   T   T   T
  0.1602472498857107  0.2459691854033961  0.1658763287109859   T   T   T
  0.4933363974891346  0.2483327589150533  0.1663952743394590   T   T   T
  0.8271148878784343  0.2453672277505040  0.1657615071406133   T   T   T
  0.1602082879169144  0.7467696312619803  0.1660347967898440   T   T   T
  0.4930854755026722  0.7464064482893797  0.1661159809364479   T   T   T
  0.8268444238702620  0.7467570982458355  0.1659628667165064   T   T   T
  0.3273448220275738  0.9939830361038164  0.1927875660593167   T   T   T
  0.6607524150171302  0.9938900014704924  0.1928123562123897   T   T   T
  0.9939488026575307  0.9942491624967336  0.1925734751252798   T   T   T
  0.3250423210950612  0.4958362948169162  0.1934152877419168   T   T   T
  0.9944231009915919  0.4918342441948001  0.1923366798956555   T   T   T
  0.6633163267326752  0.4937654106206907  0.1925509396280467   T   T   T
  0.9931691457847581  0.9962416458713238  0.0863333785591348   T   T   T
  0.3265581968247212  0.9962208722685326  0.0864093672153673   T   T   T
  0.6596939597495779  0.9963456581869402  0.0863981917870804   T   T   T
  0.9931735978445853  0.4962576471011523  0.0863348320588337   T   T   T
  0.3265221372517603  0.4962162065681774  0.0864563461276577   T   T   T
  0.6597826631481487  0.4962725231448065  0.0863646839273207   T   T   T
  0.1597712679219438  0.2468497942046817  0.1126899902762895   T   T   T
  0.4929665720633631  0.2470480409629649  0.1128367544603439   T   T   T
  0.8263527984481912  0.2467968352354004  0.1126400355386191   T   T   T
  0.1598345631764375  0.7468627800775436  0.1127354443572354   T   T   T
  0.4930445238834796  0.7468164282299129  0.1127653151911746   T   T   T
  0.8262537808816103  0.7469732571432044  0.1126965824639655   T   T   T
 
  0.00000000E+00  0.00000000E+00  0.00000000E+00
  0.00000000E+00  0.00000000E+00  0.00000000E+00
  0.00000000E+00  0.00000000E+00  0.00000000E+00
  0.00000000E+00  0.00000000E+00  0.00000000E+00
  0.00000000E+00  0.00000000E+00  0.00000000E+00
  0.00000000E+00  0.00000000E+00  0.00000000E+00
  0.00000000E+00  0.00000000E+00  0.00000000E+00
  0.00000000E+00  0.00000000E+00  0.00000000E+00
  0.00000000E+00  0.00000000E+00  0.00000000E+00
  0.00000000E+00  0.00000000E+00  0.00000000E+00
  0.00000000E+00  0.00000000E+00  0.00000000E+00
  0.00000000E+00  0.00000000E+00  0.00000000E+00
  0.00000000E+00  0.00000000E+00  0.00000000E+00
  0.00000000E+00  0.00000000E+00  0.00000000E+00
  0.00000000E+00  0.00000000E+00  0.00000000E+00
  0.00000000E+00  0.00000000E+00  0.00000000E+00
  0.00000000E+00  0.00000000E+00  0.00000000E+00
  0.00000000E+00  0.00000000E+00  0.00000000E+00
  0.00000000E+00  0.00000000E+00  0.00000000E+00
  0.00000000E+00  0.00000000E+00  0.00000000E+00
  0.00000000E+00  0.00000000E+00  0.00000000E+00
  0.00000000E+00  0.00000000E+00  0.00000000E+00
  0.00000000E+00  0.00000000E+00  0.00000000E+00
  0.00000000E+00  0.00000000E+00  0.00000000E+00
  0.00000000E+00  0.00000000E+00  0.00000000E+00
  0.00000000E+00  0.00000000E+00  0.00000000E+00
  0.00000000E+00  0.00000000E+00  0.00000000E+00
  0.00000000E+00  0.00000000E+00  0.00000000E+00
  0.00000000E+00  0.00000000E+00  0.00000000E+00
  0.00000000E+00  0.00000000E+00  0.00000000E+00
  0.00000000E+00  0.00000000E+00  0.00000000E+00
  0.00000000E+00  0.00000000E+00  0.00000000E+00
  0.00000000E+00  0.00000000E+00  0.00000000E+00
  0.00000000E+00  0.00000000E+00  0.00000000E+00
  0.00000000E+00  0.00000000E+00  0.00000000E+00
  0.00000000E+00  0.00000000E+00  0.00000000E+00
  0.00000000E+00  0.00000000E+00  0.00000000E+00
  0.00000000E+00  0.00000000E+00  0.00000000E+00
  0.00000000E+00  0.00000000E+00  0.00000000E+00
  0.00000000E+00  0.00000000E+00  0.00000000E+00
  0.00000000E+00  0.00000000E+00  0.00000000E+00
  0.00000000E+00  0.00000000E+00  0.00000000E+00
  0.00000000E+00  0.00000000E+00  0.00000000E+00
  0.00000000E+00  0.00000000E+00  0.00000000E+00
  0.00000000E+00  0.00000000E+00  0.00000000E+00
  0.00000000E+00  0.00000000E+00  0.00000000E+00
  0.00000000E+00  0.00000000E+00  0.00000000E+00
  0.00000000E+00  0.00000000E+00  0.00000000E+00
  0.00000000E+00  0.00000000E+00  0.00000000E+00
  0.00000000E+00  0.00000000E+00  0.00000000E+00
  0.00000000E+00  0.00000000E+00  0.00000000E+00
  0.00000000E+00  0.00000000E+00  0.00000000E+00
  0.00000000E+00  0.00000000E+00  0.00000000E+00
  0.00000000E+00  0.00000000E+00  0.00000000E+00
  0.00000000E+00  0.00000000E+00  0.00000000E+00
  0.00000000E+00  0.00000000E+00  0.00000000E+00
  0.00000000E+00  0.00000000E+00  0.00000000E+00
  0.00000000E+00  0.00000000E+00  0.00000000E+00
  0.00000000E+00  0.00000000E+00  0.00000000E+00
  0.00000000E+00  0.00000000E+00  0.00000000E+00
  0.00000000E+00  0.00000000E+00  0.00000000E+00
  0.00000000E+00  0.00000000E+00  0.00000000E+00
  0.00000000E+00  0.00000000E+00  0.00000000E+00
  0.00000000E+00  0.00000000E+00  0.00000000E+00
  0.00000000E+00  0.00000000E+00  0.00000000E+00
  0.00000000E+00  0.00000000E+00  0.00000000E+00
  0.00000000E+00  0.00000000E+00  0.00000000E+00
  0.00000000E+00  0.00000000E+00  0.00000000E+00
  0.00000000E+00  0.00000000E+00  0.00000000E+00
  0.00000000E+00  0.00000000E+00  0.00000000E+00
  0.00000000E+00  0.00000000E+00  0.00000000E+00
  0.00000000E+00  0.00000000E+00  0.00000000E+00
  0.00000000E+00  0.00000000E+00  0.00000000E+00
  0.00000000E+00  0.00000000E+00  0.00000000E+00
  0.00000000E+00  0.00000000E+00  0.00000000E+00
  0.00000000E+00  0.00000000E+00  0.00000000E+00
  0.00000000E+00  0.00000000E+00  0.00000000E+00
  0.00000000E+00  0.00000000E+00  0.00000000E+00
  0.00000000E+00  0.00000000E+00  0.00000000E+00
  0.00000000E+00  0.00000000E+00  0.00000000E+00
  0.00000000E+00  0.00000000E+00  0.00000000E+00
  0.00000000E+00  0.00000000E+00  0.00000000E+00
  0.00000000E+00  0.00000000E+00  0.00000000E+00
  0.00000000E+00  0.00000000E+00  0.00000000E+00
  0.00000000E+00  0.00000000E+00  0.00000000E+00
  0.00000000E+00  0.00000000E+00  0.00000000E+00
  0.00000000E+00  0.00000000E+00  0.00000000E+00
  0.00000000E+00  0.00000000E+00  0.00000000E+00
  0.00000000E+00  0.00000000E+00  0.00000000E+00
  0.00000000E+00  0.00000000E+00  0.00000000E+00
  0.00000000E+00  0.00000000E+00  0.00000000E+00
  0.00000000E+00  0.00000000E+00  0.00000000E+00
  0.00000000E+00  0.00000000E+00  0.00000000E+00
  0.00000000E+00  0.00000000E+00  0.00000000E+00
  0.00000000E+00  0.00000000E+00  0.00000000E+00
  0.00000000E+00  0.00000000E+00  0.00000000E+00
  0.00000000E+00  0.00000000E+00  0.00000000E+00
  0.00000000E+00  0.00000000E+00  0.00000000E+00
  0.00000000E+00  0.00000000E+00  0.00000000E+00
  0.00000000E+00  0.00000000E+00  0.00000000E+00
  0.00000000E+00  0.00000000E+00  0.00000000E+00
  0.00000000E+00  0.00000000E+00  0.00000000E+00
  0.00000000E+00  0.00000000E+00  0.00000000E+00
  0.00000000E+00  0.00000000E+00  0.00000000E+00
  0.00000000E+00  0.00000000E+00  0.00000000E+00
  0.00000000E+00  0.00000000E+00  0.00000000E+00
  0.00000000E+00  0.00000000E+00  0.00000000E+00
  0.00000000E+00  0.00000000E+00  0.00000000E+00
  0.00000000E+00  0.00000000E+00  0.00000000E+00
  0.00000000E+00  0.00000000E+00  0.00000000E+00
  0.00000000E+00  0.00000000E+00  0.00000000E+00
  0.00000000E+00  0.00000000E+00  0.00000000E+00
  0.00000000E+00  0.00000000E+00  0.00000000E+00
  0.00000000E+00  0.00000000E+00  0.00000000E+00
  0.00000000E+00  0.00000000E+00  0.00000000E+00
  0.00000000E+00  0.00000000E+00  0.00000000E+00
  0.00000000E+00  0.00000000E+00  0.00000000E+00
  0.00000000E+00  0.00000000E+00  0.00000000E+00
  0.00000000E+00  0.00000000E+00  0.00000000E+00
  0.00000000E+00  0.00000000E+00  0.00000000E+00
