C H O Si                                
   1.00000000000000     
     9.2874599999999994    0.0000000000000000    0.0000000000000000
     0.0000000000000000   17.5126199999999983    0.0000000000000000
     0.0000000000000000    0.0000000000000000   58.0000000000000000
   C    H    O    Si
    72    57    28    72
Selective dynamics
Direct
  0.9958848688986663  0.0650300730363070  0.0595957549503543   T   T   T
  0.3293526800060792  0.0650799105178414  0.0596579184381378   T   T   T
  0.6625849568185779  0.0651104240670257  0.0596651038389449   T   T   T
  0.9959326712335965  0.3150820687942249  0.0595946974677991   T   T   T
  0.3293067269394008  0.3149992266757196  0.0596212369188053   T   T   T
  0.6627200063626215  0.3149839741906818  0.0596455050063391   T   T   T
  0.1629484198043036  0.1877185902052890  0.1384745725228030   T   T   T
  0.4961406244582867  0.1880280582862856  0.1387075970972947   T   T   T
  0.8296845370558230  0.1877642695569427  0.1384679717154199   T   T   T
  0.1628894853342414  0.4379286002203107  0.1385012347376254   T   T   T
  0.4961793988679573  0.4377869491879045  0.1382707048442792   T   T   T
  0.8297219612291233  0.4378853314952504  0.1385345494567985   T   T   T
  0.3304065252605092  0.0631078630117755  0.1657614930509064   T   T   T
  0.6627612416987249  0.0632131457899735  0.1657617369728616   T   T   T
  0.9965096910918100  0.0625786446808097  0.1655737962650477   T   T   T
  0.3291263219961905  0.3130822412798401  0.1656229514376173   T   T   T
  0.6636296516885374  0.3129629848324065  0.1657049250515438   T   T   T
  0.9964620766073846  0.3129559113901582  0.1655750260324198   T   T   T
  0.1638543437411662  0.1894126096845647  0.1907580670056988   T   T   T
  0.4963967060887864  0.1920318820804837  0.1916616679542383   T   T   T
  0.8306670407811102  0.1894058707433221  0.1907754853562978   T   T   T
  0.1626894470935907  0.4401997355027717  0.1910272917954170   T   T   T
  0.4968211177506358  0.4450218914704645  0.1887197730092446   T   T   T
  0.8311733715067930  0.4400983595621108  0.1910776016410309   T   T   T
  0.1626297794496621  0.1878489955628342  0.0849824114188552   T   T   T
  0.4958420063199628  0.1879012160634414  0.0850978056475679   T   T   T
  0.8293409549526217  0.1878659105817826  0.0849741923309368   T   T   T
  0.1625664470207210  0.4379151144809658  0.0849948179132033   T   T   T
  0.4958082120796595  0.4378895593559679  0.0849075589637435   T   T   T
  0.8292277386761148  0.4379329124911506  0.0849974406012805   T   T   T
  0.3294346099867284  0.0628494637094485  0.1121962312137377   T   T   T
  0.6627345949321432  0.0628376336993272  0.1122032751193264   T   T   T
  0.9959261280946504  0.0627155145104234  0.1121291802455485   T   T   T
  0.3292304345002365  0.3126983551141335  0.1121365898176342   T   T   T
  0.6629077583092366  0.3127245534659869  0.1121622248961934   T   T   T
  0.9959745179951860  0.3127888406612770  0.1121108333174434   T   T   T
  0.9959322039886447  0.5651491879420465  0.0596209859807115   T   T   T
  0.3293086428740944  0.5651542955325379  0.0596243728408711   T   T   T
  0.6626831051750264  0.5651351234485323  0.0596369559692459   T   T   T
  0.9959171584676848  0.8151634109753290  0.0596368686641677   T   T   T
  0.3293831897256734  0.8150809539743233  0.0596504719732321   T   T   T
  0.6626548910215908  0.8150542157933685  0.0596597150861304   T   T   T
  0.1630343182884186  0.6879353614773579  0.1385121449226678   T   T   T
  0.4963093159945741  0.6877692392650565  0.1385880701889794   T   T   T
  0.8297159233435780  0.6879273783485373  0.1385126345852709   T   T   T
  0.1632733557638323  0.9378272978120237  0.1385418754313992   T   T   T
  0.4962586793648275  0.9377871454337253  0.1385516191718667   T   T   T
  0.8294489922930552  0.9378537511823147  0.1385552450969402   T   T   T
  0.3294651171609336  0.5631904857899205  0.1656473431382033   T   T   T
  0.6635632586219097  0.5630234043736155  0.1656770639163020   T   T   T
  0.9964378830714353  0.5631350407081060  0.1656380586513909   T   T   T
  0.3300423817835343  0.8129063516879653  0.1657049596315613   T   T   T
  0.6633644067262342  0.8128835630014752  0.1656956569230604   T   T   T
  0.9965522003948991  0.8129825773940257  0.1657004736168841   T   T   T
  0.1637227977580990  0.6900828078513329  0.1910448883884258   T   T   T
  0.4971592279857748  0.6901317851015638  0.1911412450765681   T   T   T
  0.8305148589868433  0.6901089969563384  0.1910465890355315   T   T   T
  0.1638037009500000  0.9400318388161153  0.1910409808313321   T   T   T
  0.4971760004728216  0.9400100961420704  0.1910503403477522   T   T   T
  0.8303445476967171  0.9401450952950916  0.1910532516489954   T   T   T
  0.1626822802817671  0.6879708096522396  0.0850213855490170   T   T   T
  0.4958779111726742  0.6878884143741644  0.0850428638964578   T   T   T
  0.8293551469551146  0.6879891915430030  0.0850116686953181   T   T   T
  0.1626676776524544  0.9379160914069280  0.0850212385550882   T   T   T
  0.4958171938040288  0.9379169443111364  0.0850295309603925   T   T   T
  0.8291813562302615  0.9379517294834906  0.0850090776887936   T   T   T
  0.3293576337704767  0.5628173252050717  0.1121538763992143   T   T   T
  0.6628243176725570  0.5627755250812942  0.1121678770539969   T   T   T
  0.9959272967578037  0.5628572151459059  0.1121424816511880   T   T   T
  0.3295178294520975  0.8127697454563194  0.1121743161025565   T   T   T
  0.6628056929660765  0.8127699417642256  0.1121789973582045   T   T   T
  0.9959729181016538  0.8128944376888166  0.1121710093388271   T   T   T
  0.0800851135926380  0.1780938429195580  0.0255906597432917   T   T   T
  0.4128718251782267  0.1781807949981781  0.0257300691433483   T   T   T
  0.7459106440493284  0.1780478127693114  0.0256556976980071   T   T   T
  0.0803002151082808  0.4281692762635130  0.0255822763015254   T   T   T
  0.4131324653901183  0.4279619512768628  0.0255548643051350   T   T   T
  0.7457468453233858  0.4279562935022505  0.0256745934257117   T   T   T
  0.3275801070096336  0.0289558595210688  0.0441055532991235   T   T   T
  0.6602717770504558  0.0289692336511883  0.0441153783440128   T   T   T
  0.9939120509524750  0.0289473312380939  0.0440335424841892   T   T   T
  0.3270709762615470  0.2788425663095435  0.0440770725254670   T   T   T
  0.6608681168124603  0.2788184717358405  0.0440985935262309   T   T   T
  0.9939330679548243  0.2789912674396788  0.0440349504240193   T   T   T
  0.8339014886709033  0.4043253662793033  0.2066552635773966   T   T   T
  0.8332114819066317  0.1534516773076907  0.2063529464842093   T   T   T
  0.1657609181435500  0.1537907858626094  0.2064055168023170   T   T   T
  0.4986911341332102  0.1555459913077722  0.2071221771726369   T   T   T
  0.1651892922635369  0.4040741749697659  0.2065425814404383   T   T   T
  0.5400702197133763  0.4635364336318710  0.2608602440985701   T   T   T
  0.0812170669902292  0.0537399534039215  0.2248355139958645   T   T   T
  0.4145408755879280  0.0540978503675958  0.2248713568851248   T   T   T
  0.7464382539155675  0.0537860367320692  0.2250619429411264   T   T   T
  0.0849563575273855  0.3038454190393162  0.2236250111408011   T   T   T
  0.3675711027044038  0.2855023690998684  0.2302213753089873   T   T   T
  0.7751475285204275  0.2997267054455567  0.2230859335365901   T   T   T
  0.4905810372677400  0.2704316784894947  0.2659824151516239   T   T   T
  0.4693203751318097  0.2283351872258870  0.3004313126681142   T   T   T
  0.5172431683834134  0.3130622217362733  0.3080316190146012   T   T   T
  0.2899308534555094  0.1361142830047093  0.2955810261813588   T   T   T
  0.4387881412179209  0.1091926875443619  0.2868179979957657   T   T   T
  0.6387335213870410  0.3856425862847466  0.3348857987420529   T   T   T
  0.5047356027100167  0.4327833678634259  0.3277197796396878   T   T   T
  0.5026623972602215  0.4372725348318929  0.2691703636977681   T   T   T
  0.5634774828373793  0.2682001657908463  0.2410102047725912   T   T   T
  0.0799235660109788  0.6782182292418872  0.0256284580173897   T   T   T
  0.4129617219836989  0.6782301537117081  0.0256823272577801   T   T   T
  0.7461498368781884  0.6781529063549698  0.0256702098653021   T   T   T
  0.0803541641166566  0.9281661567715708  0.0255925380482239   T   T   T
  0.4130939593174017  0.9280706168799402  0.0256586574326845   T   T   T
  0.7456479279493763  0.9280113987287605  0.0256840549484109   T   T   T
  0.3273027419907657  0.5290745535057435  0.0440620269201269   T   T   T
  0.6606357170915431  0.5290591102509966  0.0440687981830306   T   T   T
  0.9939507011252194  0.5290891031040060  0.0440556836355846   T   T   T
  0.3273816940891539  0.7789551084562877  0.0441025065303791   T   T   T
  0.6605402868783452  0.7789475811029188  0.0441045919959027   T   T   T
  0.9939514556755945  0.7790146038912530  0.0440902646941116   T   T   T
  0.8323190867881693  0.9040993940198705  0.2066051288254150   T   T   T
  0.8328457802766914  0.6539250766615484  0.2065689559247759   T   T   T
  0.1657248553384406  0.6540571926434009  0.2065971767824691   T   T   T
  0.4991574495287694  0.6540985178445078  0.2066992524120187   T   T   T
  0.1657598159738754  0.9039828326462301  0.2065875293266353   T   T   T
  0.4994432425673782  0.9039622823865825  0.2066006364170208   T   T   T
  0.0805103638009652  0.5528838215116335  0.2251788018796974   T   T   T
  0.4152718378814613  0.5513879423641642  0.2251628520241697   T   T   T
  0.7464633029139762  0.5519802888088214  0.2255378207835842   T   T   T
  0.0807157010841096  0.8029567320560830  0.2250965735715468   T   T   T
  0.4121172717321039  0.8034722439944937  0.2252346634938163   T   T   T
  0.7496240445058506  0.8024165416454876  0.2249581222845237   T   T   T
  0.1720241589708300  0.1697110393272293  0.0333606805351625   T   T   T
  0.5049162262380139  0.1701460310708496  0.0335027220503460   T   T   T
  0.8381037176778717  0.1696698752299146  0.0333481944378041   T   T   T
  0.1721481848666781  0.4197543606536925  0.0333707462313220   T   T   T
  0.5052647766072311  0.4194377819862347  0.0332613180411034   T   T   T
  0.8379732764835226  0.4197065381952927  0.0333717765125083   T   T   T
  0.3220321693920898  0.0441705343541412  0.2174311355384007   T   T   T
  0.6544434061059516  0.0442923783179749  0.2174190481262285   T   T   T
  0.9888063378481622  0.0443298528228067  0.2173128325011598   T   T   T
  0.3111389529290606  0.3021872544134165  0.2161889675815665   T   T   T
  0.6755284241866345  0.2956388956515568  0.2174716466563105   T   T   T
  0.9893991262996673  0.2935214666408938  0.2171156063493946   T   T   T
  0.5206442317942188  0.2749705484447225  0.2953827500894696   T   T   T
  0.3908663913986866  0.1322368551843117  0.3000695662669089   T   T   T
  0.5371206732923811  0.3809178448926823  0.3309232126193709   T   T   T
  0.4766334953025804  0.2530795230819169  0.2497745719456319   T   T   T
  0.1718788470797918  0.6699803244712903  0.0334064901957465   T   T   T
  0.5050175708804410  0.6700687821879667  0.0334407252549883   T   T   T
  0.8382441960771186  0.6700177192308947  0.0334157105248933   T   T   T
  0.1722304627797232  0.9197087743949580  0.0333732071647773   T   T   T
  0.5052174063803155  0.9198156186974979  0.0333958738325992   T   T   T
  0.8379088641808119  0.9196853042835226  0.0333676828397754   T   T   T
  0.3225071222347943  0.5442375209258161  0.2175193954022718   T   T   T
  0.6549733549727295  0.5440919212276021  0.2175703811330729   T   T   T
  0.9887322712471905  0.5451127497372137  0.2172981618205630   T   T   T
  0.3206643810398381  0.7944135515703559  0.2173997789579886   T   T   T
  0.6567516757731952  0.7947241142433119  0.2173768111195999   T   T   T
  0.9885179269301341  0.7941911169268858  0.2174308543442995   T   T   T
  0.4960204555945159  0.1238764016040205  0.0588519948300500   T   T   T
  0.8293317814087593  0.1237675421309164  0.0587553871527848   T   T   T
  0.1627310398487641  0.3737885202002791  0.0587687818410906   T   T   T
  0.4960625075350582  0.3736976381857777  0.0587003828565714   T   T   T
  0.8293189321903247  0.3737931640287340  0.0587772159615445   T   T   T
  0.1626573895981328  0.1237448124554700  0.0587627194760831   T   T   T
  0.9963496253601967  0.0003127976419127  0.1387861100203777   T   T   T
  0.3299788574421252  0.0005935893187483  0.1388784992167133   T   T   T
  0.6627156962711364  0.0006215907140117  0.1388904639147195   T   T   T
  0.9963620397046657  0.2504370430051741  0.1387510453302118   T   T   T
  0.3293049324242189  0.2505030213216818  0.1388415859706867   T   T   T
  0.6631326272466140  0.2504494331929880  0.1388415482766515   T   T   T
  0.1631190995493511  0.1248410734814615  0.1651105200657898   T   T   T
  0.4962319752162158  0.1261381160519010  0.1655856166596657   T   T   T
  0.8299063597643560  0.1248079883385987  0.1650831953747044   T   T   T
  0.1628430617897293  0.3754520667102844  0.1651600954005019   T   T   T
  0.4961593521800769  0.3744646583542379  0.1650867930739671   T   T   T
  0.8299349489280925  0.3753393217206074  0.1652048116117027   T   T   T
  0.3286136188109407  0.4987296564076953  0.1921080939184422   T   T   T
  0.6650318589081385  0.4986505761018225  0.1921911445017453   T   T   T
  0.9969771079627175  0.4992797574485435  0.1918961008028453   T   T   T
  0.3279375161684450  0.2507176444986017  0.1921857219004807   T   T   T
  0.9972056047179032  0.2479679471427991  0.1915807556742333   T   T   T
  0.6653694579974204  0.2492411335866556  0.1919718661464466   T   T   T
  0.9959343740864528  0.0002040070135898  0.0854521198992063   T   T   T
  0.3293036209591127  0.0002435691229255  0.0855030676214027   T   T   T
  0.6625764383258410  0.0002593702568747  0.0855096637031490   T   T   T
  0.9960248899547447  0.2501954509110507  0.0854319269902376   T   T   T
  0.3292472892313852  0.2501583723092999  0.0854650990676618   T   T   T
  0.6627635969048747  0.2501349292233524  0.0854801480439512   T   T   T
  0.1625744319040513  0.1254604021839138  0.1118447799845180   T   T   T
  0.4959239927007207  0.1255491967955659  0.1119910938711779   T   T   T
  0.8293048934692895  0.1254685419689103  0.1118416046221985   T   T   T
  0.1626195662691052  0.3755062622305212  0.1118498051120395   T   T   T
  0.4958894022794063  0.3752586719756366  0.1117170105779957   T   T   T
  0.8293194538790973  0.3755052433123750  0.1118657119307771   T   T   T
  0.4960621359975431  0.6238935794567461  0.0588000256072843   T   T   T
  0.8293543939021450  0.6239120108170999  0.0587836548753269   T   T   T
  0.1627667162956657  0.8738168566848097  0.0587946848437729   T   T   T
  0.4960815737875420  0.8738224505249852  0.0588059595617783   T   T   T
  0.8292545974229284  0.8738405223972540  0.0587888684124461   T   T   T
  0.1626882294073604  0.6239043321272285  0.0587812479910614   T   T   T
  0.9963046669645157  0.5005986195287381  0.1388073911903568   T   T   T
  0.3295905211263760  0.5004764018685005  0.1388268829296994   T   T   T
  0.6630027804531100  0.5004314554979808  0.1388437130536389   T   T   T
  0.9963292638768168  0.7506517690631613  0.1388430527016023   T   T   T
  0.3297552348181618  0.7505234417091773  0.1388566667140997   T   T   T
  0.6629992412497284  0.7505124144827233  0.1388591395549772   T   T   T
  0.1626523421278731  0.6254720919610455  0.1651975123710159   T   T   T
  0.4964713453885901  0.6251767494313327  0.1653081413746287   T   T   T
  0.8300908798638716  0.6254363406647381  0.1652100578502076   T   T   T
  0.1632819879116299  0.8752224074641252  0.1652126834462264   T   T   T
  0.4965776456944356  0.8751701963913849  0.1652273413662413   T   T   T
  0.8297358689528805  0.8752321233113703  0.1652355834574984   T   T   T
  0.3304134388332338  0.9987595383042969  0.1919464682525600   T   T   T
  0.6635944269991382  0.9988630274378232  0.1919461455487223   T   T   T
  0.9970595753873341  0.9987420543656119  0.1918600728950125   T   T   T
  0.3303007642822750  0.7488332623401466  0.1919559909738185   T   T   T
  0.9970844629730794  0.7488553007512506  0.1919334255918115   T   T   T
  0.6638561731624590  0.7488993941753043  0.1919651372245792   T   T   T
  0.9959233030468285  0.5002597694414036  0.0854568428523858   T   T   T
  0.3292242113501519  0.5002341289120691  0.0854503144020843   T   T   T
  0.6625927215832769  0.5002065232356607  0.0854571335252805   T   T   T
  0.9960071376449527  0.7503011085792460  0.0854774733150620   T   T   T
  0.3293768505856507  0.7502366839379573  0.0854872523263183   T   T   T
  0.6626821635363310  0.7502312621493015  0.0854935982961166   T   T   T
  0.1626147607830618  0.6255418757725911  0.1118643341382230   T   T   T
  0.4959804917779616  0.6254680292274812  0.1119084941589803   T   T   T
  0.8292967851695986  0.6255350490630347  0.1118644893567699   T   T   T
  0.1628123296490766  0.8755434613059445  0.1118803525605441   T   T   T
  0.4960018065275761  0.8755061310402649  0.1118886329899295   T   T   T
  0.8291476602079324  0.8755567506857714  0.1118887847347331   T   T   T
 
  0.00000000E+00  0.00000000E+00  0.00000000E+00
  0.00000000E+00  0.00000000E+00  0.00000000E+00
  0.00000000E+00  0.00000000E+00  0.00000000E+00
  0.00000000E+00  0.00000000E+00  0.00000000E+00
  0.00000000E+00  0.00000000E+00  0.00000000E+00
  0.00000000E+00  0.00000000E+00  0.00000000E+00
  0.00000000E+00  0.00000000E+00  0.00000000E+00
  0.00000000E+00  0.00000000E+00  0.00000000E+00
  0.00000000E+00  0.00000000E+00  0.00000000E+00
  0.00000000E+00  0.00000000E+00  0.00000000E+00
  0.00000000E+00  0.00000000E+00  0.00000000E+00
  0.00000000E+00  0.00000000E+00  0.00000000E+00
  0.00000000E+00  0.00000000E+00  0.00000000E+00
  0.00000000E+00  0.00000000E+00  0.00000000E+00
  0.00000000E+00  0.00000000E+00  0.00000000E+00
  0.00000000E+00  0.00000000E+00  0.00000000E+00
  0.00000000E+00  0.00000000E+00  0.00000000E+00
  0.00000000E+00  0.00000000E+00  0.00000000E+00
  0.00000000E+00  0.00000000E+00  0.00000000E+00
  0.00000000E+00  0.00000000E+00  0.00000000E+00
  0.00000000E+00  0.00000000E+00  0.00000000E+00
  0.00000000E+00  0.00000000E+00  0.00000000E+00
  0.00000000E+00  0.00000000E+00  0.00000000E+00
  0.00000000E+00  0.00000000E+00  0.00000000E+00
  0.00000000E+00  0.00000000E+00  0.00000000E+00
  0.00000000E+00  0.00000000E+00  0.00000000E+00
  0.00000000E+00  0.00000000E+00  0.00000000E+00
  0.00000000E+00  0.00000000E+00  0.00000000E+00
  0.00000000E+00  0.00000000E+00  0.00000000E+00
  0.00000000E+00  0.00000000E+00  0.00000000E+00
  0.00000000E+00  0.00000000E+00  0.00000000E+00
  0.00000000E+00  0.00000000E+00  0.00000000E+00
  0.00000000E+00  0.00000000E+00  0.00000000E+00
  0.00000000E+00  0.00000000E+00  0.00000000E+00
  0.00000000E+00  0.00000000E+00  0.00000000E+00
  0.00000000E+00  0.00000000E+00  0.00000000E+00
  0.00000000E+00  0.00000000E+00  0.00000000E+00
  0.00000000E+00  0.00000000E+00  0.00000000E+00
  0.00000000E+00  0.00000000E+00  0.00000000E+00
  0.00000000E+00  0.00000000E+00  0.00000000E+00
  0.00000000E+00  0.00000000E+00  0.00000000E+00
  0.00000000E+00  0.00000000E+00  0.00000000E+00
  0.00000000E+00  0.00000000E+00  0.00000000E+00
  0.00000000E+00  0.00000000E+00  0.00000000E+00
  0.00000000E+00  0.00000000E+00  0.00000000E+00
  0.00000000E+00  0.00000000E+00  0.00000000E+00
  0.00000000E+00  0.00000000E+00  0.00000000E+00
  0.00000000E+00  0.00000000E+00  0.00000000E+00
  0.00000000E+00  0.00000000E+00  0.00000000E+00
  0.00000000E+00  0.00000000E+00  0.00000000E+00
  0.00000000E+00  0.00000000E+00  0.00000000E+00
  0.00000000E+00  0.00000000E+00  0.00000000E+00
  0.00000000E+00  0.00000000E+00  0.00000000E+00
  0.00000000E+00  0.00000000E+00  0.00000000E+00
  0.00000000E+00  0.00000000E+00  0.00000000E+00
  0.00000000E+00  0.00000000E+00  0.00000000E+00
  0.00000000E+00  0.00000000E+00  0.00000000E+00
  0.00000000E+00  0.00000000E+00  0.00000000E+00
  0.00000000E+00  0.00000000E+00  0.00000000E+00
  0.00000000E+00  0.00000000E+00  0.00000000E+00
  0.00000000E+00  0.00000000E+00  0.00000000E+00
  0.00000000E+00  0.00000000E+00  0.00000000E+00
  0.00000000E+00  0.00000000E+00  0.00000000E+00
  0.00000000E+00  0.00000000E+00  0.00000000E+00
  0.00000000E+00  0.00000000E+00  0.00000000E+00
  0.00000000E+00  0.00000000E+00  0.00000000E+00
  0.00000000E+00  0.00000000E+00  0.00000000E+00
  0.00000000E+00  0.00000000E+00  0.00000000E+00
  0.00000000E+00  0.00000000E+00  0.00000000E+00
  0.00000000E+00  0.00000000E+00  0.00000000E+00
  0.00000000E+00  0.00000000E+00  0.00000000E+00
  0.00000000E+00  0.00000000E+00  0.00000000E+00
  0.00000000E+00  0.00000000E+00  0.00000000E+00
  0.00000000E+00  0.00000000E+00  0.00000000E+00
  0.00000000E+00  0.00000000E+00  0.00000000E+00
  0.00000000E+00  0.00000000E+00  0.00000000E+00
  0.00000000E+00  0.00000000E+00  0.00000000E+00
  0.00000000E+00  0.00000000E+00  0.00000000E+00
  0.00000000E+00  0.00000000E+00  0.00000000E+00
  0.00000000E+00  0.00000000E+00  0.00000000E+00
  0.00000000E+00  0.00000000E+00  0.00000000E+00
  0.00000000E+00  0.00000000E+00  0.00000000E+00
  0.00000000E+00  0.00000000E+00  0.00000000E+00
  0.00000000E+00  0.00000000E+00  0.00000000E+00
  0.00000000E+00  0.00000000E+00  0.00000000E+00
  0.00000000E+00  0.00000000E+00  0.00000000E+00
  0.00000000E+00  0.00000000E+00  0.00000000E+00
  0.00000000E+00  0.00000000E+00  0.00000000E+00
  0.00000000E+00  0.00000000E+00  0.00000000E+00
  0.00000000E+00  0.00000000E+00  0.00000000E+00
  0.00000000E+00  0.00000000E+00  0.00000000E+00
  0.00000000E+00  0.00000000E+00  0.00000000E+00
  0.00000000E+00  0.00000000E+00  0.00000000E+00
  0.00000000E+00  0.00000000E+00  0.00000000E+00
  0.00000000E+00  0.00000000E+00  0.00000000E+00
  0.00000000E+00  0.00000000E+00  0.00000000E+00
  0.00000000E+00  0.00000000E+00  0.00000000E+00
  0.00000000E+00  0.00000000E+00  0.00000000E+00
  0.00000000E+00  0.00000000E+00  0.00000000E+00
  0.00000000E+00  0.00000000E+00  0.00000000E+00
  0.00000000E+00  0.00000000E+00  0.00000000E+00
  0.00000000E+00  0.00000000E+00  0.00000000E+00
  0.00000000E+00  0.00000000E+00  0.00000000E+00
  0.00000000E+00  0.00000000E+00  0.00000000E+00
  0.00000000E+00  0.00000000E+00  0.00000000E+00
  0.00000000E+00  0.00000000E+00  0.00000000E+00
  0.00000000E+00  0.00000000E+00  0.00000000E+00
  0.00000000E+00  0.00000000E+00  0.00000000E+00
  0.00000000E+00  0.00000000E+00  0.00000000E+00
  0.00000000E+00  0.00000000E+00  0.00000000E+00
  0.00000000E+00  0.00000000E+00  0.00000000E+00
  0.00000000E+00  0.00000000E+00  0.00000000E+00
  0.00000000E+00  0.00000000E+00  0.00000000E+00
  0.00000000E+00  0.00000000E+00  0.00000000E+00
  0.00000000E+00  0.00000000E+00  0.00000000E+00
  0.00000000E+00  0.00000000E+00  0.00000000E+00
  0.00000000E+00  0.00000000E+00  0.00000000E+00
  0.00000000E+00  0.00000000E+00  0.00000000E+00
  0.00000000E+00  0.00000000E+00  0.00000000E+00
  0.00000000E+00  0.00000000E+00  0.00000000E+00
  0.00000000E+00  0.00000000E+00  0.00000000E+00
  0.00000000E+00  0.00000000E+00  0.00000000E+00
  0.00000000E+00  0.00000000E+00  0.00000000E+00
  0.00000000E+00  0.00000000E+00  0.00000000E+00
  0.00000000E+00  0.00000000E+00  0.00000000E+00
  0.00000000E+00  0.00000000E+00  0.00000000E+00
  0.00000000E+00  0.00000000E+00  0.00000000E+00
  0.00000000E+00  0.00000000E+00  0.00000000E+00
  0.00000000E+00  0.00000000E+00  0.00000000E+00
  0.00000000E+00  0.00000000E+00  0.00000000E+00
  0.00000000E+00  0.00000000E+00  0.00000000E+00
  0.00000000E+00  0.00000000E+00  0.00000000E+00
  0.00000000E+00  0.00000000E+00  0.00000000E+00
  0.00000000E+00  0.00000000E+00  0.00000000E+00
  0.00000000E+00  0.00000000E+00  0.00000000E+00
  0.00000000E+00  0.00000000E+00  0.00000000E+00
  0.00000000E+00  0.00000000E+00  0.00000000E+00
  0.00000000E+00  0.00000000E+00  0.00000000E+00
  0.00000000E+00  0.00000000E+00  0.00000000E+00
  0.00000000E+00  0.00000000E+00  0.00000000E+00
  0.00000000E+00  0.00000000E+00  0.00000000E+00
  0.00000000E+00  0.00000000E+00  0.00000000E+00
  0.00000000E+00  0.00000000E+00  0.00000000E+00
  0.00000000E+00  0.00000000E+00  0.00000000E+00
  0.00000000E+00  0.00000000E+00  0.00000000E+00
  0.00000000E+00  0.00000000E+00  0.00000000E+00
  0.00000000E+00  0.00000000E+00  0.00000000E+00
  0.00000000E+00  0.00000000E+00  0.00000000E+00
  0.00000000E+00  0.00000000E+00  0.00000000E+00
  0.00000000E+00  0.00000000E+00  0.00000000E+00
  0.00000000E+00  0.00000000E+00  0.00000000E+00
  0.00000000E+00  0.00000000E+00  0.00000000E+00
  0.00000000E+00  0.00000000E+00  0.00000000E+00
  0.00000000E+00  0.00000000E+00  0.00000000E+00
  0.00000000E+00  0.00000000E+00  0.00000000E+00
  0.00000000E+00  0.00000000E+00  0.00000000E+00
  0.00000000E+00  0.00000000E+00  0.00000000E+00
  0.00000000E+00  0.00000000E+00  0.00000000E+00
  0.00000000E+00  0.00000000E+00  0.00000000E+00
  0.00000000E+00  0.00000000E+00  0.00000000E+00
  0.00000000E+00  0.00000000E+00  0.00000000E+00
  0.00000000E+00  0.00000000E+00  0.00000000E+00
  0.00000000E+00  0.00000000E+00  0.00000000E+00
  0.00000000E+00  0.00000000E+00  0.00000000E+00
  0.00000000E+00  0.00000000E+00  0.00000000E+00
  0.00000000E+00  0.00000000E+00  0.00000000E+00
  0.00000000E+00  0.00000000E+00  0.00000000E+00
  0.00000000E+00  0.00000000E+00  0.00000000E+00
  0.00000000E+00  0.00000000E+00  0.00000000E+00
  0.00000000E+00  0.00000000E+00  0.00000000E+00
  0.00000000E+00  0.00000000E+00  0.00000000E+00
  0.00000000E+00  0.00000000E+00  0.00000000E+00
  0.00000000E+00  0.00000000E+00  0.00000000E+00
  0.00000000E+00  0.00000000E+00  0.00000000E+00
  0.00000000E+00  0.00000000E+00  0.00000000E+00
  0.00000000E+00  0.00000000E+00  0.00000000E+00
  0.00000000E+00  0.00000000E+00  0.00000000E+00
  0.00000000E+00  0.00000000E+00  0.00000000E+00
  0.00000000E+00  0.00000000E+00  0.00000000E+00
  0.00000000E+00  0.00000000E+00  0.00000000E+00
  0.00000000E+00  0.00000000E+00  0.00000000E+00
  0.00000000E+00  0.00000000E+00  0.00000000E+00
  0.00000000E+00  0.00000000E+00  0.00000000E+00
  0.00000000E+00  0.00000000E+00  0.00000000E+00
  0.00000000E+00  0.00000000E+00  0.00000000E+00
  0.00000000E+00  0.00000000E+00  0.00000000E+00
  0.00000000E+00  0.00000000E+00  0.00000000E+00
  0.00000000E+00  0.00000000E+00  0.00000000E+00
  0.00000000E+00  0.00000000E+00  0.00000000E+00
  0.00000000E+00  0.00000000E+00  0.00000000E+00
  0.00000000E+00  0.00000000E+00  0.00000000E+00
  0.00000000E+00  0.00000000E+00  0.00000000E+00
  0.00000000E+00  0.00000000E+00  0.00000000E+00
  0.00000000E+00  0.00000000E+00  0.00000000E+00
  0.00000000E+00  0.00000000E+00  0.00000000E+00
  0.00000000E+00  0.00000000E+00  0.00000000E+00
  0.00000000E+00  0.00000000E+00  0.00000000E+00
  0.00000000E+00  0.00000000E+00  0.00000000E+00
  0.00000000E+00  0.00000000E+00  0.00000000E+00
  0.00000000E+00  0.00000000E+00  0.00000000E+00
  0.00000000E+00  0.00000000E+00  0.00000000E+00
  0.00000000E+00  0.00000000E+00  0.00000000E+00
  0.00000000E+00  0.00000000E+00  0.00000000E+00
  0.00000000E+00  0.00000000E+00  0.00000000E+00
  0.00000000E+00  0.00000000E+00  0.00000000E+00
  0.00000000E+00  0.00000000E+00  0.00000000E+00
  0.00000000E+00  0.00000000E+00  0.00000000E+00
  0.00000000E+00  0.00000000E+00  0.00000000E+00
  0.00000000E+00  0.00000000E+00  0.00000000E+00
  0.00000000E+00  0.00000000E+00  0.00000000E+00
  0.00000000E+00  0.00000000E+00  0.00000000E+00
  0.00000000E+00  0.00000000E+00  0.00000000E+00
  0.00000000E+00  0.00000000E+00  0.00000000E+00
  0.00000000E+00  0.00000000E+00  0.00000000E+00
  0.00000000E+00  0.00000000E+00  0.00000000E+00
  0.00000000E+00  0.00000000E+00  0.00000000E+00
  0.00000000E+00  0.00000000E+00  0.00000000E+00
  0.00000000E+00  0.00000000E+00  0.00000000E+00
  0.00000000E+00  0.00000000E+00  0.00000000E+00
  0.00000000E+00  0.00000000E+00  0.00000000E+00
  0.00000000E+00  0.00000000E+00  0.00000000E+00
  0.00000000E+00  0.00000000E+00  0.00000000E+00
  0.00000000E+00  0.00000000E+00  0.00000000E+00
  0.00000000E+00  0.00000000E+00  0.00000000E+00
  0.00000000E+00  0.00000000E+00  0.00000000E+00
  0.00000000E+00  0.00000000E+00  0.00000000E+00
  0.00000000E+00  0.00000000E+00  0.00000000E+00
  0.00000000E+00  0.00000000E+00  0.00000000E+00
  0.00000000E+00  0.00000000E+00  0.00000000E+00
