C H O Si                                
   1.00000000000000     
     9.2874599999999994    0.0000000000000000    0.0000000000000000
     0.0000000000000000   17.5126199999999983    0.0000000000000000
     0.0000000000000000    0.0000000000000000   58.0000000000000000
   C    H    O    Si
    72    57    28    72
Selective dynamics
Direct
  0.9959114959202280  0.0650382423323462  0.0595824596748416   T   T   T
  0.3292744263957742  0.0651142274756254  0.0596456261029851   T   T   T
  0.6624545619900772  0.0651218252994867  0.0596530480281290   T   T   T
  0.9959623400356802  0.3150816778708598  0.0595797178365532   T   T   T
  0.3292662697493060  0.3150411073044149  0.0596009034330204   T   T   T
  0.6625990538267239  0.3150217715699830  0.0596235507154459   T   T   T
  0.1630191557027421  0.1877205908560994  0.1385062414761283   T   T   T
  0.4963562620813211  0.1880338858403141  0.1387130876267058   T   T   T
  0.8298427006337191  0.1877606467968958  0.1385050537108334   T   T   T
  0.1630442775167288  0.4379216655930752  0.1385249523407497   T   T   T
  0.4963781183665054  0.4377608963330646  0.1382946301161423   T   T   T
  0.8298633834784599  0.4378623969852793  0.1385540804885700   T   T   T
  0.3301036800128425  0.0630779032771321  0.1657282804482144   T   T   T
  0.6623390269646779  0.0632238207317380  0.1657408730238412   T   T   T
  0.9962514568673069  0.0625810939456279  0.1655401172506544   T   T   T
  0.3288272396469526  0.3130868554780210  0.1656195670710729   T   T   T
  0.6633230090651037  0.3129763399586152  0.1656928999864864   T   T   T
  0.9962208494795545  0.3129571768705953  0.1655549077974380   T   T   T
  0.1638633328491056  0.1895180306386729  0.1907615144874343   T   T   T
  0.4964628839571775  0.1920245385285382  0.1916402855684020   T   T   T
  0.8305576186938931  0.1894610855380601  0.1907772061856305   T   T   T
  0.1627072849967223  0.4402559022283837  0.1910262145940245   T   T   T
  0.4968808576644180  0.4450732523132671  0.1887244245275829   T   T   T
  0.8312779484149226  0.4401787985955299  0.1910653596063845   T   T   T
  0.1626280188161023  0.1878479191513372  0.0849998922008784   T   T   T
  0.4959784431903101  0.1878607448662409  0.0851329902404155   T   T   T
  0.8293869954002855  0.1878443347720916  0.0850034024013555   T   T   T
  0.1625322705587749  0.4379255099495612  0.0850319709749188   T   T   T
  0.4957623379878537  0.4378849979619568  0.0849338824519691   T   T   T
  0.8291948812765556  0.4379043453654224  0.0850421101209873   T   T   T
  0.3291530616084678  0.0628277942908107  0.1122045723089926   T   T   T
  0.6624041977043043  0.0628238552638745  0.1122155758676961   T   T   T
  0.9957714819086060  0.0627461999809547  0.1121492522887022   T   T   T
  0.3290376307804781  0.3127035465762546  0.1121500712093826   T   T   T
  0.6625844222110525  0.3127351449354683  0.1121599872290359   T   T   T
  0.9958827857180775  0.3127879213437468  0.1121254301507960   T   T   T
  0.9959151189254581  0.5651842406942844  0.0596066470955858   T   T   T
  0.3292575870262219  0.5651723968788741  0.0596137677785638   T   T   T
  0.6625993267974057  0.5651485064654533  0.0596196652566500   T   T   T
  0.9959262609438594  0.8151887801169504  0.0596203344389290   T   T   T
  0.3293331086378121  0.8151322736341390  0.0596323197625973   T   T   T
  0.6625219823928588  0.8150820509085043  0.0596405003343609   T   T   T
  0.1631239612435530  0.6879576215198120  0.1385325000093618   T   T   T
  0.4964798975662451  0.6877603681370662  0.1386021353971249   T   T   T
  0.8298266339665630  0.6879180347886792  0.1385236033166665   T   T   T
  0.1634143798014647  0.9378200812702941  0.1385602093154166   T   T   T
  0.4964994839189661  0.9377857957575505  0.1385616545968282   T   T   T
  0.8295409979519009  0.9378224845500267  0.1385715021611880   T   T   T
  0.3291112244645805  0.5632069818544876  0.1656230950202129   T   T   T
  0.6631909904933515  0.5630575497540865  0.1656537622389103   T   T   T
  0.9961906625764909  0.5631504880876467  0.1656194315974137   T   T   T
  0.3297368704793255  0.8129310867108788  0.1656842963780280   T   T   T
  0.6629996105410580  0.8129071639173892  0.1656888789705488   T   T   T
  0.9963603292701632  0.8130337165853517  0.1656837214823439   T   T   T
  0.1638355281239152  0.6901812906733685  0.1910375683452248   T   T   T
  0.4971999273527404  0.6902262643889259  0.1911392947348657   T   T   T
  0.8306135242841568  0.6901777805714139  0.1910332906835679   T   T   T
  0.1638926034677625  0.9400954090194700  0.1910238616228529   T   T   T
  0.4971958132896236  0.9400710519729465  0.1910389512916391   T   T   T
  0.8303967595894164  0.9401993974879028  0.1910420699387827   T   T   T
  0.1626457264907945  0.6879467573168297  0.0850433157413441   T   T   T
  0.4960441013105201  0.6878711915793064  0.0850765098695308   T   T   T
  0.8293171690902564  0.6879471822156525  0.0850414257453758   T   T   T
  0.1626158769016540  0.9379181294285438  0.0850505774904959   T   T   T
  0.4959132401576327  0.9379075807863166  0.0850603101509855   T   T   T
  0.8291362781104222  0.9379228788404380  0.0850517788998290   T   T   T
  0.3291322541203922  0.5628083444139117  0.1121648675584996   T   T   T
  0.6624865794425732  0.5627779558591748  0.1121738218776417   T   T   T
  0.9958194193307344  0.5628620502997992  0.1121551271937947   T   T   T
  0.3292601306435213  0.8127712769979583  0.1121840336174786   T   T   T
  0.6624715234027444  0.8127543409821810  0.1121852222334675   T   T   T
  0.9958526807495129  0.8128909794758054  0.1121794977521653   T   T   T
  0.0800035283038805  0.1780446461925733  0.0256197844455743   T   T   T
  0.4127439322659776  0.1781355142390293  0.0257549761634442   T   T   T
  0.7457990535333423  0.1779996374614750  0.0256836439111170   T   T   T
  0.0801928548550281  0.4281235682223643  0.0256050548180092   T   T   T
  0.4130255105350639  0.4279054657545271  0.0255842805392605   T   T   T
  0.7456390348676244  0.4279110137427876  0.0256984791520266   T   T   T
  0.3276733253306346  0.0289659932949214  0.0441037765236636   T   T   T
  0.6603576798265810  0.0289754023707534  0.0441099196011284   T   T   T
  0.9939897522997686  0.0289569257244107  0.0440246791589631   T   T   T
  0.3271760386544204  0.2788228066537422  0.0440739614171141   T   T   T
  0.6609577213877644  0.2788010403359001  0.0440962282957627   T   T   T
  0.9940128252469387  0.2789670827514459  0.0440251809119099   T   T   T
  0.8338974728982030  0.4043432889306898  0.2066494560447720   T   T   T
  0.8332504666856593  0.1534298741052153  0.2063469998371049   T   T   T
  0.1657830212005604  0.1537844911627778  0.2063958565308969   T   T   T
  0.4987192848476246  0.1555777841777373  0.2071250502910778   T   T   T
  0.1651875303778186  0.4040698231424720  0.2065356040318979   T   T   T
  0.5400300644870200  0.4635278309778477  0.2608471045805569   T   T   T
  0.0813489787781285  0.0537688269755444  0.2248313470058175   T   T   T
  0.4146807510182647  0.0541795543827526  0.2248700416288564   T   T   T
  0.7465868223348114  0.0538042963960899  0.2250557659473994   T   T   T
  0.0850948983475704  0.3038003758737780  0.2235948525151734   T   T   T
  0.3675075104339828  0.2854521098101391  0.2302102741053408   T   T   T
  0.7752567481871478  0.2996901471266311  0.2230698528093404   T   T   T
  0.4906293833953052  0.2703680962389257  0.2659651879603858   T   T   T
  0.4692737236768853  0.2284059841575183  0.3004355059882182   T   T   T
  0.5171646457241735  0.3130274566033772  0.3080411794377031   T   T   T
  0.2900232545777070  0.1361138448947562  0.2955473770019064   T   T   T
  0.4387751237121674  0.1093072959670324  0.2867822167183504   T   T   T
  0.6387704890547489  0.3856931324946154  0.3348832057861532   T   T   T
  0.5049045451232449  0.4328396141703001  0.3277463540572810   T   T   T
  0.5026369922865883  0.4372519623436696  0.2691508758309252   T   T   T
  0.5634951677695937  0.2681445448611692  0.2410024106029217   T   T   T
  0.0798267753234980  0.6781672508644372  0.0256546070765055   T   T   T
  0.4128481072941738  0.6781848014113315  0.0257078038137657   T   T   T
  0.7460553095453301  0.6780958565437646  0.0257003171309140   T   T   T
  0.0802623678030735  0.9281166922866031  0.0256191216555337   T   T   T
  0.4130208849435069  0.9280117466266025  0.0256908265243717   T   T   T
  0.7455414889569423  0.9279668985743230  0.0257069163826898   T   T   T
  0.3273909219399984  0.5290798566502206  0.0440570700022693   T   T   T
  0.6607122708677982  0.5290619001415142  0.0440632487843733   T   T   T
  0.9940393867964161  0.5290917856335778  0.0440486752477531   T   T   T
  0.3274744409936760  0.7789346641384587  0.0440989873250665   T   T   T
  0.6606305556412159  0.7789301753909956  0.0440964173674629   T   T   T
  0.9940402284783448  0.7790000856922920  0.0440845396479696   T   T   T
  0.8323073438134231  0.9041015447785784  0.2065992074812169   T   T   T
  0.8328653418358336  0.6539349473718701  0.2065629358782057   T   T   T
  0.1657259891127167  0.6540760689277690  0.2065933185757436   T   T   T
  0.4991821089585581  0.6540940547044356  0.2066939433926073   T   T   T
  0.1657394197041689  0.9039909395408096  0.2065818974463726   T   T   T
  0.4994496313527497  0.9039683700774259  0.2065985490290287   T   T   T
  0.0806551250168151  0.5528990718737654  0.2251758397543931   T   T   T
  0.4153790679935164  0.5513395618502949  0.2251712672134680   T   T   T
  0.7467055435292564  0.5520166774484295  0.2255330621022080   T   T   T
  0.0808467039463063  0.8029709087259850  0.2251003705539210   T   T   T
  0.4122409707507693  0.8034784402749646  0.2252282582607659   T   T   T
  0.7498105302301002  0.8023916377904314  0.2249454091915604   T   T   T
  0.1720944948702263  0.1697012945411227  0.0333574881381585   T   T   T
  0.5050351112583449  0.1701769431645117  0.0334872075869231   T   T   T
  0.8382464724538493  0.1696613814186272  0.0333276232846710   T   T   T
  0.1722339587119827  0.4197175026942295  0.0333653461727084   T   T   T
  0.5053877656638890  0.4194267678905518  0.0332321086261521   T   T   T
  0.8380828209303335  0.4196612870975248  0.0333558932578610   T   T   T
  0.3222341982253919  0.0440237643855936  0.2174383273005070   T   T   T
  0.6545993621511759  0.0441628639564594  0.2174291359089827   T   T   T
  0.9889552138912394  0.0441587850052674  0.2173142546190398   T   T   T
  0.3109535667366137  0.3021837441341378  0.2161952137872033   T   T   T
  0.6755509987088520  0.2956100080441628  0.2175117612084104   T   T   T
  0.9894188641019146  0.2934893107347497  0.2170941398254154   T   T   T
  0.5206620724643738  0.2750112367490447  0.2953816687743999   T   T   T
  0.3908496963168559  0.1320900488406617  0.3000579203979112   T   T   T
  0.5371514872261790  0.3809320040711516  0.3309309735079118   T   T   T
  0.4765532542288957  0.2530832169814498  0.2497624508173121   T   T   T
  0.1719675394786972  0.6699912980980161  0.0333972184483901   T   T   T
  0.5051194842528859  0.6700965617099027  0.0334240139229590   T   T   T
  0.8383806136659456  0.6700282898945862  0.0334014851042998   T   T   T
  0.1723117820468208  0.9196668065622723  0.0333668792059974   T   T   T
  0.5053221820253420  0.9197985680074654  0.0333812253981349   T   T   T
  0.8380028871261317  0.9196462590205428  0.0333485265483165   T   T   T
  0.3225571693280075  0.5442711330985998  0.2175264644072557   T   T   T
  0.6551984078373727  0.5439926122422618  0.2175838831399484   T   T   T
  0.9888946486937383  0.5449919057924130  0.2173057143235954   T   T   T
  0.3206978439649158  0.7942891642712369  0.2174150537007774   T   T   T
  0.6568415838707793  0.7946961411694772  0.2174095290594598   T   T   T
  0.9886639509681763  0.7940209065199512  0.2174348677425836   T   T   T
  0.4959421624623145  0.1239167884845537  0.0588374834142952   T   T   T
  0.8293062846766354  0.1237974084212440  0.0587426867484471   T   T   T
  0.1627122424888962  0.3738397218957624  0.0587597330165713   T   T   T
  0.4960328950201871  0.3737553758459015  0.0586775345002211   T   T   T
  0.8293162547565092  0.3738123442850826  0.0587680500627897   T   T   T
  0.1626834356580962  0.1238030134763399  0.0587501155836873   T   T   T
  0.9965009654466979  0.0002952743657808  0.1387723653544084   T   T   T
  0.3301488603849600  0.0006109572212284  0.1388597185348505   T   T   T
  0.6628255091493799  0.0006192756281330  0.1388758574224786   T   T   T
  0.9964980228194783  0.2504301746836231  0.1387400183114894   T   T   T
  0.3294273512002749  0.2505060315261501  0.1388384822046815   T   T   T
  0.6632899254535881  0.2504185945419666  0.1388162136860417   T   T   T
  0.1630738868636435  0.1248729475250229  0.1651104553714979   T   T   T
  0.4960667511781103  0.1261452771711595  0.1655606239716954   T   T   T
  0.8297559746623723  0.1248177399972770  0.1650701076371984   T   T   T
  0.1627801533959039  0.3754703302088550  0.1651585512950293   T   T   T
  0.4960571891424250  0.3744460116085022  0.1650770340111250   T   T   T
  0.8298455764923406  0.3753754402387099  0.1651873582961524   T   T   T
  0.3286742054944474  0.4987625942968769  0.1920983181646168   T   T   T
  0.6651573005138497  0.4986430601909933  0.1921739701948063   T   T   T
  0.9970755388296011  0.4993114241981690  0.1918761311910154   T   T   T
  0.3280241945956256  0.2507251642871318  0.1921732070002719   T   T   T
  0.9972337049958975  0.2479607302205428  0.1915486371599390   T   T   T
  0.6654157262534632  0.2493315024605385  0.1919782077755818   T   T   T
  0.9959121800348476  0.0002089479469809  0.0854822629970919   T   T   T
  0.3293281144932955  0.0002590414863784  0.0855250208612049   T   T   T
  0.6625128683480409  0.0002706874510535  0.0855290657706807   T   T   T
  0.9960543678050859  0.2501951724341524  0.0854528426223635   T   T   T
  0.3293093315050082  0.2501603624518556  0.0854877799124533   T   T   T
  0.6627435898082098  0.2501354484349139  0.0854940950844287   T   T   T
  0.1625084360565975  0.1254701690997441  0.1118623996033911   T   T   T
  0.4958565539137929  0.1255560206370028  0.1120185282678035   T   T   T
  0.8292321725408899  0.1254503052447258  0.1118620287545645   T   T   T
  0.1625897104962253  0.3754996125294445  0.1118797305235857   T   T   T
  0.4957993192389226  0.3752121096586157  0.1117280549142984   T   T   T
  0.8292863519678781  0.3754667931465299  0.1118917914455547   T   T   T
  0.4960466682548498  0.6239130241636678  0.0587883431697111   T   T   T
  0.8293477093039580  0.6239360388329567  0.0587756996027838   T   T   T
  0.1627682400487714  0.8738882617700426  0.0587727361342325   T   T   T
  0.4960649780040527  0.8739020956204315  0.0587787108981428   T   T   T
  0.8292188327292214  0.8738659840147501  0.0587729334686925   T   T   T
  0.1627115664282096  0.6239334699702707  0.0587738339216551   T   T   T
  0.9964979583301855  0.5005959190913678  0.1387912974534225   T   T   T
  0.3297590242974984  0.5004714337900803  0.1388126065066469   T   T   T
  0.6630959535562707  0.5003914334656425  0.1388176542496008   T   T   T
  0.9965462580107672  0.7506543015936041  0.1388259907164359   T   T   T
  0.3299644628800153  0.7505096967832121  0.1388379324640972   T   T   T
  0.6631514554406321  0.7505038539374330  0.1388389112982238   T   T   T
  0.1625288491131491  0.6255153448340873  0.1651871435443963   T   T   T
  0.4962664190373170  0.6251953369287153  0.1652964378163149   T   T   T
  0.8300363382831440  0.6254711883183570  0.1651834581758935   T   T   T
  0.1632119123056052  0.8752354507126626  0.1652052049882463   T   T   T
  0.4964433169909731  0.8752209710173274  0.1652152757164380   T   T   T
  0.8296142715088809  0.8752666320656818  0.1652236852302258   T   T   T
  0.3305092695386447  0.9987573603956632  0.1919232009159645   T   T   T
  0.6636453194061498  0.9988804724773238  0.1919270368085810   T   T   T
  0.9971452843505535  0.9987446908962221  0.1918280285345469   T   T   T
  0.3303766178288752  0.7488875644305421  0.1919402818222062   T   T   T
  0.9971891956580110  0.7488704599217553  0.1919146458864570   T   T   T
  0.6639233674209424  0.7489074360397977  0.1919563496557317   T   T   T
  0.9958810253683941  0.5002572099211718  0.0854799495809706   T   T   T
  0.3291911831744855  0.5002459550376366  0.0854728525327891   T   T   T
  0.6625220184455641  0.5002146171962212  0.0854839417394578   T   T   T
  0.9960383536518882  0.7502978434915902  0.0855004035188981   T   T   T
  0.3294532291019919  0.7502337467984111  0.0855068363120342   T   T   T
  0.6626836152349206  0.7502304102673931  0.0855106384914181   T   T   T
  0.1625758418336526  0.6255487514061484  0.1118917780216356   T   T   T
  0.4959202572696005  0.6254723719528260  0.1119305441165992   T   T   T
  0.8292359328035533  0.6255293936346757  0.1118850543104039   T   T   T
  0.1627832094461580  0.8755049056948945  0.1119104130975743   T   T   T
  0.4959667861630447  0.8754893191073067  0.1119086594678576   T   T   T
  0.8290931798197706  0.8755294264275576  0.1119144330828446   T   T   T
 
  0.00000000E+00  0.00000000E+00  0.00000000E+00
  0.00000000E+00  0.00000000E+00  0.00000000E+00
  0.00000000E+00  0.00000000E+00  0.00000000E+00
  0.00000000E+00  0.00000000E+00  0.00000000E+00
  0.00000000E+00  0.00000000E+00  0.00000000E+00
  0.00000000E+00  0.00000000E+00  0.00000000E+00
  0.00000000E+00  0.00000000E+00  0.00000000E+00
  0.00000000E+00  0.00000000E+00  0.00000000E+00
  0.00000000E+00  0.00000000E+00  0.00000000E+00
  0.00000000E+00  0.00000000E+00  0.00000000E+00
  0.00000000E+00  0.00000000E+00  0.00000000E+00
  0.00000000E+00  0.00000000E+00  0.00000000E+00
  0.00000000E+00  0.00000000E+00  0.00000000E+00
  0.00000000E+00  0.00000000E+00  0.00000000E+00
  0.00000000E+00  0.00000000E+00  0.00000000E+00
  0.00000000E+00  0.00000000E+00  0.00000000E+00
  0.00000000E+00  0.00000000E+00  0.00000000E+00
  0.00000000E+00  0.00000000E+00  0.00000000E+00
  0.00000000E+00  0.00000000E+00  0.00000000E+00
  0.00000000E+00  0.00000000E+00  0.00000000E+00
  0.00000000E+00  0.00000000E+00  0.00000000E+00
  0.00000000E+00  0.00000000E+00  0.00000000E+00
  0.00000000E+00  0.00000000E+00  0.00000000E+00
  0.00000000E+00  0.00000000E+00  0.00000000E+00
  0.00000000E+00  0.00000000E+00  0.00000000E+00
  0.00000000E+00  0.00000000E+00  0.00000000E+00
  0.00000000E+00  0.00000000E+00  0.00000000E+00
  0.00000000E+00  0.00000000E+00  0.00000000E+00
  0.00000000E+00  0.00000000E+00  0.00000000E+00
  0.00000000E+00  0.00000000E+00  0.00000000E+00
  0.00000000E+00  0.00000000E+00  0.00000000E+00
  0.00000000E+00  0.00000000E+00  0.00000000E+00
  0.00000000E+00  0.00000000E+00  0.00000000E+00
  0.00000000E+00  0.00000000E+00  0.00000000E+00
  0.00000000E+00  0.00000000E+00  0.00000000E+00
  0.00000000E+00  0.00000000E+00  0.00000000E+00
  0.00000000E+00  0.00000000E+00  0.00000000E+00
  0.00000000E+00  0.00000000E+00  0.00000000E+00
  0.00000000E+00  0.00000000E+00  0.00000000E+00
  0.00000000E+00  0.00000000E+00  0.00000000E+00
  0.00000000E+00  0.00000000E+00  0.00000000E+00
  0.00000000E+00  0.00000000E+00  0.00000000E+00
  0.00000000E+00  0.00000000E+00  0.00000000E+00
  0.00000000E+00  0.00000000E+00  0.00000000E+00
  0.00000000E+00  0.00000000E+00  0.00000000E+00
  0.00000000E+00  0.00000000E+00  0.00000000E+00
  0.00000000E+00  0.00000000E+00  0.00000000E+00
  0.00000000E+00  0.00000000E+00  0.00000000E+00
  0.00000000E+00  0.00000000E+00  0.00000000E+00
  0.00000000E+00  0.00000000E+00  0.00000000E+00
  0.00000000E+00  0.00000000E+00  0.00000000E+00
  0.00000000E+00  0.00000000E+00  0.00000000E+00
  0.00000000E+00  0.00000000E+00  0.00000000E+00
  0.00000000E+00  0.00000000E+00  0.00000000E+00
  0.00000000E+00  0.00000000E+00  0.00000000E+00
  0.00000000E+00  0.00000000E+00  0.00000000E+00
  0.00000000E+00  0.00000000E+00  0.00000000E+00
  0.00000000E+00  0.00000000E+00  0.00000000E+00
  0.00000000E+00  0.00000000E+00  0.00000000E+00
  0.00000000E+00  0.00000000E+00  0.00000000E+00
  0.00000000E+00  0.00000000E+00  0.00000000E+00
  0.00000000E+00  0.00000000E+00  0.00000000E+00
  0.00000000E+00  0.00000000E+00  0.00000000E+00
  0.00000000E+00  0.00000000E+00  0.00000000E+00
  0.00000000E+00  0.00000000E+00  0.00000000E+00
  0.00000000E+00  0.00000000E+00  0.00000000E+00
  0.00000000E+00  0.00000000E+00  0.00000000E+00
  0.00000000E+00  0.00000000E+00  0.00000000E+00
  0.00000000E+00  0.00000000E+00  0.00000000E+00
  0.00000000E+00  0.00000000E+00  0.00000000E+00
  0.00000000E+00  0.00000000E+00  0.00000000E+00
  0.00000000E+00  0.00000000E+00  0.00000000E+00
  0.00000000E+00  0.00000000E+00  0.00000000E+00
  0.00000000E+00  0.00000000E+00  0.00000000E+00
  0.00000000E+00  0.00000000E+00  0.00000000E+00
  0.00000000E+00  0.00000000E+00  0.00000000E+00
  0.00000000E+00  0.00000000E+00  0.00000000E+00
  0.00000000E+00  0.00000000E+00  0.00000000E+00
  0.00000000E+00  0.00000000E+00  0.00000000E+00
  0.00000000E+00  0.00000000E+00  0.00000000E+00
  0.00000000E+00  0.00000000E+00  0.00000000E+00
  0.00000000E+00  0.00000000E+00  0.00000000E+00
  0.00000000E+00  0.00000000E+00  0.00000000E+00
  0.00000000E+00  0.00000000E+00  0.00000000E+00
  0.00000000E+00  0.00000000E+00  0.00000000E+00
  0.00000000E+00  0.00000000E+00  0.00000000E+00
  0.00000000E+00  0.00000000E+00  0.00000000E+00
  0.00000000E+00  0.00000000E+00  0.00000000E+00
  0.00000000E+00  0.00000000E+00  0.00000000E+00
  0.00000000E+00  0.00000000E+00  0.00000000E+00
  0.00000000E+00  0.00000000E+00  0.00000000E+00
  0.00000000E+00  0.00000000E+00  0.00000000E+00
  0.00000000E+00  0.00000000E+00  0.00000000E+00
  0.00000000E+00  0.00000000E+00  0.00000000E+00
  0.00000000E+00  0.00000000E+00  0.00000000E+00
  0.00000000E+00  0.00000000E+00  0.00000000E+00
  0.00000000E+00  0.00000000E+00  0.00000000E+00
  0.00000000E+00  0.00000000E+00  0.00000000E+00
  0.00000000E+00  0.00000000E+00  0.00000000E+00
  0.00000000E+00  0.00000000E+00  0.00000000E+00
  0.00000000E+00  0.00000000E+00  0.00000000E+00
  0.00000000E+00  0.00000000E+00  0.00000000E+00
  0.00000000E+00  0.00000000E+00  0.00000000E+00
  0.00000000E+00  0.00000000E+00  0.00000000E+00
  0.00000000E+00  0.00000000E+00  0.00000000E+00
  0.00000000E+00  0.00000000E+00  0.00000000E+00
  0.00000000E+00  0.00000000E+00  0.00000000E+00
  0.00000000E+00  0.00000000E+00  0.00000000E+00
  0.00000000E+00  0.00000000E+00  0.00000000E+00
  0.00000000E+00  0.00000000E+00  0.00000000E+00
  0.00000000E+00  0.00000000E+00  0.00000000E+00
  0.00000000E+00  0.00000000E+00  0.00000000E+00
  0.00000000E+00  0.00000000E+00  0.00000000E+00
  0.00000000E+00  0.00000000E+00  0.00000000E+00
  0.00000000E+00  0.00000000E+00  0.00000000E+00
  0.00000000E+00  0.00000000E+00  0.00000000E+00
  0.00000000E+00  0.00000000E+00  0.00000000E+00
  0.00000000E+00  0.00000000E+00  0.00000000E+00
  0.00000000E+00  0.00000000E+00  0.00000000E+00
  0.00000000E+00  0.00000000E+00  0.00000000E+00
  0.00000000E+00  0.00000000E+00  0.00000000E+00
  0.00000000E+00  0.00000000E+00  0.00000000E+00
  0.00000000E+00  0.00000000E+00  0.00000000E+00
  0.00000000E+00  0.00000000E+00  0.00000000E+00
  0.00000000E+00  0.00000000E+00  0.00000000E+00
  0.00000000E+00  0.00000000E+00  0.00000000E+00
  0.00000000E+00  0.00000000E+00  0.00000000E+00
  0.00000000E+00  0.00000000E+00  0.00000000E+00
  0.00000000E+00  0.00000000E+00  0.00000000E+00
  0.00000000E+00  0.00000000E+00  0.00000000E+00
  0.00000000E+00  0.00000000E+00  0.00000000E+00
  0.00000000E+00  0.00000000E+00  0.00000000E+00
  0.00000000E+00  0.00000000E+00  0.00000000E+00
  0.00000000E+00  0.00000000E+00  0.00000000E+00
  0.00000000E+00  0.00000000E+00  0.00000000E+00
  0.00000000E+00  0.00000000E+00  0.00000000E+00
  0.00000000E+00  0.00000000E+00  0.00000000E+00
  0.00000000E+00  0.00000000E+00  0.00000000E+00
  0.00000000E+00  0.00000000E+00  0.00000000E+00
  0.00000000E+00  0.00000000E+00  0.00000000E+00
  0.00000000E+00  0.00000000E+00  0.00000000E+00
  0.00000000E+00  0.00000000E+00  0.00000000E+00
  0.00000000E+00  0.00000000E+00  0.00000000E+00
  0.00000000E+00  0.00000000E+00  0.00000000E+00
  0.00000000E+00  0.00000000E+00  0.00000000E+00
  0.00000000E+00  0.00000000E+00  0.00000000E+00
  0.00000000E+00  0.00000000E+00  0.00000000E+00
  0.00000000E+00  0.00000000E+00  0.00000000E+00
  0.00000000E+00  0.00000000E+00  0.00000000E+00
  0.00000000E+00  0.00000000E+00  0.00000000E+00
  0.00000000E+00  0.00000000E+00  0.00000000E+00
  0.00000000E+00  0.00000000E+00  0.00000000E+00
  0.00000000E+00  0.00000000E+00  0.00000000E+00
  0.00000000E+00  0.00000000E+00  0.00000000E+00
  0.00000000E+00  0.00000000E+00  0.00000000E+00
  0.00000000E+00  0.00000000E+00  0.00000000E+00
  0.00000000E+00  0.00000000E+00  0.00000000E+00
  0.00000000E+00  0.00000000E+00  0.00000000E+00
  0.00000000E+00  0.00000000E+00  0.00000000E+00
  0.00000000E+00  0.00000000E+00  0.00000000E+00
  0.00000000E+00  0.00000000E+00  0.00000000E+00
  0.00000000E+00  0.00000000E+00  0.00000000E+00
  0.00000000E+00  0.00000000E+00  0.00000000E+00
  0.00000000E+00  0.00000000E+00  0.00000000E+00
  0.00000000E+00  0.00000000E+00  0.00000000E+00
  0.00000000E+00  0.00000000E+00  0.00000000E+00
  0.00000000E+00  0.00000000E+00  0.00000000E+00
  0.00000000E+00  0.00000000E+00  0.00000000E+00
  0.00000000E+00  0.00000000E+00  0.00000000E+00
  0.00000000E+00  0.00000000E+00  0.00000000E+00
  0.00000000E+00  0.00000000E+00  0.00000000E+00
  0.00000000E+00  0.00000000E+00  0.00000000E+00
  0.00000000E+00  0.00000000E+00  0.00000000E+00
  0.00000000E+00  0.00000000E+00  0.00000000E+00
  0.00000000E+00  0.00000000E+00  0.00000000E+00
  0.00000000E+00  0.00000000E+00  0.00000000E+00
  0.00000000E+00  0.00000000E+00  0.00000000E+00
  0.00000000E+00  0.00000000E+00  0.00000000E+00
  0.00000000E+00  0.00000000E+00  0.00000000E+00
  0.00000000E+00  0.00000000E+00  0.00000000E+00
  0.00000000E+00  0.00000000E+00  0.00000000E+00
  0.00000000E+00  0.00000000E+00  0.00000000E+00
  0.00000000E+00  0.00000000E+00  0.00000000E+00
  0.00000000E+00  0.00000000E+00  0.00000000E+00
  0.00000000E+00  0.00000000E+00  0.00000000E+00
  0.00000000E+00  0.00000000E+00  0.00000000E+00
  0.00000000E+00  0.00000000E+00  0.00000000E+00
  0.00000000E+00  0.00000000E+00  0.00000000E+00
  0.00000000E+00  0.00000000E+00  0.00000000E+00
  0.00000000E+00  0.00000000E+00  0.00000000E+00
  0.00000000E+00  0.00000000E+00  0.00000000E+00
  0.00000000E+00  0.00000000E+00  0.00000000E+00
  0.00000000E+00  0.00000000E+00  0.00000000E+00
  0.00000000E+00  0.00000000E+00  0.00000000E+00
  0.00000000E+00  0.00000000E+00  0.00000000E+00
  0.00000000E+00  0.00000000E+00  0.00000000E+00
  0.00000000E+00  0.00000000E+00  0.00000000E+00
  0.00000000E+00  0.00000000E+00  0.00000000E+00
  0.00000000E+00  0.00000000E+00  0.00000000E+00
  0.00000000E+00  0.00000000E+00  0.00000000E+00
  0.00000000E+00  0.00000000E+00  0.00000000E+00
  0.00000000E+00  0.00000000E+00  0.00000000E+00
  0.00000000E+00  0.00000000E+00  0.00000000E+00
  0.00000000E+00  0.00000000E+00  0.00000000E+00
  0.00000000E+00  0.00000000E+00  0.00000000E+00
  0.00000000E+00  0.00000000E+00  0.00000000E+00
  0.00000000E+00  0.00000000E+00  0.00000000E+00
  0.00000000E+00  0.00000000E+00  0.00000000E+00
  0.00000000E+00  0.00000000E+00  0.00000000E+00
  0.00000000E+00  0.00000000E+00  0.00000000E+00
  0.00000000E+00  0.00000000E+00  0.00000000E+00
  0.00000000E+00  0.00000000E+00  0.00000000E+00
  0.00000000E+00  0.00000000E+00  0.00000000E+00
  0.00000000E+00  0.00000000E+00  0.00000000E+00
  0.00000000E+00  0.00000000E+00  0.00000000E+00
  0.00000000E+00  0.00000000E+00  0.00000000E+00
  0.00000000E+00  0.00000000E+00  0.00000000E+00
  0.00000000E+00  0.00000000E+00  0.00000000E+00
  0.00000000E+00  0.00000000E+00  0.00000000E+00
  0.00000000E+00  0.00000000E+00  0.00000000E+00
  0.00000000E+00  0.00000000E+00  0.00000000E+00
  0.00000000E+00  0.00000000E+00  0.00000000E+00
  0.00000000E+00  0.00000000E+00  0.00000000E+00
  0.00000000E+00  0.00000000E+00  0.00000000E+00
  0.00000000E+00  0.00000000E+00  0.00000000E+00
  0.00000000E+00  0.00000000E+00  0.00000000E+00
  0.00000000E+00  0.00000000E+00  0.00000000E+00
  0.00000000E+00  0.00000000E+00  0.00000000E+00
  0.00000000E+00  0.00000000E+00  0.00000000E+00
