C H O Si                                
   1.00000000000000     
     9.2874599999999994    0.0000000000000000    0.0000000000000000
     0.0000000000000000   17.5126199999999983    0.0000000000000000
     0.0000000000000000    0.0000000000000000   58.0000000000000000
   C    H    O    Si
    72    57    28    72
Selective dynamics
Direct
  0.9960634754414170  0.0651353490347924  0.0595997333997029   T   T   T
  0.3295386316108659  0.0652157546446188  0.0596692502025290   T   T   T
  0.6627617834767714  0.0652030307894204  0.0596775892425324   T   T   T
  0.9961331984250912  0.3151878220025182  0.0596046119638696   T   T   T
  0.3294716162920402  0.3150791073737300  0.0596320371192090   T   T   T
  0.6629058983768142  0.3150837965856810  0.0596554866924356   T   T   T
  0.1629017107760486  0.1878248579383039  0.1384715649086850   T   T   T
  0.4961439141969443  0.1881413858565591  0.1387000616665741   T   T   T
  0.8296767752428001  0.1878925084269610  0.1384689289377396   T   T   T
  0.1628763328073575  0.4380525874393124  0.1384915262793408   T   T   T
  0.4962029974116306  0.4378498170740693  0.1382906577912617   T   T   T
  0.8297087801471219  0.4380051672252023  0.1385306959241324   T   T   T
  0.3303354149463993  0.0632091656372809  0.1657578840949832   T   T   T
  0.6626692039053547  0.0633311004370988  0.1657756333293600   T   T   T
  0.9964119234436043  0.0626682475783984  0.1655754640440103   T   T   T
  0.3290985143858927  0.3132134254114778  0.1656190229031938   T   T   T
  0.6635783756564656  0.3130886790976003  0.1657253480048898   T   T   T
  0.9964006270236423  0.3130857165486122  0.1655951969189579   T   T   T
  0.1636685960006518  0.1894595301679567  0.1907261958606076   T   T   T
  0.4962128347786684  0.1921716209851032  0.1916600598071872   T   T   T
  0.8305005209483184  0.1894801481373786  0.1907689571091811   T   T   T
  0.1625314866169767  0.4403182003209608  0.1910061782466076   T   T   T
  0.4966266800444636  0.4447897408822081  0.1888569051747228   T   T   T
  0.8308932909321664  0.4402490432295747  0.1910746467077977   T   T   T
  0.1626737193107975  0.1880035913291971  0.0849735802814006   T   T   T
  0.4959023540855794  0.1880606218579630  0.0850894666974934   T   T   T
  0.8294142439194971  0.1880324306466248  0.0849734914743423   T   T   T
  0.1626754326331896  0.4380941885772975  0.0849781178630886   T   T   T
  0.4958959394736144  0.4380481408943678  0.0848963271088614   T   T   T
  0.8293041117021741  0.4380962230952122  0.0849970935795324   T   T   T
  0.3294932791197476  0.0629718445857554  0.1122004916247614   T   T   T
  0.6627806531765650  0.0629553921236938  0.1122021569688089   T   T   T
  0.9959536815147777  0.0628644378013088  0.1121302507675867   T   T   T
  0.3292550644042247  0.3128312475642906  0.1121309174097484   T   T   T
  0.6629182350362210  0.3128574070391719  0.1121677956651562   T   T   T
  0.9959826407284217  0.3129214032016069  0.1121172518151580   T   T   T
  0.9961387412063074  0.5652402294117829  0.0596277047868906   T   T   T
  0.3295095315560116  0.5652555376878060  0.0596335837115471   T   T   T
  0.6628574853139722  0.5652173518403274  0.0596533006961823   T   T   T
  0.9961584292893690  0.8152842966345349  0.0596393980722981   T   T   T
  0.3295698854745948  0.8151891561464277  0.0596568327487397   T   T   T
  0.6628325041513471  0.8151852201751217  0.0596657979551410   T   T   T
  0.1630244693612029  0.6880624849629632  0.1385019930429863   T   T   T
  0.4962958420529160  0.6878853727055521  0.1385814927663611   T   T   T
  0.8297395540314167  0.6880642661555777  0.1384959321102884   T   T   T
  0.1632811640980733  0.9379596087103158  0.1385337977979343   T   T   T
  0.4962926768254888  0.9379050928820293  0.1385473590448659   T   T   T
  0.8294577583813365  0.9380030591291788  0.1385441553171112   T   T   T
  0.3294157495978978  0.5633287898905557  0.1656662494716934   T   T   T
  0.6635810828588374  0.5631759326742732  0.1656844728588392   T   T   T
  0.9964068977751181  0.5633012186569639  0.1656443707356546   T   T   T
  0.3299823095372666  0.8130680009618871  0.1657116659501717   T   T   T
  0.6633344526578393  0.8130218921375170  0.1657108441573572   T   T   T
  0.9965231198666109  0.8131414416670850  0.1656865302608040   T   T   T
  0.1635039400369056  0.6901811987897667  0.1910304547348584   T   T   T
  0.4969398355528756  0.6902319340178411  0.1911303586722160   T   T   T
  0.8303750889729160  0.6902262754016112  0.1910332011546290   T   T   T
  0.1635501836909113  0.9401118687058528  0.1910308006441068   T   T   T
  0.4969151953302411  0.9401009230321435  0.1910517015970128   T   T   T
  0.8301393632578997  0.9402197161332914  0.1910478569122132   T   T   T
  0.1627344270292825  0.6881315858354223  0.0850076473776425   T   T   T
  0.4959645758245365  0.6880714112291132  0.0850265886310279   T   T   T
  0.8294028828538256  0.6881427072197670  0.0849980791722501   T   T   T
  0.1627584391867743  0.9381083144140433  0.0850105454228715   T   T   T
  0.4958965254758003  0.9380947849878047  0.0850247358121318   T   T   T
  0.8292517274495870  0.9381248718563545  0.0850113909996667   T   T   T
  0.3294223617430286  0.5629417061229928  0.1121576758920203   T   T   T
  0.6628724230098142  0.5628890195804195  0.1121661185233522   T   T   T
  0.9959755828044858  0.5629822168927325  0.1121379964240631   T   T   T
  0.3295496676786921  0.8129232945351431  0.1121790126296311   T   T   T
  0.6628524444604909  0.8128845984760279  0.1121774120983216   T   T   T
  0.9960254190740120  0.8130436868004868  0.1121642408368269   T   T   T
  0.0791325535444545  0.1781138620174496  0.0257964435177121   T   T   T
  0.4121205054812035  0.1782130977446785  0.0259324647239702   T   T   T
  0.7450136753110985  0.1780732491461555  0.0258619953580366   T   T   T
  0.0794859050690481  0.4281918711749809  0.0257904456814867   T   T   T
  0.4122878040398660  0.4279580428001993  0.0257674067958820   T   T   T
  0.7448737159126440  0.4279775543470158  0.0258794032081162   T   T   T
  0.3277064524763474  0.0289929915964481  0.0441365823756502   T   T   T
  0.6603879144686678  0.0290022871601292  0.0441393536841926   T   T   T
  0.9940043149489188  0.0289816402566200  0.0440549992363536   T   T   T
  0.3271978380493857  0.2788572675351840  0.0441045656766645   T   T   T
  0.6609966621843089  0.2788342419718470  0.0441261847572408   T   T   T
  0.9940585063335103  0.2790283839107714  0.0440622992660907   T   T   T
  0.8337253900478448  0.4043178188520975  0.2066194793845448   T   T   T
  0.8330888803353715  0.1534276823284201  0.2063255843726506   T   T   T
  0.1656828754945235  0.1537884711420680  0.2063639129494046   T   T   T
  0.4986022761980342  0.1556260327345003  0.2071088060438822   T   T   T
  0.1650819147417822  0.4041181732793513  0.2064996361531297   T   T   T
  0.5398741771794967  0.4635652513845874  0.2608258216196040   T   T   T
  0.0820573617402439  0.0537981645865720  0.2246143769610035   T   T   T
  0.4149827753290927  0.0543456332426466  0.2246346778083265   T   T   T
  0.7473092519792199  0.0538382204516648  0.2248489322779799   T   T   T
  0.0863189665271945  0.3038019071528988  0.2233928628158350   T   T   T
  0.3671068676627515  0.2853322878822380  0.2301483844137774   T   T   T
  0.7758472379847811  0.2996278572454607  0.2229543960203752   T   T   T
  0.4910827794068525  0.2704091202511677  0.2659430394643465   T   T   T
  0.4691866852436448  0.2283309887929794  0.3004892749336873   T   T   T
  0.5169695750873211  0.3130666601225613  0.3081260794190855   T   T   T
  0.2898995142126102  0.1360919010473963  0.2955038568260822   T   T   T
  0.4389210493701929  0.1094985264604247  0.2867241339282285   T   T   T
  0.6391511673180530  0.3857393494338475  0.3348972105158453   T   T   T
  0.5050567980134955  0.4329430962141048  0.3277954689009467   T   T   T
  0.5026364958495936  0.4372546586733684  0.2691437727423535   T   T   T
  0.5633405381791351  0.2680508746036779  0.2408971599331372   T   T   T
  0.0789520233372807  0.6782289364615981  0.0258292197435451   T   T   T
  0.4121196603253273  0.6782559867669548  0.0258837555471963   T   T   T
  0.7451573242163735  0.6781583577077288  0.0258699703579136   T   T   T
  0.0795432754142990  0.9281898629485683  0.0258010454926851   T   T   T
  0.4120992428315867  0.9280703165242981  0.0258673992861289   T   T   T
  0.7448987779289545  0.9280265961278652  0.0258935983170056   T   T   T
  0.3274333774007550  0.5291056684193723  0.0440855136170935   T   T   T
  0.6607463617966159  0.5290899696420583  0.0440956309485806   T   T   T
  0.9940681212726856  0.5291020131235674  0.0440761475670913   T   T   T
  0.3275311966333160  0.7789670840137928  0.0441260883004423   T   T   T
  0.6606635030800024  0.7789794690120457  0.0441264923034026   T   T   T
  0.9940797040499006  0.7790402649130828  0.0441103155453383   T   T   T
  0.8321918446685361  0.9040622225798449  0.2065773576752038   T   T   T
  0.8327867824749922  0.6539060324131384  0.2065287441378377   T   T   T
  0.1656616799242409  0.6540350996326145  0.2065581589102022   T   T   T
  0.4990560086521675  0.6540536817161136  0.2066581228313540   T   T   T
  0.1655843255655338  0.9039575765153542  0.2065554474401238   T   T   T
  0.4993268986425613  0.9039181676851687  0.2065774182180579   T   T   T
  0.0816748111564306  0.5528859107437619  0.2249458822165833   T   T   T
  0.4159562990431876  0.5511336583309353  0.2249858952430335   T   T   T
  0.7474858315144007  0.5520402001227158  0.2252670406497189   T   T   T
  0.0815682810391987  0.8029501053865130  0.2248834099399709   T   T   T
  0.4128304998850691  0.8035284055403576  0.2250341026644835   T   T   T
  0.7505516435951559  0.8023843057218532  0.2247473401236934   T   T   T
  0.1719174156914261  0.1693276821099814  0.0332631482423504   T   T   T
  0.5050435097653614  0.1697272509396659  0.0333961780872925   T   T   T
  0.8380540871166661  0.1694259134060367  0.0332687222205476   T   T   T
  0.1722332846085942  0.4192954533331313  0.0332573127961970   T   T   T
  0.5052654185221593  0.4189114720697302  0.0331540737479775   T   T   T
  0.8379561841530465  0.4194684681749076  0.0332917744636189   T   T   T
  0.3216957895365458  0.0440149503987220  0.2174953227109857   T   T   T
  0.6544538779639085  0.0438769461045376  0.2175289901709613   T   T   T
  0.9887460836097030  0.0439995211970877  0.2174186007435888   T   T   T
  0.3098430029543137  0.3018989588393678  0.2162465806185246   T   T   T
  0.6757687031801629  0.2949807747160069  0.2176150790876822   T   T   T
  0.9898858682164676  0.2929538116798924  0.2172578764538106   T   T   T
  0.5203377919645946  0.2750444719116561  0.2954668668605931   T   T   T
  0.3908136320854948  0.1321678617670646  0.3000150725045703   T   T   T
  0.5374485920594908  0.3810438122021416  0.3309790080570843   T   T   T
  0.4770856569774733  0.2526111411292806  0.2498008303177109   T   T   T
  0.1717991545942833  0.6695709731798878  0.0332945494402557   T   T   T
  0.5050929175868543  0.6695775572697749  0.0333129023687210   T   T   T
  0.8381903783986284  0.6694864213112112  0.0332771468463184   T   T   T
  0.1722899337519580  0.9194039373270693  0.0332842339014432   T   T   T
  0.5050674394951561  0.9194546507292406  0.0333049249046799   T   T   T
  0.8379776114001475  0.9194945600753491  0.0333007715011562   T   T   T
  0.3223338282372136  0.5438617227844275  0.2176168635442495   T   T   T
  0.6549644108018576  0.5440673985684723  0.2176131325254509   T   T   T
  0.9888216484110628  0.5446590492606210  0.2174265339607069   T   T   T
  0.3204924832992954  0.7940265369538763  0.2175073608924368   T   T   T
  0.6567237112877417  0.7941420862859513  0.2175232781845676   T   T   T
  0.9885528976563813  0.7940205149821103  0.2174852350907900   T   T   T
  0.4962668384385658  0.1239233820903961  0.0589213665964977   T   T   T
  0.8295300124997284  0.1238474881515570  0.0588269880801649   T   T   T
  0.1629662493788198  0.3738374760554689  0.0588332847411288   T   T   T
  0.4962795916575093  0.3737091606304378  0.0587764650454181   T   T   T
  0.8295337579579650  0.3738646474734333  0.0588462861811395   T   T   T
  0.1628601561694504  0.1238179810464643  0.0588281565099917   T   T   T
  0.9963699301582635  0.0002533271944249  0.1387673344627233   T   T   T
  0.3300137094037257  0.0005183125417546  0.1388571921435532   T   T   T
  0.6627256082789678  0.0005647191895601  0.1388687281119108   T   T   T
  0.9963424404409958  0.2503936799487152  0.1387506565881982   T   T   T
  0.3292907635034342  0.2504722154718024  0.1388289792221049   T   T   T
  0.6631230381077217  0.2504087525489126  0.1388394277290182   T   T   T
  0.1630599486792472  0.1248367282737182  0.1650599964438615   T   T   T
  0.4961721665674934  0.1261639679873146  0.1655423173989364   T   T   T
  0.8298980325449578  0.1248207894583152  0.1650393344161454   T   T   T
  0.1628504038973149  0.3754603896473354  0.1651205246272616   T   T   T
  0.4961270613968902  0.3745861373622097  0.1650979367575777   T   T   T
  0.8298691153608221  0.3753777952001333  0.1651688422827540   T   T   T
  0.3286653010012898  0.4986705976277343  0.1920343894981022   T   T   T
  0.6645112006528425  0.4986546214902012  0.1920944502930518   T   T   T
  0.9967926012564050  0.4992870074154050  0.1918236750442051   T   T   T
  0.3276047347036430  0.2507769077649771  0.1921009811773002   T   T   T
  0.9970673593359808  0.2479812065150858  0.1915333130126935   T   T   T
  0.6651936216328342  0.2492767658225595  0.1919211270874421   T   T   T
  0.9959901926795681  0.0002264347444337  0.0854978033547289   T   T   T
  0.3293663792592679  0.0002791904054032  0.0855523458951665   T   T   T
  0.6626275049818324  0.0002845426412396  0.0855547148895050   T   T   T
  0.9960497153512291  0.2502145606816712  0.0854802672501216   T   T   T
  0.3292725220387455  0.2501515165224302  0.0855146439619962   T   T   T
  0.6628131552362927  0.2501568757846402  0.0855303925696150   T   T   T
  0.1626016590073494  0.1254058266628824  0.1118609002102205   T   T   T
  0.4959685086263650  0.1255055001299683  0.1120023631616063   T   T   T
  0.8293333971145864  0.1254119151007507  0.1118596554679721   T   T   T
  0.1626650957461458  0.3754427112324580  0.1118625779413974   T   T   T
  0.4959335485007972  0.3752322515640425  0.1117480798696294   T   T   T
  0.8293497594894342  0.3754409849395163  0.1118872871908361   T   T   T
  0.4962824137350587  0.6239259386490325  0.0588693591888113   T   T   T
  0.8295567516464953  0.6239352006715261  0.0588482267686186   T   T   T
  0.1630191563637024  0.8738918244306285  0.0588609562258824   T   T   T
  0.4962933783678757  0.8738956398126404  0.0588703958352914   T   T   T
  0.8295006831650903  0.8739298439087223  0.0588602158419073   T   T   T
  0.1628972450975458  0.6239528281563745  0.0588488479735847   T   T   T
  0.9963009713120795  0.5005389804255971  0.1387896826686127   T   T   T
  0.3296370852254307  0.5004241181519925  0.1388225175281088   T   T   T
  0.6629422567952158  0.5003830254102068  0.1388319613974026   T   T   T
  0.9963525141748377  0.7505684116571418  0.1388088974294946   T   T   T
  0.3297631526083121  0.7504306016006083  0.1388325768247278   T   T   T
  0.6630261371696831  0.7504432083259713  0.1388393802237448   T   T   T
  0.1627275220067485  0.6254353891695280  0.1651434343634850   T   T   T
  0.4964524128714664  0.6251569970514694  0.1652539084152214   T   T   T
  0.8299957387852902  0.6254336812633093  0.1651531805167925   T   T   T
  0.1632223142588191  0.8752318490856570  0.1651604663317526   T   T   T
  0.4965219560741338  0.8751879352889612  0.1651879852420493   T   T   T
  0.8297189628338741  0.8752429873838998  0.1651812921934596   T   T   T
  0.3301254945150674  0.9988150958768059  0.1918661544495820   T   T   T
  0.6633709143939063  0.9988856679390999  0.1918770185101652   T   T   T
  0.9968071159040249  0.9987913678764581  0.1917958470231280   T   T   T
  0.3300689686425513  0.7488532655971198  0.1918772697321350   T   T   T
  0.9968956826809710  0.7489164562215693  0.1918475467765852   T   T   T
  0.6636414847681099  0.7488912855761852  0.1919008452726461   T   T   T
  0.9959822691309673  0.5002553987768682  0.0854980342705879   T   T   T
  0.3293060243146045  0.5002472850780105  0.0854945969223133   T   T   T
  0.6626668736588747  0.5002236957980472  0.0855053862783501   T   T   T
  0.9960735230132381  0.7503296507532261  0.0855182952530969   T   T   T
  0.3294244683321321  0.7502423978821834  0.0855329590140154   T   T   T
  0.6627353115370234  0.7502517616644678  0.0855352798533648   T   T   T
  0.1626792524069016  0.6254667108459351  0.1118823135103920   T   T   T
  0.4960223805149903  0.6254086966843889  0.1119179525633214   T   T   T
  0.8293201283685900  0.6254674329980395  0.1118774879593183   T   T   T
  0.1628599122218359  0.8754780449690132  0.1118969756973617   T   T   T
  0.4960651422661037  0.8754384816830918  0.1119045254014704   T   T   T
  0.8292068423877351  0.8754926527378136  0.1119045876991105   T   T   T
 
  0.00000000E+00  0.00000000E+00  0.00000000E+00
  0.00000000E+00  0.00000000E+00  0.00000000E+00
  0.00000000E+00  0.00000000E+00  0.00000000E+00
  0.00000000E+00  0.00000000E+00  0.00000000E+00
  0.00000000E+00  0.00000000E+00  0.00000000E+00
  0.00000000E+00  0.00000000E+00  0.00000000E+00
  0.00000000E+00  0.00000000E+00  0.00000000E+00
  0.00000000E+00  0.00000000E+00  0.00000000E+00
  0.00000000E+00  0.00000000E+00  0.00000000E+00
  0.00000000E+00  0.00000000E+00  0.00000000E+00
  0.00000000E+00  0.00000000E+00  0.00000000E+00
  0.00000000E+00  0.00000000E+00  0.00000000E+00
  0.00000000E+00  0.00000000E+00  0.00000000E+00
  0.00000000E+00  0.00000000E+00  0.00000000E+00
  0.00000000E+00  0.00000000E+00  0.00000000E+00
  0.00000000E+00  0.00000000E+00  0.00000000E+00
  0.00000000E+00  0.00000000E+00  0.00000000E+00
  0.00000000E+00  0.00000000E+00  0.00000000E+00
  0.00000000E+00  0.00000000E+00  0.00000000E+00
  0.00000000E+00  0.00000000E+00  0.00000000E+00
  0.00000000E+00  0.00000000E+00  0.00000000E+00
  0.00000000E+00  0.00000000E+00  0.00000000E+00
  0.00000000E+00  0.00000000E+00  0.00000000E+00
  0.00000000E+00  0.00000000E+00  0.00000000E+00
  0.00000000E+00  0.00000000E+00  0.00000000E+00
  0.00000000E+00  0.00000000E+00  0.00000000E+00
  0.00000000E+00  0.00000000E+00  0.00000000E+00
  0.00000000E+00  0.00000000E+00  0.00000000E+00
  0.00000000E+00  0.00000000E+00  0.00000000E+00
  0.00000000E+00  0.00000000E+00  0.00000000E+00
  0.00000000E+00  0.00000000E+00  0.00000000E+00
  0.00000000E+00  0.00000000E+00  0.00000000E+00
  0.00000000E+00  0.00000000E+00  0.00000000E+00
  0.00000000E+00  0.00000000E+00  0.00000000E+00
  0.00000000E+00  0.00000000E+00  0.00000000E+00
  0.00000000E+00  0.00000000E+00  0.00000000E+00
  0.00000000E+00  0.00000000E+00  0.00000000E+00
  0.00000000E+00  0.00000000E+00  0.00000000E+00
  0.00000000E+00  0.00000000E+00  0.00000000E+00
  0.00000000E+00  0.00000000E+00  0.00000000E+00
  0.00000000E+00  0.00000000E+00  0.00000000E+00
  0.00000000E+00  0.00000000E+00  0.00000000E+00
  0.00000000E+00  0.00000000E+00  0.00000000E+00
  0.00000000E+00  0.00000000E+00  0.00000000E+00
  0.00000000E+00  0.00000000E+00  0.00000000E+00
  0.00000000E+00  0.00000000E+00  0.00000000E+00
  0.00000000E+00  0.00000000E+00  0.00000000E+00
  0.00000000E+00  0.00000000E+00  0.00000000E+00
  0.00000000E+00  0.00000000E+00  0.00000000E+00
  0.00000000E+00  0.00000000E+00  0.00000000E+00
  0.00000000E+00  0.00000000E+00  0.00000000E+00
  0.00000000E+00  0.00000000E+00  0.00000000E+00
  0.00000000E+00  0.00000000E+00  0.00000000E+00
  0.00000000E+00  0.00000000E+00  0.00000000E+00
  0.00000000E+00  0.00000000E+00  0.00000000E+00
  0.00000000E+00  0.00000000E+00  0.00000000E+00
  0.00000000E+00  0.00000000E+00  0.00000000E+00
  0.00000000E+00  0.00000000E+00  0.00000000E+00
  0.00000000E+00  0.00000000E+00  0.00000000E+00
  0.00000000E+00  0.00000000E+00  0.00000000E+00
  0.00000000E+00  0.00000000E+00  0.00000000E+00
  0.00000000E+00  0.00000000E+00  0.00000000E+00
  0.00000000E+00  0.00000000E+00  0.00000000E+00
  0.00000000E+00  0.00000000E+00  0.00000000E+00
  0.00000000E+00  0.00000000E+00  0.00000000E+00
  0.00000000E+00  0.00000000E+00  0.00000000E+00
  0.00000000E+00  0.00000000E+00  0.00000000E+00
  0.00000000E+00  0.00000000E+00  0.00000000E+00
  0.00000000E+00  0.00000000E+00  0.00000000E+00
  0.00000000E+00  0.00000000E+00  0.00000000E+00
  0.00000000E+00  0.00000000E+00  0.00000000E+00
  0.00000000E+00  0.00000000E+00  0.00000000E+00
  0.00000000E+00  0.00000000E+00  0.00000000E+00
  0.00000000E+00  0.00000000E+00  0.00000000E+00
  0.00000000E+00  0.00000000E+00  0.00000000E+00
  0.00000000E+00  0.00000000E+00  0.00000000E+00
  0.00000000E+00  0.00000000E+00  0.00000000E+00
  0.00000000E+00  0.00000000E+00  0.00000000E+00
  0.00000000E+00  0.00000000E+00  0.00000000E+00
  0.00000000E+00  0.00000000E+00  0.00000000E+00
  0.00000000E+00  0.00000000E+00  0.00000000E+00
  0.00000000E+00  0.00000000E+00  0.00000000E+00
  0.00000000E+00  0.00000000E+00  0.00000000E+00
  0.00000000E+00  0.00000000E+00  0.00000000E+00
  0.00000000E+00  0.00000000E+00  0.00000000E+00
  0.00000000E+00  0.00000000E+00  0.00000000E+00
  0.00000000E+00  0.00000000E+00  0.00000000E+00
  0.00000000E+00  0.00000000E+00  0.00000000E+00
  0.00000000E+00  0.00000000E+00  0.00000000E+00
  0.00000000E+00  0.00000000E+00  0.00000000E+00
  0.00000000E+00  0.00000000E+00  0.00000000E+00
  0.00000000E+00  0.00000000E+00  0.00000000E+00
  0.00000000E+00  0.00000000E+00  0.00000000E+00
  0.00000000E+00  0.00000000E+00  0.00000000E+00
  0.00000000E+00  0.00000000E+00  0.00000000E+00
  0.00000000E+00  0.00000000E+00  0.00000000E+00
  0.00000000E+00  0.00000000E+00  0.00000000E+00
  0.00000000E+00  0.00000000E+00  0.00000000E+00
  0.00000000E+00  0.00000000E+00  0.00000000E+00
  0.00000000E+00  0.00000000E+00  0.00000000E+00
  0.00000000E+00  0.00000000E+00  0.00000000E+00
  0.00000000E+00  0.00000000E+00  0.00000000E+00
  0.00000000E+00  0.00000000E+00  0.00000000E+00
  0.00000000E+00  0.00000000E+00  0.00000000E+00
  0.00000000E+00  0.00000000E+00  0.00000000E+00
  0.00000000E+00  0.00000000E+00  0.00000000E+00
  0.00000000E+00  0.00000000E+00  0.00000000E+00
  0.00000000E+00  0.00000000E+00  0.00000000E+00
  0.00000000E+00  0.00000000E+00  0.00000000E+00
  0.00000000E+00  0.00000000E+00  0.00000000E+00
  0.00000000E+00  0.00000000E+00  0.00000000E+00
  0.00000000E+00  0.00000000E+00  0.00000000E+00
  0.00000000E+00  0.00000000E+00  0.00000000E+00
  0.00000000E+00  0.00000000E+00  0.00000000E+00
  0.00000000E+00  0.00000000E+00  0.00000000E+00
  0.00000000E+00  0.00000000E+00  0.00000000E+00
  0.00000000E+00  0.00000000E+00  0.00000000E+00
  0.00000000E+00  0.00000000E+00  0.00000000E+00
  0.00000000E+00  0.00000000E+00  0.00000000E+00
  0.00000000E+00  0.00000000E+00  0.00000000E+00
  0.00000000E+00  0.00000000E+00  0.00000000E+00
  0.00000000E+00  0.00000000E+00  0.00000000E+00
  0.00000000E+00  0.00000000E+00  0.00000000E+00
  0.00000000E+00  0.00000000E+00  0.00000000E+00
  0.00000000E+00  0.00000000E+00  0.00000000E+00
  0.00000000E+00  0.00000000E+00  0.00000000E+00
  0.00000000E+00  0.00000000E+00  0.00000000E+00
  0.00000000E+00  0.00000000E+00  0.00000000E+00
  0.00000000E+00  0.00000000E+00  0.00000000E+00
  0.00000000E+00  0.00000000E+00  0.00000000E+00
  0.00000000E+00  0.00000000E+00  0.00000000E+00
  0.00000000E+00  0.00000000E+00  0.00000000E+00
  0.00000000E+00  0.00000000E+00  0.00000000E+00
  0.00000000E+00  0.00000000E+00  0.00000000E+00
  0.00000000E+00  0.00000000E+00  0.00000000E+00
  0.00000000E+00  0.00000000E+00  0.00000000E+00
  0.00000000E+00  0.00000000E+00  0.00000000E+00
  0.00000000E+00  0.00000000E+00  0.00000000E+00
  0.00000000E+00  0.00000000E+00  0.00000000E+00
  0.00000000E+00  0.00000000E+00  0.00000000E+00
  0.00000000E+00  0.00000000E+00  0.00000000E+00
  0.00000000E+00  0.00000000E+00  0.00000000E+00
  0.00000000E+00  0.00000000E+00  0.00000000E+00
  0.00000000E+00  0.00000000E+00  0.00000000E+00
  0.00000000E+00  0.00000000E+00  0.00000000E+00
  0.00000000E+00  0.00000000E+00  0.00000000E+00
  0.00000000E+00  0.00000000E+00  0.00000000E+00
  0.00000000E+00  0.00000000E+00  0.00000000E+00
  0.00000000E+00  0.00000000E+00  0.00000000E+00
  0.00000000E+00  0.00000000E+00  0.00000000E+00
  0.00000000E+00  0.00000000E+00  0.00000000E+00
  0.00000000E+00  0.00000000E+00  0.00000000E+00
  0.00000000E+00  0.00000000E+00  0.00000000E+00
  0.00000000E+00  0.00000000E+00  0.00000000E+00
  0.00000000E+00  0.00000000E+00  0.00000000E+00
  0.00000000E+00  0.00000000E+00  0.00000000E+00
  0.00000000E+00  0.00000000E+00  0.00000000E+00
  0.00000000E+00  0.00000000E+00  0.00000000E+00
  0.00000000E+00  0.00000000E+00  0.00000000E+00
  0.00000000E+00  0.00000000E+00  0.00000000E+00
  0.00000000E+00  0.00000000E+00  0.00000000E+00
  0.00000000E+00  0.00000000E+00  0.00000000E+00
  0.00000000E+00  0.00000000E+00  0.00000000E+00
  0.00000000E+00  0.00000000E+00  0.00000000E+00
  0.00000000E+00  0.00000000E+00  0.00000000E+00
  0.00000000E+00  0.00000000E+00  0.00000000E+00
  0.00000000E+00  0.00000000E+00  0.00000000E+00
  0.00000000E+00  0.00000000E+00  0.00000000E+00
  0.00000000E+00  0.00000000E+00  0.00000000E+00
  0.00000000E+00  0.00000000E+00  0.00000000E+00
  0.00000000E+00  0.00000000E+00  0.00000000E+00
  0.00000000E+00  0.00000000E+00  0.00000000E+00
  0.00000000E+00  0.00000000E+00  0.00000000E+00
  0.00000000E+00  0.00000000E+00  0.00000000E+00
  0.00000000E+00  0.00000000E+00  0.00000000E+00
  0.00000000E+00  0.00000000E+00  0.00000000E+00
  0.00000000E+00  0.00000000E+00  0.00000000E+00
  0.00000000E+00  0.00000000E+00  0.00000000E+00
  0.00000000E+00  0.00000000E+00  0.00000000E+00
  0.00000000E+00  0.00000000E+00  0.00000000E+00
  0.00000000E+00  0.00000000E+00  0.00000000E+00
  0.00000000E+00  0.00000000E+00  0.00000000E+00
  0.00000000E+00  0.00000000E+00  0.00000000E+00
  0.00000000E+00  0.00000000E+00  0.00000000E+00
  0.00000000E+00  0.00000000E+00  0.00000000E+00
  0.00000000E+00  0.00000000E+00  0.00000000E+00
  0.00000000E+00  0.00000000E+00  0.00000000E+00
  0.00000000E+00  0.00000000E+00  0.00000000E+00
  0.00000000E+00  0.00000000E+00  0.00000000E+00
  0.00000000E+00  0.00000000E+00  0.00000000E+00
  0.00000000E+00  0.00000000E+00  0.00000000E+00
  0.00000000E+00  0.00000000E+00  0.00000000E+00
  0.00000000E+00  0.00000000E+00  0.00000000E+00
  0.00000000E+00  0.00000000E+00  0.00000000E+00
  0.00000000E+00  0.00000000E+00  0.00000000E+00
  0.00000000E+00  0.00000000E+00  0.00000000E+00
  0.00000000E+00  0.00000000E+00  0.00000000E+00
  0.00000000E+00  0.00000000E+00  0.00000000E+00
  0.00000000E+00  0.00000000E+00  0.00000000E+00
  0.00000000E+00  0.00000000E+00  0.00000000E+00
  0.00000000E+00  0.00000000E+00  0.00000000E+00
  0.00000000E+00  0.00000000E+00  0.00000000E+00
  0.00000000E+00  0.00000000E+00  0.00000000E+00
  0.00000000E+00  0.00000000E+00  0.00000000E+00
  0.00000000E+00  0.00000000E+00  0.00000000E+00
  0.00000000E+00  0.00000000E+00  0.00000000E+00
  0.00000000E+00  0.00000000E+00  0.00000000E+00
  0.00000000E+00  0.00000000E+00  0.00000000E+00
  0.00000000E+00  0.00000000E+00  0.00000000E+00
  0.00000000E+00  0.00000000E+00  0.00000000E+00
  0.00000000E+00  0.00000000E+00  0.00000000E+00
  0.00000000E+00  0.00000000E+00  0.00000000E+00
  0.00000000E+00  0.00000000E+00  0.00000000E+00
  0.00000000E+00  0.00000000E+00  0.00000000E+00
  0.00000000E+00  0.00000000E+00  0.00000000E+00
  0.00000000E+00  0.00000000E+00  0.00000000E+00
  0.00000000E+00  0.00000000E+00  0.00000000E+00
  0.00000000E+00  0.00000000E+00  0.00000000E+00
  0.00000000E+00  0.00000000E+00  0.00000000E+00
  0.00000000E+00  0.00000000E+00  0.00000000E+00
  0.00000000E+00  0.00000000E+00  0.00000000E+00
  0.00000000E+00  0.00000000E+00  0.00000000E+00
  0.00000000E+00  0.00000000E+00  0.00000000E+00
  0.00000000E+00  0.00000000E+00  0.00000000E+00
  0.00000000E+00  0.00000000E+00  0.00000000E+00
  0.00000000E+00  0.00000000E+00  0.00000000E+00
  0.00000000E+00  0.00000000E+00  0.00000000E+00
  0.00000000E+00  0.00000000E+00  0.00000000E+00
  0.00000000E+00  0.00000000E+00  0.00000000E+00
