C H O Si                                
   1.00000000000000     
     9.2874599999999994    0.0000000000000000    0.0000000000000000
     0.0000000000000000   17.5126199999999983    0.0000000000000000
     0.0000000000000000    0.0000000000000000   58.0000000000000000
   C    H    O    Si
    72    57    28    72
Selective dynamics
Direct
  0.9960682664291232  0.0651845095650508  0.0595798122207049   T   T   T
  0.3294901596599298  0.0652852891809081  0.0596480340320202   T   T   T
  0.6626978274098597  0.0652782597355380  0.0596517498587372   T   T   T
  0.9961261442010831  0.3152568488756576  0.0595865038555793   T   T   T
  0.3294373359059187  0.3151422415926701  0.0596189580435734   T   T   T
  0.6628108779726161  0.3151446025726095  0.0596310080056020   T   T   T
  0.1630017349106048  0.1878176539646448  0.1384951840976961   T   T   T
  0.4963262218949645  0.1881276333734926  0.1387008204116996   T   T   T
  0.8297894403919912  0.1878483721249963  0.1384992451018224   T   T   T
  0.1630208709121392  0.4379986841700816  0.1385149358312706   T   T   T
  0.4963781133614195  0.4378193180697886  0.1383063043712519   T   T   T
  0.8297930658424826  0.4379487325409749  0.1385463330787298   T   T   T
  0.3301147580918966  0.0631943065447113  0.1657578280673752   T   T   T
  0.6623656060055663  0.0633343692405988  0.1657773439523111   T   T   T
  0.9962255178718772  0.0627000449745035  0.1655780746537878   T   T   T
  0.3288565912773452  0.3132050428564557  0.1656231511801077   T   T   T
  0.6633595759130191  0.3131196557851418  0.1657256910001445   T   T   T
  0.9962275028450006  0.3131192284367186  0.1656079165559016   T   T   T
  0.1636324856093283  0.1895528966127779  0.1907253107509210   T   T   T
  0.4962272188712671  0.1921616291338382  0.1916335803947757   T   T   T
  0.8304067107245801  0.1895352153645613  0.1907615811583675   T   T   T
  0.1625586953237354  0.4404341097793071  0.1910103695203056   T   T   T
  0.4967313074054065  0.4448614801412629  0.1888606430831164   T   T   T
  0.8310319517136107  0.4403806814870229  0.1910660249100137   T   T   T
  0.1625927062054924  0.1880086338264016  0.0849791538207812   T   T   T
  0.4960383123612989  0.1880452755024842  0.0850937259305961   T   T   T
  0.8293394813018019  0.1880090581951072  0.0849836194967747   T   T   T
  0.1625607151580729  0.4380843160526054  0.0849838998644902   T   T   T
  0.4958327255756132  0.4380430758206900  0.0849042578876800   T   T   T
  0.8292483134112634  0.4380538732878096  0.0850083008004851   T   T   T
  0.3292449636336378  0.0629610395941815  0.1122162164214393   T   T   T
  0.6624209997239030  0.0629597092609440  0.1122195546108373   T   T   T
  0.9958570445201163  0.0628788206770018  0.1121457844905199   T   T   T
  0.3291113195020813  0.3127905071221198  0.1121379464949669   T   T   T
  0.6626066268651499  0.3128135730768821  0.1121648414021928   T   T   T
  0.9959419707177359  0.3128820983643065  0.1121282272079869   T   T   T
  0.9961331127398346  0.5653218873116529  0.0596024672292297   T   T   T
  0.3294542173612285  0.5653385522584633  0.0596121009046183   T   T   T
  0.6627812179776749  0.5653140859225405  0.0596197678677694   T   T   T
  0.9961521343970033  0.8153424987092138  0.0596170584548046   T   T   T
  0.3295247916026552  0.8152410327511607  0.0596379676667652   T   T   T
  0.6627570953199184  0.8152495381378424  0.0596364630437000   T   T   T
  0.1631289689335046  0.6880157611542145  0.1385257526411017   T   T   T
  0.4965206156492649  0.6878377384249124  0.1385896494791501   T   T   T
  0.8298123241693706  0.6880022401390836  0.1385189604752983   T   T   T
  0.1634061089123341  0.9379561714394149  0.1385498596381151   T   T   T
  0.4965616459164483  0.9378709622229804  0.1385664806105029   T   T   T
  0.8295398484293117  0.9379451746665123  0.1385615888689132   T   T   T
  0.3291617764729460  0.5633187242974785  0.1656748615213606   T   T   T
  0.6633163335102834  0.5632318514570590  0.1656889978892880   T   T   T
  0.9961753235723873  0.5633047112225665  0.1656472909134322   T   T   T
  0.3297633739211192  0.8130696707369399  0.1657157371002418   T   T   T
  0.6630168657591086  0.8130695922409016  0.1657236170147344   T   T   T
  0.9963249618303653  0.8131646046312619  0.1656899657351862   T   T   T
  0.1636418367100278  0.6903233016116940  0.1910297982041301   T   T   T
  0.4970217999609278  0.6903621884981687  0.1911315746375035   T   T   T
  0.8304430690494646  0.6903022268581765  0.1910210662011130   T   T   T
  0.1636777434683336  0.9402478119757225  0.1910253702748835   T   T   T
  0.4969851653781655  0.9402175930023220  0.1910459211916317   T   T   T
  0.8301955831147136  0.9403070893322724  0.1910388356044727   T   T   T
  0.1626664705490911  0.6881391105795739  0.0850086932667895   T   T   T
  0.4960157441915569  0.6880722597690516  0.0850317183466691   T   T   T
  0.8293649058115501  0.6881368268344843  0.0850038114980366   T   T   T
  0.1626403102847917  0.9381007166447091  0.0850196494850873   T   T   T
  0.4959197794356069  0.9380792419947257  0.0850316002293305   T   T   T
  0.8291805484348123  0.9381113121622917  0.0850231928842968   T   T   T
  0.3292035465428436  0.5629004870058802  0.1121692323589578   T   T   T
  0.6625462913610389  0.5628715535814380  0.1121730425143257   T   T   T
  0.9958794950797230  0.5629549822275195  0.1121514341538567   T   T   T
  0.3293686939560108  0.8128650317359162  0.1121749204857131   T   T   T
  0.6625582836444803  0.8128666429805326  0.1121815641069921   T   T   T
  0.9959020579735672  0.8130174977455815  0.1121714898642504   T   T   T
  0.0790835948647435  0.1780434016083844  0.0258159485391313   T   T   T
  0.4120931566235271  0.1781345458456112  0.0259572199207999   T   T   T
  0.7449764493171065  0.1780000826099065  0.0258833215180169   T   T   T
  0.0794404057245304  0.4281109987636535  0.0258143096005986   T   T   T
  0.4122425806935956  0.4278796493724147  0.0257912494124778   T   T   T
  0.7448490638695576  0.4278997689268102  0.0259023950027226   T   T   T
  0.3277808645736920  0.0290003064513301  0.0441398125107804   T   T   T
  0.6604472855527462  0.0290131630632003  0.0441409209720321   T   T   T
  0.9940773512775453  0.0289867785684667  0.0440503214830398   T   T   T
  0.3272809113394188  0.2788605888016369  0.0441138390425493   T   T   T
  0.6610786195113103  0.2788317647875526  0.0441307119523778   T   T   T
  0.9941367206253905  0.2790273085540764  0.0440644655772897   T   T   T
  0.8337361425084385  0.4043420269198196  0.2066012520724212   T   T   T
  0.8331474427949803  0.1534400639605335  0.2063083969936263   T   T   T
  0.1656994356830303  0.1538029253210524  0.2063502369366328   T   T   T
  0.4986607498154514  0.1556922487760165  0.2071036616015578   T   T   T
  0.1651119268367400  0.4041239493954558  0.2064878659982398   T   T   T
  0.5398432410124822  0.4635502256314435  0.2608137845340304   T   T   T
  0.0821528433433063  0.0537822017238256  0.2246065706563574   T   T   T
  0.4150376473877782  0.0543638495259243  0.2246190670377196   T   T   T
  0.7473984792848298  0.0538180970541198  0.2248417204912945   T   T   T
  0.0864294739365401  0.3037744343248598  0.2233789743493531   T   T   T
  0.3670651829682797  0.2853266903314298  0.2301370622853385   T   T   T
  0.7760042281099603  0.2996192381132450  0.2229355981875010   T   T   T
  0.4910838132011108  0.2703747051015249  0.2659216126154941   T   T   T
  0.4691528476214489  0.2283127303803264  0.3004827078220331   T   T   T
  0.5169403007688004  0.3131189560162333  0.3081282241246461   T   T   T
  0.2899072425033042  0.1361093075135990  0.2954806833527454   T   T   T
  0.4390037510201484  0.1096103503425621  0.2866918608801731   T   T   T
  0.6391746204789895  0.3857655357584887  0.3348959320556668   T   T   T
  0.5051865682197030  0.4329866852618161  0.3278213999077851   T   T   T
  0.5026074313169496  0.4372298262695779  0.2691209739257578   T   T   T
  0.5633109288371314  0.2680319516230903  0.2408971168086552   T   T   T
  0.0789233833231807  0.6781550194380770  0.0258500011434167   T   T   T
  0.4120826619661686  0.6781793218938390  0.0259092262748520   T   T   T
  0.7451181481320123  0.6780839470981265  0.0258922283237945   T   T   T
  0.0795262870105617  0.9281057682900383  0.0258269389022674   T   T   T
  0.4120519211644574  0.9279939994546219  0.0258880371275674   T   T   T
  0.7448593647887671  0.9279466983946570  0.0259157802523309   T   T   T
  0.3275094289530582  0.5291182720079646  0.0440889011708369   T   T   T
  0.6608084665177848  0.5290938807681228  0.0440980222026157   T   T   T
  0.9941352487494128  0.5291105406657036  0.0440781911132281   T   T   T
  0.3276199357194538  0.7789522215891164  0.0441297371268524   T   T   T
  0.6607335029671270  0.7789658120423607  0.0441284573451851   T   T   T
  0.9941541209198728  0.7790304840360596  0.0441147839038857   T   T   T
  0.8321919466612688  0.9040850688939215  0.2065613553226517   T   T   T
  0.8328223227516027  0.6539250000731504  0.2065147623028928   T   T   T
  0.1656901685079072  0.6540533502160115  0.2065455132999239   T   T   T
  0.4990970762546481  0.6540601602786672  0.2066441742043572   T   T   T
  0.1655571842872389  0.9039735640499178  0.2065402390975951   T   T   T
  0.4993544875357510  0.9039452862987485  0.2065559616064522   T   T   T
  0.0817424748588356  0.5528743096801423  0.2249473463587599   T   T   T
  0.4160172442907015  0.5510548446651435  0.2249911118072578   T   T   T
  0.7476253190827934  0.5520267302318751  0.2252556411900981   T   T   T
  0.0816555648209798  0.8029377344771167  0.2248937863720747   T   T   T
  0.4128378453650213  0.8034940504241509  0.2250214724498983   T   T   T
  0.7506933593867928  0.8023195092637554  0.2247306252671047   T   T   T
  0.1720036166959481  0.1693174979223718  0.0332640941817006   T   T   T
  0.5051424581359141  0.1697475698099140  0.0333946110606495   T   T   T
  0.8381503986737496  0.1694297664009465  0.0332646103656773   T   T   T
  0.1723519981696605  0.4192757396279312  0.0332502815741563   T   T   T
  0.5053866703248160  0.4188636668102285  0.0331378506221813   T   T   T
  0.8380500293743731  0.4194590688801098  0.0332854355380089   T   T   T
  0.3218057603177108  0.0439307977781586  0.2174824555542792   T   T   T
  0.6545718321886992  0.0437559952469497  0.2175267248522772   T   T   T
  0.9888301400705903  0.0438781908981094  0.2174206246845828   T   T   T
  0.3096701024910224  0.3019190183488591  0.2162500864439451   T   T   T
  0.6757315169024873  0.2949028738974988  0.2176679567085298   T   T   T
  0.9899141853488366  0.2929231589410786  0.2172580941669174   T   T   T
  0.5202760642533610  0.2750611379049603  0.2954766888074528   T   T   T
  0.3907661498544992  0.1320170283264320  0.2999902181876118   T   T   T
  0.5375309460295209  0.3810888225949413  0.3309832663472856   T   T   T
  0.4769816766798286  0.2525824294163985  0.2497867602929393   T   T   T
  0.1718644478830858  0.6695625205865579  0.0333028614396444   T   T   T
  0.5051770260383843  0.6695676438627822  0.0333122922505257   T   T   T
  0.8382778149920983  0.6694482787772313  0.0332810801944061   T   T   T
  0.1723746584129536  0.9193842710161989  0.0332842097712552   T   T   T
  0.5051644731799768  0.9194476590821373  0.0332988175661998   T   T   T
  0.8380834548735830  0.9194855727302563  0.0332984653623990   T   T   T
  0.3223137496874964  0.5438934981755646  0.2176304732117246   T   T   T
  0.6551400234285339  0.5440101970464832  0.2176091896247068   T   T   T
  0.9890063680751388  0.5445151844336802  0.2174166950043354   T   T   T
  0.3205264353249871  0.7939091284864375  0.2175062255011513   T   T   T
  0.6567525861809822  0.7940974433129898  0.2175515003619091   T   T   T
  0.9887032895477619  0.7938963698672622  0.2174793201009798   T   T   T
  0.4962135696410596  0.1239661292598544  0.0589125197958295   T   T   T
  0.8295201745182861  0.1238701323548481  0.0588210060690412   T   T   T
  0.1629671647158892  0.3738744996452928  0.0588225633290147   T   T   T
  0.4962281411208061  0.3737730144659994  0.0587673099605385   T   T   T
  0.8294947565800626  0.3738748676198150  0.0588386184499314   T   T   T
  0.1628400399562399  0.1238499993001696  0.0588277633530432   T   T   T
  0.9964342633877316  0.0002559880273802  0.1387748271770434   T   T   T
  0.3302007883070936  0.0005144758180606  0.1388689858462153   T   T   T
  0.6628190746827513  0.0005402181347237  0.1388794147203725   T   T   T
  0.9964542617685758  0.2503633904843022  0.1387540763773985   T   T   T
  0.3294025613261527  0.2504342424167790  0.1388244146355205   T   T   T
  0.6632358352709264  0.2503635283146904  0.1388290533527077   T   T   T
  0.1630185583709877  0.1248276066768460  0.1650638981629746   T   T   T
  0.4960377168701680  0.1261180804849346  0.1655142344388227   T   T   T
  0.8296884077755157  0.1248028912364760  0.1650336500391028   T   T   T
  0.1627626120589101  0.3755007738903615  0.1651313495133255   T   T   T
  0.4960504641765827  0.3745765725656552  0.1650988825857047   T   T   T
  0.8298442129240612  0.3754267791169412  0.1651741654423440   T   T   T
  0.3287475466714181  0.4987193224383640  0.1920370979893632   T   T   T
  0.6646267342060478  0.4986997609398510  0.1920932735869447   T   T   T
  0.9968616400062983  0.4993738816176724  0.1918114452080802   T   T   T
  0.3276970764775062  0.2507523009183765  0.1920899949225379   T   T   T
  0.9970483016221864  0.2479685785241478  0.1915177240063895   T   T   T
  0.6652617125629934  0.2493486791701248  0.1919252489030533   T   T   T
  0.9959609531121675  0.0002623094272141  0.0855058170419319   T   T   T
  0.3293697780535990  0.0003120552039189  0.0855547018352076   T   T   T
  0.6625644132514463  0.0003107560267084  0.0855540879958965   T   T   T
  0.9960420600380758  0.2502269728482051  0.0854862869229995   T   T   T
  0.3293285407776185  0.2501607489861237  0.0855146749575994   T   T   T
  0.6627732775682879  0.2501759816174108  0.0855290885863973   T   T   T
  0.1625825940382100  0.1254013341796379  0.1118666979558134   T   T   T
  0.4959177947237688  0.1255069393812117  0.1120074757557109   T   T   T
  0.8292740090523465  0.1253996514994828  0.1118623202094601   T   T   T
  0.1626386386186683  0.3754304276778893  0.1118650944348769   T   T   T
  0.4958462393610562  0.3751690547104162  0.1117385731824933   T   T   T
  0.8292894346483244  0.3753899293703761  0.1118845713052378   T   T   T
  0.4962684691151429  0.6239786370427934  0.0588546577819920   T   T   T
  0.8295773929820480  0.6239725835067497  0.0588386053970817   T   T   T
  0.1630331586109155  0.8739465813959728  0.0588437556467962   T   T   T
  0.4962349981834664  0.8739347171030341  0.0588604556876788   T   T   T
  0.8294852504743759  0.8739351564375435  0.0588528476939702   T   T   T
  0.1629128493374972  0.6239857063618033  0.0588419391459549   T   T   T
  0.9964287896718479  0.5004946542412101  0.1387964158555549   T   T   T
  0.3297914739470942  0.5003702597666569  0.1388298651870124   T   T   T
  0.6630173369961501  0.5003427606064321  0.1388351474531087   T   T   T
  0.9964996083306826  0.7505140963435009  0.1388070924492280   T   T   T
  0.3299553643757668  0.7504051949265670  0.1388352870271476   T   T   T
  0.6631089330559986  0.7504041426566022  0.1388392963973419   T   T   T
  0.1626561639955522  0.6254998973234845  0.1651602692279674   T   T   T
  0.4963229488033939  0.6251870126594955  0.1652622607220162   T   T   T
  0.8299619449128263  0.6254773876136376  0.1651474015003425   T   T   T
  0.1631724962821305  0.8752735522680957  0.1651673451738311   T   T   T
  0.4964710009486464  0.8752288508496969  0.1651874036763825   T   T   T
  0.8296276476834938  0.8752916350301312  0.1651828713811523   T   T   T
  0.3302113093077105  0.9988284699137828  0.1918643660750877   T   T   T
  0.6634172451520007  0.9988928557033238  0.1918753148951574   T   T   T
  0.9968632805447130  0.9987940959795613  0.1917889516475860   T   T   T
  0.3301497886500756  0.7489186018669459  0.1918812264212809   T   T   T
  0.9969442281029028  0.7489201315916938  0.1918325589544392   T   T   T
  0.6637076198765377  0.7489364406953696  0.1919104669780124   T   T   T
  0.9959661900275683  0.5002900220906447  0.0855046948966501   T   T   T
  0.3292718147743711  0.5002887934064690  0.0855066770612786   T   T   T
  0.6626109325640998  0.5002465610610937  0.0855083332930989   T   T   T
  0.9960777259407829  0.7503441986015994  0.0855240248063157   T   T   T
  0.3294624251678382  0.7502671504592150  0.0855308931245000   T   T   T
  0.6627150786530963  0.7502676183458180  0.0855302037510041   T   T   T
  0.1626611995183748  0.6254586646083282  0.1118726632000135   T   T   T
  0.4959980432373831  0.6253880455208976  0.1119084947839286   T   T   T
  0.8292749535774274  0.6254440328755655  0.1118730687698540   T   T   T
  0.1628495415720744  0.8754422589553542  0.1118969462591348   T   T   T
  0.4960577505150135  0.8754085379505719  0.1119075643019576   T   T   T
  0.8291322687138293  0.8754798306312616  0.1119003903497646   T   T   T
 
  0.00000000E+00  0.00000000E+00  0.00000000E+00
  0.00000000E+00  0.00000000E+00  0.00000000E+00
  0.00000000E+00  0.00000000E+00  0.00000000E+00
  0.00000000E+00  0.00000000E+00  0.00000000E+00
  0.00000000E+00  0.00000000E+00  0.00000000E+00
  0.00000000E+00  0.00000000E+00  0.00000000E+00
  0.00000000E+00  0.00000000E+00  0.00000000E+00
  0.00000000E+00  0.00000000E+00  0.00000000E+00
  0.00000000E+00  0.00000000E+00  0.00000000E+00
  0.00000000E+00  0.00000000E+00  0.00000000E+00
  0.00000000E+00  0.00000000E+00  0.00000000E+00
  0.00000000E+00  0.00000000E+00  0.00000000E+00
  0.00000000E+00  0.00000000E+00  0.00000000E+00
  0.00000000E+00  0.00000000E+00  0.00000000E+00
  0.00000000E+00  0.00000000E+00  0.00000000E+00
  0.00000000E+00  0.00000000E+00  0.00000000E+00
  0.00000000E+00  0.00000000E+00  0.00000000E+00
  0.00000000E+00  0.00000000E+00  0.00000000E+00
  0.00000000E+00  0.00000000E+00  0.00000000E+00
  0.00000000E+00  0.00000000E+00  0.00000000E+00
  0.00000000E+00  0.00000000E+00  0.00000000E+00
  0.00000000E+00  0.00000000E+00  0.00000000E+00
  0.00000000E+00  0.00000000E+00  0.00000000E+00
  0.00000000E+00  0.00000000E+00  0.00000000E+00
  0.00000000E+00  0.00000000E+00  0.00000000E+00
  0.00000000E+00  0.00000000E+00  0.00000000E+00
  0.00000000E+00  0.00000000E+00  0.00000000E+00
  0.00000000E+00  0.00000000E+00  0.00000000E+00
  0.00000000E+00  0.00000000E+00  0.00000000E+00
  0.00000000E+00  0.00000000E+00  0.00000000E+00
  0.00000000E+00  0.00000000E+00  0.00000000E+00
  0.00000000E+00  0.00000000E+00  0.00000000E+00
  0.00000000E+00  0.00000000E+00  0.00000000E+00
  0.00000000E+00  0.00000000E+00  0.00000000E+00
  0.00000000E+00  0.00000000E+00  0.00000000E+00
  0.00000000E+00  0.00000000E+00  0.00000000E+00
  0.00000000E+00  0.00000000E+00  0.00000000E+00
  0.00000000E+00  0.00000000E+00  0.00000000E+00
  0.00000000E+00  0.00000000E+00  0.00000000E+00
  0.00000000E+00  0.00000000E+00  0.00000000E+00
  0.00000000E+00  0.00000000E+00  0.00000000E+00
  0.00000000E+00  0.00000000E+00  0.00000000E+00
  0.00000000E+00  0.00000000E+00  0.00000000E+00
  0.00000000E+00  0.00000000E+00  0.00000000E+00
  0.00000000E+00  0.00000000E+00  0.00000000E+00
  0.00000000E+00  0.00000000E+00  0.00000000E+00
  0.00000000E+00  0.00000000E+00  0.00000000E+00
  0.00000000E+00  0.00000000E+00  0.00000000E+00
  0.00000000E+00  0.00000000E+00  0.00000000E+00
  0.00000000E+00  0.00000000E+00  0.00000000E+00
  0.00000000E+00  0.00000000E+00  0.00000000E+00
  0.00000000E+00  0.00000000E+00  0.00000000E+00
  0.00000000E+00  0.00000000E+00  0.00000000E+00
  0.00000000E+00  0.00000000E+00  0.00000000E+00
  0.00000000E+00  0.00000000E+00  0.00000000E+00
  0.00000000E+00  0.00000000E+00  0.00000000E+00
  0.00000000E+00  0.00000000E+00  0.00000000E+00
  0.00000000E+00  0.00000000E+00  0.00000000E+00
  0.00000000E+00  0.00000000E+00  0.00000000E+00
  0.00000000E+00  0.00000000E+00  0.00000000E+00
  0.00000000E+00  0.00000000E+00  0.00000000E+00
  0.00000000E+00  0.00000000E+00  0.00000000E+00
  0.00000000E+00  0.00000000E+00  0.00000000E+00
  0.00000000E+00  0.00000000E+00  0.00000000E+00
  0.00000000E+00  0.00000000E+00  0.00000000E+00
  0.00000000E+00  0.00000000E+00  0.00000000E+00
  0.00000000E+00  0.00000000E+00  0.00000000E+00
  0.00000000E+00  0.00000000E+00  0.00000000E+00
  0.00000000E+00  0.00000000E+00  0.00000000E+00
  0.00000000E+00  0.00000000E+00  0.00000000E+00
  0.00000000E+00  0.00000000E+00  0.00000000E+00
  0.00000000E+00  0.00000000E+00  0.00000000E+00
  0.00000000E+00  0.00000000E+00  0.00000000E+00
  0.00000000E+00  0.00000000E+00  0.00000000E+00
  0.00000000E+00  0.00000000E+00  0.00000000E+00
  0.00000000E+00  0.00000000E+00  0.00000000E+00
  0.00000000E+00  0.00000000E+00  0.00000000E+00
  0.00000000E+00  0.00000000E+00  0.00000000E+00
  0.00000000E+00  0.00000000E+00  0.00000000E+00
  0.00000000E+00  0.00000000E+00  0.00000000E+00
  0.00000000E+00  0.00000000E+00  0.00000000E+00
  0.00000000E+00  0.00000000E+00  0.00000000E+00
  0.00000000E+00  0.00000000E+00  0.00000000E+00
  0.00000000E+00  0.00000000E+00  0.00000000E+00
  0.00000000E+00  0.00000000E+00  0.00000000E+00
  0.00000000E+00  0.00000000E+00  0.00000000E+00
  0.00000000E+00  0.00000000E+00  0.00000000E+00
  0.00000000E+00  0.00000000E+00  0.00000000E+00
  0.00000000E+00  0.00000000E+00  0.00000000E+00
  0.00000000E+00  0.00000000E+00  0.00000000E+00
  0.00000000E+00  0.00000000E+00  0.00000000E+00
  0.00000000E+00  0.00000000E+00  0.00000000E+00
  0.00000000E+00  0.00000000E+00  0.00000000E+00
  0.00000000E+00  0.00000000E+00  0.00000000E+00
  0.00000000E+00  0.00000000E+00  0.00000000E+00
  0.00000000E+00  0.00000000E+00  0.00000000E+00
  0.00000000E+00  0.00000000E+00  0.00000000E+00
  0.00000000E+00  0.00000000E+00  0.00000000E+00
  0.00000000E+00  0.00000000E+00  0.00000000E+00
  0.00000000E+00  0.00000000E+00  0.00000000E+00
  0.00000000E+00  0.00000000E+00  0.00000000E+00
  0.00000000E+00  0.00000000E+00  0.00000000E+00
  0.00000000E+00  0.00000000E+00  0.00000000E+00
  0.00000000E+00  0.00000000E+00  0.00000000E+00
  0.00000000E+00  0.00000000E+00  0.00000000E+00
  0.00000000E+00  0.00000000E+00  0.00000000E+00
  0.00000000E+00  0.00000000E+00  0.00000000E+00
  0.00000000E+00  0.00000000E+00  0.00000000E+00
  0.00000000E+00  0.00000000E+00  0.00000000E+00
  0.00000000E+00  0.00000000E+00  0.00000000E+00
  0.00000000E+00  0.00000000E+00  0.00000000E+00
  0.00000000E+00  0.00000000E+00  0.00000000E+00
  0.00000000E+00  0.00000000E+00  0.00000000E+00
  0.00000000E+00  0.00000000E+00  0.00000000E+00
  0.00000000E+00  0.00000000E+00  0.00000000E+00
  0.00000000E+00  0.00000000E+00  0.00000000E+00
  0.00000000E+00  0.00000000E+00  0.00000000E+00
  0.00000000E+00  0.00000000E+00  0.00000000E+00
  0.00000000E+00  0.00000000E+00  0.00000000E+00
  0.00000000E+00  0.00000000E+00  0.00000000E+00
  0.00000000E+00  0.00000000E+00  0.00000000E+00
  0.00000000E+00  0.00000000E+00  0.00000000E+00
  0.00000000E+00  0.00000000E+00  0.00000000E+00
  0.00000000E+00  0.00000000E+00  0.00000000E+00
  0.00000000E+00  0.00000000E+00  0.00000000E+00
  0.00000000E+00  0.00000000E+00  0.00000000E+00
  0.00000000E+00  0.00000000E+00  0.00000000E+00
  0.00000000E+00  0.00000000E+00  0.00000000E+00
  0.00000000E+00  0.00000000E+00  0.00000000E+00
  0.00000000E+00  0.00000000E+00  0.00000000E+00
  0.00000000E+00  0.00000000E+00  0.00000000E+00
  0.00000000E+00  0.00000000E+00  0.00000000E+00
  0.00000000E+00  0.00000000E+00  0.00000000E+00
  0.00000000E+00  0.00000000E+00  0.00000000E+00
  0.00000000E+00  0.00000000E+00  0.00000000E+00
  0.00000000E+00  0.00000000E+00  0.00000000E+00
  0.00000000E+00  0.00000000E+00  0.00000000E+00
  0.00000000E+00  0.00000000E+00  0.00000000E+00
  0.00000000E+00  0.00000000E+00  0.00000000E+00
  0.00000000E+00  0.00000000E+00  0.00000000E+00
  0.00000000E+00  0.00000000E+00  0.00000000E+00
  0.00000000E+00  0.00000000E+00  0.00000000E+00
  0.00000000E+00  0.00000000E+00  0.00000000E+00
  0.00000000E+00  0.00000000E+00  0.00000000E+00
  0.00000000E+00  0.00000000E+00  0.00000000E+00
  0.00000000E+00  0.00000000E+00  0.00000000E+00
  0.00000000E+00  0.00000000E+00  0.00000000E+00
  0.00000000E+00  0.00000000E+00  0.00000000E+00
  0.00000000E+00  0.00000000E+00  0.00000000E+00
  0.00000000E+00  0.00000000E+00  0.00000000E+00
  0.00000000E+00  0.00000000E+00  0.00000000E+00
  0.00000000E+00  0.00000000E+00  0.00000000E+00
  0.00000000E+00  0.00000000E+00  0.00000000E+00
  0.00000000E+00  0.00000000E+00  0.00000000E+00
  0.00000000E+00  0.00000000E+00  0.00000000E+00
  0.00000000E+00  0.00000000E+00  0.00000000E+00
  0.00000000E+00  0.00000000E+00  0.00000000E+00
  0.00000000E+00  0.00000000E+00  0.00000000E+00
  0.00000000E+00  0.00000000E+00  0.00000000E+00
  0.00000000E+00  0.00000000E+00  0.00000000E+00
  0.00000000E+00  0.00000000E+00  0.00000000E+00
  0.00000000E+00  0.00000000E+00  0.00000000E+00
  0.00000000E+00  0.00000000E+00  0.00000000E+00
  0.00000000E+00  0.00000000E+00  0.00000000E+00
  0.00000000E+00  0.00000000E+00  0.00000000E+00
  0.00000000E+00  0.00000000E+00  0.00000000E+00
  0.00000000E+00  0.00000000E+00  0.00000000E+00
  0.00000000E+00  0.00000000E+00  0.00000000E+00
  0.00000000E+00  0.00000000E+00  0.00000000E+00
  0.00000000E+00  0.00000000E+00  0.00000000E+00
  0.00000000E+00  0.00000000E+00  0.00000000E+00
  0.00000000E+00  0.00000000E+00  0.00000000E+00
  0.00000000E+00  0.00000000E+00  0.00000000E+00
  0.00000000E+00  0.00000000E+00  0.00000000E+00
  0.00000000E+00  0.00000000E+00  0.00000000E+00
  0.00000000E+00  0.00000000E+00  0.00000000E+00
  0.00000000E+00  0.00000000E+00  0.00000000E+00
  0.00000000E+00  0.00000000E+00  0.00000000E+00
  0.00000000E+00  0.00000000E+00  0.00000000E+00
  0.00000000E+00  0.00000000E+00  0.00000000E+00
  0.00000000E+00  0.00000000E+00  0.00000000E+00
  0.00000000E+00  0.00000000E+00  0.00000000E+00
  0.00000000E+00  0.00000000E+00  0.00000000E+00
  0.00000000E+00  0.00000000E+00  0.00000000E+00
  0.00000000E+00  0.00000000E+00  0.00000000E+00
  0.00000000E+00  0.00000000E+00  0.00000000E+00
  0.00000000E+00  0.00000000E+00  0.00000000E+00
  0.00000000E+00  0.00000000E+00  0.00000000E+00
  0.00000000E+00  0.00000000E+00  0.00000000E+00
  0.00000000E+00  0.00000000E+00  0.00000000E+00
  0.00000000E+00  0.00000000E+00  0.00000000E+00
  0.00000000E+00  0.00000000E+00  0.00000000E+00
  0.00000000E+00  0.00000000E+00  0.00000000E+00
  0.00000000E+00  0.00000000E+00  0.00000000E+00
  0.00000000E+00  0.00000000E+00  0.00000000E+00
  0.00000000E+00  0.00000000E+00  0.00000000E+00
  0.00000000E+00  0.00000000E+00  0.00000000E+00
  0.00000000E+00  0.00000000E+00  0.00000000E+00
  0.00000000E+00  0.00000000E+00  0.00000000E+00
  0.00000000E+00  0.00000000E+00  0.00000000E+00
  0.00000000E+00  0.00000000E+00  0.00000000E+00
  0.00000000E+00  0.00000000E+00  0.00000000E+00
  0.00000000E+00  0.00000000E+00  0.00000000E+00
  0.00000000E+00  0.00000000E+00  0.00000000E+00
  0.00000000E+00  0.00000000E+00  0.00000000E+00
  0.00000000E+00  0.00000000E+00  0.00000000E+00
  0.00000000E+00  0.00000000E+00  0.00000000E+00
  0.00000000E+00  0.00000000E+00  0.00000000E+00
  0.00000000E+00  0.00000000E+00  0.00000000E+00
  0.00000000E+00  0.00000000E+00  0.00000000E+00
  0.00000000E+00  0.00000000E+00  0.00000000E+00
  0.00000000E+00  0.00000000E+00  0.00000000E+00
  0.00000000E+00  0.00000000E+00  0.00000000E+00
  0.00000000E+00  0.00000000E+00  0.00000000E+00
  0.00000000E+00  0.00000000E+00  0.00000000E+00
  0.00000000E+00  0.00000000E+00  0.00000000E+00
  0.00000000E+00  0.00000000E+00  0.00000000E+00
  0.00000000E+00  0.00000000E+00  0.00000000E+00
  0.00000000E+00  0.00000000E+00  0.00000000E+00
  0.00000000E+00  0.00000000E+00  0.00000000E+00
  0.00000000E+00  0.00000000E+00  0.00000000E+00
  0.00000000E+00  0.00000000E+00  0.00000000E+00
  0.00000000E+00  0.00000000E+00  0.00000000E+00
  0.00000000E+00  0.00000000E+00  0.00000000E+00
  0.00000000E+00  0.00000000E+00  0.00000000E+00
  0.00000000E+00  0.00000000E+00  0.00000000E+00
  0.00000000E+00  0.00000000E+00  0.00000000E+00
  0.00000000E+00  0.00000000E+00  0.00000000E+00
  0.00000000E+00  0.00000000E+00  0.00000000E+00
