C H O Si                                
   1.00000000000000     
     9.2874599999999994    0.0000000000000000    0.0000000000000000
     0.0000000000000000    8.7563099999999991    0.0000000000000000
     0.0000000000000000    0.0000000000000000   58.0000000000000000
   C    H    O    Si
    36    32    16    36
Selective dynamics
Direct
  0.9942556755657712  0.1257710122612510  0.0605604767369932   T   T   T
  0.3276110929774925  0.1257803149754791  0.0605822166855150   T   T   T
  0.6611102323558555  0.1257556734252177  0.0605742011295059   T   T   T
  0.9942914591033328  0.6257978382717110  0.0605620614284543   T   T   T
  0.3276305559891429  0.6258375257479168  0.0606306419048698   T   T   T
  0.6611204481455023  0.6258196315558570  0.0605949311570988   T   T   T
  0.1603658581070102  0.3720168268892834  0.1394397328189704   T   T   T
  0.4936073348736520  0.3725121763205779  0.1393801404485978   T   T   T
  0.8270060555376553  0.3718898955547784  0.1393899133740349   T   T   T
  0.1606447541474796  0.8718929644945236  0.1395183165879626   T   T   T
  0.4936671362229414  0.8714825622256349  0.1395617183178064   T   T   T
  0.8268164558370537  0.8718645429324284  0.1394369504458256   T   T   T
  0.3274817583937405  0.1228087618114796  0.1665359674628628   T   T   T
  0.6600432448789407  0.1224013106116291  0.1665511978469082   T   T   T
  0.9940483895346021  0.1214321725876225  0.1664617443786833   T   T   T
  0.3266849284857138  0.6225575007642390  0.1668582818098255   T   T   T
  0.6608890033433141  0.6222592748643606  0.1667557255424105   T   T   T
  0.9939567725656615  0.6224878980265318  0.1665413131402929   T   T   T
  0.1598117168643506  0.3746461706846421  0.1918444280763475   T   T   T
  0.4936853116888988  0.3881134459694954  0.1906063979877307   T   T   T
  0.8285889391343330  0.3732500575113206  0.1915765824052446   T   T   T
  0.1606042479431605  0.8777693696899491  0.1921829372107717   T   T   T
  0.4934448028570607  0.8779829720369908  0.1922190860820828   T   T   T
  0.8269520125441240  0.8769036541440394  0.1918614232861540   T   T   T
  0.1605699175283679  0.3717812682658405  0.0859187038634302   T   T   T
  0.4938156088231829  0.3717594078033658  0.0859265075291921   T   T   T
  0.8271008890145902  0.3717458776775535  0.0858999188548788   T   T   T
  0.1605754740294913  0.8717265204832498  0.0859482190858066   T   T   T
  0.4938014297709235  0.8716470951563438  0.0859818074089128   T   T   T
  0.8271357500138298  0.8717301900099772  0.0859215427324005   T   T   T
  0.3270452770231085  0.1215782969962028  0.1130573552214532   T   T   T
  0.6602556842725773  0.1215472952042888  0.1130692904926545   T   T   T
  0.9936561625658457  0.1216286542305309  0.1130587715807697   T   T   T
  0.3269429873553092  0.6216761080808137  0.1131573917035357   T   T   T
  0.6604116177125688  0.6216760024453721  0.1131111763455766   T   T   T
  0.9936699861556978  0.6218509139478292  0.1130491941503228   T   T   T
  0.0795988223282380  0.3529739770557375  0.0265679955275159   T   T   T
  0.4129474532235413  0.3530436736595908  0.0265675239822601   T   T   T
  0.7456999521472238  0.3526959857205353  0.0266212294345670   T   T   T
  0.0798599612156091  0.8530144463040733  0.0265732155392385   T   T   T
  0.4125211308957072  0.8529342051059560  0.0266716593096768   T   T   T
  0.7457844863735453  0.8527812893934985  0.0266212311381443   T   T   T
  0.3248096447591074  0.0535349838623850  0.0450298982230006   T   T   T
  0.6581814730383544  0.0534586382487162  0.0450329031932879   T   T   T
  0.9915827840213808  0.0535398816174052  0.0450176657907302   T   T   T
  0.3248590905487241  0.5533266204962987  0.0451057792009233   T   T   T
  0.6581452388930759  0.5534549609911762  0.0450622594031823   T   T   T
  0.9915720264096449  0.5535878478559889  0.0450176474982342   T   T   T
  0.8286553162919059  0.8053357286283414  0.2074587923533281   T   T   T
  0.8321296464524532  0.3014588193558713  0.2071476527459359   T   T   T
  0.1601031247971959  0.3022187446991583  0.2073593137907666   T   T   T
  0.1631558173935935  0.8049702582774353  0.2076633800085066   T   T   T
  0.4937382392263961  0.8062124061354635  0.2078125673417185   T   T   T
  0.0707636562385030  0.1082639140915162  0.2260442875133281   T   T   T
  0.3970838314231521  0.1519757019021983  0.2226102886475918   T   T   T
  0.7516531126850536  0.1049346774229225  0.2249138409294735   T   T   T
  0.0726141255621928  0.6020397317108344  0.2257234596623867   T   T   T
  0.3757060291919730  0.6166791808781101  0.2296185750482479   T   T   T
  0.7801429339015442  0.5893908354767258  0.2237223822342733   T   T   T
  0.5363505694073030  0.6043646818789842  0.2747986151764744   T   T   T
  0.4852889046506065  0.4687586378341838  0.2941897627773828   T   T   T
  0.5658671786819747  0.6360929707430830  0.3035572886128996   T   T   T
  0.3076704495836570  0.3747234545542653  0.3095504137590788   T   T   T
  0.4240607992476958  0.2521629077690114  0.3032762109321381   T   T   T
  0.6533019455739113  0.7322811954918996  0.3328953581435525   T   T   T
  0.4884629405764197  0.7649689666982220  0.3305659072770314   T   T   T
  0.5012850545522037  0.7857422241185433  0.2526708380858713   T   T   T
  0.5794802832990047  0.6472780586798363  0.2396243696751931   T   T   T
  0.1715340478733439  0.3339740031844438  0.0342220632180257   T   T   T
  0.5048829199522199  0.3339254019637959  0.0342200872547977   T   T   T
  0.8378869375837966  0.3339674619101678  0.0342213980852217   T   T   T
  0.1716662559188756  0.8340962236482018  0.0342600250444230   T   T   T
  0.5046319454929094  0.8340994535105538  0.0342842479284983   T   T   T
  0.8379155267831980  0.8339328025750213  0.0342245877888858   T   T   T
  0.3139002852146491  0.0913136814340041  0.2179430541985392   T   T   T
  0.6563582545044825  0.0886905530045801  0.2181354457335074   T   T   T
  0.9799983409710964  0.0851661783968767  0.2183039015153950   T   T   T
  0.2999574598767821  0.5847822717118228  0.2186205373805922   T   T   T
  0.6784074876157543  0.5835868493933615  0.2187285728015976   T   T   T
  0.9804831850296579  0.5823289239634546  0.2180598542177962   T   T   T
  0.5615223486459485  0.5540925814437526  0.2903905596773113   T   T   T
  0.3794524092706272  0.3467891847337690  0.2980085735723563   T   T   T
  0.5775148706728359  0.7547217327322600  0.3217554563260510   T   T   T
  0.5013437991242767  0.6746836494438394  0.2509665775644496   T   T   T
  0.4943933462305550  0.2431474387044749  0.0597420260268384   T   T   T
  0.8277460361780606  0.2431809563241761  0.0597287471964735   T   T   T
  0.1610499593268500  0.7432247667723619  0.0597571261567833   T   T   T
  0.4944153156395216  0.7431464723793748  0.0597809070426519   T   T   T
  0.8277448522929181  0.7432171511265278  0.0597413287249630   T   T   T
  0.1610477631456076  0.2432005796337653  0.0597374995001362   T   T   T
  0.9937536800361534  0.9965443642887961  0.1396519177801563   T   T   T
  0.3274145031908123  0.9969644747839252  0.1397082555723520   T   T   T
  0.6598212802544374  0.9967384100687985  0.1396984772942726   T   T   T
  0.9937102623673890  0.4969813668691642  0.1396360596139832   T   T   T
  0.3268867733126584  0.4972700166921859  0.1398636233501880   T   T   T
  0.6603200632037640  0.4970133526350526  0.1397613967383578   T   T   T
  0.1603021711911927  0.2460652675785205  0.1659431424686353   T   T   T
  0.4938143272073244  0.2472108910358825  0.1662343118867048   T   T   T
  0.8273106669394727  0.2451293238872855  0.1657947899401161   T   T   T
  0.1601994820016089  0.7475099974637682  0.1662634538758979   T   T   T
  0.4935724899989825  0.7467336271626717  0.1663453495722889   T   T   T
  0.8275230538308619  0.7469340090622155  0.1660932850548734   T   T   T
  0.3265492518716338  0.9964522293356660  0.1928299622173359   T   T   T
  0.6606509417237230  0.9952428964679715  0.1928456239217394   T   T   T
  0.9931464348837993  0.9943432212403543  0.1927915159031148   T   T   T
  0.3236267307008595  0.4949082840260890  0.1935154633710685   T   T   T
  0.9937602771486153  0.4922195677257128  0.1923918568320021   T   T   T
  0.6645975621796993  0.4923193402841088  0.1929789301167080   T   T   T
  0.9938840700396427  0.9960345539269941  0.0864132192815258   T   T   T
  0.3271899775109502  0.9960194089620771  0.0864295536206973   T   T   T
  0.6605067317278572  0.9960288934640307  0.0864245365551459   T   T   T
  0.9939047159259179  0.4960506837735904  0.0864114376997484   T   T   T
  0.3271856212504619  0.4960921602920577  0.0864814311959995   T   T   T
  0.6605396831037483  0.4960437879161004  0.0864489756605221   T   T   T
  0.1603129468821459  0.2467318640469252  0.1127718433851237   T   T   T
  0.4935506499673029  0.2465153160897393  0.1127608314970705   T   T   T
  0.8268860032815569  0.2466682604563996  0.1127380441970336   T   T   T
  0.1604251302524273  0.7466605280407065  0.1128205583613174   T   T   T
  0.4935605566414254  0.7465065974085510  0.1128631223615118   T   T   T
  0.8268582568105490  0.7467067793746844  0.1127763352308757   T   T   T
 
  0.00000000E+00  0.00000000E+00  0.00000000E+00
  0.00000000E+00  0.00000000E+00  0.00000000E+00
  0.00000000E+00  0.00000000E+00  0.00000000E+00
  0.00000000E+00  0.00000000E+00  0.00000000E+00
  0.00000000E+00  0.00000000E+00  0.00000000E+00
  0.00000000E+00  0.00000000E+00  0.00000000E+00
  0.00000000E+00  0.00000000E+00  0.00000000E+00
  0.00000000E+00  0.00000000E+00  0.00000000E+00
  0.00000000E+00  0.00000000E+00  0.00000000E+00
  0.00000000E+00  0.00000000E+00  0.00000000E+00
  0.00000000E+00  0.00000000E+00  0.00000000E+00
  0.00000000E+00  0.00000000E+00  0.00000000E+00
  0.00000000E+00  0.00000000E+00  0.00000000E+00
  0.00000000E+00  0.00000000E+00  0.00000000E+00
  0.00000000E+00  0.00000000E+00  0.00000000E+00
  0.00000000E+00  0.00000000E+00  0.00000000E+00
  0.00000000E+00  0.00000000E+00  0.00000000E+00
  0.00000000E+00  0.00000000E+00  0.00000000E+00
  0.00000000E+00  0.00000000E+00  0.00000000E+00
  0.00000000E+00  0.00000000E+00  0.00000000E+00
  0.00000000E+00  0.00000000E+00  0.00000000E+00
  0.00000000E+00  0.00000000E+00  0.00000000E+00
  0.00000000E+00  0.00000000E+00  0.00000000E+00
  0.00000000E+00  0.00000000E+00  0.00000000E+00
  0.00000000E+00  0.00000000E+00  0.00000000E+00
  0.00000000E+00  0.00000000E+00  0.00000000E+00
  0.00000000E+00  0.00000000E+00  0.00000000E+00
  0.00000000E+00  0.00000000E+00  0.00000000E+00
  0.00000000E+00  0.00000000E+00  0.00000000E+00
  0.00000000E+00  0.00000000E+00  0.00000000E+00
  0.00000000E+00  0.00000000E+00  0.00000000E+00
  0.00000000E+00  0.00000000E+00  0.00000000E+00
  0.00000000E+00  0.00000000E+00  0.00000000E+00
  0.00000000E+00  0.00000000E+00  0.00000000E+00
  0.00000000E+00  0.00000000E+00  0.00000000E+00
  0.00000000E+00  0.00000000E+00  0.00000000E+00
  0.00000000E+00  0.00000000E+00  0.00000000E+00
  0.00000000E+00  0.00000000E+00  0.00000000E+00
  0.00000000E+00  0.00000000E+00  0.00000000E+00
  0.00000000E+00  0.00000000E+00  0.00000000E+00
  0.00000000E+00  0.00000000E+00  0.00000000E+00
  0.00000000E+00  0.00000000E+00  0.00000000E+00
  0.00000000E+00  0.00000000E+00  0.00000000E+00
  0.00000000E+00  0.00000000E+00  0.00000000E+00
  0.00000000E+00  0.00000000E+00  0.00000000E+00
  0.00000000E+00  0.00000000E+00  0.00000000E+00
  0.00000000E+00  0.00000000E+00  0.00000000E+00
  0.00000000E+00  0.00000000E+00  0.00000000E+00
  0.00000000E+00  0.00000000E+00  0.00000000E+00
  0.00000000E+00  0.00000000E+00  0.00000000E+00
  0.00000000E+00  0.00000000E+00  0.00000000E+00
  0.00000000E+00  0.00000000E+00  0.00000000E+00
  0.00000000E+00  0.00000000E+00  0.00000000E+00
  0.00000000E+00  0.00000000E+00  0.00000000E+00
  0.00000000E+00  0.00000000E+00  0.00000000E+00
  0.00000000E+00  0.00000000E+00  0.00000000E+00
  0.00000000E+00  0.00000000E+00  0.00000000E+00
  0.00000000E+00  0.00000000E+00  0.00000000E+00
  0.00000000E+00  0.00000000E+00  0.00000000E+00
  0.00000000E+00  0.00000000E+00  0.00000000E+00
  0.00000000E+00  0.00000000E+00  0.00000000E+00
  0.00000000E+00  0.00000000E+00  0.00000000E+00
  0.00000000E+00  0.00000000E+00  0.00000000E+00
  0.00000000E+00  0.00000000E+00  0.00000000E+00
  0.00000000E+00  0.00000000E+00  0.00000000E+00
  0.00000000E+00  0.00000000E+00  0.00000000E+00
  0.00000000E+00  0.00000000E+00  0.00000000E+00
  0.00000000E+00  0.00000000E+00  0.00000000E+00
  0.00000000E+00  0.00000000E+00  0.00000000E+00
  0.00000000E+00  0.00000000E+00  0.00000000E+00
  0.00000000E+00  0.00000000E+00  0.00000000E+00
  0.00000000E+00  0.00000000E+00  0.00000000E+00
  0.00000000E+00  0.00000000E+00  0.00000000E+00
  0.00000000E+00  0.00000000E+00  0.00000000E+00
  0.00000000E+00  0.00000000E+00  0.00000000E+00
  0.00000000E+00  0.00000000E+00  0.00000000E+00
  0.00000000E+00  0.00000000E+00  0.00000000E+00
  0.00000000E+00  0.00000000E+00  0.00000000E+00
  0.00000000E+00  0.00000000E+00  0.00000000E+00
  0.00000000E+00  0.00000000E+00  0.00000000E+00
  0.00000000E+00  0.00000000E+00  0.00000000E+00
  0.00000000E+00  0.00000000E+00  0.00000000E+00
  0.00000000E+00  0.00000000E+00  0.00000000E+00
  0.00000000E+00  0.00000000E+00  0.00000000E+00
  0.00000000E+00  0.00000000E+00  0.00000000E+00
  0.00000000E+00  0.00000000E+00  0.00000000E+00
  0.00000000E+00  0.00000000E+00  0.00000000E+00
  0.00000000E+00  0.00000000E+00  0.00000000E+00
  0.00000000E+00  0.00000000E+00  0.00000000E+00
  0.00000000E+00  0.00000000E+00  0.00000000E+00
  0.00000000E+00  0.00000000E+00  0.00000000E+00
  0.00000000E+00  0.00000000E+00  0.00000000E+00
  0.00000000E+00  0.00000000E+00  0.00000000E+00
  0.00000000E+00  0.00000000E+00  0.00000000E+00
  0.00000000E+00  0.00000000E+00  0.00000000E+00
  0.00000000E+00  0.00000000E+00  0.00000000E+00
  0.00000000E+00  0.00000000E+00  0.00000000E+00
  0.00000000E+00  0.00000000E+00  0.00000000E+00
  0.00000000E+00  0.00000000E+00  0.00000000E+00
  0.00000000E+00  0.00000000E+00  0.00000000E+00
  0.00000000E+00  0.00000000E+00  0.00000000E+00
  0.00000000E+00  0.00000000E+00  0.00000000E+00
  0.00000000E+00  0.00000000E+00  0.00000000E+00
  0.00000000E+00  0.00000000E+00  0.00000000E+00
  0.00000000E+00  0.00000000E+00  0.00000000E+00
  0.00000000E+00  0.00000000E+00  0.00000000E+00
  0.00000000E+00  0.00000000E+00  0.00000000E+00
  0.00000000E+00  0.00000000E+00  0.00000000E+00
  0.00000000E+00  0.00000000E+00  0.00000000E+00
  0.00000000E+00  0.00000000E+00  0.00000000E+00
  0.00000000E+00  0.00000000E+00  0.00000000E+00
  0.00000000E+00  0.00000000E+00  0.00000000E+00
  0.00000000E+00  0.00000000E+00  0.00000000E+00
  0.00000000E+00  0.00000000E+00  0.00000000E+00
  0.00000000E+00  0.00000000E+00  0.00000000E+00
  0.00000000E+00  0.00000000E+00  0.00000000E+00
  0.00000000E+00  0.00000000E+00  0.00000000E+00
  0.00000000E+00  0.00000000E+00  0.00000000E+00
  0.00000000E+00  0.00000000E+00  0.00000000E+00
  0.00000000E+00  0.00000000E+00  0.00000000E+00
