C H O Si                                
   1.00000000000000     
     9.2874599999999994    0.0000000000000000    0.0000000000000000
     0.0000000000000000    8.7563099999999991    0.0000000000000000
     0.0000000000000000    0.0000000000000000   58.0000000000000000
   C    H    O    Si
    36    32    16    36
Selective dynamics
Direct
  0.9942630210192155  0.1258512746783496  0.0605609735357137   T   T   T
  0.3275720423704894  0.1258028490290635  0.0605690342439129   T   T   T
  0.6609038878053839  0.1257981132191522  0.0605698027301597   T   T   T
  0.9942312852428855  0.6258853595144849  0.0605619648198396   T   T   T
  0.3275816472648583  0.6258498083552884  0.0606150341264643   T   T   T
  0.6609183592706234  0.6258774085009299  0.0605881983503877   T   T   T
  0.1603540358323675  0.3720083357367758  0.1394291845420487   T   T   T
  0.4935510440288917  0.3724275167033586  0.1393725821479273   T   T   T
  0.8269597638472309  0.3718726007786554  0.1393768347563934   T   T   T
  0.1606059265792618  0.8718963005355607  0.1394929374548687   T   T   T
  0.4936015520526831  0.8713098043540310  0.1395641499762001   T   T   T
  0.8267505425297744  0.8718445223594465  0.1394288278499483   T   T   T
  0.3274806554318083  0.1229421340636675  0.1665369963315553   T   T   T
  0.6599024937693009  0.1223218135487507  0.1665577839490941   T   T   T
  0.9939758171504698  0.1213804188091563  0.1664760657602660   T   T   T
  0.3266808510137330  0.6227027467601853  0.1668662390807117   T   T   T
  0.6607789180515261  0.6223911118333142  0.1667553176362208   T   T   T
  0.9939532059239123  0.6223653143433716  0.1665522083136355   T   T   T
  0.1596907158274577  0.3746316609801416  0.1918411011217498   T   T   T
  0.4936992889153172  0.3880781030976370  0.1905946506368224   T   T   T
  0.8287202538930235  0.3732674789507509  0.1915922641915009   T   T   T
  0.1605730015205377  0.8779309266496448  0.1921905901556669   T   T   T
  0.4934680612191965  0.8779722376824751  0.1922032746246240   T   T   T
  0.8269927132368760  0.8768224796141754  0.1918578534419980   T   T   T
  0.1604606177894638  0.3717455589541727  0.0859252340746641   T   T   T
  0.4938014722114591  0.3717780202090654  0.0859285532818997   T   T   T
  0.8271450013486342  0.3717306160171207  0.0859037336815895   T   T   T
  0.1604505493869437  0.8717684884156016  0.0859464460468877   T   T   T
  0.4937858974288050  0.8716831502987032  0.0859755335833919   T   T   T
  0.8271425322281342  0.8717966217672843  0.0859163371515340   T   T   T
  0.3267784093174670  0.1216881349174259  0.1130513767974898   T   T   T
  0.6600571339479886  0.1216879902451478  0.1130535963039508   T   T   T
  0.9934514413805184  0.1217307463421812  0.1130383136656599   T   T   T
  0.3268205532809463  0.6216601898743392  0.1131371175778480   T   T   T
  0.6601658060919289  0.6217305194464652  0.1130976680231984   T   T   T
  0.9934636126960340  0.6218348700001763  0.1130386330060054   T   T   T
  0.0797508217922995  0.3528417318722171  0.0265815690464048   T   T   T
  0.4131106926067573  0.3529100421478699  0.0265799813688093   T   T   T
  0.7458267790982690  0.3525024909618849  0.0266509189545236   T   T   T
  0.0799726661193660  0.8528841405845597  0.0265845686941202   T   T   T
  0.4126378774819285  0.8527500615901995  0.0266996052317818   T   T   T
  0.7459243904446887  0.8525897558635718  0.0266511393108627   T   T   T
  0.3247516063079730  0.0535374100873588  0.0450246857061915   T   T   T
  0.6581228460062488  0.0534637661726596  0.0450310056595017   T   T   T
  0.9915242819740768  0.0535541314951070  0.0450151294161386   T   T   T
  0.3247963205803870  0.5532802407587000  0.0450961693958964   T   T   T
  0.6580820918008616  0.5534403310533265  0.0450553902134796   T   T   T
  0.9915211314072674  0.5535929136983507  0.0450146040486552   T   T   T
  0.8286668029661917  0.8053158644234760  0.2074661343072730   T   T   T
  0.8320862360053617  0.3014515380093958  0.2071598245394353   T   T   T
  0.1601164887402692  0.3022294534217428  0.2073588922673248   T   T   T
  0.1631819499821814  0.8049764451185117  0.2076636716292864   T   T   T
  0.4937514616789344  0.8062495267165455  0.2078133232387377   T   T   T
  0.0706029924530369  0.1081883241651464  0.2260506087784297   T   T   T
  0.3968327901569780  0.1524715504078106  0.2225752902478961   T   T   T
  0.7517664918425448  0.1048953087552604  0.2249104816922350   T   T   T
  0.0724299262236431  0.6019603195225711  0.2257193643855020   T   T   T
  0.3758527024654891  0.6168340710802743  0.2296382105596924   T   T   T
  0.7802716423693675  0.5894055720554665  0.2237301492790200   T   T   T
  0.5363507401113693  0.6044195438431165  0.2748024439643871   T   T   T
  0.4852444796231035  0.4686664724339153  0.2941880517431154   T   T   T
  0.5658966556905075  0.6361585347946628  0.3035711026647768   T   T   T
  0.3077688217559509  0.3747441390449933  0.3095530246235845   T   T   T
  0.4239995124494206  0.2522359022504292  0.3032740160515603   T   T   T
  0.6533095025307423  0.7322721628286386  0.3329212259176985   T   T   T
  0.4884554484672179  0.7648634933727587  0.3305709187024259   T   T   T
  0.5012426481502963  0.7857114110625349  0.2526777174818342   T   T   T
  0.5794810909831358  0.6472860203492913  0.2396165197863423   T   T   T
  0.1717111625093313  0.3337510583340530  0.0342356997564863   T   T   T
  0.5050485769981213  0.3337660751018399  0.0342385610355244   T   T   T
  0.8381879224843628  0.3339020825249906  0.0342243253856942   T   T   T
  0.1718658745294443  0.8339632052119890  0.0342644079714131   T   T   T
  0.5049578231933038  0.8340410973022649  0.0342744393065942   T   T   T
  0.8382033790951733  0.8338448119569976  0.0342249430063061   T   T   T
  0.3138924363382150  0.0911905770638352  0.2179784508132008   T   T   T
  0.6565323154560552  0.0886151943492228  0.2181189652005207   T   T   T
  0.9798327033061471  0.0851058855351125  0.2183065383067181   T   T   T
  0.3005445800771708  0.5846436897843830  0.2186115398213931   T   T   T
  0.6786009534889605  0.5835476678212984  0.2187383924540851   T   T   T
  0.9805089503932566  0.5823143991236733  0.2180023821668890   T   T   T
  0.5616578472946071  0.5540981718230908  0.2903788649139293   T   T   T
  0.3795657568690263  0.3470175944017427  0.2979825937901865   T   T   T
  0.5775893714061688  0.7549392837098556  0.3217555065809828   T   T   T
  0.5011341469469822  0.6746611143382026  0.2509371312235731   T   T   T
  0.4944181274855904  0.2430570893282156  0.0597477938946081   T   T   T
  0.8277680197797902  0.2431099843184178  0.0597384557963846   T   T   T
  0.1611077274259403  0.7431026508884646  0.0597807914892056   T   T   T
  0.4944463780604010  0.7431551249609977  0.0597892931923706   T   T   T
  0.8277749767697318  0.7431573915060528  0.0597487248718716   T   T   T
  0.1611030100108304  0.2431182208033693  0.0597576458948974   T   T   T
  0.9937604490370064  0.9965705626157336  0.1396640369967973   T   T   T
  0.3273287085203271  0.9970250164896715  0.1397127169541519   T   T   T
  0.6599376515396406  0.9968600409013335  0.1397080943147828   T   T   T
  0.9937657571286266  0.4970177083727729  0.1396491458364326   T   T   T
  0.3267893769956381  0.4973054117806853  0.1398769563735791   T   T   T
  0.6603709926066356  0.4969863608954798  0.1397708413581906   T   T   T
  0.1603363520271550  0.2461508452874809  0.1659512399924765   T   T   T
  0.4938062123196696  0.2474573972202010  0.1662393574907629   T   T   T
  0.8272760819152886  0.2450717944976226  0.1658040805449733   T   T   T
  0.1601403764468062  0.7476072800103448  0.1662613475783522   T   T   T
  0.4935643813442895  0.7467080325645516  0.1663588534224525   T   T   T
  0.8274822947899366  0.7469904828097546  0.1661033147694630   T   T   T
  0.3266114944393622  0.9965266024508529  0.1928352294137945   T   T   T
  0.6607435475841925  0.9951835377340554  0.1928366619408438   T   T   T
  0.9932078155998799  0.9942848722981797  0.1927934361215741   T   T   T
  0.3237623417485316  0.4949093995905481  0.1935349511500447   T   T   T
  0.9938473920023286  0.4920824179405047  0.1923876987523992   T   T   T
  0.6645822259890245  0.4922093418873523  0.1929909071413778   T   T   T
  0.9938667696956762  0.9960811158662591  0.0864053346317658   T   T   T
  0.3272018603639720  0.9959910513479766  0.0864211115964909   T   T   T
  0.6604984382215527  0.9959857997866649  0.0864229901075935   T   T   T
  0.9938358313777781  0.4960722494229876  0.0864008310228062   T   T   T
  0.3272049805233729  0.4960212476935437  0.0864715077582986   T   T   T
  0.6605298536163894  0.4960425001001301  0.0864357468508159   T   T   T
  0.1602062048952713  0.2468448624861280  0.1127691481608388   T   T   T
  0.4934524134480159  0.2465910690088089  0.1127450382299451   T   T   T
  0.8267707735343964  0.2467950552386846  0.1127321220519955   T   T   T
  0.1602707109254372  0.7467978290815844  0.1128064304757013   T   T   T
  0.4935083218414722  0.7466355608480909  0.1128402514419572   T   T   T
  0.8268189851667737  0.7468328697224598  0.1127614784692396   T   T   T
 
  0.00000000E+00  0.00000000E+00  0.00000000E+00
  0.00000000E+00  0.00000000E+00  0.00000000E+00
  0.00000000E+00  0.00000000E+00  0.00000000E+00
  0.00000000E+00  0.00000000E+00  0.00000000E+00
  0.00000000E+00  0.00000000E+00  0.00000000E+00
  0.00000000E+00  0.00000000E+00  0.00000000E+00
  0.00000000E+00  0.00000000E+00  0.00000000E+00
  0.00000000E+00  0.00000000E+00  0.00000000E+00
  0.00000000E+00  0.00000000E+00  0.00000000E+00
  0.00000000E+00  0.00000000E+00  0.00000000E+00
  0.00000000E+00  0.00000000E+00  0.00000000E+00
  0.00000000E+00  0.00000000E+00  0.00000000E+00
  0.00000000E+00  0.00000000E+00  0.00000000E+00
  0.00000000E+00  0.00000000E+00  0.00000000E+00
  0.00000000E+00  0.00000000E+00  0.00000000E+00
  0.00000000E+00  0.00000000E+00  0.00000000E+00
  0.00000000E+00  0.00000000E+00  0.00000000E+00
  0.00000000E+00  0.00000000E+00  0.00000000E+00
  0.00000000E+00  0.00000000E+00  0.00000000E+00
  0.00000000E+00  0.00000000E+00  0.00000000E+00
  0.00000000E+00  0.00000000E+00  0.00000000E+00
  0.00000000E+00  0.00000000E+00  0.00000000E+00
  0.00000000E+00  0.00000000E+00  0.00000000E+00
  0.00000000E+00  0.00000000E+00  0.00000000E+00
  0.00000000E+00  0.00000000E+00  0.00000000E+00
  0.00000000E+00  0.00000000E+00  0.00000000E+00
  0.00000000E+00  0.00000000E+00  0.00000000E+00
  0.00000000E+00  0.00000000E+00  0.00000000E+00
  0.00000000E+00  0.00000000E+00  0.00000000E+00
  0.00000000E+00  0.00000000E+00  0.00000000E+00
  0.00000000E+00  0.00000000E+00  0.00000000E+00
  0.00000000E+00  0.00000000E+00  0.00000000E+00
  0.00000000E+00  0.00000000E+00  0.00000000E+00
  0.00000000E+00  0.00000000E+00  0.00000000E+00
  0.00000000E+00  0.00000000E+00  0.00000000E+00
  0.00000000E+00  0.00000000E+00  0.00000000E+00
  0.00000000E+00  0.00000000E+00  0.00000000E+00
  0.00000000E+00  0.00000000E+00  0.00000000E+00
  0.00000000E+00  0.00000000E+00  0.00000000E+00
  0.00000000E+00  0.00000000E+00  0.00000000E+00
  0.00000000E+00  0.00000000E+00  0.00000000E+00
  0.00000000E+00  0.00000000E+00  0.00000000E+00
  0.00000000E+00  0.00000000E+00  0.00000000E+00
  0.00000000E+00  0.00000000E+00  0.00000000E+00
  0.00000000E+00  0.00000000E+00  0.00000000E+00
  0.00000000E+00  0.00000000E+00  0.00000000E+00
  0.00000000E+00  0.00000000E+00  0.00000000E+00
  0.00000000E+00  0.00000000E+00  0.00000000E+00
  0.00000000E+00  0.00000000E+00  0.00000000E+00
  0.00000000E+00  0.00000000E+00  0.00000000E+00
  0.00000000E+00  0.00000000E+00  0.00000000E+00
  0.00000000E+00  0.00000000E+00  0.00000000E+00
  0.00000000E+00  0.00000000E+00  0.00000000E+00
  0.00000000E+00  0.00000000E+00  0.00000000E+00
  0.00000000E+00  0.00000000E+00  0.00000000E+00
  0.00000000E+00  0.00000000E+00  0.00000000E+00
  0.00000000E+00  0.00000000E+00  0.00000000E+00
  0.00000000E+00  0.00000000E+00  0.00000000E+00
  0.00000000E+00  0.00000000E+00  0.00000000E+00
  0.00000000E+00  0.00000000E+00  0.00000000E+00
  0.00000000E+00  0.00000000E+00  0.00000000E+00
  0.00000000E+00  0.00000000E+00  0.00000000E+00
  0.00000000E+00  0.00000000E+00  0.00000000E+00
  0.00000000E+00  0.00000000E+00  0.00000000E+00
  0.00000000E+00  0.00000000E+00  0.00000000E+00
  0.00000000E+00  0.00000000E+00  0.00000000E+00
  0.00000000E+00  0.00000000E+00  0.00000000E+00
  0.00000000E+00  0.00000000E+00  0.00000000E+00
  0.00000000E+00  0.00000000E+00  0.00000000E+00
  0.00000000E+00  0.00000000E+00  0.00000000E+00
  0.00000000E+00  0.00000000E+00  0.00000000E+00
  0.00000000E+00  0.00000000E+00  0.00000000E+00
  0.00000000E+00  0.00000000E+00  0.00000000E+00
  0.00000000E+00  0.00000000E+00  0.00000000E+00
  0.00000000E+00  0.00000000E+00  0.00000000E+00
  0.00000000E+00  0.00000000E+00  0.00000000E+00
  0.00000000E+00  0.00000000E+00  0.00000000E+00
  0.00000000E+00  0.00000000E+00  0.00000000E+00
  0.00000000E+00  0.00000000E+00  0.00000000E+00
  0.00000000E+00  0.00000000E+00  0.00000000E+00
  0.00000000E+00  0.00000000E+00  0.00000000E+00
  0.00000000E+00  0.00000000E+00  0.00000000E+00
  0.00000000E+00  0.00000000E+00  0.00000000E+00
  0.00000000E+00  0.00000000E+00  0.00000000E+00
  0.00000000E+00  0.00000000E+00  0.00000000E+00
  0.00000000E+00  0.00000000E+00  0.00000000E+00
  0.00000000E+00  0.00000000E+00  0.00000000E+00
  0.00000000E+00  0.00000000E+00  0.00000000E+00
  0.00000000E+00  0.00000000E+00  0.00000000E+00
  0.00000000E+00  0.00000000E+00  0.00000000E+00
  0.00000000E+00  0.00000000E+00  0.00000000E+00
  0.00000000E+00  0.00000000E+00  0.00000000E+00
  0.00000000E+00  0.00000000E+00  0.00000000E+00
  0.00000000E+00  0.00000000E+00  0.00000000E+00
  0.00000000E+00  0.00000000E+00  0.00000000E+00
  0.00000000E+00  0.00000000E+00  0.00000000E+00
  0.00000000E+00  0.00000000E+00  0.00000000E+00
  0.00000000E+00  0.00000000E+00  0.00000000E+00
  0.00000000E+00  0.00000000E+00  0.00000000E+00
  0.00000000E+00  0.00000000E+00  0.00000000E+00
  0.00000000E+00  0.00000000E+00  0.00000000E+00
  0.00000000E+00  0.00000000E+00  0.00000000E+00
  0.00000000E+00  0.00000000E+00  0.00000000E+00
  0.00000000E+00  0.00000000E+00  0.00000000E+00
  0.00000000E+00  0.00000000E+00  0.00000000E+00
  0.00000000E+00  0.00000000E+00  0.00000000E+00
  0.00000000E+00  0.00000000E+00  0.00000000E+00
  0.00000000E+00  0.00000000E+00  0.00000000E+00
  0.00000000E+00  0.00000000E+00  0.00000000E+00
  0.00000000E+00  0.00000000E+00  0.00000000E+00
  0.00000000E+00  0.00000000E+00  0.00000000E+00
  0.00000000E+00  0.00000000E+00  0.00000000E+00
  0.00000000E+00  0.00000000E+00  0.00000000E+00
  0.00000000E+00  0.00000000E+00  0.00000000E+00
  0.00000000E+00  0.00000000E+00  0.00000000E+00
  0.00000000E+00  0.00000000E+00  0.00000000E+00
  0.00000000E+00  0.00000000E+00  0.00000000E+00
  0.00000000E+00  0.00000000E+00  0.00000000E+00
  0.00000000E+00  0.00000000E+00  0.00000000E+00
  0.00000000E+00  0.00000000E+00  0.00000000E+00
