C H O Si                                
   1.00000000000000     
     9.2874599999999994    0.0000000000000000    0.0000000000000000
     0.0000000000000000    8.7563099999999991    0.0000000000000000
     0.0000000000000000    0.0000000000000000   58.0000000000000000
   C    H    O    Si
    36    31    16    36
Selective dynamics
Direct
  0.9960126340458189  0.1302369319644754  0.0596094521961490   T   T   T
  0.3294887033219638  0.1303469757772149  0.0596931711682984   T   T   T
  0.6626976557003914  0.1303426951975055  0.0597134118070031   T   T   T
  0.9960276263692407  0.6305016701894957  0.0596250768470625   T   T   T
  0.3294163158897305  0.6301190926287745  0.0596649541950711   T   T   T
  0.6627841492527864  0.6301055816488628  0.0596890381260593   T   T   T
  0.1626115406183004  0.3757529876648960  0.1384487304466120   T   T   T
  0.4959213080788345  0.3759541815907212  0.1387547158019515   T   T   T
  0.8294092182484292  0.3757978185264719  0.1384495651773676   T   T   T
  0.1628702089760736  0.8760261727790137  0.1385110424045877   T   T   T
  0.4959790378017885  0.8755150824148430  0.1383240562201280   T   T   T
  0.8291613949287253  0.8759270628363538  0.1385610748968631   T   T   T
  0.3294095909147217  0.1267295928247805  0.1657237743504751   T   T   T
  0.6626255012832445  0.1267640379458754  0.1657636155496505   T   T   T
  0.9959600550903218  0.1255788996595513  0.1655213248984637   T   T   T
  0.3286641214746169  0.6261354526831298  0.1656318510797519   T   T   T
  0.6631146181766354  0.6258832322239130  0.1657111388901598   T   T   T
  0.9959617915218004  0.6260826713739291  0.1655944147836266   T   T   T
  0.1630823744900027  0.3789535450782324  0.1907531684309802   T   T   T
  0.4957810616919645  0.3840353626560571  0.1917270716212158   T   T   T
  0.8301474638841810  0.3789264928983798  0.1907735847182934   T   T   T
  0.1619396411970513  0.8804970151444209  0.1910153567456732   T   T   T
  0.4960763421906051  0.8892290759713077  0.1888527337289645   T   T   T
  0.8302506546314348  0.8803497021086883  0.1910817991009921   T   T   T
  0.1626473182699826  0.3759649737918878  0.0849865654640638   T   T   T
  0.4959475525034520  0.3759980696967489  0.0851410401627462   T   T   T
  0.8294249871208805  0.3760078396343403  0.0849924564109941   T   T   T
  0.1627696296480252  0.8760555655123738  0.0850194416746248   T   T   T
  0.4959420879622414  0.8759227880359859  0.0849617276135675   T   T   T
  0.8292832513528339  0.8761042438561759  0.0850344480163940   T   T   T
  0.3293897353913593  0.1257957117327777  0.1122046623470681   T   T   T
  0.6626594944141146  0.1257491373232469  0.1122217655099220   T   T   T
  0.9958847247368965  0.1256768690136738  0.1121222475411159   T   T   T
  0.3292539087513973  0.6255308933170127  0.1121579277456775   T   T   T
  0.6627543445928836  0.6255608464239941  0.1121815819935321   T   T   T
  0.9959116144359683  0.6259583753494695  0.1121305613907069   T   T   T
  0.0798321352450415  0.3575590307164589  0.0258117002137084   T   T   T
  0.4122621475168700  0.3578675335366555  0.0260358253681758   T   T   T
  0.7448662309415610  0.3571347495183588  0.0259458084458117   T   T   T
  0.0801026611992555  0.8580366909910211  0.0258353810761776   T   T   T
  0.4125902140567419  0.8570449820894481  0.0258393753293404   T   T   T
  0.7443276144763544  0.8572356884279060  0.0260199184812748   T   T   T
  0.3278963029802568  0.0580327468203521  0.0441525032120893   T   T   T
  0.6604286096659422  0.0580412929353997  0.0441744356428799   T   T   T
  0.9940194221196705  0.0579540802436682  0.0440668001301390   T   T   T
  0.3272658947713296  0.5578452439428432  0.0441253918971611   T   T   T
  0.6610004295224741  0.5577921691593559  0.0441500907790129   T   T   T
  0.9940436122532716  0.5582927605605903  0.0440734596396979   T   T   T
  0.8326727007389749  0.8085765961496918  0.2066430141151798   T   T   T
  0.8325087652085159  0.3066486350560425  0.2063174047091323   T   T   T
  0.1647731962948242  0.3074944817141017  0.2063849423829041   T   T   T
  0.4979246435822589  0.3110123539389491  0.2071889994890057   T   T   T
  0.1642180907816595  0.8081195037694897  0.2065165371358404   T   T   T
  0.0803763380897990  0.1083583085574560  0.2247165987983450   T   T   T
  0.4158794378469324  0.1055162072485842  0.2246577305915238   T   T   T
  0.7451498341045379  0.1065358618145424  0.2252689327025550   T   T   T
  0.0853730701317374  0.6082749947719819  0.2234484366865530   T   T   T
  0.3675635033512847  0.5705091319006215  0.2301059639154204   T   T   T
  0.7760574856515632  0.5997175621739999  0.2228314594896830   T   T   T
  0.4924846124754865  0.5414475920355741  0.2657270641726441   T   T   T
  0.4691652610287989  0.4571811797914904  0.3004969636190822   T   T   T
  0.5176374665237162  0.6262358968948192  0.3080850569461191   T   T   T
  0.2894373299943283  0.2730213893018671  0.2956138271972719   T   T   T
  0.4394864466785720  0.2183080683032514  0.2875263502894896   T   T   T
  0.6394441595508837  0.7696929263985979  0.3348785703483372   T   T   T
  0.5035324785274184  0.8625419647364510  0.3281676883637274   T   T   T
  0.5645569365888647  0.5366782516462010  0.2406334262306160   T   T   T
  0.1723319510721950  0.3386229696736365  0.0332888817041379   T   T   T
  0.5051519307633257  0.3392681568222287  0.0334454663843999   T   T   T
  0.8379134038979288  0.3387472859068126  0.0332997187938346   T   T   T
  0.1725865090284344  0.8388248616829515  0.0333227383546202   T   T   T
  0.5053927796922864  0.8383025004648772  0.0332608171041571   T   T   T
  0.8375135813527024  0.8390793556222036  0.0333435304530667   T   T   T
  0.3217644693624138  0.0874077529537090  0.2176172347648091   T   T   T
  0.6531779120519090  0.0878489364996469  0.2175954848026933   T   T   T
  0.9875897633982191  0.0893485843981452  0.2173185141474221   T   T   T
  0.3094554769371456  0.6034939307944711  0.2162756544479265   T   T   T
  0.6758773177646447  0.5908632672454672  0.2174984499384607   T   T   T
  0.9891114210160126  0.5864998225336961  0.2172313023453896   T   T   T
  0.5202342054459024  0.5504416155690492  0.2953800158924551   T   T   T
  0.3896532172840281  0.2654258695345106  0.3005031536471421   T   T   T
  0.5375319773378564  0.7591094980376738  0.3311486190597108   T   T   T
  0.4785266811322515  0.5056532780672782  0.2495985889171592   T   T   T
  0.4961627479932105  0.2478064145579992  0.0589664724948378   T   T   T
  0.8294295974173949  0.2476398649498961  0.0588516686913749   T   T   T
  0.1629261871379697  0.7477284177671351  0.0588627434702005   T   T   T
  0.4961846844178694  0.7474650726219494  0.0588327113727729   T   T   T
  0.8293202102886994  0.7477578332120203  0.0588809406961914   T   T   T
  0.1628226470550160  0.2476009275154283  0.0588435098427524   T   T   T
  0.9960302518234485  0.0005422140338780  0.1387418950567039   T   T   T
  0.3297043102791832  0.0008735552539534  0.1388618443556879   T   T   T
  0.6623294948273895  0.0008822483195274  0.1388896091928942   T   T   T
  0.9960379704823339  0.5008507930417281  0.1387355042064442   T   T   T
  0.3290972947411532  0.5007239501713983  0.1388399383292338   T   T   T
  0.6627633690280916  0.5006035506833015  0.1388327953695878   T   T   T
  0.1622617337975782  0.2500217793288257  0.1650456717863094   T   T   T
  0.4957418532312516  0.2518321813116629  0.1656098377957491   T   T   T
  0.8297601464467164  0.2498843401352744  0.1650156098479201   T   T   T
  0.1624678037074503  0.7507729660452682  0.1651183214656768   T   T   T
  0.4956768924929023  0.7488721122570325  0.1651053935905082   T   T   T
  0.8293251460274575  0.7505806642122081  0.1651742689151163   T   T   T
  0.3281208685342847  0.9970897028878625  0.1920407542769098   T   T   T
  0.6638422961704080  0.9971435008372538  0.1920984346456365   T   T   T
  0.9960908208900960  0.9983476439326040  0.1917609225787444   T   T   T
  0.3272064436468227  0.5012849353679698  0.1921182906841850   T   T   T
  0.9965811739206174  0.4961123205270752  0.1915414233548987   T   T   T
  0.6648119809560100  0.4983776795487600  0.1918947050043371   T   T   T
  0.9960219608331116  0.0002976010863094  0.0855078866481946   T   T   T
  0.3294031798542107  0.0003435688230198  0.0855596059212758   T   T   T
  0.6626119635307504  0.0003172531191638  0.0855772217597277   T   T   T
  0.9960250788015230  0.5004193377709996  0.0855035566732454   T   T   T
  0.3292972878101565  0.5001987001344901  0.0855523315909466   T   T   T
  0.6627639428411882  0.5001791512264759  0.0855642974130575   T   T   T
  0.1625395469690716  0.2506623107223476  0.1118590973530971   T   T   T
  0.4958977792746069  0.2507406142085244  0.1120464698391146   T   T   T
  0.8292385720787721  0.2506553212111129  0.1118604145100193   T   T   T
  0.1627216862390028  0.7508081139239025  0.1118942982067495   T   T   T
  0.4958638675056548  0.7502904356005970  0.1117894240788644   T   T   T
  0.8290923193708863  0.7508282492039271  0.1119185160203742   T   T   T
 
  0.00000000E+00  0.00000000E+00  0.00000000E+00
  0.00000000E+00  0.00000000E+00  0.00000000E+00
  0.00000000E+00  0.00000000E+00  0.00000000E+00
  0.00000000E+00  0.00000000E+00  0.00000000E+00
  0.00000000E+00  0.00000000E+00  0.00000000E+00
  0.00000000E+00  0.00000000E+00  0.00000000E+00
  0.00000000E+00  0.00000000E+00  0.00000000E+00
  0.00000000E+00  0.00000000E+00  0.00000000E+00
  0.00000000E+00  0.00000000E+00  0.00000000E+00
  0.00000000E+00  0.00000000E+00  0.00000000E+00
  0.00000000E+00  0.00000000E+00  0.00000000E+00
  0.00000000E+00  0.00000000E+00  0.00000000E+00
  0.00000000E+00  0.00000000E+00  0.00000000E+00
  0.00000000E+00  0.00000000E+00  0.00000000E+00
  0.00000000E+00  0.00000000E+00  0.00000000E+00
  0.00000000E+00  0.00000000E+00  0.00000000E+00
  0.00000000E+00  0.00000000E+00  0.00000000E+00
  0.00000000E+00  0.00000000E+00  0.00000000E+00
  0.00000000E+00  0.00000000E+00  0.00000000E+00
  0.00000000E+00  0.00000000E+00  0.00000000E+00
  0.00000000E+00  0.00000000E+00  0.00000000E+00
  0.00000000E+00  0.00000000E+00  0.00000000E+00
  0.00000000E+00  0.00000000E+00  0.00000000E+00
  0.00000000E+00  0.00000000E+00  0.00000000E+00
  0.00000000E+00  0.00000000E+00  0.00000000E+00
  0.00000000E+00  0.00000000E+00  0.00000000E+00
  0.00000000E+00  0.00000000E+00  0.00000000E+00
  0.00000000E+00  0.00000000E+00  0.00000000E+00
  0.00000000E+00  0.00000000E+00  0.00000000E+00
  0.00000000E+00  0.00000000E+00  0.00000000E+00
  0.00000000E+00  0.00000000E+00  0.00000000E+00
  0.00000000E+00  0.00000000E+00  0.00000000E+00
  0.00000000E+00  0.00000000E+00  0.00000000E+00
  0.00000000E+00  0.00000000E+00  0.00000000E+00
  0.00000000E+00  0.00000000E+00  0.00000000E+00
  0.00000000E+00  0.00000000E+00  0.00000000E+00
  0.00000000E+00  0.00000000E+00  0.00000000E+00
  0.00000000E+00  0.00000000E+00  0.00000000E+00
  0.00000000E+00  0.00000000E+00  0.00000000E+00
  0.00000000E+00  0.00000000E+00  0.00000000E+00
  0.00000000E+00  0.00000000E+00  0.00000000E+00
  0.00000000E+00  0.00000000E+00  0.00000000E+00
  0.00000000E+00  0.00000000E+00  0.00000000E+00
  0.00000000E+00  0.00000000E+00  0.00000000E+00
  0.00000000E+00  0.00000000E+00  0.00000000E+00
  0.00000000E+00  0.00000000E+00  0.00000000E+00
  0.00000000E+00  0.00000000E+00  0.00000000E+00
  0.00000000E+00  0.00000000E+00  0.00000000E+00
  0.00000000E+00  0.00000000E+00  0.00000000E+00
  0.00000000E+00  0.00000000E+00  0.00000000E+00
  0.00000000E+00  0.00000000E+00  0.00000000E+00
  0.00000000E+00  0.00000000E+00  0.00000000E+00
  0.00000000E+00  0.00000000E+00  0.00000000E+00
  0.00000000E+00  0.00000000E+00  0.00000000E+00
  0.00000000E+00  0.00000000E+00  0.00000000E+00
  0.00000000E+00  0.00000000E+00  0.00000000E+00
  0.00000000E+00  0.00000000E+00  0.00000000E+00
  0.00000000E+00  0.00000000E+00  0.00000000E+00
  0.00000000E+00  0.00000000E+00  0.00000000E+00
  0.00000000E+00  0.00000000E+00  0.00000000E+00
  0.00000000E+00  0.00000000E+00  0.00000000E+00
  0.00000000E+00  0.00000000E+00  0.00000000E+00
  0.00000000E+00  0.00000000E+00  0.00000000E+00
  0.00000000E+00  0.00000000E+00  0.00000000E+00
  0.00000000E+00  0.00000000E+00  0.00000000E+00
  0.00000000E+00  0.00000000E+00  0.00000000E+00
  0.00000000E+00  0.00000000E+00  0.00000000E+00
  0.00000000E+00  0.00000000E+00  0.00000000E+00
  0.00000000E+00  0.00000000E+00  0.00000000E+00
  0.00000000E+00  0.00000000E+00  0.00000000E+00
  0.00000000E+00  0.00000000E+00  0.00000000E+00
  0.00000000E+00  0.00000000E+00  0.00000000E+00
  0.00000000E+00  0.00000000E+00  0.00000000E+00
  0.00000000E+00  0.00000000E+00  0.00000000E+00
  0.00000000E+00  0.00000000E+00  0.00000000E+00
  0.00000000E+00  0.00000000E+00  0.00000000E+00
  0.00000000E+00  0.00000000E+00  0.00000000E+00
  0.00000000E+00  0.00000000E+00  0.00000000E+00
  0.00000000E+00  0.00000000E+00  0.00000000E+00
  0.00000000E+00  0.00000000E+00  0.00000000E+00
  0.00000000E+00  0.00000000E+00  0.00000000E+00
  0.00000000E+00  0.00000000E+00  0.00000000E+00
  0.00000000E+00  0.00000000E+00  0.00000000E+00
  0.00000000E+00  0.00000000E+00  0.00000000E+00
  0.00000000E+00  0.00000000E+00  0.00000000E+00
  0.00000000E+00  0.00000000E+00  0.00000000E+00
  0.00000000E+00  0.00000000E+00  0.00000000E+00
  0.00000000E+00  0.00000000E+00  0.00000000E+00
  0.00000000E+00  0.00000000E+00  0.00000000E+00
  0.00000000E+00  0.00000000E+00  0.00000000E+00
  0.00000000E+00  0.00000000E+00  0.00000000E+00
  0.00000000E+00  0.00000000E+00  0.00000000E+00
  0.00000000E+00  0.00000000E+00  0.00000000E+00
  0.00000000E+00  0.00000000E+00  0.00000000E+00
  0.00000000E+00  0.00000000E+00  0.00000000E+00
  0.00000000E+00  0.00000000E+00  0.00000000E+00
  0.00000000E+00  0.00000000E+00  0.00000000E+00
  0.00000000E+00  0.00000000E+00  0.00000000E+00
  0.00000000E+00  0.00000000E+00  0.00000000E+00
  0.00000000E+00  0.00000000E+00  0.00000000E+00
  0.00000000E+00  0.00000000E+00  0.00000000E+00
  0.00000000E+00  0.00000000E+00  0.00000000E+00
  0.00000000E+00  0.00000000E+00  0.00000000E+00
  0.00000000E+00  0.00000000E+00  0.00000000E+00
  0.00000000E+00  0.00000000E+00  0.00000000E+00
  0.00000000E+00  0.00000000E+00  0.00000000E+00
  0.00000000E+00  0.00000000E+00  0.00000000E+00
  0.00000000E+00  0.00000000E+00  0.00000000E+00
  0.00000000E+00  0.00000000E+00  0.00000000E+00
  0.00000000E+00  0.00000000E+00  0.00000000E+00
  0.00000000E+00  0.00000000E+00  0.00000000E+00
  0.00000000E+00  0.00000000E+00  0.00000000E+00
  0.00000000E+00  0.00000000E+00  0.00000000E+00
  0.00000000E+00  0.00000000E+00  0.00000000E+00
  0.00000000E+00  0.00000000E+00  0.00000000E+00
  0.00000000E+00  0.00000000E+00  0.00000000E+00
  0.00000000E+00  0.00000000E+00  0.00000000E+00
  0.00000000E+00  0.00000000E+00  0.00000000E+00
  0.00000000E+00  0.00000000E+00  0.00000000E+00
