C H O Si                                
   1.00000000000000     
     9.2874599999999994    0.0000000000000000    0.0000000000000000
     0.0000000000000000    8.7562999999999995    0.0000000000000000
     0.0000000000000000    0.0000000000000000   90.0000000000000000
   C    H    O    Si
    36    33    16    36
Selective dynamics
Direct
  0.0007653512282251  0.1351146859241772  0.4232304015113030   T   T   T
  0.0007409630156090  0.6352424379158546  0.4232390406222411   T   T   T
  0.3340477224801863  0.1351583852033047  0.4232863107609511   T   T   T
  0.3340280613637933  0.6350973433317351  0.4232970377282805   T   T   T
  0.6673652668983423  0.1350622591587039  0.4232815419035827   T   T   T
  0.6673734287925993  0.6350516170315451  0.4232803997888722   T   T   T
  0.1676222422965010  0.3814032130158412  0.4396001383602522   T   T   T
  0.1676725102639728  0.8813999076477023  0.4396154511741363   T   T   T
  0.5009680084535034  0.3813642894547020  0.4396713577214788   T   T   T
  0.5009449048750225  0.8813369253162672  0.4396373847099154   T   T   T
  0.8342397163574568  0.3814110862150401  0.4395750456552368   T   T   T
  0.8341564743860339  0.8814430631390604  0.4396046798766484   T   T   T
  0.0009028495033373  0.1310903323670333  0.4570862077203149   T   T   T
  0.0008668722363986  0.6312926378906194  0.4570944975173428   T   T   T
  0.3343750181156743  0.1311130239301406  0.4571439922440703   T   T   T
  0.3343022166217746  0.6310200507062619  0.4571610171601146   T   T   T
  0.6674370387690225  0.1312056089342708  0.4571434977661856   T   T   T
  0.6675169530976811  0.6311602799396155  0.4571403566294158   T   T   T
  0.1676523251818853  0.3811128086361731  0.4740710419388878   T   T   T
  0.1678691753093260  0.8812278457897238  0.4741065102539970   T   T   T
  0.5009113434487026  0.3815519478180974  0.4742360768450205   T   T   T
  0.5009297047107032  0.8809249313762147  0.4741496248060565   T   T   T
  0.8342099221693875  0.3810871414294456  0.4740530056033584   T   T   T
  0.8340267264396652  0.8813290172675210  0.4741115557415888   T   T   T
  0.0011178306151580  0.1308147520711916  0.4915116083887514   T   T   T
  0.0010798454705978  0.6315043101976237  0.4915685970380896   T   T   T
  0.3348133836092284  0.1319264468577945  0.4916743264334997   T   T   T
  0.3340681524111961  0.6316130606268272  0.4917311959974340   T   T   T
  0.6669743434114889  0.1318400914272212  0.4916750701106410   T   T   T
  0.6679331541240482  0.6317103000047457  0.4916690852407852   T   T   T
  0.1672266370595435  0.3833678624465611  0.5077834201289551   T   T   T
  0.1671281655752308  0.8857257423668673  0.5079717886827650   T   T   T
  0.5008186130651403  0.3890899883889483  0.5084767865516978   T   T   T
  0.5006367157149267  0.8850028733822649  0.5080429307155925   T   T   T
  0.8349560226308822  0.3828880242914027  0.5077187844210515   T   T   T
  0.8342195631732459  0.8856903707929057  0.5079411434655043   T   T   T
  0.0034363208731594  0.0619682362107234  0.4132843928239114   T   T   T
  0.0033445934053243  0.5621049543391090  0.4132918722928666   T   T   T
  0.3367316686016054  0.0619437606073722  0.4133469210449063   T   T   T
  0.3365617235693392  0.5617837099885400  0.4133630918193885   T   T   T
  0.6696022819871353  0.0617928934658449  0.4133434736722204   T   T   T
  0.6698419358744285  0.5617951705407334  0.4133429961480711   T   T   T
  0.1691609706871541  0.3107839149462759  0.5177643796920259   T   T   T
  0.1689444030879760  0.8122446116297529  0.5178896979689283   T   T   T
  0.5040024113336605  0.3146361176338713  0.5183306881585775   T   T   T
  0.5014518765149415  0.8119184822695076  0.5179986036197268   T   T   T
  0.8377039729115058  0.3102281106801592  0.5176933252995595   T   T   T
  0.8362922983410290  0.8130878255070804  0.5179087266777451   T   T   T
  0.0885271007070301  0.1189144970564546  0.5287393480295646   T   T   T
  0.0897352743029858  0.6115641920232097  0.5285665140219287   T   T   T
  0.4219062145231012  0.1193338771496228  0.5287929731545572   T   T   T
  0.3827306985131468  0.6361489689666026  0.5309687094418259   T   T   T
  0.7573578006675857  0.1174628877313885  0.5287359095933585   T   T   T
  0.7901136390450403  0.6002557162666896  0.5277997198653538   T   T   T
  0.2570333942406678  0.3672388116474830  0.4024946746604649   T   T   T
  0.2571827544559753  0.8671816812091971  0.4025092444507335   T   T   T
  0.5896598515351000  0.3674341987912887  0.4025278938043457   T   T   T
  0.5895393323943503  0.8672930406866766  0.4024964015455663   T   T   T
  0.9217749044383151  0.3680328537989794  0.4024091469519546   T   T   T
  0.9217510935052746  0.8681870252626160  0.4024319670993053   T   T   T
  0.5464151506042726  0.6177870017206958  0.5594734181986678   T   T   T
  0.4891837194442192  0.4778669986646207  0.5718082297244835   T   T   T
  0.5681730957775035  0.6393349731949766  0.5783798393527778   T   T   T
  0.3086076203518582  0.3835560015263275  0.5823302133552216   T   T   T
  0.4224642829116010  0.2591456464324481  0.5782015877017352   T   T   T
  0.6462314695753342  0.7351469032822613  0.5981337827896409   T   T   T
  0.4819677640664037  0.7667100291168650  0.5958907454642813   T   T   T
  0.5334553521445422  0.8047453868883919  0.5466004347335124   T   T   T
  0.5945325337155893  0.6581540568347274  0.5374935597253466   T   T   T
  0.1607282435481388  0.3406370197542413  0.4060429148329506   T   T   T
  0.1608434771970807  0.8407095415354173  0.4060585702878165   T   T   T
  0.4935012701903362  0.3407625529417606  0.4061138467101037   T   T   T
  0.4934013790485309  0.8405134770229039  0.4060812995094244   T   T   T
  0.8260177408276799  0.3403361718501593  0.4060245412233087   T   T   T
  0.8259960928490462  0.8405426788155628  0.4060507552912614   T   T   T
  0.9927493072405457  0.0916392791935596  0.5250936489706080   T   T   T
  0.9922142130259740  0.5880300124843160  0.5249871693298823   T   T   T
  0.3262454016364022  0.0910379103623562  0.5251964741470896   T   T   T
  0.3043718815736410  0.5898373805725354  0.5252313125944698   T   T   T
  0.6609247499990126  0.0913632864755478  0.5251770374908735   T   T   T
  0.6869866352447499  0.5912769884159982  0.5252354307503216   T   T   T
  0.5667165419242389  0.5607278541257491  0.5697185895972861   T   T   T
  0.3779789687687495  0.3536963260032958  0.5747008600470503   T   T   T
  0.5736260835683776  0.7585820309837090  0.5906160665267767   T   T   T
  0.5223407176874212  0.6944989071267023  0.5454824748753574   T   T   T
  0.1672300661326604  0.2522721953990191  0.4229927278726149   T   T   T
  0.1672613643381299  0.7522783824296670  0.4230048349213364   T   T   T
  0.5005098423160871  0.2521743307733770  0.4230543501272669   T   T   T
  0.5004847438855022  0.7521146596516194  0.4230317166305591   T   T   T
  0.8337811966466837  0.2521164952091258  0.4229808878586918   T   T   T
  0.8337343156869728  0.7522044476148259  0.4230023765006218   T   T   T
  0.0009175276008991  0.0052320454938083  0.4400820663350464   T   T   T
  0.0009131248463718  0.5053237096449772  0.4400836071096565   T   T   T
  0.3343312160447496  0.0052453749291595  0.4401240250892201   T   T   T
  0.3342949136450919  0.5051973382898937  0.4401385167909361   T   T   T
  0.6674774588222379  0.0052809913633781  0.4401242422616921   T   T   T
  0.6675525122028220  0.5052222310192737  0.4401209643078307   T   T   T
  0.1676543047073190  0.2555976639181885  0.4569694797984985   T   T   T
  0.1677558790706570  0.7556596734431836  0.4569960226721418   T   T   T
  0.5008785280861667  0.2557747906108098  0.4570706210318434   T   T   T
  0.5008583074051673  0.7555745931739222  0.4570172527022962   T   T   T
  0.8342144577744801  0.2555899511951045  0.4569527279228464   T   T   T
  0.8341151205466782  0.7557423759080888  0.4569941927573676   T   T   T
  0.0010015624428258  0.0053497832102192  0.4741835861865773   T   T   T
  0.0009613340998562  0.5056575414646822  0.4741818358065317   T   T   T
  0.3346063133378800  0.0058313182459629  0.4742652209132571   T   T   T
  0.3340957168502144  0.5058106457969898  0.4743035500845034   T   T   T
  0.6671896691774857  0.0058414594332188  0.4742635696403819   T   T   T
  0.6677254423797528  0.5056982641992870  0.4742452806008364   T   T   T
  0.1675668127134000  0.2545907001492323  0.4910190384404251   T   T   T
  0.1675790962193897  0.7557280982187988  0.4911361302048120   T   T   T
  0.5008672190715645  0.2570327974995738  0.4913477609442422   T   T   T
  0.5007996633154850  0.7552180785275593  0.4911770978167699   T   T   T
  0.8345153715960034  0.2540604332735425  0.4909627008787386   T   T   T
  0.8345882745124047  0.7557215282068704  0.4911213025458808   T   T   T
  0.0004737138174589  0.0027410621639808  0.5081717237536492   T   T   T
  0.0009015800500143  0.5004052982146370  0.5079762521543464   T   T   T
  0.3335907974567582  0.0025812073545508  0.5082629466280791   T   T   T
  0.3313449847139729  0.5037673229010309  0.5084570277204890   T   T   T
  0.6673237367609302  0.0024725593347922  0.5082617793227083   T   T   T
  0.6701472457453741  0.5017498193069596  0.5081128873531030   T   T   T
 
  0.00000000E+00  0.00000000E+00  0.00000000E+00
  0.00000000E+00  0.00000000E+00  0.00000000E+00
  0.00000000E+00  0.00000000E+00  0.00000000E+00
  0.00000000E+00  0.00000000E+00  0.00000000E+00
  0.00000000E+00  0.00000000E+00  0.00000000E+00
  0.00000000E+00  0.00000000E+00  0.00000000E+00
  0.00000000E+00  0.00000000E+00  0.00000000E+00
  0.00000000E+00  0.00000000E+00  0.00000000E+00
  0.00000000E+00  0.00000000E+00  0.00000000E+00
  0.00000000E+00  0.00000000E+00  0.00000000E+00
  0.00000000E+00  0.00000000E+00  0.00000000E+00
  0.00000000E+00  0.00000000E+00  0.00000000E+00
  0.00000000E+00  0.00000000E+00  0.00000000E+00
  0.00000000E+00  0.00000000E+00  0.00000000E+00
  0.00000000E+00  0.00000000E+00  0.00000000E+00
  0.00000000E+00  0.00000000E+00  0.00000000E+00
  0.00000000E+00  0.00000000E+00  0.00000000E+00
  0.00000000E+00  0.00000000E+00  0.00000000E+00
  0.00000000E+00  0.00000000E+00  0.00000000E+00
  0.00000000E+00  0.00000000E+00  0.00000000E+00
  0.00000000E+00  0.00000000E+00  0.00000000E+00
  0.00000000E+00  0.00000000E+00  0.00000000E+00
  0.00000000E+00  0.00000000E+00  0.00000000E+00
  0.00000000E+00  0.00000000E+00  0.00000000E+00
  0.00000000E+00  0.00000000E+00  0.00000000E+00
  0.00000000E+00  0.00000000E+00  0.00000000E+00
  0.00000000E+00  0.00000000E+00  0.00000000E+00
  0.00000000E+00  0.00000000E+00  0.00000000E+00
  0.00000000E+00  0.00000000E+00  0.00000000E+00
  0.00000000E+00  0.00000000E+00  0.00000000E+00
  0.00000000E+00  0.00000000E+00  0.00000000E+00
  0.00000000E+00  0.00000000E+00  0.00000000E+00
  0.00000000E+00  0.00000000E+00  0.00000000E+00
  0.00000000E+00  0.00000000E+00  0.00000000E+00
  0.00000000E+00  0.00000000E+00  0.00000000E+00
  0.00000000E+00  0.00000000E+00  0.00000000E+00
  0.00000000E+00  0.00000000E+00  0.00000000E+00
  0.00000000E+00  0.00000000E+00  0.00000000E+00
  0.00000000E+00  0.00000000E+00  0.00000000E+00
  0.00000000E+00  0.00000000E+00  0.00000000E+00
  0.00000000E+00  0.00000000E+00  0.00000000E+00
  0.00000000E+00  0.00000000E+00  0.00000000E+00
  0.00000000E+00  0.00000000E+00  0.00000000E+00
  0.00000000E+00  0.00000000E+00  0.00000000E+00
  0.00000000E+00  0.00000000E+00  0.00000000E+00
  0.00000000E+00  0.00000000E+00  0.00000000E+00
  0.00000000E+00  0.00000000E+00  0.00000000E+00
  0.00000000E+00  0.00000000E+00  0.00000000E+00
  0.00000000E+00  0.00000000E+00  0.00000000E+00
  0.00000000E+00  0.00000000E+00  0.00000000E+00
  0.00000000E+00  0.00000000E+00  0.00000000E+00
  0.00000000E+00  0.00000000E+00  0.00000000E+00
  0.00000000E+00  0.00000000E+00  0.00000000E+00
  0.00000000E+00  0.00000000E+00  0.00000000E+00
  0.00000000E+00  0.00000000E+00  0.00000000E+00
  0.00000000E+00  0.00000000E+00  0.00000000E+00
  0.00000000E+00  0.00000000E+00  0.00000000E+00
  0.00000000E+00  0.00000000E+00  0.00000000E+00
  0.00000000E+00  0.00000000E+00  0.00000000E+00
  0.00000000E+00  0.00000000E+00  0.00000000E+00
  0.00000000E+00  0.00000000E+00  0.00000000E+00
  0.00000000E+00  0.00000000E+00  0.00000000E+00
  0.00000000E+00  0.00000000E+00  0.00000000E+00
  0.00000000E+00  0.00000000E+00  0.00000000E+00
  0.00000000E+00  0.00000000E+00  0.00000000E+00
  0.00000000E+00  0.00000000E+00  0.00000000E+00
  0.00000000E+00  0.00000000E+00  0.00000000E+00
  0.00000000E+00  0.00000000E+00  0.00000000E+00
  0.00000000E+00  0.00000000E+00  0.00000000E+00
  0.00000000E+00  0.00000000E+00  0.00000000E+00
  0.00000000E+00  0.00000000E+00  0.00000000E+00
  0.00000000E+00  0.00000000E+00  0.00000000E+00
  0.00000000E+00  0.00000000E+00  0.00000000E+00
  0.00000000E+00  0.00000000E+00  0.00000000E+00
  0.00000000E+00  0.00000000E+00  0.00000000E+00
  0.00000000E+00  0.00000000E+00  0.00000000E+00
  0.00000000E+00  0.00000000E+00  0.00000000E+00
  0.00000000E+00  0.00000000E+00  0.00000000E+00
  0.00000000E+00  0.00000000E+00  0.00000000E+00
  0.00000000E+00  0.00000000E+00  0.00000000E+00
  0.00000000E+00  0.00000000E+00  0.00000000E+00
  0.00000000E+00  0.00000000E+00  0.00000000E+00
  0.00000000E+00  0.00000000E+00  0.00000000E+00
  0.00000000E+00  0.00000000E+00  0.00000000E+00
  0.00000000E+00  0.00000000E+00  0.00000000E+00
  0.00000000E+00  0.00000000E+00  0.00000000E+00
  0.00000000E+00  0.00000000E+00  0.00000000E+00
  0.00000000E+00  0.00000000E+00  0.00000000E+00
  0.00000000E+00  0.00000000E+00  0.00000000E+00
  0.00000000E+00  0.00000000E+00  0.00000000E+00
  0.00000000E+00  0.00000000E+00  0.00000000E+00
  0.00000000E+00  0.00000000E+00  0.00000000E+00
  0.00000000E+00  0.00000000E+00  0.00000000E+00
  0.00000000E+00  0.00000000E+00  0.00000000E+00
  0.00000000E+00  0.00000000E+00  0.00000000E+00
  0.00000000E+00  0.00000000E+00  0.00000000E+00
  0.00000000E+00  0.00000000E+00  0.00000000E+00
  0.00000000E+00  0.00000000E+00  0.00000000E+00
  0.00000000E+00  0.00000000E+00  0.00000000E+00
  0.00000000E+00  0.00000000E+00  0.00000000E+00
  0.00000000E+00  0.00000000E+00  0.00000000E+00
  0.00000000E+00  0.00000000E+00  0.00000000E+00
  0.00000000E+00  0.00000000E+00  0.00000000E+00
  0.00000000E+00  0.00000000E+00  0.00000000E+00
  0.00000000E+00  0.00000000E+00  0.00000000E+00
  0.00000000E+00  0.00000000E+00  0.00000000E+00
  0.00000000E+00  0.00000000E+00  0.00000000E+00
  0.00000000E+00  0.00000000E+00  0.00000000E+00
  0.00000000E+00  0.00000000E+00  0.00000000E+00
  0.00000000E+00  0.00000000E+00  0.00000000E+00
  0.00000000E+00  0.00000000E+00  0.00000000E+00
  0.00000000E+00  0.00000000E+00  0.00000000E+00
  0.00000000E+00  0.00000000E+00  0.00000000E+00
  0.00000000E+00  0.00000000E+00  0.00000000E+00
  0.00000000E+00  0.00000000E+00  0.00000000E+00
  0.00000000E+00  0.00000000E+00  0.00000000E+00
  0.00000000E+00  0.00000000E+00  0.00000000E+00
  0.00000000E+00  0.00000000E+00  0.00000000E+00
  0.00000000E+00  0.00000000E+00  0.00000000E+00
  0.00000000E+00  0.00000000E+00  0.00000000E+00
  0.00000000E+00  0.00000000E+00  0.00000000E+00
