C H O Si                                
   1.00000000000000     
     9.2874599999999994    0.0000000000000000    0.0000000000000000
     0.0000000000000000    8.7562999999999995    0.0000000000000000
     0.0000000000000000    0.0000000000000000   58.0000000000000000
   C    H    O    Si
    36    24    12    36
Selective dynamics
Direct
  0.0017090410893278  0.1359946184747566  0.4343022225759700   T   T   T
  0.0017090410893278  0.6359946184747565  0.4343022225759700   T   T   T
  0.3350423744223296  0.1359946184747566  0.4343022225759700   T   T   T
  0.3350423744223296  0.6359946184747565  0.4343022225759700   T   T   T
  0.6683757077563260  0.1359946184747566  0.4343022225759700   T   T   T
  0.6683757077563260  0.6359946184747565  0.4343022225759700   T   T   T
  0.1682487247152011  0.3817361696479841  0.4596853660694485   T   T   T
  0.1682487247152011  0.8817361696479842  0.4596853660694485   T   T   T
  0.5015820580491975  0.3817361696479841  0.4596853660694485   T   T   T
  0.5015820580491975  0.8817361696479842  0.4596853660694485   T   T   T
  0.8349153913821993  0.3817361696479841  0.4596853660694485   T   T   T
  0.8349153913821993  0.8817361696479842  0.4596853660694485   T   T   T
  0.0016030897736847  0.1315307789816916  0.4868099052946109   T   T   T
  0.0016030897736847  0.6315307789816915  0.4868099052946109   T   T   T
  0.3349364231066864  0.1315307789816916  0.4868099052946109   T   T   T
  0.3349364231066864  0.6315307789816915  0.4868099052946109   T   T   T
  0.6682697564406831  0.1315307789816916  0.4868099052946109   T   T   T
  0.6682697564406831  0.6315307789816915  0.4868099052946109   T   T   T
  0.1682698449716859  0.3815309477906869  0.5131900947053891   T   T   T
  0.1682698449716859  0.8815309477906867  0.5131900947053891   T   T   T
  0.5016031783056826  0.3815309477906869  0.5131900947053891   T   T   T
  0.5016031783056826  0.8815309477906867  0.5131900947053891   T   T   T
  0.8349365116386843  0.3815309477906869  0.5131900947053891   T   T   T
  0.8349365116386843  0.8815309477906867  0.5131900947053891   T   T   T
  0.0015819695171998  0.1317360008389888  0.5403146339305516   T   T   T
  0.0015819695171998  0.6317360008389890  0.5403146339305516   T   T   T
  0.3349153028501945  0.1317360008389888  0.5403146339305516   T   T   T
  0.3349153028501945  0.6317360008389890  0.5403146339305516   T   T   T
  0.6682486361841981  0.1317360008389888  0.5403146339305516   T   T   T
  0.6682486361841981  0.6317360008389890  0.5403146339305516   T   T   T
  0.1683757962873290  0.3859947872837518  0.5656977774240300   T   T   T
  0.1683757962873290  0.8859947872837517  0.5656977774240300   T   T   T
  0.5017091296213255  0.3859947872837518  0.5656977774240300   T   T   T
  0.5017091296213255  0.8859947872837517  0.5656977774240300   T   T   T
  0.8350424629543273  0.3859947872837518  0.5656977774240300   T   T   T
  0.8350424629543273  0.8859947872837517  0.5656977774240300   T   T   T
  0.0038354744274699  0.0637769748084030  0.4187560390487304   T   T   T
  0.0038354744274699  0.5637769748084033  0.4187560390487304   T   T   T
  0.3371688077614735  0.0637769748084030  0.4187560390487304   T   T   T
  0.3371688077614735  0.5637769748084033  0.4187560390487304   T   T   T
  0.6705021410944755  0.0637769748084030  0.4187560390487304   T   T   T
  0.6705021410944755  0.5637769748084033  0.4187560390487304   T   T   T
  0.1705023929714728  0.3137771436174053  0.5812439609512696   T   T   T
  0.1705023929714728  0.8137771436174056  0.5812439609512696   T   T   T
  0.5038357263054695  0.3137771436174053  0.5812439609512696   T   T   T
  0.5038357263054695  0.8137771436174056  0.5812439609512696   T   T   T
  0.8371690596384712  0.3137771436174053  0.5812439609512696   T   T   T
  0.8371690596384712  0.8137771436174056  0.5812439609512696   T   T   T
  0.0857725479371409  0.1123244142924986  0.5995098811611858   T   T   T
  0.0857725479371409  0.6123244142924985  0.5995098811611858   T   T   T
  0.4191058812701426  0.1123244142924986  0.5995098811611858   T   T   T
  0.4191058812701426  0.6123244142924985  0.5995098811611858   T   T   T
  0.7524392146031371  0.1123244142924986  0.5995098811611858   T   T   T
  0.7524392146031371  0.6123244142924985  0.5995098811611858   T   T   T
  0.2524391840511426  0.3623246587294954  0.4004901188388140   T   T   T
  0.2524391840511426  0.8623246587294954  0.4004901188388140   T   T   T
  0.5857725173841370  0.3623246587294954  0.4004901188388140   T   T   T
  0.5857725173841370  0.8623246587294954  0.4004901188388140   T   T   T
  0.9191058507171388  0.3623246587294954  0.4004901188388140   T   T   T
  0.9191058507171388  0.8623246587294954  0.4004901188388140   T   T   T
  0.1597029612085611  0.3446821365017124  0.4079715564244855   T   T   T
  0.1597029612085611  0.8446821365017124  0.4079715564244855   T   T   T
  0.4930362945425577  0.3446821365017124  0.4079715564244855   T   T   T
  0.4930362945425577  0.8446821365017124  0.4079715564244855   T   T   T
  0.8263696278755595  0.3446821365017124  0.4079715564244855   T   T   T
  0.8263696278755595  0.8446821365017124  0.4079715564244855   T   T   T
  0.9930362746755625  0.0946819676927101  0.5920284435755145   T   T   T
  0.9930362746755625  0.5946819676927101  0.5920284435755145   T   T   T
  0.3263696080095590  0.0946819676927101  0.5920284435755145   T   T   T
  0.3263696080095590  0.5946819676927101  0.5920284435755145   T   T   T
  0.6597029413425608  0.0946819676927101  0.5920284435755145   T   T   T
  0.6597029413425608  0.5946819676927101  0.5920284435755145   T   T   T
  0.1682847582873397  0.2533687675283309  0.4335187915566504   T   T   T
  0.1682847582873397  0.7533687675283308  0.4335187915566504   T   T   T
  0.5016180916213362  0.2533687675283309  0.4335187915566504   T   T   T
  0.5016180916213362  0.7533687675283308  0.4335187915566504   T   T   T
  0.8349514249543379  0.2533687675283309  0.4335187915566504   T   T   T
  0.8349514249543379  0.7533687675283308  0.4335187915566504   T   T   T
  0.0015596711479585  0.0060213165134127  0.4601924950784244   T   T   T
  0.0015596711479585  0.5060213165134125  0.4601924950784244   T   T   T
  0.3348930044809603  0.0060213165134127  0.4601924950784244   T   T   T
  0.3348930044809603  0.5060213165134125  0.4601924950784244   T   T   T
  0.6682263378149567  0.0060213165134127  0.4601924950784244   T   T   T
  0.6682263378149567  0.5060213165134125  0.4601924950784244   T   T   T
  0.1682603976083271  0.2565036157762105  0.4865523835374455   T   T   T
  0.1682603976083271  0.7565036157762104  0.4865523835374455   T   T   T
  0.5015937309423236  0.2565036157762105  0.4865523835374455   T   T   T
  0.5015937309423236  0.7565036157762104  0.4865523835374455   T   T   T
  0.8349270642753254  0.2565036157762105  0.4865523835374455   T   T   T
  0.8349270642753254  0.7565036157762104  0.4865523835374455   T   T   T
  0.0015936424103259  0.0065034469662134  0.5134476164625545   T   T   T
  0.0015936424103259  0.5065034469662133  0.5134476164625545   T   T   T
  0.3349269757433277  0.0065034469662134  0.5134476164625545   T   T   T
  0.3349269757433277  0.5065034469662133  0.5134476164625545   T   T   T
  0.6682603090773241  0.0065034469662134  0.5134476164625545   T   T   T
  0.6682603090773241  0.5065034469662133  0.5134476164625545   T   T   T
  0.1682264263459597  0.2560214853234098  0.5398075049215755   T   T   T
  0.1682264263459597  0.7560214853234096  0.5398075049215755   T   T   T
  0.5015597596799561  0.2560214853234098  0.5398075049215755   T   T   T
  0.5015597596799561  0.7560214853234096  0.5398075049215755   T   T   T
  0.8348930930129579  0.2560214853234098  0.5398075049215755   T   T   T
  0.8348930930129579  0.7560214853234096  0.5398075049215755   T   T   T
  0.0016180030893385  0.0033685987183339  0.5664812084433495   T   T   T
  0.0016180030893385  0.5033685987183337  0.5664812084433495   T   T   T
  0.3349513364223403  0.0033685987183339  0.5664812084433495   T   T   T
  0.3349513364223403  0.5033685987183337  0.5664812084433495   T   T   T
  0.6682846697563367  0.0033685987183339  0.5664812084433495   T   T   T
  0.6682846697563367  0.5033685987183337  0.5664812084433495   T   T   T
 
  0.00000000E+00  0.00000000E+00  0.00000000E+00
  0.00000000E+00  0.00000000E+00  0.00000000E+00
  0.00000000E+00  0.00000000E+00  0.00000000E+00
  0.00000000E+00  0.00000000E+00  0.00000000E+00
  0.00000000E+00  0.00000000E+00  0.00000000E+00
  0.00000000E+00  0.00000000E+00  0.00000000E+00
  0.00000000E+00  0.00000000E+00  0.00000000E+00
  0.00000000E+00  0.00000000E+00  0.00000000E+00
  0.00000000E+00  0.00000000E+00  0.00000000E+00
  0.00000000E+00  0.00000000E+00  0.00000000E+00
  0.00000000E+00  0.00000000E+00  0.00000000E+00
  0.00000000E+00  0.00000000E+00  0.00000000E+00
  0.00000000E+00  0.00000000E+00  0.00000000E+00
  0.00000000E+00  0.00000000E+00  0.00000000E+00
  0.00000000E+00  0.00000000E+00  0.00000000E+00
  0.00000000E+00  0.00000000E+00  0.00000000E+00
  0.00000000E+00  0.00000000E+00  0.00000000E+00
  0.00000000E+00  0.00000000E+00  0.00000000E+00
  0.00000000E+00  0.00000000E+00  0.00000000E+00
  0.00000000E+00  0.00000000E+00  0.00000000E+00
  0.00000000E+00  0.00000000E+00  0.00000000E+00
  0.00000000E+00  0.00000000E+00  0.00000000E+00
  0.00000000E+00  0.00000000E+00  0.00000000E+00
  0.00000000E+00  0.00000000E+00  0.00000000E+00
  0.00000000E+00  0.00000000E+00  0.00000000E+00
  0.00000000E+00  0.00000000E+00  0.00000000E+00
  0.00000000E+00  0.00000000E+00  0.00000000E+00
  0.00000000E+00  0.00000000E+00  0.00000000E+00
  0.00000000E+00  0.00000000E+00  0.00000000E+00
  0.00000000E+00  0.00000000E+00  0.00000000E+00
  0.00000000E+00  0.00000000E+00  0.00000000E+00
  0.00000000E+00  0.00000000E+00  0.00000000E+00
  0.00000000E+00  0.00000000E+00  0.00000000E+00
  0.00000000E+00  0.00000000E+00  0.00000000E+00
  0.00000000E+00  0.00000000E+00  0.00000000E+00
  0.00000000E+00  0.00000000E+00  0.00000000E+00
  0.00000000E+00  0.00000000E+00  0.00000000E+00
  0.00000000E+00  0.00000000E+00  0.00000000E+00
  0.00000000E+00  0.00000000E+00  0.00000000E+00
  0.00000000E+00  0.00000000E+00  0.00000000E+00
  0.00000000E+00  0.00000000E+00  0.00000000E+00
  0.00000000E+00  0.00000000E+00  0.00000000E+00
  0.00000000E+00  0.00000000E+00  0.00000000E+00
  0.00000000E+00  0.00000000E+00  0.00000000E+00
  0.00000000E+00  0.00000000E+00  0.00000000E+00
  0.00000000E+00  0.00000000E+00  0.00000000E+00
  0.00000000E+00  0.00000000E+00  0.00000000E+00
  0.00000000E+00  0.00000000E+00  0.00000000E+00
  0.00000000E+00  0.00000000E+00  0.00000000E+00
  0.00000000E+00  0.00000000E+00  0.00000000E+00
  0.00000000E+00  0.00000000E+00  0.00000000E+00
  0.00000000E+00  0.00000000E+00  0.00000000E+00
  0.00000000E+00  0.00000000E+00  0.00000000E+00
  0.00000000E+00  0.00000000E+00  0.00000000E+00
  0.00000000E+00  0.00000000E+00  0.00000000E+00
  0.00000000E+00  0.00000000E+00  0.00000000E+00
  0.00000000E+00  0.00000000E+00  0.00000000E+00
  0.00000000E+00  0.00000000E+00  0.00000000E+00
  0.00000000E+00  0.00000000E+00  0.00000000E+00
  0.00000000E+00  0.00000000E+00  0.00000000E+00
  0.00000000E+00  0.00000000E+00  0.00000000E+00
  0.00000000E+00  0.00000000E+00  0.00000000E+00
  0.00000000E+00  0.00000000E+00  0.00000000E+00
  0.00000000E+00  0.00000000E+00  0.00000000E+00
  0.00000000E+00  0.00000000E+00  0.00000000E+00
  0.00000000E+00  0.00000000E+00  0.00000000E+00
  0.00000000E+00  0.00000000E+00  0.00000000E+00
  0.00000000E+00  0.00000000E+00  0.00000000E+00
  0.00000000E+00  0.00000000E+00  0.00000000E+00
  0.00000000E+00  0.00000000E+00  0.00000000E+00
  0.00000000E+00  0.00000000E+00  0.00000000E+00
  0.00000000E+00  0.00000000E+00  0.00000000E+00
  0.00000000E+00  0.00000000E+00  0.00000000E+00
  0.00000000E+00  0.00000000E+00  0.00000000E+00
  0.00000000E+00  0.00000000E+00  0.00000000E+00
  0.00000000E+00  0.00000000E+00  0.00000000E+00
  0.00000000E+00  0.00000000E+00  0.00000000E+00
  0.00000000E+00  0.00000000E+00  0.00000000E+00
  0.00000000E+00  0.00000000E+00  0.00000000E+00
  0.00000000E+00  0.00000000E+00  0.00000000E+00
  0.00000000E+00  0.00000000E+00  0.00000000E+00
  0.00000000E+00  0.00000000E+00  0.00000000E+00
  0.00000000E+00  0.00000000E+00  0.00000000E+00
  0.00000000E+00  0.00000000E+00  0.00000000E+00
  0.00000000E+00  0.00000000E+00  0.00000000E+00
  0.00000000E+00  0.00000000E+00  0.00000000E+00
  0.00000000E+00  0.00000000E+00  0.00000000E+00
  0.00000000E+00  0.00000000E+00  0.00000000E+00
  0.00000000E+00  0.00000000E+00  0.00000000E+00
  0.00000000E+00  0.00000000E+00  0.00000000E+00
  0.00000000E+00  0.00000000E+00  0.00000000E+00
  0.00000000E+00  0.00000000E+00  0.00000000E+00
  0.00000000E+00  0.00000000E+00  0.00000000E+00
  0.00000000E+00  0.00000000E+00  0.00000000E+00
  0.00000000E+00  0.00000000E+00  0.00000000E+00
  0.00000000E+00  0.00000000E+00  0.00000000E+00
  0.00000000E+00  0.00000000E+00  0.00000000E+00
  0.00000000E+00  0.00000000E+00  0.00000000E+00
  0.00000000E+00  0.00000000E+00  0.00000000E+00
  0.00000000E+00  0.00000000E+00  0.00000000E+00
  0.00000000E+00  0.00000000E+00  0.00000000E+00
  0.00000000E+00  0.00000000E+00  0.00000000E+00
  0.00000000E+00  0.00000000E+00  0.00000000E+00
  0.00000000E+00  0.00000000E+00  0.00000000E+00
  0.00000000E+00  0.00000000E+00  0.00000000E+00
  0.00000000E+00  0.00000000E+00  0.00000000E+00
  0.00000000E+00  0.00000000E+00  0.00000000E+00
  0.00000000E+00  0.00000000E+00  0.00000000E+00
