C H O Si                                
   1.00000000000000     
     9.2874599999999994    0.0000000000000000    0.0000000000000000
     0.0000000000000000    8.7562999999999995    0.0000000000000000
     0.0000000000000000    0.0000000000000000   58.0000000000000000
   C    H    O    Si
    36    24    12    36
Selective dynamics
Direct
  0.0015023377310072  0.1360127595928930  0.4342336548234608   T   T   T
  0.0015023377310072  0.6360127595928929  0.4342336548234608   T   T   T
  0.3348356710640090  0.1360127595928930  0.4342336548234608   T   T   T
  0.3348356710640090  0.6360127595928929  0.4342336548234608   T   T   T
  0.6681690043980058  0.1360127595928930  0.4342336548234608   T   T   T
  0.6681690043980058  0.6360127595928929  0.4342336548234608   T   T   T
  0.1683007418675225  0.3817099199523221  0.4596601191631763   T   T   T
  0.1683007418675225  0.8817099199523222  0.4596601191631763   T   T   T
  0.5016340752015193  0.3817099199523221  0.4596601191631763   T   T   T
  0.5016340752015193  0.8817099199523222  0.4596601191631763   T   T   T
  0.8349674085345210  0.3817099199523221  0.4596601191631763   T   T   T
  0.8349674085345210  0.8817099199523222  0.4596601191631763   T   T   T
  0.0016949241815334  0.1314931892641475  0.4867970191531429   T   T   T
  0.0016949241815334  0.6314931892641477  0.4867970191531429   T   T   T
  0.3350282575145352  0.1314931892641475  0.4867970191531429   T   T   T
  0.3350282575145352  0.6314931892641477  0.4867970191531429   T   T   T
  0.6683615908485315  0.1314931892641475  0.4867970191531429   T   T   T
  0.6683615908485315  0.6314931892641477  0.4867970191531429   T   T   T
  0.1683616793795346  0.3814933580731429  0.5132029808468570   T   T   T
  0.1683616793795346  0.8814933580731429  0.5132029808468570   T   T   T
  0.5016950127135308  0.3814933580731429  0.5132029808468570   T   T   T
  0.5016950127135308  0.8814933580731429  0.5132029808468570   T   T   T
  0.8350283460465328  0.3814933580731429  0.5132029808468570   T   T   T
  0.8350283460465328  0.8814933580731429  0.5132029808468570   T   T   T
  0.0016339866695212  0.1317097511433270  0.5403398808368236   T   T   T
  0.0016339866695212  0.6317097511433269  0.5403398808368236   T   T   T
  0.3349673200025228  0.1317097511433270  0.5403398808368236   T   T   T
  0.3349673200025228  0.6317097511433269  0.5403398808368236   T   T   T
  0.6683006533365198  0.1317097511433270  0.5403398808368236   T   T   T
  0.6683006533365198  0.6317097511433269  0.5403398808368236   T   T   T
  0.1681690929290083  0.3860129284018879  0.5657663451765389   T   T   T
  0.1681690929290083  0.8860129284018882  0.5657663451765389   T   T   T
  0.5015024262630052  0.3860129284018879  0.5657663451765389   T   T   T
  0.5015024262630052  0.8860129284018882  0.5657663451765389   T   T   T
  0.8348357595960070  0.3860129284018879  0.5657663451765389   T   T   T
  0.8348357595960070  0.8860129284018882  0.5657663451765389   T   T   T
  0.0042665696586733  0.0638666969194826  0.4186811892089392   T   T   T
  0.0042665696586733  0.5638666969194825  0.4186811892089392   T   T   T
  0.3375999029926771  0.0638666969194826  0.4186811892089392   T   T   T
  0.3375999029926771  0.5638666969194825  0.4186811892089392   T   T   T
  0.6709332363256781  0.0638666969194826  0.4186811892089392   T   T   T
  0.6709332363256781  0.5638666969194825  0.4186811892089392   T   T   T
  0.1709334882026762  0.3138668657284848  0.5813188107910611   T   T   T
  0.1709334882026762  0.8138668657284849  0.5813188107910611   T   T   T
  0.5042668215366721  0.3138668657284848  0.5813188107910611   T   T   T
  0.5042668215366721  0.8138668657284849  0.5813188107910611   T   T   T
  0.8376001548696739  0.3138668657284847  0.5813188107910611   T   T   T
  0.8376001548696739  0.8138668657284849  0.5813188107910611   T   T   T
  0.0860760692504931  0.1110691007755551  0.5993091088803194   T   T   T
  0.0860760692504931  0.6110691007755543  0.5993091088803194   T   T   T
  0.4194094025834951  0.1110691007755551  0.5993091088803194   T   T   T
  0.4194094025834951  0.6110691007755543  0.5993091088803194   T   T   T
  0.7527427359164898  0.1110691007755551  0.5993091088803194   T   T   T
  0.7527427359164898  0.6110691007755543  0.5993091088803194   T   T   T
  0.2527427053644949  0.3610693452125518  0.4006908911196803   T   T   T
  0.2527427053644949  0.8610693452125512  0.4006908911196803   T   T   T
  0.5860760386974897  0.3610693452125518  0.4006908911196803   T   T   T
  0.5860760386974897  0.8610693452125512  0.4006908911196803   T   T   T
  0.9194093720304914  0.3610693452125519  0.4006908911196803   T   T   T
  0.9194093720304914  0.8610693452125512  0.4006908911196803   T   T   T
  0.1591612337109403  0.3458249628523234  0.4080156844877758   T   T   T
  0.1591612337109403  0.8458249628523234  0.4080156844877758   T   T   T
  0.4924945670449368  0.3458249628523234  0.4080156844877758   T   T   T
  0.4924945670449368  0.8458249628523234  0.4080156844877758   T   T   T
  0.8258279003779395  0.3458249628523234  0.4080156844877758   T   T   T
  0.8258279003779395  0.8458249628523234  0.4080156844877758   T   T   T
 -0.0075054528220584  0.0958247940433209  0.5919843155122244   T   T   T
 -0.0075054528220584  0.5958247940433211  0.5919843155122244   T   T   T
  0.3258278805119380  0.0958247940433209  0.5919843155122244   T   T   T
  0.3258278805119380  0.5958247940433211  0.5919843155122244   T   T   T
  0.6591612138449409  0.0958247940433209  0.5919843155122244   T   T   T
  0.6591612138449409  0.5958247940433211  0.5919843155122244   T   T   T
  0.1680129402147076  0.2533632166129522  0.4334971499510744   T   T   T
  0.1680129402147076  0.7533632166129525  0.4334971499510744   T   T   T
  0.5013462735487039  0.2533632166129523  0.4334971499510744   T   T   T
  0.5013462735487039  0.7533632166129525  0.4334971499510744   T   T   T
  0.8346796068817055  0.2533632166129522  0.4334971499510744   T   T   T
  0.8346796068817055  0.7533632166129525  0.4334971499510744   T   T   T
  0.0016061259886936  0.0060845132344640  0.4601514876253979   T   T   T
  0.0016061259886936  0.5060845132344641  0.4601514876253979   T   T   T
  0.3349394593216955  0.0060845132344640  0.4601514876253979   T   T   T
  0.3349394593216955  0.5060845132344641  0.4601514876253979   T   T   T
  0.6682727926556919  0.0060845132344640  0.4601514876253979   T   T   T
  0.6682727926556919  0.5060845132344641  0.4601514876253979   T   T   T
  0.1683557235914327  0.2565144333208605  0.4865404541136059   T   T   T
  0.1683557235914327  0.7565144333208605  0.4865404541136059   T   T   T
  0.5016890569254288  0.2565144333208605  0.4865404541136059   T   T   T
  0.5016890569254288  0.7565144333208605  0.4865404541136059   T   T   T
  0.8350223902584305  0.2565144333208605  0.4865404541136059   T   T   T
  0.8350223902584305  0.7565144333208605  0.4865404541136059   T   T   T
  0.0016889683934315  0.0065142645108635  0.5134595458863941   T   T   T
  0.0016889683934315  0.5065142645108635  0.5134595458863941   T   T   T
  0.3350223017264332  0.0065142645108635  0.5134595458863941   T   T   T
  0.3350223017264332  0.5065142645108635  0.5134595458863941   T   T   T
  0.6683556350604293  0.0065142645108635  0.5134595458863941   T   T   T
  0.6683556350604293  0.5065142645108635  0.5134595458863941   T   T   T
  0.1682728811866947  0.2560846820444613  0.5398485123746023   T   T   T
  0.1682728811866947  0.7560846820444610  0.5398485123746023   T   T   T
  0.5016062145206914  0.2560846820444613  0.5398485123746023   T   T   T
  0.5016062145206914  0.7560846820444610  0.5398485123746023   T   T   T
  0.8349395478536932  0.2560846820444613  0.5398485123746023   T   T   T
  0.8349395478536932  0.7560846820444610  0.5398485123746023   T   T   T
  0.0013461850167064  0.0033630478029552  0.5665028500489253   T   T   T
  0.0013461850167064  0.5033630478029554  0.5665028500489253   T   T   T
  0.3346795183497083  0.0033630478029552  0.5665028500489253   T   T   T
  0.3346795183497083  0.5033630478029554  0.5665028500489253   T   T   T
  0.6680128516837043  0.0033630478029552  0.5665028500489253   T   T   T
  0.6680128516837043  0.5033630478029554  0.5665028500489253   T   T   T
 
  0.00000000E+00  0.00000000E+00  0.00000000E+00
  0.00000000E+00  0.00000000E+00  0.00000000E+00
  0.00000000E+00  0.00000000E+00  0.00000000E+00
  0.00000000E+00  0.00000000E+00  0.00000000E+00
  0.00000000E+00  0.00000000E+00  0.00000000E+00
  0.00000000E+00  0.00000000E+00  0.00000000E+00
  0.00000000E+00  0.00000000E+00  0.00000000E+00
  0.00000000E+00  0.00000000E+00  0.00000000E+00
  0.00000000E+00  0.00000000E+00  0.00000000E+00
  0.00000000E+00  0.00000000E+00  0.00000000E+00
  0.00000000E+00  0.00000000E+00  0.00000000E+00
  0.00000000E+00  0.00000000E+00  0.00000000E+00
  0.00000000E+00  0.00000000E+00  0.00000000E+00
  0.00000000E+00  0.00000000E+00  0.00000000E+00
  0.00000000E+00  0.00000000E+00  0.00000000E+00
  0.00000000E+00  0.00000000E+00  0.00000000E+00
  0.00000000E+00  0.00000000E+00  0.00000000E+00
  0.00000000E+00  0.00000000E+00  0.00000000E+00
  0.00000000E+00  0.00000000E+00  0.00000000E+00
  0.00000000E+00  0.00000000E+00  0.00000000E+00
  0.00000000E+00  0.00000000E+00  0.00000000E+00
  0.00000000E+00  0.00000000E+00  0.00000000E+00
  0.00000000E+00  0.00000000E+00  0.00000000E+00
  0.00000000E+00  0.00000000E+00  0.00000000E+00
  0.00000000E+00  0.00000000E+00  0.00000000E+00
  0.00000000E+00  0.00000000E+00  0.00000000E+00
  0.00000000E+00  0.00000000E+00  0.00000000E+00
  0.00000000E+00  0.00000000E+00  0.00000000E+00
  0.00000000E+00  0.00000000E+00  0.00000000E+00
  0.00000000E+00  0.00000000E+00  0.00000000E+00
  0.00000000E+00  0.00000000E+00  0.00000000E+00
  0.00000000E+00  0.00000000E+00  0.00000000E+00
  0.00000000E+00  0.00000000E+00  0.00000000E+00
  0.00000000E+00  0.00000000E+00  0.00000000E+00
  0.00000000E+00  0.00000000E+00  0.00000000E+00
  0.00000000E+00  0.00000000E+00  0.00000000E+00
  0.00000000E+00  0.00000000E+00  0.00000000E+00
  0.00000000E+00  0.00000000E+00  0.00000000E+00
  0.00000000E+00  0.00000000E+00  0.00000000E+00
  0.00000000E+00  0.00000000E+00  0.00000000E+00
  0.00000000E+00  0.00000000E+00  0.00000000E+00
  0.00000000E+00  0.00000000E+00  0.00000000E+00
  0.00000000E+00  0.00000000E+00  0.00000000E+00
  0.00000000E+00  0.00000000E+00  0.00000000E+00
  0.00000000E+00  0.00000000E+00  0.00000000E+00
  0.00000000E+00  0.00000000E+00  0.00000000E+00
  0.00000000E+00  0.00000000E+00  0.00000000E+00
  0.00000000E+00  0.00000000E+00  0.00000000E+00
  0.00000000E+00  0.00000000E+00  0.00000000E+00
  0.00000000E+00  0.00000000E+00  0.00000000E+00
  0.00000000E+00  0.00000000E+00  0.00000000E+00
  0.00000000E+00  0.00000000E+00  0.00000000E+00
  0.00000000E+00  0.00000000E+00  0.00000000E+00
  0.00000000E+00  0.00000000E+00  0.00000000E+00
  0.00000000E+00  0.00000000E+00  0.00000000E+00
  0.00000000E+00  0.00000000E+00  0.00000000E+00
  0.00000000E+00  0.00000000E+00  0.00000000E+00
  0.00000000E+00  0.00000000E+00  0.00000000E+00
  0.00000000E+00  0.00000000E+00  0.00000000E+00
  0.00000000E+00  0.00000000E+00  0.00000000E+00
  0.00000000E+00  0.00000000E+00  0.00000000E+00
  0.00000000E+00  0.00000000E+00  0.00000000E+00
  0.00000000E+00  0.00000000E+00  0.00000000E+00
  0.00000000E+00  0.00000000E+00  0.00000000E+00
  0.00000000E+00  0.00000000E+00  0.00000000E+00
  0.00000000E+00  0.00000000E+00  0.00000000E+00
  0.00000000E+00  0.00000000E+00  0.00000000E+00
  0.00000000E+00  0.00000000E+00  0.00000000E+00
  0.00000000E+00  0.00000000E+00  0.00000000E+00
  0.00000000E+00  0.00000000E+00  0.00000000E+00
  0.00000000E+00  0.00000000E+00  0.00000000E+00
  0.00000000E+00  0.00000000E+00  0.00000000E+00
  0.00000000E+00  0.00000000E+00  0.00000000E+00
  0.00000000E+00  0.00000000E+00  0.00000000E+00
  0.00000000E+00  0.00000000E+00  0.00000000E+00
  0.00000000E+00  0.00000000E+00  0.00000000E+00
  0.00000000E+00  0.00000000E+00  0.00000000E+00
  0.00000000E+00  0.00000000E+00  0.00000000E+00
  0.00000000E+00  0.00000000E+00  0.00000000E+00
  0.00000000E+00  0.00000000E+00  0.00000000E+00
  0.00000000E+00  0.00000000E+00  0.00000000E+00
  0.00000000E+00  0.00000000E+00  0.00000000E+00
  0.00000000E+00  0.00000000E+00  0.00000000E+00
  0.00000000E+00  0.00000000E+00  0.00000000E+00
  0.00000000E+00  0.00000000E+00  0.00000000E+00
  0.00000000E+00  0.00000000E+00  0.00000000E+00
  0.00000000E+00  0.00000000E+00  0.00000000E+00
  0.00000000E+00  0.00000000E+00  0.00000000E+00
  0.00000000E+00  0.00000000E+00  0.00000000E+00
  0.00000000E+00  0.00000000E+00  0.00000000E+00
  0.00000000E+00  0.00000000E+00  0.00000000E+00
  0.00000000E+00  0.00000000E+00  0.00000000E+00
  0.00000000E+00  0.00000000E+00  0.00000000E+00
  0.00000000E+00  0.00000000E+00  0.00000000E+00
  0.00000000E+00  0.00000000E+00  0.00000000E+00
  0.00000000E+00  0.00000000E+00  0.00000000E+00
  0.00000000E+00  0.00000000E+00  0.00000000E+00
  0.00000000E+00  0.00000000E+00  0.00000000E+00
  0.00000000E+00  0.00000000E+00  0.00000000E+00
  0.00000000E+00  0.00000000E+00  0.00000000E+00
  0.00000000E+00  0.00000000E+00  0.00000000E+00
  0.00000000E+00  0.00000000E+00  0.00000000E+00
  0.00000000E+00  0.00000000E+00  0.00000000E+00
  0.00000000E+00  0.00000000E+00  0.00000000E+00
  0.00000000E+00  0.00000000E+00  0.00000000E+00
  0.00000000E+00  0.00000000E+00  0.00000000E+00
  0.00000000E+00  0.00000000E+00  0.00000000E+00
  0.00000000E+00  0.00000000E+00  0.00000000E+00
