C H O Si                                
   1.00000000000000     
     9.2874599999999994    0.0000000000000000    0.0000000000000000
     0.0000000000000000    8.7563099999999991    0.0000000000000000
     0.0000000000000000    0.0000000000000000   58.0000000000000000
   C    H    O    Si
    36    33    16    36
Selective dynamics
Direct
  0.9932150952551596  0.1261846520972377  0.0604425224880779   T   T   T
  0.3265817955084081  0.1263832041007253  0.0605308592818571   T   T   T
  0.6598559475886724  0.1263183255924396  0.0605104712567118   T   T   T
  0.9932241229255296  0.6263006979149082  0.0604575185234258   T   T   T
  0.3265843796574006  0.6262293302981975  0.0605521977278455   T   T   T
  0.6599585256815624  0.6262663215112716  0.0605006433442350   T   T   T
  0.1596169820520863  0.3724761483149416  0.1393829385424901   T   T   T
  0.4929026282338614  0.3729843959160976  0.1396614482409233   T   T   T
  0.8262232575029226  0.3723592916139092  0.1393340773148360   T   T   T
  0.1598229312444625  0.8725341292361466  0.1394554060999464   T   T   T
  0.4928731229697593  0.8722842104137505  0.1394972964617711   T   T   T
  0.8260432952741872  0.8726042336389240  0.1394364564094734   T   T   T
  0.3268972444920197  0.1231200496633323  0.1667029900804510   T   T   T
  0.6590051980018958  0.1229610120892754  0.1666805219726525   T   T   T
  0.9932191445459623  0.1221391250292514  0.1664434343612831   T   T   T
  0.3261751498991833  0.6227889743163004  0.1668133032811576   T   T   T
  0.6601293955995785  0.6230737600054266  0.1666831744158159   T   T   T
  0.9931003549420927  0.6227778242608889  0.1665546884217656   T   T   T
  0.1594263333371529  0.3745473073904593  0.1917117496776163   T   T   T
  0.4930387955381669  0.3800646365206852  0.1927679420302491   T   T   T
  0.8268496889162774  0.3739636468935140  0.1915703745932607   T   T   T
  0.1594262660385141  0.8768695405006539  0.1920237056529749   T   T   T
  0.4927959294826271  0.8760584042248509  0.1921057747868891   T   T   T
  0.8263711539373361  0.8770313021662138  0.1919701678709536   T   T   T
  0.1597159818709800  0.3726247419241135  0.0858147542875983   T   T   T
  0.4929835167726012  0.3726790054315627  0.0859575293552656   T   T   T
  0.8262379756705458  0.3726211987256833  0.0857870262614385   T   T   T
  0.1597571919855940  0.8726109669218104  0.0858405371162359   T   T   T
  0.4929886884818214  0.8726134769740783  0.0858922132166695   T   T   T
  0.8262060248268353  0.8726740264429569  0.0858345063888912   T   T   T
  0.3263284633522264  0.1225192425368056  0.1130844505888067   T   T   T
  0.6595453042936077  0.1225292512121231  0.1130729568263863   T   T   T
  0.9929839237435641  0.1224439491355041  0.1129692067356519   T   T   T
  0.3262494386829686  0.6223846284884027  0.1131193800110707   T   T   T
  0.6596402262547508  0.6225076519564920  0.1130616911028040   T   T   T
  0.9929400649014253  0.6226209511045023  0.1129844121310955   T   T   T
  0.0715276689575665  0.3573335090266560  0.0280312232878569   T   T   T
  0.4036850671453628  0.3571648852342768  0.0282485464375093   T   T   T
  0.7369408652609059  0.3567822944668440  0.0281119547838558   T   T   T
  0.0717406434323683  0.8574513850221114  0.0280511786027438   T   T   T
  0.4035592204308611  0.8566760905389480  0.0281724863763030   T   T   T
  0.7368279696967738  0.8568586435035356  0.0281424012827807   T   T   T
  0.3246562731920876  0.0529905897581095  0.0451235879483209   T   T   T
  0.6571757570224679  0.0529356794938352  0.0451036085656544   T   T   T
  0.9909729833325216  0.0529756555279632  0.0450156803449117   T   T   T
  0.3243630594464522  0.5527572100054396  0.0451542681934733   T   T   T
  0.6574990444285137  0.5528140734050099  0.0451006569045742   T   T   T
  0.9909473308811146  0.5530958998222314  0.0450295307968369   T   T   T
  0.8283527542312892  0.8040120351346571  0.2073954083669178   T   T   T
  0.8292594360484252  0.3012882846703733  0.2070488494548787   T   T   T
  0.1611417175642433  0.3018410241713646  0.2071888791344793   T   T   T
  0.4961335828710141  0.3055749628211804  0.2080533914932352   T   T   T
  0.1615725313607456  0.8031636259059725  0.2073958079844263   T   T   T
  0.4935542193974891  0.8026042404944366  0.2075221825344352   T   T   T
  0.0825020924522458  0.1085788182018769  0.2242010420064917   T   T   T
  0.4166288808497858  0.1087530804881698  0.2241981667689872   T   T   T
  0.7503928485970214  0.1075193360387652  0.2242308796636509   T   T   T
  0.0815404380836299  0.6020930675447099  0.2240568405962474   T   T   T
  0.3785391104007654  0.6196570352194807  0.2280641712487944   T   T   T
  0.7822054489436088  0.5914069250112552  0.2226959562933830   T   T   T
  0.5510962398219911  0.6131169733043017  0.2739372853686101   T   T   T
  0.4956322321932833  0.4770921240646596  0.2933537438773965   T   T   T
  0.5739678976101583  0.6391899838688628  0.3033613139797934   T   T   T
  0.3136943508118495  0.3877903292647670  0.3093447417296435   T   T   T
  0.4209278609539081  0.2592753294137286  0.3019786140014857   T   T   T
  0.6502403512479272  0.7325761558098626  0.3343929640804197   T   T   T
  0.4849250773058871  0.7567660515952067  0.3312625655457195   T   T   T
  0.5224823249419183  0.7901993811104304  0.2522429645880203   T   T   T
  0.5887460508519330  0.6448053554444220  0.2386901307010900   T   T   T
  0.1674301739185304  0.3309302675835870  0.0337185402107590   T   T   T
  0.5000458135197805  0.3317510253153789  0.0338599961171499   T   T   T
  0.8332109911454096  0.3307953789097102  0.0336846951997842   T   T   T
  0.1675758853261871  0.8309154936399707  0.0337462249051070   T   T   T
  0.4998661850977644  0.8310773510003555  0.0337938428369785   T   T   T
  0.8331333760248277  0.8310083165963345  0.0337284882378531   T   T   T
  0.3201903754784196  0.0820698780067199  0.2187364683667577   T   T   T
  0.6537565526561039  0.0821797660487738  0.2187114013855436   T   T   T
  0.9862122104162392  0.0823545524598089  0.2186492264999089   T   T   T
  0.2980469033591401  0.5807776527869727  0.2188716228882187   T   T   T
  0.6789178960303297  0.5823064488350651  0.2188170287751398   T   T   T
  0.9842528085792571  0.5780289526184916  0.2184928407033732   T   T   T
  0.5735677369740277  0.5599415072461688  0.2899760084625140   T   T   T
  0.3816481129294222  0.3580142422656951  0.2973437987139085   T   T   T
  0.5761488217795230  0.7537950795080892  0.3229117002205270   T   T   T
  0.5186600086203076  0.6790036961094774  0.2514594288439484   T   T   T
  0.4934360756622376  0.2434143622479846  0.0601752670526592   T   T   T
  0.8267566445441752  0.2432181890231243  0.0600468327728395   T   T   T
  0.1601747062073474  0.7431734266870000  0.0601018150050113   T   T   T
  0.4934392840983262  0.7431878964884295  0.0601432868540640   T   T   T
  0.8267444960223004  0.7433038209511831  0.0600847526839386   T   T   T
  0.1600928553957644  0.2432304509729518  0.0600747482789610   T   T   T
  0.9929997797171921  0.9967214499546789  0.1395239838048378   T   T   T
  0.3265563846527106  0.9972248857443543  0.1396614270541747   T   T   T
  0.6591868283503812  0.9971265767517562  0.1396445664229320   T   T   T
  0.9929248587628923  0.4970450904239019  0.1395261273017128   T   T   T
  0.3260482613371583  0.4972113427252217  0.1397353353310649   T   T   T
  0.6597971629268126  0.4970989387992172  0.1396253717485664   T   T   T
  0.1596939573444671  0.2459044442489910  0.1656746957282918   T   T   T
  0.4929784534877658  0.2481912209471692  0.1661844374902234   T   T   T
  0.8265131344533694  0.2452319939653773  0.1655617349089922   T   T   T
  0.1596700673175906  0.7469478982682968  0.1658819646683045   T   T   T
  0.4929228929212090  0.7464690292549503  0.1659161182630477   T   T   T
  0.8267546370504242  0.7471673571782059  0.1658535330028680   T   T   T
  0.3259303213806151  0.9937042139550240  0.1924232636796666   T   T   T
  0.6594186583059278  0.9935814189216238  0.1924119872689304   T   T   T
  0.9927666086066583  0.9939995151400282  0.1923110968768560   T   T   T
  0.3237034853601561  0.4947936932755308  0.1927587208093303   T   T   T
  0.9928960421435477  0.4913382687200047  0.1919929434973972   T   T   T
  0.6621950932158112  0.4930584163673004  0.1921996838525567   T   T   T
  0.9930089792790561  0.9964508191689360  0.0865808242540216   T   T   T
  0.3264078027007277  0.9966188868446443  0.0866573201593860   T   T   T
  0.6595574126972433  0.9966409511264044  0.0866466862821747   T   T   T
  0.9929918398087695  0.4964935066215329  0.0865831981289050   T   T   T
  0.3263415982847171  0.4965662069260627  0.0866892918909071   T   T   T
  0.6596155342454735  0.4965999564742616  0.0866363983375881   T   T   T
  0.1596480492654902  0.2470829712597764  0.1128077298150829   T   T   T
  0.4929074654642644  0.2472199353992432  0.1129890403771742   T   T   T
  0.8262882454356137  0.2470048797173067  0.1127691525947959   T   T   T
  0.1597386982219447  0.7471208833934943  0.1128582683506301   T   T   T
  0.4928765698358954  0.7469729834245034  0.1128880792372390   T   T   T
  0.8261987499308726  0.7471712452540559  0.1128415660047555   T   T   T
 
  0.00000000E+00  0.00000000E+00  0.00000000E+00
  0.00000000E+00  0.00000000E+00  0.00000000E+00
  0.00000000E+00  0.00000000E+00  0.00000000E+00
  0.00000000E+00  0.00000000E+00  0.00000000E+00
  0.00000000E+00  0.00000000E+00  0.00000000E+00
  0.00000000E+00  0.00000000E+00  0.00000000E+00
  0.00000000E+00  0.00000000E+00  0.00000000E+00
  0.00000000E+00  0.00000000E+00  0.00000000E+00
  0.00000000E+00  0.00000000E+00  0.00000000E+00
  0.00000000E+00  0.00000000E+00  0.00000000E+00
  0.00000000E+00  0.00000000E+00  0.00000000E+00
  0.00000000E+00  0.00000000E+00  0.00000000E+00
  0.00000000E+00  0.00000000E+00  0.00000000E+00
  0.00000000E+00  0.00000000E+00  0.00000000E+00
  0.00000000E+00  0.00000000E+00  0.00000000E+00
  0.00000000E+00  0.00000000E+00  0.00000000E+00
  0.00000000E+00  0.00000000E+00  0.00000000E+00
  0.00000000E+00  0.00000000E+00  0.00000000E+00
  0.00000000E+00  0.00000000E+00  0.00000000E+00
  0.00000000E+00  0.00000000E+00  0.00000000E+00
  0.00000000E+00  0.00000000E+00  0.00000000E+00
  0.00000000E+00  0.00000000E+00  0.00000000E+00
  0.00000000E+00  0.00000000E+00  0.00000000E+00
  0.00000000E+00  0.00000000E+00  0.00000000E+00
  0.00000000E+00  0.00000000E+00  0.00000000E+00
  0.00000000E+00  0.00000000E+00  0.00000000E+00
  0.00000000E+00  0.00000000E+00  0.00000000E+00
  0.00000000E+00  0.00000000E+00  0.00000000E+00
  0.00000000E+00  0.00000000E+00  0.00000000E+00
  0.00000000E+00  0.00000000E+00  0.00000000E+00
  0.00000000E+00  0.00000000E+00  0.00000000E+00
  0.00000000E+00  0.00000000E+00  0.00000000E+00
  0.00000000E+00  0.00000000E+00  0.00000000E+00
  0.00000000E+00  0.00000000E+00  0.00000000E+00
  0.00000000E+00  0.00000000E+00  0.00000000E+00
  0.00000000E+00  0.00000000E+00  0.00000000E+00
  0.00000000E+00  0.00000000E+00  0.00000000E+00
  0.00000000E+00  0.00000000E+00  0.00000000E+00
  0.00000000E+00  0.00000000E+00  0.00000000E+00
  0.00000000E+00  0.00000000E+00  0.00000000E+00
  0.00000000E+00  0.00000000E+00  0.00000000E+00
  0.00000000E+00  0.00000000E+00  0.00000000E+00
  0.00000000E+00  0.00000000E+00  0.00000000E+00
  0.00000000E+00  0.00000000E+00  0.00000000E+00
  0.00000000E+00  0.00000000E+00  0.00000000E+00
  0.00000000E+00  0.00000000E+00  0.00000000E+00
  0.00000000E+00  0.00000000E+00  0.00000000E+00
  0.00000000E+00  0.00000000E+00  0.00000000E+00
  0.00000000E+00  0.00000000E+00  0.00000000E+00
  0.00000000E+00  0.00000000E+00  0.00000000E+00
  0.00000000E+00  0.00000000E+00  0.00000000E+00
  0.00000000E+00  0.00000000E+00  0.00000000E+00
  0.00000000E+00  0.00000000E+00  0.00000000E+00
  0.00000000E+00  0.00000000E+00  0.00000000E+00
  0.00000000E+00  0.00000000E+00  0.00000000E+00
  0.00000000E+00  0.00000000E+00  0.00000000E+00
  0.00000000E+00  0.00000000E+00  0.00000000E+00
  0.00000000E+00  0.00000000E+00  0.00000000E+00
  0.00000000E+00  0.00000000E+00  0.00000000E+00
  0.00000000E+00  0.00000000E+00  0.00000000E+00
  0.00000000E+00  0.00000000E+00  0.00000000E+00
  0.00000000E+00  0.00000000E+00  0.00000000E+00
  0.00000000E+00  0.00000000E+00  0.00000000E+00
  0.00000000E+00  0.00000000E+00  0.00000000E+00
  0.00000000E+00  0.00000000E+00  0.00000000E+00
  0.00000000E+00  0.00000000E+00  0.00000000E+00
  0.00000000E+00  0.00000000E+00  0.00000000E+00
  0.00000000E+00  0.00000000E+00  0.00000000E+00
  0.00000000E+00  0.00000000E+00  0.00000000E+00
  0.00000000E+00  0.00000000E+00  0.00000000E+00
  0.00000000E+00  0.00000000E+00  0.00000000E+00
  0.00000000E+00  0.00000000E+00  0.00000000E+00
  0.00000000E+00  0.00000000E+00  0.00000000E+00
  0.00000000E+00  0.00000000E+00  0.00000000E+00
  0.00000000E+00  0.00000000E+00  0.00000000E+00
  0.00000000E+00  0.00000000E+00  0.00000000E+00
  0.00000000E+00  0.00000000E+00  0.00000000E+00
  0.00000000E+00  0.00000000E+00  0.00000000E+00
  0.00000000E+00  0.00000000E+00  0.00000000E+00
  0.00000000E+00  0.00000000E+00  0.00000000E+00
  0.00000000E+00  0.00000000E+00  0.00000000E+00
  0.00000000E+00  0.00000000E+00  0.00000000E+00
  0.00000000E+00  0.00000000E+00  0.00000000E+00
  0.00000000E+00  0.00000000E+00  0.00000000E+00
  0.00000000E+00  0.00000000E+00  0.00000000E+00
  0.00000000E+00  0.00000000E+00  0.00000000E+00
  0.00000000E+00  0.00000000E+00  0.00000000E+00
  0.00000000E+00  0.00000000E+00  0.00000000E+00
  0.00000000E+00  0.00000000E+00  0.00000000E+00
  0.00000000E+00  0.00000000E+00  0.00000000E+00
  0.00000000E+00  0.00000000E+00  0.00000000E+00
  0.00000000E+00  0.00000000E+00  0.00000000E+00
  0.00000000E+00  0.00000000E+00  0.00000000E+00
  0.00000000E+00  0.00000000E+00  0.00000000E+00
  0.00000000E+00  0.00000000E+00  0.00000000E+00
  0.00000000E+00  0.00000000E+00  0.00000000E+00
  0.00000000E+00  0.00000000E+00  0.00000000E+00
  0.00000000E+00  0.00000000E+00  0.00000000E+00
  0.00000000E+00  0.00000000E+00  0.00000000E+00
  0.00000000E+00  0.00000000E+00  0.00000000E+00
  0.00000000E+00  0.00000000E+00  0.00000000E+00
  0.00000000E+00  0.00000000E+00  0.00000000E+00
  0.00000000E+00  0.00000000E+00  0.00000000E+00
  0.00000000E+00  0.00000000E+00  0.00000000E+00
  0.00000000E+00  0.00000000E+00  0.00000000E+00
  0.00000000E+00  0.00000000E+00  0.00000000E+00
  0.00000000E+00  0.00000000E+00  0.00000000E+00
  0.00000000E+00  0.00000000E+00  0.00000000E+00
  0.00000000E+00  0.00000000E+00  0.00000000E+00
  0.00000000E+00  0.00000000E+00  0.00000000E+00
  0.00000000E+00  0.00000000E+00  0.00000000E+00
  0.00000000E+00  0.00000000E+00  0.00000000E+00
  0.00000000E+00  0.00000000E+00  0.00000000E+00
  0.00000000E+00  0.00000000E+00  0.00000000E+00
  0.00000000E+00  0.00000000E+00  0.00000000E+00
  0.00000000E+00  0.00000000E+00  0.00000000E+00
  0.00000000E+00  0.00000000E+00  0.00000000E+00
  0.00000000E+00  0.00000000E+00  0.00000000E+00
  0.00000000E+00  0.00000000E+00  0.00000000E+00
  0.00000000E+00  0.00000000E+00  0.00000000E+00
  0.00000000E+00  0.00000000E+00  0.00000000E+00
