C H O Si                                
   1.00000000000000     
     9.2874599999999994    0.0000000000000000    0.0000000000000000
     0.0000000000000000    8.7563099999999991    0.0000000000000000
     0.0000000000000000    0.0000000000000000   58.0000000000000000
   C    H    O    Si
    36    33    16    36
Selective dynamics
Direct
  0.9935076906550316  0.1263861852518824  0.0604255357241950   T   T   T
  0.3269227081897850  0.1263978668155420  0.0605200229276470   T   T   T
  0.6600259305327781  0.1263767358887438  0.0605087970628520   T   T   T
  0.9934970820672437  0.6264733451707406  0.0604375522909751   T   T   T
  0.3268826287129369  0.6262999861510057  0.0605311894984817   T   T   T
  0.6600797496681808  0.6263381127904685  0.0605102937414767   T   T   T
  0.1593311018482906  0.3724982692868651  0.1393881624090173   T   T   T
  0.4925941086371105  0.3729462008849346  0.1396407123975730   T   T   T
  0.8259552979674540  0.3724545173630989  0.1393528230282855   T   T   T
  0.1595605189673442  0.8725954122684164  0.1394388014957219   T   T   T
  0.4926611996842452  0.8723599973108338  0.1394919083502450   T   T   T
  0.8258350640340157  0.8726718661116297  0.1394175505609488   T   T   T
  0.3265933971295323  0.1232006373250376  0.1667345860341319   T   T   T
  0.6587789497514719  0.1230229902246010  0.1667254275769861   T   T   T
  0.9928620841919600  0.1219176752882438  0.1664965656044326   T   T   T
  0.3259536977244972  0.6228512571341770  0.1668426683443519   T   T   T
  0.6596517280809840  0.6230760770163153  0.1666860219411349   T   T   T
  0.9928374835968694  0.6227114819273712  0.1665847189110740   T   T   T
  0.1593395615969475  0.3744503335302557  0.1917481542617231   T   T   T
  0.4928446110465616  0.3800724382634009  0.1928014831677214   T   T   T
  0.8266772704734349  0.3739552490537837  0.1916355766233324   T   T   T
  0.1596855229495313  0.8767418136056025  0.1920436595754658   T   T   T
  0.4931207626800311  0.8762004060552907  0.1921247876330340   T   T   T
  0.8267070127526175  0.8767298253295855  0.1920068560483581   T   T   T
  0.1597228481604310  0.3728806914798509  0.0858056978493876   T   T   T
  0.4930916098289385  0.3729437786613027  0.0859392648229485   T   T   T
  0.8263974549186978  0.3728660063917656  0.0857808308995464   T   T   T
  0.1598101965931615  0.8728706918021242  0.0858308334511059   T   T   T
  0.4930497447923082  0.8728360746459958  0.0858557809298176   T   T   T
  0.8263489675259267  0.8729181200388049  0.0858153568754048   T   T   T
  0.3262513689654280  0.1226390477492132  0.1130912275767093   T   T   T
  0.6593409301102389  0.1226309012415967  0.1130867433865668   T   T   T
  0.9928274641340477  0.1224422213473401  0.1130084905609097   T   T   T
  0.3261634082324573  0.6225001801900434  0.1131253582219694   T   T   T
  0.6594103937726097  0.6225610645222476  0.1130759063851493   T   T   T
  0.9928132311845024  0.6226282431852790  0.1130164392525572   T   T   T
  0.0714116345086678  0.3570241539845480  0.0280035927733540   T   T   T
  0.4034088811700977  0.3569730750999134  0.0281997477112736   T   T   T
  0.7365556924039220  0.3565559428087708  0.0280841371184699   T   T   T
  0.0716071469781763  0.8571234207167580  0.0280335234476330   T   T   T
  0.4032372684806168  0.8564430151347445  0.0281457910611532   T   T   T
  0.7364568566255220  0.8565951119564831  0.0281302252840082   T   T   T
  0.3247073267825847  0.0527947286163528  0.0451311055758907   T   T   T
  0.6572599745172160  0.0527858376596225  0.0451218749312141   T   T   T
  0.9910131418696385  0.0528211921530429  0.0450334003276497   T   T   T
  0.3244439727564197  0.5525952491063651  0.0451602387120960   T   T   T
  0.6575305228730383  0.5527237548624241  0.0451292348440307   T   T   T
  0.9909848911855360  0.5529339254547457  0.0450390502983468   T   T   T
  0.8281954132536938  0.8036135547114036  0.2074193506091373   T   T   T
  0.8293801304769050  0.3010131435420987  0.2070835422955850   T   T   T
  0.1609541569700294  0.3016768756024663  0.2072169068333621   T   T   T
  0.4960248912979736  0.3053744542192908  0.2080630656860485   T   T   T
  0.1612493411268610  0.8029780122528840  0.2074038647327316   T   T   T
  0.4932762422715360  0.8024724927923628  0.2075127463118924   T   T   T
  0.0830723231654203  0.1087183978184236  0.2242845056338049   T   T   T
  0.4170908773306239  0.1086380413578409  0.2242174565251922   T   T   T
  0.7509028635906672  0.1072388576126615  0.2242366994345057   T   T   T
  0.0816862303053010  0.6022345203823686  0.2240418813337219   T   T   T
  0.3792214845165572  0.6194022801692887  0.2281682754029212   T   T   T
  0.7822717170704789  0.5913900665650943  0.2227046378626001   T   T   T
  0.5513887000723625  0.6129649109612878  0.2738929293977097   T   T   T
  0.4962748805828976  0.4773442549372476  0.2933565551686081   T   T   T
  0.5744972806351426  0.6391527675735901  0.3033509874271825   T   T   T
  0.3137660310980617  0.3881363429631638  0.3093749217120077   T   T   T
  0.4207952218605752  0.2592267138949584  0.3019697231527685   T   T   T
  0.6502608785985080  0.7327727458300091  0.3344538605942018   T   T   T
  0.4845347461812783  0.7567181839856728  0.3313084058083391   T   T   T
  0.5219586401004683  0.7902528362393747  0.2521919556147466   T   T   T
  0.5887718691198272  0.6442673035898970  0.2387044346088439   T   T   T
  0.1675963023259676  0.3305070510886791  0.0335670473261789   T   T   T
  0.4999402235764283  0.3315923842328399  0.0337458626690222   T   T   T
  0.8331536345194462  0.3300616810468494  0.0335058352799803   T   T   T
  0.1677715417313412  0.8303668216595393  0.0335840037965857   T   T   T
  0.4999256084015158  0.8307460412583607  0.0336028450939184   T   T   T
  0.8331109512403932  0.8304168209511102  0.0335459220497515   T   T   T
  0.3205680877089231  0.0826608964443930  0.2187696254370051   T   T   T
  0.6540124841094308  0.0828998610342735  0.2187432013853250   T   T   T
  0.9868788936486793  0.0822878599114740  0.2187032734693941   T   T   T
  0.2988434912275255  0.5810209569626597  0.2189092590156035   T   T   T
  0.6790563397092020  0.5830211393459491  0.2187723329952886   T   T   T
  0.9844254311346800  0.5766675974132069  0.2186057363465810   T   T   T
  0.5737696070816432  0.5601807731026379  0.2899457184261673   T   T   T
  0.3814146374979241  0.3579094513882556  0.2973327303752769   T   T   T
  0.5758840346067887  0.7536289722791047  0.3229892339729149   T   T   T
  0.5186319942142177  0.6790135827659950  0.2514423695035968   T   T   T
  0.4936959211135486  0.2437003734659006  0.0601253569245136   T   T   T
  0.8269782780933751  0.2434442178251549  0.0599826801373426   T   T   T
  0.1605469744433586  0.7434440501045654  0.0600489330776880   T   T   T
  0.4936984888510600  0.7435066506424857  0.0600587567940324   T   T   T
  0.8269588496479274  0.7434956693446663  0.0600176216275981   T   T   T
  0.1605056070549349  0.2434802075225286  0.0600212099638560   T   T   T
  0.9928001844611676  0.9966873094150331  0.1395650364858103   T   T   T
  0.3263459573848326  0.9972560132759364  0.1396775650667972   T   T   T
  0.6590326261122007  0.9972748893563803  0.1396807382755662   T   T   T
  0.9927435621791126  0.4969961355305313  0.1395687721078999   T   T   T
  0.3258264383052554  0.4972317712215981  0.1397574525924195   T   T   T
  0.6594753374792840  0.4971082877858410  0.1396434888238807   T   T   T
  0.1592919080829131  0.2458594264935601  0.1656894173774475   T   T   T
  0.4926493769610485  0.2483420633302153  0.1661946227304553   T   T   T
  0.8262316011179562  0.2453767927570116  0.1655994147487545   T   T   T
  0.1594191726239831  0.7470243690144681  0.1658701876796309   T   T   T
  0.4926122847885132  0.7466894712069436  0.1659160556079343   T   T   T
  0.8264346842993071  0.7470730093802811  0.1658272212728047   T   T   T
  0.3261815701272905  0.9938127448441260  0.1924735624145595   T   T   T
  0.6598299251164035  0.9935964937081271  0.1924777276359838   T   T   T
  0.9930994123723250  0.9937508200251129  0.1923752753047021   T   T   T
  0.3236289913559388  0.4948733440892182  0.1928085012565952   T   T   T
  0.9928177829212655  0.4910816903125841  0.1920355433162138   T   T   T
  0.6619848789405280  0.4930906528327891  0.1922277919889738   T   T   T
  0.9930997037796576  0.9968255967776170  0.0865892362613504   T   T   T
  0.3264812043681368  0.9968673168106733  0.0866675852990382   T   T   T
  0.6596317061863863  0.9968296081635994  0.0866602349382050   T   T   T
  0.9930696249598557  0.4968681541058435  0.0865903802358995   T   T   T
  0.3264189817911706  0.4968099282031173  0.0866957874865544   T   T   T
  0.6597317433314783  0.4967919206546522  0.0866619465902270   T   T   T
  0.1594768360603159  0.2471241031754481  0.1128081979200349   T   T   T
  0.4927693241394899  0.2473302388235735  0.1129680134003954   T   T   T
  0.8261089089454935  0.2470719964674859  0.1127799641217841   T   T   T
  0.1595655866030361  0.7471389040561714  0.1128483091858621   T   T   T
  0.4927316618067715  0.7471232326677564  0.1128725853415894   T   T   T
  0.8260079860444118  0.7471651753651219  0.1128273271715825   T   T   T
 
  0.00000000E+00  0.00000000E+00  0.00000000E+00
  0.00000000E+00  0.00000000E+00  0.00000000E+00
  0.00000000E+00  0.00000000E+00  0.00000000E+00
  0.00000000E+00  0.00000000E+00  0.00000000E+00
  0.00000000E+00  0.00000000E+00  0.00000000E+00
  0.00000000E+00  0.00000000E+00  0.00000000E+00
  0.00000000E+00  0.00000000E+00  0.00000000E+00
  0.00000000E+00  0.00000000E+00  0.00000000E+00
  0.00000000E+00  0.00000000E+00  0.00000000E+00
  0.00000000E+00  0.00000000E+00  0.00000000E+00
  0.00000000E+00  0.00000000E+00  0.00000000E+00
  0.00000000E+00  0.00000000E+00  0.00000000E+00
  0.00000000E+00  0.00000000E+00  0.00000000E+00
  0.00000000E+00  0.00000000E+00  0.00000000E+00
  0.00000000E+00  0.00000000E+00  0.00000000E+00
  0.00000000E+00  0.00000000E+00  0.00000000E+00
  0.00000000E+00  0.00000000E+00  0.00000000E+00
  0.00000000E+00  0.00000000E+00  0.00000000E+00
  0.00000000E+00  0.00000000E+00  0.00000000E+00
  0.00000000E+00  0.00000000E+00  0.00000000E+00
  0.00000000E+00  0.00000000E+00  0.00000000E+00
  0.00000000E+00  0.00000000E+00  0.00000000E+00
  0.00000000E+00  0.00000000E+00  0.00000000E+00
  0.00000000E+00  0.00000000E+00  0.00000000E+00
  0.00000000E+00  0.00000000E+00  0.00000000E+00
  0.00000000E+00  0.00000000E+00  0.00000000E+00
  0.00000000E+00  0.00000000E+00  0.00000000E+00
  0.00000000E+00  0.00000000E+00  0.00000000E+00
  0.00000000E+00  0.00000000E+00  0.00000000E+00
  0.00000000E+00  0.00000000E+00  0.00000000E+00
  0.00000000E+00  0.00000000E+00  0.00000000E+00
  0.00000000E+00  0.00000000E+00  0.00000000E+00
  0.00000000E+00  0.00000000E+00  0.00000000E+00
  0.00000000E+00  0.00000000E+00  0.00000000E+00
  0.00000000E+00  0.00000000E+00  0.00000000E+00
  0.00000000E+00  0.00000000E+00  0.00000000E+00
  0.00000000E+00  0.00000000E+00  0.00000000E+00
  0.00000000E+00  0.00000000E+00  0.00000000E+00
  0.00000000E+00  0.00000000E+00  0.00000000E+00
  0.00000000E+00  0.00000000E+00  0.00000000E+00
  0.00000000E+00  0.00000000E+00  0.00000000E+00
  0.00000000E+00  0.00000000E+00  0.00000000E+00
  0.00000000E+00  0.00000000E+00  0.00000000E+00
  0.00000000E+00  0.00000000E+00  0.00000000E+00
  0.00000000E+00  0.00000000E+00  0.00000000E+00
  0.00000000E+00  0.00000000E+00  0.00000000E+00
  0.00000000E+00  0.00000000E+00  0.00000000E+00
  0.00000000E+00  0.00000000E+00  0.00000000E+00
  0.00000000E+00  0.00000000E+00  0.00000000E+00
  0.00000000E+00  0.00000000E+00  0.00000000E+00
  0.00000000E+00  0.00000000E+00  0.00000000E+00
  0.00000000E+00  0.00000000E+00  0.00000000E+00
  0.00000000E+00  0.00000000E+00  0.00000000E+00
  0.00000000E+00  0.00000000E+00  0.00000000E+00
  0.00000000E+00  0.00000000E+00  0.00000000E+00
  0.00000000E+00  0.00000000E+00  0.00000000E+00
  0.00000000E+00  0.00000000E+00  0.00000000E+00
  0.00000000E+00  0.00000000E+00  0.00000000E+00
  0.00000000E+00  0.00000000E+00  0.00000000E+00
  0.00000000E+00  0.00000000E+00  0.00000000E+00
  0.00000000E+00  0.00000000E+00  0.00000000E+00
  0.00000000E+00  0.00000000E+00  0.00000000E+00
  0.00000000E+00  0.00000000E+00  0.00000000E+00
  0.00000000E+00  0.00000000E+00  0.00000000E+00
  0.00000000E+00  0.00000000E+00  0.00000000E+00
  0.00000000E+00  0.00000000E+00  0.00000000E+00
  0.00000000E+00  0.00000000E+00  0.00000000E+00
  0.00000000E+00  0.00000000E+00  0.00000000E+00
  0.00000000E+00  0.00000000E+00  0.00000000E+00
  0.00000000E+00  0.00000000E+00  0.00000000E+00
  0.00000000E+00  0.00000000E+00  0.00000000E+00
  0.00000000E+00  0.00000000E+00  0.00000000E+00
  0.00000000E+00  0.00000000E+00  0.00000000E+00
  0.00000000E+00  0.00000000E+00  0.00000000E+00
  0.00000000E+00  0.00000000E+00  0.00000000E+00
  0.00000000E+00  0.00000000E+00  0.00000000E+00
  0.00000000E+00  0.00000000E+00  0.00000000E+00
  0.00000000E+00  0.00000000E+00  0.00000000E+00
  0.00000000E+00  0.00000000E+00  0.00000000E+00
  0.00000000E+00  0.00000000E+00  0.00000000E+00
  0.00000000E+00  0.00000000E+00  0.00000000E+00
  0.00000000E+00  0.00000000E+00  0.00000000E+00
  0.00000000E+00  0.00000000E+00  0.00000000E+00
  0.00000000E+00  0.00000000E+00  0.00000000E+00
  0.00000000E+00  0.00000000E+00  0.00000000E+00
  0.00000000E+00  0.00000000E+00  0.00000000E+00
  0.00000000E+00  0.00000000E+00  0.00000000E+00
  0.00000000E+00  0.00000000E+00  0.00000000E+00
  0.00000000E+00  0.00000000E+00  0.00000000E+00
  0.00000000E+00  0.00000000E+00  0.00000000E+00
  0.00000000E+00  0.00000000E+00  0.00000000E+00
  0.00000000E+00  0.00000000E+00  0.00000000E+00
  0.00000000E+00  0.00000000E+00  0.00000000E+00
  0.00000000E+00  0.00000000E+00  0.00000000E+00
  0.00000000E+00  0.00000000E+00  0.00000000E+00
  0.00000000E+00  0.00000000E+00  0.00000000E+00
  0.00000000E+00  0.00000000E+00  0.00000000E+00
  0.00000000E+00  0.00000000E+00  0.00000000E+00
  0.00000000E+00  0.00000000E+00  0.00000000E+00
  0.00000000E+00  0.00000000E+00  0.00000000E+00
  0.00000000E+00  0.00000000E+00  0.00000000E+00
  0.00000000E+00  0.00000000E+00  0.00000000E+00
  0.00000000E+00  0.00000000E+00  0.00000000E+00
  0.00000000E+00  0.00000000E+00  0.00000000E+00
  0.00000000E+00  0.00000000E+00  0.00000000E+00
  0.00000000E+00  0.00000000E+00  0.00000000E+00
  0.00000000E+00  0.00000000E+00  0.00000000E+00
  0.00000000E+00  0.00000000E+00  0.00000000E+00
  0.00000000E+00  0.00000000E+00  0.00000000E+00
  0.00000000E+00  0.00000000E+00  0.00000000E+00
  0.00000000E+00  0.00000000E+00  0.00000000E+00
  0.00000000E+00  0.00000000E+00  0.00000000E+00
  0.00000000E+00  0.00000000E+00  0.00000000E+00
  0.00000000E+00  0.00000000E+00  0.00000000E+00
  0.00000000E+00  0.00000000E+00  0.00000000E+00
  0.00000000E+00  0.00000000E+00  0.00000000E+00
  0.00000000E+00  0.00000000E+00  0.00000000E+00
  0.00000000E+00  0.00000000E+00  0.00000000E+00
  0.00000000E+00  0.00000000E+00  0.00000000E+00
  0.00000000E+00  0.00000000E+00  0.00000000E+00
  0.00000000E+00  0.00000000E+00  0.00000000E+00
