C H O Si                                
   1.00000000000000     
     9.2874599999999994    0.0000000000000000    0.0000000000000000
     0.0000000000000000    8.7562999999999995    0.0000000000000000
     0.0000000000000000    0.0000000000000000   58.0000000000000000
   C    H    O    Si
    36    33    16    36
Selective dynamics
Direct
  0.0006807119952530  0.1352064684529034  0.3755219531062128   T   T   T
  0.0006659524830060  0.6353599369741612  0.3755360072891182   T   T   T
  0.3340636891194558  0.1352350253245934  0.3756285472932165   T   T   T
  0.3340324361758971  0.6351360267668272  0.3756403878992539   T   T   T
  0.6671831175040178  0.1351568644400407  0.3756293430486067   T   T   T
  0.6672085771466379  0.6351002352654583  0.3756244619131866   T   T   T
  0.1676723771096729  0.3814821225855194  0.4009534215832007   T   T   T
  0.1677334876446908  0.8814837858380030  0.4009750456319635   T   T   T
  0.5009603341859736  0.3814914317555674  0.4011001004545485   T   T   T
  0.5009728577788166  0.8814083896494915  0.4010312788396332   T   T   T
  0.8343372154268928  0.3814313600802943  0.4009185921634971   T   T   T
  0.8342716497182613  0.8814231898400170  0.4009533919610102   T   T   T
  0.0010510547425383  0.1311841905956728  0.4280841690607421   T   T   T
  0.0011072829360545  0.6313563349199341  0.4280960972086078   T   T   T
  0.3345873817396495  0.1313177818549909  0.4282065135129146   T   T   T
  0.3345070742971072  0.6312465153655047  0.4282311906902262   T   T   T
  0.6675630463802651  0.1312978989874320  0.4281920792080200   T   T   T
  0.6676362657315597  0.6312431636338244  0.4281879815135834   T   T   T
  0.1677728237633463  0.3811892246950084  0.4544585327870181   T   T   T
  0.1680532225542419  0.8813278808757360  0.4545269220154244   T   T   T
  0.5010400578892726  0.3815965857665934  0.4547466271338808   T   T   T
  0.5011277126855344  0.8810272482129798  0.4546053023246295   T   T   T
  0.8343663243148418  0.3811539849415715  0.4544091119991892   T   T   T
  0.8342205516280226  0.8813417236843220  0.4544923497918616   T   T   T
  0.0011155041596655  0.1307662393679844  0.4814946412018346   T   T   T
  0.0011498992166611  0.6314222724890969  0.4815826461132747   T   T   T
  0.3349972762574761  0.1319298174581967  0.4817944023091940   T   T   T
  0.3342300191952002  0.6315730247126546  0.4818692058993895   T   T   T
  0.6670497943608257  0.1318355945743819  0.4817815887694767   T   T   T
  0.6679888143434213  0.6317432628200261  0.4817609799344413   T   T   T
  0.1673193372182479  0.3832630063395825  0.5067767984963772   T   T   T
  0.1669932415206886  0.8856929638130593  0.5070793879071533   T   T   T
  0.5009920608073244  0.3891236473755371  0.5078949662900124   T   T   T
  0.5006121111053975  0.8850539723792984  0.5071927142503135   T   T   T
  0.8349736207016770  0.3829228819908488  0.5066859917434394   T   T   T
  0.8342850167819990  0.8856074056426699  0.5070263157754424   T   T   T
  0.0035422484816935  0.0620144674920644  0.3600929435790897   T   T   T
  0.0034627211688438  0.5621376825977721  0.3601093461898809   T   T   T
  0.3370029299129717  0.0619134701845510  0.3602155454172816   T   T   T
  0.3368056599462920  0.5617103462413366  0.3602389136883372   T   T   T
  0.6694924308940120  0.0618544007456046  0.3602112152179383   T   T   T
  0.6697432303986769  0.5617975446563270  0.3602074586233172   T   T   T
  0.1692424719388078  0.3106426470004509  0.5222634590649573   T   T   T
  0.1689111687986773  0.8122184523177906  0.5224735256813835   T   T   T
  0.5043619521193567  0.3146162537677836  0.5231813011439670   T   T   T
  0.5016041989437643  0.8119154533479058  0.5226381696864588   T   T   T
  0.8378560128752019  0.3101643853273727  0.5221539811278180   T   T   T
  0.8365393847538617  0.8129206028060681  0.5224851749667198   T   T   T
  0.0884437012995057  0.1187577928108755  0.5392884012264658   T   T   T
  0.0900311344703885  0.6114180792345175  0.5389778060144783   T   T   T
  0.4216223776977210  0.1190981311811043  0.5394098736104139   T   T   T
  0.3827053290602181  0.6356209974077643  0.5428035244576728   T   T   T
  0.7572262051063053  0.1174230955903291  0.5393004758622347   T   T   T
  0.7900709954659303  0.6005530197735992  0.5378399105678103   T   T   T
  0.2568527549319790  0.3674047423028570  0.3433712160167212   T   T   T
  0.2570101146183054  0.8673416658485388  0.3433998096933589   T   T   T
  0.5895081641490247  0.3675787071442694  0.3434426175687209   T   T   T
  0.5894104594262547  0.8674355924731186  0.3433927935246620   T   T   T
  0.9213756912185914  0.3682173859269484  0.3432340337818151   T   T   T
  0.9212975858870663  0.8683454267101570  0.3432637993280411   T   T   T
  0.5459359158842455  0.6172017617291974  0.5871845002724577   T   T   T
  0.4889654700957470  0.4773666845333799  0.6062785131609331   T   T   T
  0.5675719502917662  0.6393864019404895  0.6164806693452186   T   T   T
  0.3084637588032467  0.3825253521322277  0.6222734750256107   T   T   T
  0.4232503222784693  0.2588179870786486  0.6159796847947009   T   T   T
  0.6462988679407639  0.7352100417183463  0.6469330552377486   T   T   T
  0.4819717586544571  0.7668216957564613  0.6435906156559738   T   T   T
  0.5316014874657951  0.8041500730686273  0.5670637469435235   T   T   T
  0.5941275475255587  0.6581575915861549  0.5529648512572721   T   T   T
  0.1606115527552240  0.3405598024287256  0.3488661053390469   T   T   T
  0.1607395374312556  0.8406356189659447  0.3488966753688850   T   T   T
  0.4933832438887641  0.3409271816565444  0.3490115875537217   T   T   T
  0.4933139470030555  0.8405617070022668  0.3489495406068891   T   T   T
  0.8257245378379586  0.3402317084059885  0.3488422674551014   T   T   T
  0.8256558491507885  0.8403840638013419  0.3488772033612518   T   T   T
  0.9926471465293314  0.0916935362380466  0.5336271132895528   T   T   T
  0.9924556135906649  0.5877083456044557  0.5334680741914634   T   T   T
  0.3259973712331275  0.0907853619612521  0.5338246137685725   T   T   T
  0.3043228462479314  0.5898365637500761  0.5338501738579222   T   T   T
  0.6608555049825801  0.0910854782541296  0.5337904069597001   T   T   T
  0.6869773196376868  0.5913026228709110  0.5338622996769945   T   T   T
  0.5663662756930690  0.5605709313832425  0.6030582200351812   T   T   T
  0.3784400892823512  0.3530083755653883  0.6105152005702583   T   T   T
  0.5733803397481166  0.7590808770705300  0.6353479590486650   T   T   T
  0.5217458989311026  0.6937538305017551  0.5653403638094526   T   T   T
  0.1672058311223026  0.2523443945959883  0.3751583177821209   T   T   T
  0.1672475510476603  0.7523477399608268  0.3751810505050855   T   T   T
  0.5004154176308966  0.2523820234450019  0.3752813111270363   T   T   T
  0.5004055161101515  0.7522569963467270  0.3752350091828098   T   T   T
  0.8336658637325346  0.2521700956750108  0.3751438253597942   T   T   T
  0.8336060665545207  0.7522405547072983  0.3751722971755744   T   T   T
  0.0009833067760475  0.0053782854474359  0.4016780880758880   T   T   T
  0.0010015712328009  0.5054778282422333  0.4016781550690331   T   T   T
  0.3343899589356177  0.0054803652401701  0.4017753681393708   T   T   T
  0.3343480370118698  0.5054590808524424  0.4017990757201641   T   T   T
  0.6675200483092207  0.0053964027216922  0.4017654208572575   T   T   T
  0.6675977426311379  0.5053531285555044  0.4017637748443374   T   T   T
  0.1677813772316654  0.2557443065734397  0.4279164929933882   T   T   T
  0.1679361056155733  0.7558284933751634  0.4279668294440750   T   T   T
  0.5010413894649085  0.2559361133472517  0.4281009298238940   T   T   T
  0.5010484222964197  0.7557563264706536  0.4280081400472606   T   T   T
  0.8343483554536495  0.2556642246635579  0.4278770685937381   T   T   T
  0.8342877994968978  0.7557730892134591  0.4279398156504736   T   T   T
  0.0011578395291057  0.0053827971826084  0.4546021171313983   T   T   T
  0.0011182062837928  0.5057075211999889  0.4545989984581115   T   T   T
  0.3347987637787039  0.0059662624547916  0.4547654580802954   T   T   T
  0.3342217173622044  0.5059245740753241  0.4548216632322589   T   T   T
  0.6673950242567372  0.0059325530557214  0.4547565712807069   T   T   T
  0.6678511616324777  0.5057750624771974  0.4547257894565455   T   T   T
  0.1676295621550631  0.2545878464534160  0.4807598200740396   T   T   T
  0.1676394712910655  0.7557489156109429  0.4809509194967155   T   T   T
  0.5009975211328638  0.2571229015255280  0.4813035518260224   T   T   T
  0.5008765894945323  0.7553134603912585  0.4810225887845925   T   T   T
  0.8345935068968505  0.2542001910868182  0.4806694100789596   T   T   T
  0.8347131637816428  0.7557652338538552  0.4809072605978697   T   T   T
  0.0004094721776065  0.0028376475708848  0.5073788903353227   T   T   T
  0.0009759058210529  0.5003300140005283  0.5070672948865046   T   T   T
  0.3335129231325505  0.0025568779223664  0.5075431092354378   T   T   T
  0.3314498793498320  0.5037039982674790  0.5078421070697802   T   T   T
  0.6673487245124650  0.0024365112290916  0.5075355917026526   T   T   T
  0.6702360750213873  0.5019305684421936  0.5073130368808296   T   T   T
 
  0.00000000E+00  0.00000000E+00  0.00000000E+00
  0.00000000E+00  0.00000000E+00  0.00000000E+00
  0.00000000E+00  0.00000000E+00  0.00000000E+00
  0.00000000E+00  0.00000000E+00  0.00000000E+00
  0.00000000E+00  0.00000000E+00  0.00000000E+00
  0.00000000E+00  0.00000000E+00  0.00000000E+00
  0.00000000E+00  0.00000000E+00  0.00000000E+00
  0.00000000E+00  0.00000000E+00  0.00000000E+00
  0.00000000E+00  0.00000000E+00  0.00000000E+00
  0.00000000E+00  0.00000000E+00  0.00000000E+00
  0.00000000E+00  0.00000000E+00  0.00000000E+00
  0.00000000E+00  0.00000000E+00  0.00000000E+00
  0.00000000E+00  0.00000000E+00  0.00000000E+00
  0.00000000E+00  0.00000000E+00  0.00000000E+00
  0.00000000E+00  0.00000000E+00  0.00000000E+00
  0.00000000E+00  0.00000000E+00  0.00000000E+00
  0.00000000E+00  0.00000000E+00  0.00000000E+00
  0.00000000E+00  0.00000000E+00  0.00000000E+00
  0.00000000E+00  0.00000000E+00  0.00000000E+00
  0.00000000E+00  0.00000000E+00  0.00000000E+00
  0.00000000E+00  0.00000000E+00  0.00000000E+00
  0.00000000E+00  0.00000000E+00  0.00000000E+00
  0.00000000E+00  0.00000000E+00  0.00000000E+00
  0.00000000E+00  0.00000000E+00  0.00000000E+00
  0.00000000E+00  0.00000000E+00  0.00000000E+00
  0.00000000E+00  0.00000000E+00  0.00000000E+00
  0.00000000E+00  0.00000000E+00  0.00000000E+00
  0.00000000E+00  0.00000000E+00  0.00000000E+00
  0.00000000E+00  0.00000000E+00  0.00000000E+00
  0.00000000E+00  0.00000000E+00  0.00000000E+00
  0.00000000E+00  0.00000000E+00  0.00000000E+00
  0.00000000E+00  0.00000000E+00  0.00000000E+00
  0.00000000E+00  0.00000000E+00  0.00000000E+00
  0.00000000E+00  0.00000000E+00  0.00000000E+00
  0.00000000E+00  0.00000000E+00  0.00000000E+00
  0.00000000E+00  0.00000000E+00  0.00000000E+00
  0.00000000E+00  0.00000000E+00  0.00000000E+00
  0.00000000E+00  0.00000000E+00  0.00000000E+00
  0.00000000E+00  0.00000000E+00  0.00000000E+00
  0.00000000E+00  0.00000000E+00  0.00000000E+00
  0.00000000E+00  0.00000000E+00  0.00000000E+00
  0.00000000E+00  0.00000000E+00  0.00000000E+00
  0.00000000E+00  0.00000000E+00  0.00000000E+00
  0.00000000E+00  0.00000000E+00  0.00000000E+00
  0.00000000E+00  0.00000000E+00  0.00000000E+00
  0.00000000E+00  0.00000000E+00  0.00000000E+00
  0.00000000E+00  0.00000000E+00  0.00000000E+00
  0.00000000E+00  0.00000000E+00  0.00000000E+00
  0.00000000E+00  0.00000000E+00  0.00000000E+00
  0.00000000E+00  0.00000000E+00  0.00000000E+00
  0.00000000E+00  0.00000000E+00  0.00000000E+00
  0.00000000E+00  0.00000000E+00  0.00000000E+00
  0.00000000E+00  0.00000000E+00  0.00000000E+00
  0.00000000E+00  0.00000000E+00  0.00000000E+00
  0.00000000E+00  0.00000000E+00  0.00000000E+00
  0.00000000E+00  0.00000000E+00  0.00000000E+00
  0.00000000E+00  0.00000000E+00  0.00000000E+00
  0.00000000E+00  0.00000000E+00  0.00000000E+00
  0.00000000E+00  0.00000000E+00  0.00000000E+00
  0.00000000E+00  0.00000000E+00  0.00000000E+00
  0.00000000E+00  0.00000000E+00  0.00000000E+00
  0.00000000E+00  0.00000000E+00  0.00000000E+00
  0.00000000E+00  0.00000000E+00  0.00000000E+00
  0.00000000E+00  0.00000000E+00  0.00000000E+00
  0.00000000E+00  0.00000000E+00  0.00000000E+00
  0.00000000E+00  0.00000000E+00  0.00000000E+00
  0.00000000E+00  0.00000000E+00  0.00000000E+00
  0.00000000E+00  0.00000000E+00  0.00000000E+00
  0.00000000E+00  0.00000000E+00  0.00000000E+00
  0.00000000E+00  0.00000000E+00  0.00000000E+00
  0.00000000E+00  0.00000000E+00  0.00000000E+00
  0.00000000E+00  0.00000000E+00  0.00000000E+00
  0.00000000E+00  0.00000000E+00  0.00000000E+00
  0.00000000E+00  0.00000000E+00  0.00000000E+00
  0.00000000E+00  0.00000000E+00  0.00000000E+00
  0.00000000E+00  0.00000000E+00  0.00000000E+00
  0.00000000E+00  0.00000000E+00  0.00000000E+00
  0.00000000E+00  0.00000000E+00  0.00000000E+00
  0.00000000E+00  0.00000000E+00  0.00000000E+00
  0.00000000E+00  0.00000000E+00  0.00000000E+00
  0.00000000E+00  0.00000000E+00  0.00000000E+00
  0.00000000E+00  0.00000000E+00  0.00000000E+00
  0.00000000E+00  0.00000000E+00  0.00000000E+00
  0.00000000E+00  0.00000000E+00  0.00000000E+00
  0.00000000E+00  0.00000000E+00  0.00000000E+00
  0.00000000E+00  0.00000000E+00  0.00000000E+00
  0.00000000E+00  0.00000000E+00  0.00000000E+00
  0.00000000E+00  0.00000000E+00  0.00000000E+00
  0.00000000E+00  0.00000000E+00  0.00000000E+00
  0.00000000E+00  0.00000000E+00  0.00000000E+00
  0.00000000E+00  0.00000000E+00  0.00000000E+00
  0.00000000E+00  0.00000000E+00  0.00000000E+00
  0.00000000E+00  0.00000000E+00  0.00000000E+00
  0.00000000E+00  0.00000000E+00  0.00000000E+00
  0.00000000E+00  0.00000000E+00  0.00000000E+00
  0.00000000E+00  0.00000000E+00  0.00000000E+00
  0.00000000E+00  0.00000000E+00  0.00000000E+00
  0.00000000E+00  0.00000000E+00  0.00000000E+00
  0.00000000E+00  0.00000000E+00  0.00000000E+00
  0.00000000E+00  0.00000000E+00  0.00000000E+00
  0.00000000E+00  0.00000000E+00  0.00000000E+00
  0.00000000E+00  0.00000000E+00  0.00000000E+00
  0.00000000E+00  0.00000000E+00  0.00000000E+00
  0.00000000E+00  0.00000000E+00  0.00000000E+00
  0.00000000E+00  0.00000000E+00  0.00000000E+00
  0.00000000E+00  0.00000000E+00  0.00000000E+00
  0.00000000E+00  0.00000000E+00  0.00000000E+00
  0.00000000E+00  0.00000000E+00  0.00000000E+00
  0.00000000E+00  0.00000000E+00  0.00000000E+00
  0.00000000E+00  0.00000000E+00  0.00000000E+00
  0.00000000E+00  0.00000000E+00  0.00000000E+00
  0.00000000E+00  0.00000000E+00  0.00000000E+00
  0.00000000E+00  0.00000000E+00  0.00000000E+00
  0.00000000E+00  0.00000000E+00  0.00000000E+00
  0.00000000E+00  0.00000000E+00  0.00000000E+00
  0.00000000E+00  0.00000000E+00  0.00000000E+00
  0.00000000E+00  0.00000000E+00  0.00000000E+00
  0.00000000E+00  0.00000000E+00  0.00000000E+00
  0.00000000E+00  0.00000000E+00  0.00000000E+00
  0.00000000E+00  0.00000000E+00  0.00000000E+00
  0.00000000E+00  0.00000000E+00  0.00000000E+00
