C H O Si                                
   1.00000000000000     
     9.2874599999999994    0.0000000000000000    0.0000000000000000
     0.0000000000000000    8.7562999999999995    0.0000000000000000
     0.0000000000000000    0.0000000000000000   58.0000000000000000
   C    H    O    Si
    36    33    16    36
Selective dynamics
Direct
  0.0006875891275810  0.1352040665703578  0.3755329051063845   T   T   T
  0.0006782788957726  0.6353475439087943  0.3755490150578017   T   T   T
  0.3340865045027765  0.1352558315852214  0.3756381600251419   T   T   T
  0.3340571968690961  0.6351487625927197  0.3756509706696012   T   T   T
  0.6671998942829781  0.1351756213285430  0.3756362872295049   T   T   T
  0.6672201653507270  0.6351219413679151  0.3756314990054482   T   T   T
  0.1677340610887819  0.3814611566047091  0.4009459537928651   T   T   T
  0.1678051438291028  0.8814681906662218  0.4009693437005863   T   T   T
  0.5010678706479688  0.3814353188871102  0.4010877191272814   T   T   T
  0.5010602394299347  0.8813918771321293  0.4010211466833595   T   T   T
  0.8344224379809132  0.3813743527929327  0.4009093687937775   T   T   T
  0.8343477138598535  0.8814082955670060  0.4009447417328372   T   T   T
  0.0011660510370050  0.1310508127697954  0.4280826219072538   T   T   T
  0.0011633614945209  0.6312802802204928  0.4280985774023308   T   T   T
  0.3346597266901518  0.1312223138729698  0.4282063800280864   T   T   T
  0.3345836213364273  0.6311375407849373  0.4282304288217428   T   T   T
  0.6676675574287981  0.1311685894914830  0.4281973626947598   T   T   T
  0.6677298432725568  0.6311447447026721  0.4281876616392543   T   T   T
  0.1678729960511079  0.3811022762022492  0.4544729185364797   T   T   T
  0.1681425238052906  0.8812354198907748  0.4545435221641484   T   T   T
  0.5011419947134640  0.3815258648903663  0.4547531417532847   T   T   T
  0.5011951790220078  0.8809528195128582  0.4546158081153675   T   T   T
  0.8344845084994535  0.3810145621755511  0.4544181884300903   T   T   T
  0.8343146071582451  0.8812282502556683  0.4545083647731334   T   T   T
  0.0012033855901054  0.1307731258003392  0.4815216961468918   T   T   T
  0.0012330481824487  0.6314118918591740  0.4816038156145909   T   T   T
  0.3350781693182121  0.1319350757258456  0.4818208408164161   T   T   T
  0.3343275352377216  0.6315700506232894  0.4819022965828845   T   T   T
  0.6671144012387030  0.1318282246568379  0.4817974057306554   T   T   T
  0.6680776674539680  0.6317273811309860  0.4817738956679704   T   T   T
  0.1673810310683118  0.3833489145956561  0.5067851790726894   T   T   T
  0.1670200620669876  0.8857636846334102  0.5070831711433007   T   T   T
  0.5010477146464996  0.3891706042591060  0.5079044459807925   T   T   T
  0.5006420013126848  0.8850625063272037  0.5071938166707632   T   T   T
  0.8350526474225262  0.3829143863763688  0.5066770853125626   T   T   T
  0.8342990306218162  0.8856359846740938  0.5070230346168383   T   T   T
  0.0036634278152442  0.0620729726628044  0.3601002350175344   T   T   T
  0.0036010435614277  0.5621940785592805  0.3601169125527831   T   T   T
  0.3371219743087919  0.0620108791238840  0.3602209756294611   T   T   T
  0.3369135001524906  0.5617903128656248  0.3602453471813091   T   T   T
  0.6696355125198113  0.0619283620099884  0.3602176085143849   T   T   T
  0.6698747498345216  0.5618557952413185  0.3602152574446268   T   T   T
  0.1693790106581357  0.3107715838276613  0.5222698625580093   T   T   T
  0.1690795291457736  0.8123232166218970  0.5224754528299895   T   T   T
  0.5044940273309845  0.3146441099606797  0.5231852289790917   T   T   T
  0.5017707073545905  0.8119672342236161  0.5226373535983134   T   T   T
  0.8380391121939572  0.3102091207180914  0.5221440047437033   T   T   T
  0.8367208553370160  0.8130214239344226  0.5224844470613721   T   T   T
  0.0880517444745003  0.1184883957394042  0.5394136537831290   T   T   T
  0.0896037818843826  0.6115275975865149  0.5390726447417745   T   T   T
  0.4213162448298259  0.1188242589048469  0.5395377610537002   T   T   T
  0.3827485321562555  0.6356938100238478  0.5428777781485958   T   T   T
  0.7568860866760517  0.1172412199448559  0.5394117435299491   T   T   T
  0.7901361289572295  0.6004359130428809  0.5378792444843978   T   T   T
  0.2563801044421271  0.3670499826058594  0.3432377057093446   T   T   T
  0.2565558865647821  0.8669922929824944  0.3432673645439888   T   T   T
  0.5890543632715391  0.3672269093041801  0.3433040809938879   T   T   T
  0.5889502081110697  0.8670907290370057  0.3432546632707306   T   T   T
  0.9209667900322985  0.3677933225268318  0.3430949505581532   T   T   T
  0.9208987746382868  0.8679149615821217  0.3431258042148287   T   T   T
  0.5456823220339325  0.6168163191157431  0.5872668606093685   T   T   T
  0.4886143167401016  0.4769431428860620  0.6063085862277715   T   T   T
  0.5674874932001420  0.6395264869548278  0.6165118080187270   T   T   T
  0.3092315738524111  0.3835542745830483  0.6222678747083302   T   T   T
  0.4237073640636276  0.2595969147788725  0.6159222056037184   T   T   T
  0.6461726855875634  0.7348181528129694  0.6467912275833276   T   T   T
  0.4817539275741590  0.7660619669718732  0.6434387213607221   T   T   T
  0.5313386679674760  0.8043652645944962  0.5671100150512726   T   T   T
  0.5937376023664792  0.6587171115438016  0.5530015336928424   T   T   T
  0.1603645017663465  0.3408144214226962  0.3489023793331619   T   T   T
  0.1604965709766679  0.8408863676485384  0.3489291741785961   T   T   T
  0.4931381295807077  0.3412105765165260  0.3490385960663423   T   T   T
  0.4930687603929694  0.8408879951087893  0.3489828355662641   T   T   T
  0.8255180232515461  0.3405053662486232  0.3488731003789009   T   T   T
  0.8254561545951593  0.8406300070083481  0.3489045769017178   T   T   T
  0.9924493923778648  0.0919160550037091  0.5336142476791755   T   T   T
  0.9922648235680049  0.5879444669072785  0.5334471321265721   T   T   T
  0.3258858546403473  0.0909642168853412  0.5338164889789401   T   T   T
  0.3044585780055605  0.5901558267388989  0.5338438680761373   T   T   T
  0.6607117595023190  0.0912335931500577  0.5337757097739259   T   T   T
  0.6871004373295787  0.5915100623881590  0.5338354700749416   T   T   T
  0.5661659901308029  0.5604355120951194  0.6030695243258285   T   T   T
  0.3792167574713699  0.3540140519106785  0.6105296349571212   T   T   T
  0.5730880689747235  0.7579094056967468  0.6352136575030543   T   T   T
  0.5211042407718930  0.6940941475113548  0.5652997536933140   T   T   T
  0.1672052928976767  0.2523347862348900  0.3751323808326118   T   T   T
  0.1672574909721467  0.7523605474313015  0.3751565257131910   T   T   T
  0.5004403439010705  0.2524146031144669  0.3752478579141635   T   T   T
  0.5004140600469015  0.7522991968451246  0.3752057949156417   T   T   T
  0.8336802884613302  0.2521863910752956  0.3751133317374613   T   T   T
  0.8336338316632271  0.7522453159741016  0.3751412168175500   T   T   T
  0.0010620388636391  0.0052685572471361  0.4016558194753513   T   T   T
  0.0010444627245117  0.5053718267703697  0.4016614219962319   T   T   T
  0.3344815326821310  0.0054050364404840  0.4017535775143926   T   T   T
  0.3344187798035472  0.5053359290495389  0.4017761760469920   T   T   T
  0.6676143030072582  0.0053383567787848  0.4017449048653272   T   T   T
  0.6676813485469415  0.5052935606602307  0.4017429896590225   T   T   T
  0.1678756261353221  0.2557384385104865  0.4279049879532155   T   T   T
  0.1680087167016062  0.7558346340327369  0.4279565024992974   T   T   T
  0.5011512151128545  0.2559093462024320  0.4280863733900530   T   T   T
  0.5011164117804344  0.7557444343171339  0.4279960892747054   T   T   T
  0.8344742932148018  0.2556169863614365  0.4278647567702195   T   T   T
  0.8343715854254211  0.7557936188786694  0.4279251627908051   T   T   T
  0.0012421671912892  0.0054009615575371  0.4546294039120444   T   T   T
  0.0012143573407447  0.5057061328761202  0.4546231944537524   T   T   T
  0.3348881120585662  0.0059804668190816  0.4547894833935962   T   T   T
  0.3343128693890995  0.5059534163905852  0.4548443830704568   T   T   T
  0.6674853882146309  0.0059129249244964  0.4547797855175549   T   T   T
  0.6679605299971141  0.5057562521552043  0.4547441377574324   T   T   T
  0.1677240185958090  0.2545713738062481  0.4807962121509778   T   T   T
  0.1677258792426904  0.7556985167924015  0.4809852490211465   T   T   T
  0.5010757133716779  0.2571157783770012  0.4813368153861133   T   T   T
  0.5009736146167091  0.7552542018725596  0.4810508559066189   T   T   T
  0.8346701114159110  0.2541206221075228  0.4806967674411977   T   T   T
  0.8347750758575566  0.7556848394762754  0.4809359551525568   T   T   T
  0.0004132496627353  0.0028872550611813  0.5074146451420409   T   T   T
  0.0010111449470638  0.5003652088719396  0.5070960735721476   T   T   T
  0.3335561375215277  0.0025969575052938  0.5075820563830846   T   T   T
  0.3315108290580335  0.5037845762478907  0.5078906694635813   T   T   T
  0.6673660192444301  0.0024635475547115  0.5075685091242245   T   T   T
  0.6703421521561590  0.5018847313277830  0.5073325075701195   T   T   T
 
  0.00000000E+00  0.00000000E+00  0.00000000E+00
  0.00000000E+00  0.00000000E+00  0.00000000E+00
  0.00000000E+00  0.00000000E+00  0.00000000E+00
  0.00000000E+00  0.00000000E+00  0.00000000E+00
  0.00000000E+00  0.00000000E+00  0.00000000E+00
  0.00000000E+00  0.00000000E+00  0.00000000E+00
  0.00000000E+00  0.00000000E+00  0.00000000E+00
  0.00000000E+00  0.00000000E+00  0.00000000E+00
  0.00000000E+00  0.00000000E+00  0.00000000E+00
  0.00000000E+00  0.00000000E+00  0.00000000E+00
  0.00000000E+00  0.00000000E+00  0.00000000E+00
  0.00000000E+00  0.00000000E+00  0.00000000E+00
  0.00000000E+00  0.00000000E+00  0.00000000E+00
  0.00000000E+00  0.00000000E+00  0.00000000E+00
  0.00000000E+00  0.00000000E+00  0.00000000E+00
  0.00000000E+00  0.00000000E+00  0.00000000E+00
  0.00000000E+00  0.00000000E+00  0.00000000E+00
  0.00000000E+00  0.00000000E+00  0.00000000E+00
  0.00000000E+00  0.00000000E+00  0.00000000E+00
  0.00000000E+00  0.00000000E+00  0.00000000E+00
  0.00000000E+00  0.00000000E+00  0.00000000E+00
  0.00000000E+00  0.00000000E+00  0.00000000E+00
  0.00000000E+00  0.00000000E+00  0.00000000E+00
  0.00000000E+00  0.00000000E+00  0.00000000E+00
  0.00000000E+00  0.00000000E+00  0.00000000E+00
  0.00000000E+00  0.00000000E+00  0.00000000E+00
  0.00000000E+00  0.00000000E+00  0.00000000E+00
  0.00000000E+00  0.00000000E+00  0.00000000E+00
  0.00000000E+00  0.00000000E+00  0.00000000E+00
  0.00000000E+00  0.00000000E+00  0.00000000E+00
  0.00000000E+00  0.00000000E+00  0.00000000E+00
  0.00000000E+00  0.00000000E+00  0.00000000E+00
  0.00000000E+00  0.00000000E+00  0.00000000E+00
  0.00000000E+00  0.00000000E+00  0.00000000E+00
  0.00000000E+00  0.00000000E+00  0.00000000E+00
  0.00000000E+00  0.00000000E+00  0.00000000E+00
  0.00000000E+00  0.00000000E+00  0.00000000E+00
  0.00000000E+00  0.00000000E+00  0.00000000E+00
  0.00000000E+00  0.00000000E+00  0.00000000E+00
  0.00000000E+00  0.00000000E+00  0.00000000E+00
  0.00000000E+00  0.00000000E+00  0.00000000E+00
  0.00000000E+00  0.00000000E+00  0.00000000E+00
  0.00000000E+00  0.00000000E+00  0.00000000E+00
  0.00000000E+00  0.00000000E+00  0.00000000E+00
  0.00000000E+00  0.00000000E+00  0.00000000E+00
  0.00000000E+00  0.00000000E+00  0.00000000E+00
  0.00000000E+00  0.00000000E+00  0.00000000E+00
  0.00000000E+00  0.00000000E+00  0.00000000E+00
  0.00000000E+00  0.00000000E+00  0.00000000E+00
  0.00000000E+00  0.00000000E+00  0.00000000E+00
  0.00000000E+00  0.00000000E+00  0.00000000E+00
  0.00000000E+00  0.00000000E+00  0.00000000E+00
  0.00000000E+00  0.00000000E+00  0.00000000E+00
  0.00000000E+00  0.00000000E+00  0.00000000E+00
  0.00000000E+00  0.00000000E+00  0.00000000E+00
  0.00000000E+00  0.00000000E+00  0.00000000E+00
  0.00000000E+00  0.00000000E+00  0.00000000E+00
  0.00000000E+00  0.00000000E+00  0.00000000E+00
  0.00000000E+00  0.00000000E+00  0.00000000E+00
  0.00000000E+00  0.00000000E+00  0.00000000E+00
  0.00000000E+00  0.00000000E+00  0.00000000E+00
  0.00000000E+00  0.00000000E+00  0.00000000E+00
  0.00000000E+00  0.00000000E+00  0.00000000E+00
  0.00000000E+00  0.00000000E+00  0.00000000E+00
  0.00000000E+00  0.00000000E+00  0.00000000E+00
  0.00000000E+00  0.00000000E+00  0.00000000E+00
  0.00000000E+00  0.00000000E+00  0.00000000E+00
  0.00000000E+00  0.00000000E+00  0.00000000E+00
  0.00000000E+00  0.00000000E+00  0.00000000E+00
  0.00000000E+00  0.00000000E+00  0.00000000E+00
  0.00000000E+00  0.00000000E+00  0.00000000E+00
  0.00000000E+00  0.00000000E+00  0.00000000E+00
  0.00000000E+00  0.00000000E+00  0.00000000E+00
  0.00000000E+00  0.00000000E+00  0.00000000E+00
  0.00000000E+00  0.00000000E+00  0.00000000E+00
  0.00000000E+00  0.00000000E+00  0.00000000E+00
  0.00000000E+00  0.00000000E+00  0.00000000E+00
  0.00000000E+00  0.00000000E+00  0.00000000E+00
  0.00000000E+00  0.00000000E+00  0.00000000E+00
  0.00000000E+00  0.00000000E+00  0.00000000E+00
  0.00000000E+00  0.00000000E+00  0.00000000E+00
  0.00000000E+00  0.00000000E+00  0.00000000E+00
  0.00000000E+00  0.00000000E+00  0.00000000E+00
  0.00000000E+00  0.00000000E+00  0.00000000E+00
  0.00000000E+00  0.00000000E+00  0.00000000E+00
  0.00000000E+00  0.00000000E+00  0.00000000E+00
  0.00000000E+00  0.00000000E+00  0.00000000E+00
  0.00000000E+00  0.00000000E+00  0.00000000E+00
  0.00000000E+00  0.00000000E+00  0.00000000E+00
  0.00000000E+00  0.00000000E+00  0.00000000E+00
  0.00000000E+00  0.00000000E+00  0.00000000E+00
  0.00000000E+00  0.00000000E+00  0.00000000E+00
  0.00000000E+00  0.00000000E+00  0.00000000E+00
  0.00000000E+00  0.00000000E+00  0.00000000E+00
  0.00000000E+00  0.00000000E+00  0.00000000E+00
  0.00000000E+00  0.00000000E+00  0.00000000E+00
  0.00000000E+00  0.00000000E+00  0.00000000E+00
  0.00000000E+00  0.00000000E+00  0.00000000E+00
  0.00000000E+00  0.00000000E+00  0.00000000E+00
  0.00000000E+00  0.00000000E+00  0.00000000E+00
  0.00000000E+00  0.00000000E+00  0.00000000E+00
  0.00000000E+00  0.00000000E+00  0.00000000E+00
  0.00000000E+00  0.00000000E+00  0.00000000E+00
  0.00000000E+00  0.00000000E+00  0.00000000E+00
  0.00000000E+00  0.00000000E+00  0.00000000E+00
  0.00000000E+00  0.00000000E+00  0.00000000E+00
  0.00000000E+00  0.00000000E+00  0.00000000E+00
  0.00000000E+00  0.00000000E+00  0.00000000E+00
  0.00000000E+00  0.00000000E+00  0.00000000E+00
  0.00000000E+00  0.00000000E+00  0.00000000E+00
  0.00000000E+00  0.00000000E+00  0.00000000E+00
  0.00000000E+00  0.00000000E+00  0.00000000E+00
  0.00000000E+00  0.00000000E+00  0.00000000E+00
  0.00000000E+00  0.00000000E+00  0.00000000E+00
  0.00000000E+00  0.00000000E+00  0.00000000E+00
  0.00000000E+00  0.00000000E+00  0.00000000E+00
  0.00000000E+00  0.00000000E+00  0.00000000E+00
  0.00000000E+00  0.00000000E+00  0.00000000E+00
  0.00000000E+00  0.00000000E+00  0.00000000E+00
  0.00000000E+00  0.00000000E+00  0.00000000E+00
  0.00000000E+00  0.00000000E+00  0.00000000E+00
