C H O Si                                
   1.00000000000000     
     9.2874599999999994    0.0000000000000000    0.0000000000000000
     0.0000000000000000    8.7563099999999991    0.0000000000000000
     0.0000000000000000    0.0000000000000000   58.0000000000000000
   C    H    O    Si
    36    31    16    36
Selective dynamics
Direct
  0.9962950786546754  0.1307933985374844  0.0593949983479323   T   T   T
  0.3298247313737633  0.1309954953285828  0.0594649363094594   T   T   T
  0.6629246742075102  0.1308698860783416  0.0595606369789313   T   T   T
  0.9963129724890796  0.6311272554249632  0.0594109365397808   T   T   T
  0.3296917208340041  0.6306584129301442  0.0594866659149623   T   T   T
  0.6630096809797924  0.6306277130921774  0.0595304932031429   T   T   T
  0.1614022225568466  0.3768311154281724  0.1381548132663926   T   T   T
  0.4947580573816205  0.3770454017562093  0.1386585221667494   T   T   T
  0.8281507539183366  0.3768642719544586  0.1382564786034797   T   T   T
  0.1618072816995263  0.8767478526895427  0.1383091616638425   T   T   T
  0.4947565037168327  0.8747493954415455  0.1383930841330668   T   T   T
  0.8276308087869041  0.8767509701140220  0.1383687394142011   T   T   T
  0.3277768320140689  0.1270799616019387  0.1656588227078146   T   T   T
  0.6612866879437458  0.1273692871993682  0.1658034976048965   T   T   T
  0.9944079030283937  0.1260566618543837  0.1652525750144433   T   T   T
  0.3275618313712645  0.6271574634810595  0.1656836736309910   T   T   T
  0.6615618109497847  0.6271968389129957  0.1656762985168498   T   T   T
  0.9945311882984529  0.6269234877497794  0.1653172137526425   T   T   T
  0.1606580791009858  0.3781579320517747  0.1901483666114161   T   T   T
  0.4938873995655284  0.3850554616291568  0.1917529216427141   T   T   T
  0.8283841229372064  0.3792269413804653  0.1904467537469132   T   T   T
  0.1611649350149350  0.8807529575412011  0.1907155195859427   T   T   T
  0.4943712063038750  0.8775174826491597  0.1914584549808762   T   T   T
  0.8280194526103967  0.8810934489145764  0.1908952662861763   T   T   T
  0.1622698623511221  0.3769974315301283  0.0847238456657191   T   T   T
  0.4956181538074610  0.3770557902646964  0.0849658041488610   T   T   T
  0.8289896768676199  0.3770129865605208  0.0847861183409844   T   T   T
  0.1624654062331264  0.8771497656568437  0.0847938917633362   T   T   T
  0.4955854349275418  0.8768464642918233  0.0847669284893207   T   T   T
  0.8288130057705047  0.8771845008353192  0.0848385958482256   T   T   T
  0.3287001697318724  0.1265485502496118  0.1120409236202549   T   T   T
  0.6616551132252926  0.1265301843995921  0.1121117746408132   T   T   T
  0.9951585235834178  0.1265639821860920  0.1119175953359640   T   T   T
  0.3285864057614739  0.6265151808541112  0.1120369123740378   T   T   T
  0.6618019931250364  0.6264858757940395  0.1120572037249519   T   T   T
  0.9951200354937670  0.6270446239393079  0.1119000537886494   T   T   T
  0.0744165715193393  0.3644472350549290  0.0272663390290289   T   T   T
  0.4083520058535761  0.3648967915724089  0.0274443941474165   T   T   T
  0.7403763209019145  0.3642158844157996  0.0273808678025874   T   T   T
  0.0754394897440330  0.8651908325396206  0.0272988256150210   T   T   T
  0.4076284572483562  0.8635756899705692  0.0272995685854881   T   T   T
  0.7397679090337006  0.8639560963825319  0.0274262960696562   T   T   T
  0.3280353899635992  0.0577314265376122  0.0440442731876228   T   T   T
  0.6600532392960209  0.0575316296052464  0.0441509815759669   T   T   T
  0.9935562328381057  0.0576647930795316  0.0439640583365244   T   T   T
  0.3270785868049322  0.5572672800727850  0.0440835865540441   T   T   T
  0.6607073741485522  0.5572003152201416  0.0441317426409038   T   T   T
  0.9936720755205039  0.5582014587176154  0.0439516892565774   T   T   T
  0.8304685831154667  0.8064553179058793  0.2061614034269803   T   T   T
  0.8314109986971367  0.3063538968732173  0.2058998195604095   T   T   T
  0.1628132706860424  0.3055122533273552  0.2056242076811153   T   T   T
  0.4961187576090978  0.3100263042059160  0.2069839541801957   T   T   T
  0.1623909801751350  0.8062092264183995  0.2059892546579024   T   T   T
  0.0912936443389434  0.1125636181701586  0.2219200703196851   T   T   T
  0.4181988680935029  0.1049638915966288  0.2232357443572820   T   T   T
  0.7566346593359651  0.1189902485305437  0.2214509925658686   T   T   T
  0.0956972350173394  0.5977604853500350  0.2218186389247223   T   T   T
  0.3682831583615766  0.5642730765492562  0.2299985748917229   T   T   T
  0.7833678456532954  0.5904141847886922  0.2221670471905214   T   T   T
  0.5098349111262125  0.5416314744801118  0.2661868612360003   T   T   T
  0.4738600847829514  0.4563515231380779  0.3009294746235953   T   T   T
  0.5222031384877291  0.6233732512556035  0.3093847504246724   T   T   T
  0.2899949515637823  0.2742952271230493  0.2965825942057977   T   T   T
  0.4393792372546482  0.2165805932618257  0.2887139056665717   T   T   T
  0.6384263523707415  0.7733946190875124  0.3350569530133178   T   T   T
  0.5024597200766713  0.8627345472221323  0.3274182797370760   T   T   T
  0.5720842171088771  0.5333237279686055  0.2401910440138815   T   T   T
  0.1704297557144347  0.3359852063573691  0.0326675829444006   T   T   T
  0.5043139430168324  0.3366469170258807  0.0328973985162043   T   T   T
  0.8365945261842387  0.3360034848437229  0.0327275876326634   T   T   T
  0.1711983737184120  0.8362294772477951  0.0327464440989957   T   T   T
  0.5037737809809715  0.8353495977276605  0.0326798547254682   T   T   T
  0.8361433846348616  0.8363065169358856  0.0327722809473027   T   T   T
  0.3206510685726484  0.0885301108227630  0.2173860004886170   T   T   T
  0.6582879346684759  0.0881330911369732  0.2176671897726532   T   T   T
  0.9924935658672797  0.0875808917353415  0.2173864463357519   T   T   T
  0.2970152486977352  0.5868254657490659  0.2176992776443610   T   T   T
  0.6805033752299480  0.5821533428289347  0.2183410182089005   T   T   T
  0.9938222465608698  0.5822317237302540  0.2172751569306044   T   T   T
  0.5311330939688645  0.5475897856588360  0.2967698542062831   T   T   T
  0.3903082208946363  0.2676344272256746  0.3014230544480520   T   T   T
  0.5360848658184449  0.7613799887192104  0.3318044326607413   T   T   T
  0.4907749103072657  0.5021112657388312  0.2505145280457057   T   T   T
  0.4966584764824056  0.2481814362706849  0.0591965229188670   T   T   T
  0.8297845375162677  0.2479120514791083  0.0590582342163740   T   T   T
  0.1633817675429164  0.7480379940090077  0.0590687968077146   T   T   T
  0.4965773490680089  0.7478259048376951  0.0590740736620149   T   T   T
  0.8296756639339471  0.7481056682656644  0.0590943794965047   T   T   T
  0.1632409109536551  0.2479037217656405  0.0589968886596822   T   T   T
  0.9947188546090180  0.0005914094989689  0.1385546303494133   T   T   T
  0.3296303733767041  0.0009971796971407  0.1388540112339213   T   T   T
  0.6599149071939650  0.0011074527034825  0.1389485725583605   T   T   T
  0.9948015045966125  0.5011973493619972  0.1385066612725040   T   T   T
  0.3281876366029993  0.5019500348448690  0.1388637913303773   T   T   T
  0.6613977835771142  0.5018910675132835  0.1388525083591201   T   T   T
  0.1618212747153785  0.2489138927176349  0.1645095170400032   T   T   T
  0.4943683100815693  0.2513267706730756  0.1654011160611224   T   T   T
  0.8274616553386414  0.2491885792643548  0.1646479289718944   T   T   T
  0.1617423669232800  0.7509380856899596  0.1648524913918189   T   T   T
  0.4945239392849139  0.7544684125575958  0.1663092766294353   T   T   T
  0.8276824689847910  0.7511459941999490  0.1649526771555793   T   T   T
  0.3333502461226761  0.9913334114332701  0.1914763115690623   T   T   T
  0.6549283348535425  0.9914793868213160  0.1916844269229639   T   T   T
  0.9946946838263122  0.9971530168595554  0.1911253972712873   T   T   T
  0.3244025943484304  0.5003149800569041  0.1917563552846988   T   T   T
  0.9949193042944254  0.4954150933670498  0.1908090305772144   T   T   T
  0.6630509127289846  0.4990782373684243  0.1915318713618771   T   T   T
  0.9956520388014946  0.0009478816042460  0.0855591711728324   T   T   T
  0.3292935811478321  0.0010523407064858  0.0856418018599041   T   T   T
  0.6620461425775395  0.0010014372111913  0.0857141366176106   T   T   T
  0.9956575864168203  0.5010598200507982  0.0855473877996125   T   T   T
  0.3290160732048590  0.5009891861451760  0.0856755015597896   T   T   T
  0.6623204288674007  0.5009721112945590  0.0857041817987167   T   T   T
  0.1621136646659646  0.2511576604752696  0.1117989296387933   T   T   T
  0.4951829975257589  0.2514740428654599  0.1121046018139363   T   T   T
  0.8282606113804853  0.2511583405845200  0.1118641524441258   T   T   T
  0.1622629604395706  0.7514223040329761  0.1118765229053361   T   T   T
  0.4952015950621053  0.7515455261514469  0.1120052200542214   T   T   T
  0.8280782517249893  0.7513927071825124  0.1119189324468261   T   T   T
 
  0.00000000E+00  0.00000000E+00  0.00000000E+00
  0.00000000E+00  0.00000000E+00  0.00000000E+00
  0.00000000E+00  0.00000000E+00  0.00000000E+00
  0.00000000E+00  0.00000000E+00  0.00000000E+00
  0.00000000E+00  0.00000000E+00  0.00000000E+00
  0.00000000E+00  0.00000000E+00  0.00000000E+00
  0.00000000E+00  0.00000000E+00  0.00000000E+00
  0.00000000E+00  0.00000000E+00  0.00000000E+00
  0.00000000E+00  0.00000000E+00  0.00000000E+00
  0.00000000E+00  0.00000000E+00  0.00000000E+00
  0.00000000E+00  0.00000000E+00  0.00000000E+00
  0.00000000E+00  0.00000000E+00  0.00000000E+00
  0.00000000E+00  0.00000000E+00  0.00000000E+00
  0.00000000E+00  0.00000000E+00  0.00000000E+00
  0.00000000E+00  0.00000000E+00  0.00000000E+00
  0.00000000E+00  0.00000000E+00  0.00000000E+00
  0.00000000E+00  0.00000000E+00  0.00000000E+00
  0.00000000E+00  0.00000000E+00  0.00000000E+00
  0.00000000E+00  0.00000000E+00  0.00000000E+00
  0.00000000E+00  0.00000000E+00  0.00000000E+00
  0.00000000E+00  0.00000000E+00  0.00000000E+00
  0.00000000E+00  0.00000000E+00  0.00000000E+00
  0.00000000E+00  0.00000000E+00  0.00000000E+00
  0.00000000E+00  0.00000000E+00  0.00000000E+00
  0.00000000E+00  0.00000000E+00  0.00000000E+00
  0.00000000E+00  0.00000000E+00  0.00000000E+00
  0.00000000E+00  0.00000000E+00  0.00000000E+00
  0.00000000E+00  0.00000000E+00  0.00000000E+00
  0.00000000E+00  0.00000000E+00  0.00000000E+00
  0.00000000E+00  0.00000000E+00  0.00000000E+00
  0.00000000E+00  0.00000000E+00  0.00000000E+00
  0.00000000E+00  0.00000000E+00  0.00000000E+00
  0.00000000E+00  0.00000000E+00  0.00000000E+00
  0.00000000E+00  0.00000000E+00  0.00000000E+00
  0.00000000E+00  0.00000000E+00  0.00000000E+00
  0.00000000E+00  0.00000000E+00  0.00000000E+00
  0.00000000E+00  0.00000000E+00  0.00000000E+00
  0.00000000E+00  0.00000000E+00  0.00000000E+00
  0.00000000E+00  0.00000000E+00  0.00000000E+00
  0.00000000E+00  0.00000000E+00  0.00000000E+00
  0.00000000E+00  0.00000000E+00  0.00000000E+00
  0.00000000E+00  0.00000000E+00  0.00000000E+00
  0.00000000E+00  0.00000000E+00  0.00000000E+00
  0.00000000E+00  0.00000000E+00  0.00000000E+00
  0.00000000E+00  0.00000000E+00  0.00000000E+00
  0.00000000E+00  0.00000000E+00  0.00000000E+00
  0.00000000E+00  0.00000000E+00  0.00000000E+00
  0.00000000E+00  0.00000000E+00  0.00000000E+00
  0.00000000E+00  0.00000000E+00  0.00000000E+00
  0.00000000E+00  0.00000000E+00  0.00000000E+00
  0.00000000E+00  0.00000000E+00  0.00000000E+00
  0.00000000E+00  0.00000000E+00  0.00000000E+00
  0.00000000E+00  0.00000000E+00  0.00000000E+00
  0.00000000E+00  0.00000000E+00  0.00000000E+00
  0.00000000E+00  0.00000000E+00  0.00000000E+00
  0.00000000E+00  0.00000000E+00  0.00000000E+00
  0.00000000E+00  0.00000000E+00  0.00000000E+00
  0.00000000E+00  0.00000000E+00  0.00000000E+00
  0.00000000E+00  0.00000000E+00  0.00000000E+00
  0.00000000E+00  0.00000000E+00  0.00000000E+00
  0.00000000E+00  0.00000000E+00  0.00000000E+00
  0.00000000E+00  0.00000000E+00  0.00000000E+00
  0.00000000E+00  0.00000000E+00  0.00000000E+00
  0.00000000E+00  0.00000000E+00  0.00000000E+00
  0.00000000E+00  0.00000000E+00  0.00000000E+00
  0.00000000E+00  0.00000000E+00  0.00000000E+00
  0.00000000E+00  0.00000000E+00  0.00000000E+00
  0.00000000E+00  0.00000000E+00  0.00000000E+00
  0.00000000E+00  0.00000000E+00  0.00000000E+00
  0.00000000E+00  0.00000000E+00  0.00000000E+00
  0.00000000E+00  0.00000000E+00  0.00000000E+00
  0.00000000E+00  0.00000000E+00  0.00000000E+00
  0.00000000E+00  0.00000000E+00  0.00000000E+00
  0.00000000E+00  0.00000000E+00  0.00000000E+00
  0.00000000E+00  0.00000000E+00  0.00000000E+00
  0.00000000E+00  0.00000000E+00  0.00000000E+00
  0.00000000E+00  0.00000000E+00  0.00000000E+00
  0.00000000E+00  0.00000000E+00  0.00000000E+00
  0.00000000E+00  0.00000000E+00  0.00000000E+00
  0.00000000E+00  0.00000000E+00  0.00000000E+00
  0.00000000E+00  0.00000000E+00  0.00000000E+00
  0.00000000E+00  0.00000000E+00  0.00000000E+00
  0.00000000E+00  0.00000000E+00  0.00000000E+00
  0.00000000E+00  0.00000000E+00  0.00000000E+00
  0.00000000E+00  0.00000000E+00  0.00000000E+00
  0.00000000E+00  0.00000000E+00  0.00000000E+00
  0.00000000E+00  0.00000000E+00  0.00000000E+00
  0.00000000E+00  0.00000000E+00  0.00000000E+00
  0.00000000E+00  0.00000000E+00  0.00000000E+00
  0.00000000E+00  0.00000000E+00  0.00000000E+00
  0.00000000E+00  0.00000000E+00  0.00000000E+00
  0.00000000E+00  0.00000000E+00  0.00000000E+00
  0.00000000E+00  0.00000000E+00  0.00000000E+00
  0.00000000E+00  0.00000000E+00  0.00000000E+00
  0.00000000E+00  0.00000000E+00  0.00000000E+00
  0.00000000E+00  0.00000000E+00  0.00000000E+00
  0.00000000E+00  0.00000000E+00  0.00000000E+00
  0.00000000E+00  0.00000000E+00  0.00000000E+00
  0.00000000E+00  0.00000000E+00  0.00000000E+00
  0.00000000E+00  0.00000000E+00  0.00000000E+00
  0.00000000E+00  0.00000000E+00  0.00000000E+00
  0.00000000E+00  0.00000000E+00  0.00000000E+00
  0.00000000E+00  0.00000000E+00  0.00000000E+00
  0.00000000E+00  0.00000000E+00  0.00000000E+00
  0.00000000E+00  0.00000000E+00  0.00000000E+00
  0.00000000E+00  0.00000000E+00  0.00000000E+00
  0.00000000E+00  0.00000000E+00  0.00000000E+00
  0.00000000E+00  0.00000000E+00  0.00000000E+00
  0.00000000E+00  0.00000000E+00  0.00000000E+00
  0.00000000E+00  0.00000000E+00  0.00000000E+00
  0.00000000E+00  0.00000000E+00  0.00000000E+00
  0.00000000E+00  0.00000000E+00  0.00000000E+00
  0.00000000E+00  0.00000000E+00  0.00000000E+00
  0.00000000E+00  0.00000000E+00  0.00000000E+00
  0.00000000E+00  0.00000000E+00  0.00000000E+00
  0.00000000E+00  0.00000000E+00  0.00000000E+00
  0.00000000E+00  0.00000000E+00  0.00000000E+00
  0.00000000E+00  0.00000000E+00  0.00000000E+00
  0.00000000E+00  0.00000000E+00  0.00000000E+00
