C H O Si                                
   1.00000000000000     
     9.2874599999999994    0.0000000000000000    0.0000000000000000
     0.0000000000000000    8.7563099999999991    0.0000000000000000
     0.0000000000000000    0.0000000000000000   58.0000000000000000
   C    H    O    Si
    36    31    16    36
Selective dynamics
Direct
  0.9963429293518800  0.1307604448619020  0.0593916981030000   T   T   T
  0.3298664827424399  0.1310694653765620  0.0594631963910378   T   T   T
  0.6629901040616002  0.1308462069658934  0.0595669962391441   T   T   T
  0.9963165895797638  0.6312181741820143  0.0594086002359081   T   T   T
  0.3297484495796126  0.6306836889808776  0.0594882874726391   T   T   T
  0.6630079871611356  0.6305749306728493  0.0595400637907803   T   T   T
  0.1614295757811796  0.3768203078600562  0.1381431234407117   T   T   T
  0.4946661993838033  0.3769766612292317  0.1386560942354127   T   T   T
  0.8281092126318222  0.3768763413237845  0.1382357295697791   T   T   T
  0.1617797582428803  0.8767673104704875  0.1382938261554456   T   T   T
  0.4947317388032511  0.8747746177819872  0.1383717699909087   T   T   T
  0.8275938399494404  0.8767691937304454  0.1383545629552803   T   T   T
  0.3277302962609971  0.1271168109695209  0.1656637138404892   T   T   T
  0.6613971800497990  0.1273641577927049  0.1658132821083974   T   T   T
  0.9943735229284673  0.1260342813420716  0.1652500424808366   T   T   T
  0.3276067039150199  0.6271742376335373  0.1656877243210606   T   T   T
  0.6616018079997500  0.6271836783602056  0.1656935156729728   T   T   T
  0.9945430918627145  0.6268904879842729  0.1653154785520248   T   T   T
  0.1606619312860463  0.3781994351137741  0.1901486805752287   T   T   T
  0.4937558605060792  0.3850390215424006  0.1917576693756519   T   T   T
  0.8281887270648480  0.3793073146639566  0.1904548170943376   T   T   T
  0.1612414797776599  0.8807439615204509  0.1907021841607198   T   T   T
  0.4944416974973661  0.8773061281633662  0.1914353503136434   T   T   T
  0.8280184436297418  0.8812534966353442  0.1908987627025561   T   T   T
  0.1623927588299369  0.3769954905884288  0.0847353488945560   T   T   T
  0.4955889186282816  0.3770940648654425  0.0849734886695834   T   T   T
  0.8289334152250020  0.3770524010521160  0.0848059667969462   T   T   T
  0.1624968394550432  0.8771792711277201  0.0847984239681698   T   T   T
  0.4955984687644412  0.8767942457342033  0.0847717214872811   T   T   T
  0.8287955359224495  0.8771866328016089  0.0848424760627774   T   T   T
  0.3286792180946373  0.1265590662795627  0.1120486062358786   T   T   T
  0.6616630832842125  0.1265254359069723  0.1121213201876391   T   T   T
  0.9950272383724482  0.1266117080549702  0.1119275379647934   T   T   T
  0.3285080193933346  0.6264970666016668  0.1120365771649220   T   T   T
  0.6618308266450804  0.6264517026880339  0.1120569157169954   T   T   T
  0.9950603801759665  0.6270287219380445  0.1119105919036705   T   T   T
  0.0744717844128317  0.3643685336973385  0.0272622043436585   T   T   T
  0.4084013502008029  0.3647829639935601  0.0274522190384756   T   T   T
  0.7404392952714586  0.3641400202682380  0.0273824598846071   T   T   T
  0.0755248059916242  0.8650987466052555  0.0272970373603284   T   T   T
  0.4076229770604098  0.8635145063416325  0.0272949148015323   T   T   T
  0.7398328703139941  0.8638540647073518  0.0274358861150466   T   T   T
  0.3282254140120488  0.0577233464297361  0.0440439379403485   T   T   T
  0.6601709183362711  0.0575011601747503  0.0441493489467703   T   T   T
  0.9936854571134693  0.0575604730394422  0.0439530245762614   T   T   T
  0.3272405185038190  0.5572243824549526  0.0440864921501704   T   T   T
  0.6608604799340839  0.5571948004316470  0.0441353638498949   T   T   T
  0.9937790913656116  0.5582009105332016  0.0439455247151353   T   T   T
  0.8305152940339691  0.8065171139653479  0.2061535983045777   T   T   T
  0.8313412384796794  0.3063731645120150  0.2059050554679391   T   T   T
  0.1626726650687284  0.3054498727613119  0.2056198730927654   T   T   T
  0.4959792093843950  0.3100837024543844  0.2069942357492681   T   T   T
  0.1624143255344359  0.8063170374792517  0.2059878846904686   T   T   T
  0.0913794525071910  0.1125363818944276  0.2218906446077479   T   T   T
  0.4185538390172411  0.1043225922736317  0.2232272633040148   T   T   T
  0.7568748117218499  0.1188292780235215  0.2214448681023013   T   T   T
  0.0958090604202547  0.5977237513191178  0.2217967218521459   T   T   T
  0.3683441220019539  0.5643920352705278  0.2299680227619977   T   T   T
  0.7832321266688742  0.5904421265161792  0.2221803084064570   T   T   T
  0.5098213206635985  0.5419123683158896  0.2661480849920745   T   T   T
  0.4736821611109124  0.4562704291767548  0.3009150334663359   T   T   T
  0.5220205443514216  0.6233986966994406  0.3093734395173071   T   T   T
  0.2900293748546192  0.2741211426531072  0.2965427287450821   T   T   T
  0.4394856111236127  0.2168214429843708  0.2886601256755227   T   T   T
  0.6385407493632206  0.7731702516940778  0.3350344102483030   T   T   T
  0.5025371474403774  0.8627840825930682  0.3274462351707607   T   T   T
  0.5717802320762013  0.5334895465817693  0.2401852565161691   T   T   T
  0.1705481225033838  0.3361266527222688  0.0326666078366204   T   T   T
  0.5044548718568160  0.3367626992206761  0.0329017558680652   T   T   T
  0.8367357437830840  0.3361344810471949  0.0327257146692893   T   T   T
  0.1713118113846419  0.8364093007652317  0.0327657053426150   T   T   T
  0.5038170469715250  0.8354358668241044  0.0326790662700549   T   T   T
  0.8362783241879611  0.8363880048791565  0.0327756087575189   T   T   T
  0.3208831989407803  0.0885732873137465  0.2173910982802454   T   T   T
  0.6584770081596258  0.0884510525608864  0.2176175870445563   T   T   T
  0.9925155725793953  0.0876098201713275  0.2173779715232105   T   T   T
  0.2968711552582509  0.5865039989565792  0.2176955679985417   T   T   T
  0.6804794510322110  0.5819688936625125  0.2183124608131107   T   T   T
  0.9938705898999720  0.5824501917678176  0.2172715130869234   T   T   T
  0.5307974932026049  0.5476173753013849  0.2967589134127773   T   T   T
  0.3903542091392195  0.2676174992506371  0.3013859260043408   T   T   T
  0.5362370303425875  0.7612898565669691  0.3317470721258923   T   T   T
  0.4908214608771742  0.5016876481191280  0.2505184790842422   T   T   T
  0.4967185006498925  0.2481772780143719  0.0592253759265647   T   T   T
  0.8298369800222549  0.2480526997752745  0.0590796544105069   T   T   T
  0.1634879450844607  0.7480906522329809  0.0590843320452111   T   T   T
  0.4966330611165451  0.7478689483138306  0.0590872672813678   T   T   T
  0.8296186988332881  0.7481258737936419  0.0591142381879651   T   T   T
  0.1633161283619050  0.2480479481972337  0.0590149929000045   T   T   T
  0.9945775536219645  0.0005433533457608  0.1385500063887754   T   T   T
  0.3296588919506824  0.0009605000565960  0.1388637323855885   T   T   T
  0.6597668501722258  0.0011576624977091  0.1389537271437559   T   T   T
  0.9947501249748878  0.5011388708437791  0.1384986087820661   T   T   T
  0.3281759982517632  0.5020004372509628  0.1388666884571997   T   T   T
  0.6611957998108565  0.5018815279900231  0.1388521044088817   T   T   T
  0.1616614499367064  0.2488521126050335  0.1645092250615573   T   T   T
  0.4943013335208558  0.2512268598635012  0.1654214570668174   T   T   T
  0.8274345477632191  0.2492588239809659  0.1646589699081910   T   T   T
  0.1617375173751293  0.7509650802632485  0.1648665380787165   T   T   T
  0.4944577509986103  0.7542814745063009  0.1663144781823832   T   T   T
  0.8276722112077596  0.7512320740014464  0.1649669195844200   T   T   T
  0.3335798316649046  0.9912602931236929  0.1915026384152169   T   T   T
  0.6547874303854125  0.9915489554182191  0.1917232666192621   T   T   T
  0.9947514025020866  0.9971568290710098  0.1911013747253658   T   T   T
  0.3244294574285996  0.5002327830863497  0.1917693094422291   T   T   T
  0.9948299906701620  0.4955045946462164  0.1908009696361243   T   T   T
  0.6628792452760024  0.4991505140185287  0.1915516397424736   T   T   T
  0.9955227240789941  0.0009889896071251  0.0855727485543992   T   T   T
  0.3292024523255506  0.0011208982173231  0.0856616764121608   T   T   T
  0.6618772305078784  0.0010464944797549  0.0857318668915504   T   T   T
  0.9955369208452890  0.5011265280811860  0.0855618858258159   T   T   T
  0.3289198768763499  0.5010199336822130  0.0856917769777079   T   T   T
  0.6621622709849022  0.5010054480783581  0.0857210690306496   T   T   T
  0.1619980380037037  0.2511903728790027  0.1117994577100944   T   T   T
  0.4951032406542948  0.2514512374848960  0.1121204722449168   T   T   T
  0.8281914331181394  0.2511657349917815  0.1118689724778440   T   T   T
  0.1620645629561596  0.7513796535603079  0.1118808965433512   T   T   T
  0.4950962630117136  0.7514718217821843  0.1120123381453007   T   T   T
  0.8281007007113173  0.7514381362586336  0.1119207177260372   T   T   T
 
  0.00000000E+00  0.00000000E+00  0.00000000E+00
  0.00000000E+00  0.00000000E+00  0.00000000E+00
  0.00000000E+00  0.00000000E+00  0.00000000E+00
  0.00000000E+00  0.00000000E+00  0.00000000E+00
  0.00000000E+00  0.00000000E+00  0.00000000E+00
  0.00000000E+00  0.00000000E+00  0.00000000E+00
  0.00000000E+00  0.00000000E+00  0.00000000E+00
  0.00000000E+00  0.00000000E+00  0.00000000E+00
  0.00000000E+00  0.00000000E+00  0.00000000E+00
  0.00000000E+00  0.00000000E+00  0.00000000E+00
  0.00000000E+00  0.00000000E+00  0.00000000E+00
  0.00000000E+00  0.00000000E+00  0.00000000E+00
  0.00000000E+00  0.00000000E+00  0.00000000E+00
  0.00000000E+00  0.00000000E+00  0.00000000E+00
  0.00000000E+00  0.00000000E+00  0.00000000E+00
  0.00000000E+00  0.00000000E+00  0.00000000E+00
  0.00000000E+00  0.00000000E+00  0.00000000E+00
  0.00000000E+00  0.00000000E+00  0.00000000E+00
  0.00000000E+00  0.00000000E+00  0.00000000E+00
  0.00000000E+00  0.00000000E+00  0.00000000E+00
  0.00000000E+00  0.00000000E+00  0.00000000E+00
  0.00000000E+00  0.00000000E+00  0.00000000E+00
  0.00000000E+00  0.00000000E+00  0.00000000E+00
  0.00000000E+00  0.00000000E+00  0.00000000E+00
  0.00000000E+00  0.00000000E+00  0.00000000E+00
  0.00000000E+00  0.00000000E+00  0.00000000E+00
  0.00000000E+00  0.00000000E+00  0.00000000E+00
  0.00000000E+00  0.00000000E+00  0.00000000E+00
  0.00000000E+00  0.00000000E+00  0.00000000E+00
  0.00000000E+00  0.00000000E+00  0.00000000E+00
  0.00000000E+00  0.00000000E+00  0.00000000E+00
  0.00000000E+00  0.00000000E+00  0.00000000E+00
  0.00000000E+00  0.00000000E+00  0.00000000E+00
  0.00000000E+00  0.00000000E+00  0.00000000E+00
  0.00000000E+00  0.00000000E+00  0.00000000E+00
  0.00000000E+00  0.00000000E+00  0.00000000E+00
  0.00000000E+00  0.00000000E+00  0.00000000E+00
  0.00000000E+00  0.00000000E+00  0.00000000E+00
  0.00000000E+00  0.00000000E+00  0.00000000E+00
  0.00000000E+00  0.00000000E+00  0.00000000E+00
  0.00000000E+00  0.00000000E+00  0.00000000E+00
  0.00000000E+00  0.00000000E+00  0.00000000E+00
  0.00000000E+00  0.00000000E+00  0.00000000E+00
  0.00000000E+00  0.00000000E+00  0.00000000E+00
  0.00000000E+00  0.00000000E+00  0.00000000E+00
  0.00000000E+00  0.00000000E+00  0.00000000E+00
  0.00000000E+00  0.00000000E+00  0.00000000E+00
  0.00000000E+00  0.00000000E+00  0.00000000E+00
  0.00000000E+00  0.00000000E+00  0.00000000E+00
  0.00000000E+00  0.00000000E+00  0.00000000E+00
  0.00000000E+00  0.00000000E+00  0.00000000E+00
  0.00000000E+00  0.00000000E+00  0.00000000E+00
  0.00000000E+00  0.00000000E+00  0.00000000E+00
  0.00000000E+00  0.00000000E+00  0.00000000E+00
  0.00000000E+00  0.00000000E+00  0.00000000E+00
  0.00000000E+00  0.00000000E+00  0.00000000E+00
  0.00000000E+00  0.00000000E+00  0.00000000E+00
  0.00000000E+00  0.00000000E+00  0.00000000E+00
  0.00000000E+00  0.00000000E+00  0.00000000E+00
  0.00000000E+00  0.00000000E+00  0.00000000E+00
  0.00000000E+00  0.00000000E+00  0.00000000E+00
  0.00000000E+00  0.00000000E+00  0.00000000E+00
  0.00000000E+00  0.00000000E+00  0.00000000E+00
  0.00000000E+00  0.00000000E+00  0.00000000E+00
  0.00000000E+00  0.00000000E+00  0.00000000E+00
  0.00000000E+00  0.00000000E+00  0.00000000E+00
  0.00000000E+00  0.00000000E+00  0.00000000E+00
  0.00000000E+00  0.00000000E+00  0.00000000E+00
  0.00000000E+00  0.00000000E+00  0.00000000E+00
  0.00000000E+00  0.00000000E+00  0.00000000E+00
  0.00000000E+00  0.00000000E+00  0.00000000E+00
  0.00000000E+00  0.00000000E+00  0.00000000E+00
  0.00000000E+00  0.00000000E+00  0.00000000E+00
  0.00000000E+00  0.00000000E+00  0.00000000E+00
  0.00000000E+00  0.00000000E+00  0.00000000E+00
  0.00000000E+00  0.00000000E+00  0.00000000E+00
  0.00000000E+00  0.00000000E+00  0.00000000E+00
  0.00000000E+00  0.00000000E+00  0.00000000E+00
  0.00000000E+00  0.00000000E+00  0.00000000E+00
  0.00000000E+00  0.00000000E+00  0.00000000E+00
  0.00000000E+00  0.00000000E+00  0.00000000E+00
  0.00000000E+00  0.00000000E+00  0.00000000E+00
  0.00000000E+00  0.00000000E+00  0.00000000E+00
  0.00000000E+00  0.00000000E+00  0.00000000E+00
  0.00000000E+00  0.00000000E+00  0.00000000E+00
  0.00000000E+00  0.00000000E+00  0.00000000E+00
  0.00000000E+00  0.00000000E+00  0.00000000E+00
  0.00000000E+00  0.00000000E+00  0.00000000E+00
  0.00000000E+00  0.00000000E+00  0.00000000E+00
  0.00000000E+00  0.00000000E+00  0.00000000E+00
  0.00000000E+00  0.00000000E+00  0.00000000E+00
  0.00000000E+00  0.00000000E+00  0.00000000E+00
  0.00000000E+00  0.00000000E+00  0.00000000E+00
  0.00000000E+00  0.00000000E+00  0.00000000E+00
  0.00000000E+00  0.00000000E+00  0.00000000E+00
  0.00000000E+00  0.00000000E+00  0.00000000E+00
  0.00000000E+00  0.00000000E+00  0.00000000E+00
  0.00000000E+00  0.00000000E+00  0.00000000E+00
  0.00000000E+00  0.00000000E+00  0.00000000E+00
  0.00000000E+00  0.00000000E+00  0.00000000E+00
  0.00000000E+00  0.00000000E+00  0.00000000E+00
  0.00000000E+00  0.00000000E+00  0.00000000E+00
  0.00000000E+00  0.00000000E+00  0.00000000E+00
  0.00000000E+00  0.00000000E+00  0.00000000E+00
  0.00000000E+00  0.00000000E+00  0.00000000E+00
  0.00000000E+00  0.00000000E+00  0.00000000E+00
  0.00000000E+00  0.00000000E+00  0.00000000E+00
  0.00000000E+00  0.00000000E+00  0.00000000E+00
  0.00000000E+00  0.00000000E+00  0.00000000E+00
  0.00000000E+00  0.00000000E+00  0.00000000E+00
  0.00000000E+00  0.00000000E+00  0.00000000E+00
  0.00000000E+00  0.00000000E+00  0.00000000E+00
  0.00000000E+00  0.00000000E+00  0.00000000E+00
  0.00000000E+00  0.00000000E+00  0.00000000E+00
  0.00000000E+00  0.00000000E+00  0.00000000E+00
  0.00000000E+00  0.00000000E+00  0.00000000E+00
  0.00000000E+00  0.00000000E+00  0.00000000E+00
  0.00000000E+00  0.00000000E+00  0.00000000E+00
  0.00000000E+00  0.00000000E+00  0.00000000E+00
  0.00000000E+00  0.00000000E+00  0.00000000E+00
  0.00000000E+00  0.00000000E+00  0.00000000E+00
