C H O Si                                
   1.00000000000000     
     9.2874599999999994    0.0000000000000000    0.0000000000000000
     0.0000000000000000    8.7563099999999991    0.0000000000000000
     0.0000000000000000    0.0000000000000000   58.0000000000000000
   C    H    O    Si
    36    33    16    36
Selective dynamics
Direct
  0.9934883436313696  0.1265374772315024  0.0604389160296423   T   T   T
  0.3268902870583992  0.1265912453408893  0.0605386139779863   T   T   T
  0.6600856900090176  0.1265408262906094  0.0605253706903784   T   T   T
  0.9934470827552206  0.6266664534099077  0.0604521030152773   T   T   T
  0.3268016815685856  0.6264733387043586  0.0605605637826919   T   T   T
  0.6601327378236448  0.6264725586955423  0.0605231883292374   T   T   T
  0.1595509222719410  0.3725233232047847  0.1393840342287832   T   T   T
  0.4927993049613854  0.3730357225358835  0.1396532458590317   T   T   T
  0.8261617453263150  0.3724432101776292  0.1393313221059800   T   T   T
  0.1598609061978755  0.8726045580455697  0.1394421875735620   T   T   T
  0.4928345676251694  0.8723943576295913  0.1394983869492765   T   T   T
  0.8260215344107434  0.8726840683883310  0.1394220315023030   T   T   T
  0.3266843128522420  0.1232020824680622  0.1667248214243539   T   T   T
  0.6588326228467546  0.1229537564297518  0.1667062521934109   T   T   T
  0.9930157817457601  0.1220649967239649  0.1664524139953956   T   T   T
  0.3259478169413468  0.6228018149287621  0.1668297319084268   T   T   T
  0.6598281823992862  0.6229735411124324  0.1666775910725266   T   T   T
  0.9929268050740114  0.6227097840854475  0.1665343318935133   T   T   T
  0.1594289650519000  0.3746137971882230  0.1917248425187938   T   T   T
  0.4930083587531821  0.3801096781784223  0.1927925595239282   T   T   T
  0.8268856152174313  0.3739278380227402  0.1915541118508461   T   T   T
  0.1593139778829903  0.8769264635695964  0.1920027208517018   T   T   T
  0.4927455848438328  0.8760781251734617  0.1920889763796976   T   T   T
  0.8263378170377993  0.8768149587104629  0.1919373300568595   T   T   T
  0.1597986553976810  0.3727977184069039  0.0858169162889568   T   T   T
  0.4930842286326750  0.3728673048765655  0.0859585536322191   T   T   T
  0.8263959372292031  0.3727874912768910  0.0857902686504629   T   T   T
  0.1598983968878116  0.8728216109732569  0.0858422371276999   T   T   T
  0.4930983692289598  0.8727850320945841  0.0858866147218916   T   T   T
  0.8263510371813287  0.8728489699844352  0.0858299765989333   T   T   T
  0.3263550530560136  0.1226588372917074  0.1131023569145967   T   T   T
  0.6595199355466903  0.1226541701069546  0.1130930006543949   T   T   T
  0.9929933702296949  0.1225399764294222  0.1129958438947896   T   T   T
  0.3262750190092915  0.6225232136775861  0.1131336588818794   T   T   T
  0.6595982739376939  0.6225981870264450  0.1130845595695965   T   T   T
  0.9929418457282149  0.6227449403716365  0.1130027755112461   T   T   T
  0.0717418043894659  0.3557445757302294  0.0278707199677098   T   T   T
  0.4039930854168358  0.3558352961114248  0.0280659358515412   T   T   T
  0.7369367957252855  0.3554613426947000  0.0279467162564257   T   T   T
  0.0718623385880618  0.8559064898690774  0.0278919559503533   T   T   T
  0.4038111012719983  0.8553228753751697  0.0280077714305170   T   T   T
  0.7367906253545274  0.8555440272184134  0.0279829710302575   T   T   T
  0.3246486651151666  0.0530780345735520  0.0451439876939526   T   T   T
  0.6571886930326342  0.0530564436816885  0.0451291848973279   T   T   T
  0.9909587177560401  0.0531448403249091  0.0450312431590040   T   T   T
  0.3243569989613454  0.5528943992212265  0.0451734326221478   T   T   T
  0.6574756198257752  0.5529982825359667  0.0451274565471856   T   T   T
  0.9909384316846689  0.5533083797806339  0.0450422945455659   T   T   T
  0.8283596463011726  0.8040051789681623  0.2073821694762185   T   T   T
  0.8296526972706056  0.3011407814640364  0.2070211092973379   T   T   T
  0.1609439662699688  0.3018967159383752  0.2072031542257648   T   T   T
  0.4962161063863507  0.3056177899129408  0.2080750264329229   T   T   T
  0.1611021804891515  0.8033178708045607  0.2073832715724210   T   T   T
  0.4931020287967943  0.8025273552611556  0.2074909840387927   T   T   T
  0.0809895793464873  0.1080211949078774  0.2244618387090733   T   T   T
  0.4160174696910618  0.1082928602777286  0.2243616594538482   T   T   T
  0.7496939546459183  0.1066350859978855  0.2244298398644068   T   T   T
  0.0806965649798185  0.6022213297309300  0.2241610235109981   T   T   T
  0.3788029094570465  0.6182478770197070  0.2283157741282339   T   T   T
  0.7825686041183155  0.5909474688383286  0.2227055757478800   T   T   T
  0.5517060905784329  0.6130254462232512  0.2739774147276410   T   T   T
  0.4971434757744921  0.4775250589653020  0.2934420793333753   T   T   T
  0.5750184636445604  0.6398934269477287  0.3034088765413983   T   T   T
  0.3141908793307090  0.3888355952888138  0.3093252077184899   T   T   T
  0.4202708590356954  0.2592558490815423  0.3018958674397353   T   T   T
  0.6501988086185867  0.7332827777970418  0.3345338667548822   T   T   T
  0.4846703890509974  0.7564689357637172  0.3312583934933098   T   T   T
  0.5212055720196657  0.7891376365739742  0.2520688800056305   T   T   T
  0.5888008909563178  0.6436980972865234  0.2386753141622721   T   T   T
  0.1677201748452047  0.3313118353357852  0.0337131781227633   T   T   T
  0.5003037555784381  0.3320385310712614  0.0338519899080313   T   T   T
  0.8332773789714550  0.3308946191695777  0.0336439077344512   T   T   T
  0.1678078357913564  0.8313372356942306  0.0337375058833746   T   T   T
  0.5001464912570468  0.8311184976399137  0.0337498686339624   T   T   T
  0.8331514900576051  0.8312539246226675  0.0336984589213663   T   T   T
  0.3198226234624482  0.0820359599670207  0.2187489901600323   T   T   T
  0.6533151432711461  0.0822164753464087  0.2187109162212681   T   T   T
  0.9852589389701123  0.0821547556098877  0.2186275906097256   T   T   T
  0.2985249108698031  0.5812983515769994  0.2188754620780520   T   T   T
  0.6792929024241212  0.5825896078071443  0.2187457420578455   T   T   T
  0.9838248362813178  0.5778057790145795  0.2184643418237482   T   T   T
  0.5746443227909889  0.5605580781995763  0.2900371153552149   T   T   T
  0.3822708201268628  0.3586600257610494  0.2973504540137845   T   T   T
  0.5761786697690106  0.7538891008456033  0.3230063948749917   T   T   T
  0.5182343679509092  0.6778455515740636  0.2513592300215002   T   T   T
  0.4936619924585354  0.2437313258257265  0.0601241818516936   T   T   T
  0.8269033248902727  0.2435480232956212  0.0599907542041725   T   T   T
  0.1604074514096158  0.7435795476968852  0.0600456067799970   T   T   T
  0.4936258405970902  0.7435167943299645  0.0600758390608071   T   T   T
  0.8268444280203007  0.7436417367918158  0.0600249696399231   T   T   T
  0.1603827002774331  0.2435698041871138  0.0600231358242946   T   T   T
  0.9929956622484946  0.9967938343823431  0.1395377225331196   T   T   T
  0.3265559528040180  0.9974221065022921  0.1396852885075480   T   T   T
  0.6591588712090604  0.9973168309578266  0.1396711259132945   T   T   T
  0.9928661335793059  0.4971073880107927  0.1395309426433878   T   T   T
  0.3259936626128309  0.4973558883289571  0.1397533094669169   T   T   T
  0.6596506500136741  0.4971698837310901  0.1396409467012782   T   T   T
  0.1594766490857613  0.2459952221773682  0.1656940619412017   T   T   T
  0.4927802722177171  0.2483607905190874  0.1662119650863121   T   T   T
  0.8263638176420626  0.2453061851862362  0.1655730865558127   T   T   T
  0.1594820775850975  0.7470063487129585  0.1658676250308217   T   T   T
  0.4926606369749581  0.7465332679152986  0.1659184624738083   T   T   T
  0.8264431429622647  0.7470211093737652  0.1658174440153757   T   T   T
  0.3258309900212332  0.9937636655444753  0.1924703928910703   T   T   T
  0.6594143882938076  0.9935362459579637  0.1924609314107666   T   T   T
  0.9925868829287509  0.9939417901328182  0.1923349585271010   T   T   T
  0.3236873937705615  0.4949303540886716  0.1928235702508181   T   T   T
  0.9928518506938545  0.4913241945636328  0.1919882814115318   T   T   T
  0.6621066618803600  0.4930647333135630  0.1922292667497517   T   T   T
  0.9931326551848727  0.9967293231380290  0.0865781236978496   T   T   T
  0.3265365636168969  0.9968162662742451  0.0866652634681433   T   T   T
  0.6596740466341958  0.9968125332321319  0.0866560533591749   T   T   T
  0.9930940980545885  0.4968024839232460  0.0865787119086643   T   T   T
  0.3264448345831129  0.4967448440457240  0.0866918951751735   T   T   T
  0.6597526703068350  0.4967660070674103  0.0866527685330273   T   T   T
  0.1596392291431297  0.2471852520147458  0.1128076931125567   T   T   T
  0.4929037654099120  0.2473637362336051  0.1129768652736836   T   T   T
  0.8262882888149400  0.2470873813864743  0.1127697623992171   T   T   T
  0.1597550245054661  0.7472253262416988  0.1128462960907518   T   T   T
  0.4928836755170656  0.7471381057196766  0.1128800178985848   T   T   T
  0.8261846269167499  0.7472489765320958  0.1128300384042344   T   T   T
 
  0.00000000E+00  0.00000000E+00  0.00000000E+00
  0.00000000E+00  0.00000000E+00  0.00000000E+00
  0.00000000E+00  0.00000000E+00  0.00000000E+00
  0.00000000E+00  0.00000000E+00  0.00000000E+00
  0.00000000E+00  0.00000000E+00  0.00000000E+00
  0.00000000E+00  0.00000000E+00  0.00000000E+00
  0.00000000E+00  0.00000000E+00  0.00000000E+00
  0.00000000E+00  0.00000000E+00  0.00000000E+00
  0.00000000E+00  0.00000000E+00  0.00000000E+00
  0.00000000E+00  0.00000000E+00  0.00000000E+00
  0.00000000E+00  0.00000000E+00  0.00000000E+00
  0.00000000E+00  0.00000000E+00  0.00000000E+00
  0.00000000E+00  0.00000000E+00  0.00000000E+00
  0.00000000E+00  0.00000000E+00  0.00000000E+00
  0.00000000E+00  0.00000000E+00  0.00000000E+00
  0.00000000E+00  0.00000000E+00  0.00000000E+00
  0.00000000E+00  0.00000000E+00  0.00000000E+00
  0.00000000E+00  0.00000000E+00  0.00000000E+00
  0.00000000E+00  0.00000000E+00  0.00000000E+00
  0.00000000E+00  0.00000000E+00  0.00000000E+00
  0.00000000E+00  0.00000000E+00  0.00000000E+00
  0.00000000E+00  0.00000000E+00  0.00000000E+00
  0.00000000E+00  0.00000000E+00  0.00000000E+00
  0.00000000E+00  0.00000000E+00  0.00000000E+00
  0.00000000E+00  0.00000000E+00  0.00000000E+00
  0.00000000E+00  0.00000000E+00  0.00000000E+00
  0.00000000E+00  0.00000000E+00  0.00000000E+00
  0.00000000E+00  0.00000000E+00  0.00000000E+00
  0.00000000E+00  0.00000000E+00  0.00000000E+00
  0.00000000E+00  0.00000000E+00  0.00000000E+00
  0.00000000E+00  0.00000000E+00  0.00000000E+00
  0.00000000E+00  0.00000000E+00  0.00000000E+00
  0.00000000E+00  0.00000000E+00  0.00000000E+00
  0.00000000E+00  0.00000000E+00  0.00000000E+00
  0.00000000E+00  0.00000000E+00  0.00000000E+00
  0.00000000E+00  0.00000000E+00  0.00000000E+00
  0.00000000E+00  0.00000000E+00  0.00000000E+00
  0.00000000E+00  0.00000000E+00  0.00000000E+00
  0.00000000E+00  0.00000000E+00  0.00000000E+00
  0.00000000E+00  0.00000000E+00  0.00000000E+00
  0.00000000E+00  0.00000000E+00  0.00000000E+00
  0.00000000E+00  0.00000000E+00  0.00000000E+00
  0.00000000E+00  0.00000000E+00  0.00000000E+00
  0.00000000E+00  0.00000000E+00  0.00000000E+00
  0.00000000E+00  0.00000000E+00  0.00000000E+00
  0.00000000E+00  0.00000000E+00  0.00000000E+00
  0.00000000E+00  0.00000000E+00  0.00000000E+00
  0.00000000E+00  0.00000000E+00  0.00000000E+00
  0.00000000E+00  0.00000000E+00  0.00000000E+00
  0.00000000E+00  0.00000000E+00  0.00000000E+00
  0.00000000E+00  0.00000000E+00  0.00000000E+00
  0.00000000E+00  0.00000000E+00  0.00000000E+00
  0.00000000E+00  0.00000000E+00  0.00000000E+00
  0.00000000E+00  0.00000000E+00  0.00000000E+00
  0.00000000E+00  0.00000000E+00  0.00000000E+00
  0.00000000E+00  0.00000000E+00  0.00000000E+00
  0.00000000E+00  0.00000000E+00  0.00000000E+00
  0.00000000E+00  0.00000000E+00  0.00000000E+00
  0.00000000E+00  0.00000000E+00  0.00000000E+00
  0.00000000E+00  0.00000000E+00  0.00000000E+00
  0.00000000E+00  0.00000000E+00  0.00000000E+00
  0.00000000E+00  0.00000000E+00  0.00000000E+00
  0.00000000E+00  0.00000000E+00  0.00000000E+00
  0.00000000E+00  0.00000000E+00  0.00000000E+00
  0.00000000E+00  0.00000000E+00  0.00000000E+00
  0.00000000E+00  0.00000000E+00  0.00000000E+00
  0.00000000E+00  0.00000000E+00  0.00000000E+00
  0.00000000E+00  0.00000000E+00  0.00000000E+00
  0.00000000E+00  0.00000000E+00  0.00000000E+00
  0.00000000E+00  0.00000000E+00  0.00000000E+00
  0.00000000E+00  0.00000000E+00  0.00000000E+00
  0.00000000E+00  0.00000000E+00  0.00000000E+00
  0.00000000E+00  0.00000000E+00  0.00000000E+00
  0.00000000E+00  0.00000000E+00  0.00000000E+00
  0.00000000E+00  0.00000000E+00  0.00000000E+00
  0.00000000E+00  0.00000000E+00  0.00000000E+00
  0.00000000E+00  0.00000000E+00  0.00000000E+00
  0.00000000E+00  0.00000000E+00  0.00000000E+00
  0.00000000E+00  0.00000000E+00  0.00000000E+00
  0.00000000E+00  0.00000000E+00  0.00000000E+00
  0.00000000E+00  0.00000000E+00  0.00000000E+00
  0.00000000E+00  0.00000000E+00  0.00000000E+00
  0.00000000E+00  0.00000000E+00  0.00000000E+00
  0.00000000E+00  0.00000000E+00  0.00000000E+00
  0.00000000E+00  0.00000000E+00  0.00000000E+00
  0.00000000E+00  0.00000000E+00  0.00000000E+00
  0.00000000E+00  0.00000000E+00  0.00000000E+00
  0.00000000E+00  0.00000000E+00  0.00000000E+00
  0.00000000E+00  0.00000000E+00  0.00000000E+00
  0.00000000E+00  0.00000000E+00  0.00000000E+00
  0.00000000E+00  0.00000000E+00  0.00000000E+00
  0.00000000E+00  0.00000000E+00  0.00000000E+00
  0.00000000E+00  0.00000000E+00  0.00000000E+00
  0.00000000E+00  0.00000000E+00  0.00000000E+00
  0.00000000E+00  0.00000000E+00  0.00000000E+00
  0.00000000E+00  0.00000000E+00  0.00000000E+00
  0.00000000E+00  0.00000000E+00  0.00000000E+00
  0.00000000E+00  0.00000000E+00  0.00000000E+00
  0.00000000E+00  0.00000000E+00  0.00000000E+00
  0.00000000E+00  0.00000000E+00  0.00000000E+00
  0.00000000E+00  0.00000000E+00  0.00000000E+00
  0.00000000E+00  0.00000000E+00  0.00000000E+00
  0.00000000E+00  0.00000000E+00  0.00000000E+00
  0.00000000E+00  0.00000000E+00  0.00000000E+00
  0.00000000E+00  0.00000000E+00  0.00000000E+00
  0.00000000E+00  0.00000000E+00  0.00000000E+00
  0.00000000E+00  0.00000000E+00  0.00000000E+00
  0.00000000E+00  0.00000000E+00  0.00000000E+00
  0.00000000E+00  0.00000000E+00  0.00000000E+00
  0.00000000E+00  0.00000000E+00  0.00000000E+00
  0.00000000E+00  0.00000000E+00  0.00000000E+00
  0.00000000E+00  0.00000000E+00  0.00000000E+00
  0.00000000E+00  0.00000000E+00  0.00000000E+00
  0.00000000E+00  0.00000000E+00  0.00000000E+00
  0.00000000E+00  0.00000000E+00  0.00000000E+00
  0.00000000E+00  0.00000000E+00  0.00000000E+00
  0.00000000E+00  0.00000000E+00  0.00000000E+00
  0.00000000E+00  0.00000000E+00  0.00000000E+00
  0.00000000E+00  0.00000000E+00  0.00000000E+00
  0.00000000E+00  0.00000000E+00  0.00000000E+00
  0.00000000E+00  0.00000000E+00  0.00000000E+00
