C H O Si                                
   1.00000000000000     
     9.2874599999999994    0.0000000000000000    0.0000000000000000
     0.0000000000000000    8.7563099999999991    0.0000000000000000
     0.0000000000000000    0.0000000000000000   58.0000000000000000
   C    H    O    Si
    36    33    16    36
Selective dynamics
Direct
  0.9934820890374304  0.1264695774371927  0.0604585934925956   T   T   T
  0.3269121050260858  0.1265385548084473  0.0605526814249830   T   T   T
  0.6600585711032846  0.1265116257531769  0.0605379852488158   T   T   T
  0.9934405731195505  0.6266198546089468  0.0604713701057606   T   T   T
  0.3268298634631382  0.6264258758778298  0.0605724909368019   T   T   T
  0.6600972102910809  0.6264538422252640  0.0605352335754070   T   T   T
  0.1595301344619641  0.3726283584183570  0.1393839273676966   T   T   T
  0.4927665078530787  0.3730399670250660  0.1396403609326446   T   T   T
  0.8261517979819233  0.3724834600917946  0.1393394025739060   T   T   T
  0.1598484874195295  0.8726439889890475  0.1394351820773075   T   T   T
  0.4928438201351211  0.8724302506883327  0.1394907908373108   T   T   T
  0.8260326027154008  0.8727424863657893  0.1394156452503177   T   T   T
  0.3266561223541914  0.1233064144789400  0.1667455555839518   T   T   T
  0.6587611331262138  0.1230251666122205  0.1667189902249885   T   T   T
  0.9929682966835941  0.1220419696355638  0.1664525760915096   T   T   T
  0.3259219170612179  0.6228288059821075  0.1668361082097998   T   T   T
  0.6596528139805845  0.6229945957800552  0.1666951250737094   T   T   T
  0.9928483581300566  0.6227552266021157  0.1665341084073198   T   T   T
  0.1593497098780166  0.3745820683747118  0.1917272305739142   T   T   T
  0.4928745471794009  0.3801124474024257  0.1927909257058047   T   T   T
  0.8268217913312225  0.3739540623755729  0.1915572137989587   T   T   T
  0.1591938249409774  0.8768340489933576  0.1919886803014197   T   T   T
  0.4926604734138312  0.8760125402500079  0.1920767934648023   T   T   T
  0.8262987384216247  0.8766941744721635  0.1919212432063984   T   T   T
  0.1597531722318317  0.3728156172756586  0.0858253656762472   T   T   T
  0.4931375194311695  0.3728565663484382  0.0859563964630741   T   T   T
  0.8264078878224779  0.3728133970532461  0.0857956546638928   T   T   T
  0.1598389610678287  0.8728513302420843  0.0858471002639421   T   T   T
  0.4931303865583658  0.8727624963398485  0.0858935887838313   T   T   T
  0.8263760877628742  0.8728594967004272  0.0858396309101742   T   T   T
  0.3263302637817083  0.1226895901137435  0.1131003028489074   T   T   T
  0.6594509303595922  0.1226840612898062  0.1130927432591314   T   T   T
  0.9929993027057805  0.1225132225739190  0.1129937530849120   T   T   T
  0.3262535951340786  0.6225681890513320  0.1131271259168436   T   T   T
  0.6595365025745628  0.6226426468835154  0.1130863331683435   T   T   T
  0.9929233151380598  0.6227638381316252  0.1130061735848442   T   T   T
  0.0716683144720653  0.3555960657372700  0.0278683528273835   T   T   T
  0.4039145026704255  0.3557192641653030  0.0280589195413597   T   T   T
  0.7368210102057288  0.3553634898004916  0.0279379664170935   T   T   T
  0.0718037445783210  0.8557622409247955  0.0278892425722242   T   T   T
  0.4037329539051556  0.8552142519685413  0.0280005357755749   T   T   T
  0.7366851652892944  0.8554483567075658  0.0279741083753486   T   T   T
  0.3246320459240142  0.0530822681746897  0.0451451761875978   T   T   T
  0.6571751085396691  0.0530742572615194  0.0451328430124679   T   T   T
  0.9909438192403204  0.0531844214052486  0.0450365676808438   T   T   T
  0.3243418293460004  0.5529046907037879  0.0451755223131362   T   T   T
  0.6574620969902660  0.5530124593715897  0.0451290678555301   T   T   T
  0.9909286852177263  0.5533367691147628  0.0450450593638641   T   T   T
  0.8283767445015465  0.8040121222718800  0.2073861722103182   T   T   T
  0.8296969433132020  0.3011304126225453  0.2070216256269393   T   T   T
  0.1609387011445593  0.3018858862332310  0.2072109770205338   T   T   T
  0.4962410683476123  0.3056176706857036  0.2080845806408964   T   T   T
  0.1610718000040200  0.8033337265892525  0.2073867294053434   T   T   T
  0.4930661075295895  0.8025294599357435  0.2074930168974750   T   T   T
  0.0809886834489344  0.1080246207717839  0.2244888547095820   T   T   T
  0.4160077254284940  0.1083066154197321  0.2243788451019015   T   T   T
  0.7497490305132714  0.1066347739114016  0.2244594167255677   T   T   T
  0.0806876029661469  0.6022535373302600  0.2241709059984721   T   T   T
  0.3789191692019733  0.6181857271100797  0.2283447190448552   T   T   T
  0.7825174972384276  0.5909163215227259  0.2227051405031580   T   T   T
  0.5517493047329107  0.6130639152476467  0.2739781407477303   T   T   T
  0.4972609709349273  0.4775649207454540  0.2934503504532522   T   T   T
  0.5750795319782787  0.6399503277978206  0.3034087084379666   T   T   T
  0.3141989476699746  0.3889077076672179  0.3093329925711447   T   T   T
  0.4202024273426111  0.2591919453553026  0.3018955738521616   T   T   T
  0.6502350795758978  0.7333420833581766  0.3345578315724815   T   T   T
  0.4845733161037668  0.7564392929279370  0.3312674697030161   T   T   T
  0.5211321198428907  0.7890972052407424  0.2520520557191326   T   T   T
  0.5888814756545777  0.6436011350530682  0.2386710616655541   T   T   T
  0.1678967132017078  0.3314343855454807  0.0336608550032183   T   T   T
  0.5003685172098420  0.3321180052684680  0.0338126741168897   T   T   T
  0.8333353773042340  0.3309082173857469  0.0335964826778533   T   T   T
  0.1679559342780813  0.8314474610479423  0.0336870400586394   T   T   T
  0.5001997054357390  0.8311244393631009  0.0337015007963406   T   T   T
  0.8332048665128122  0.8312644499348979  0.0336539370932733   T   T   T
  0.3200799148915916  0.0820502493901713  0.2187425117388232   T   T   T
  0.6535069013705962  0.0822452662850096  0.2186977420098085   T   T   T
  0.9854826230448225  0.0820699128853497  0.2186346243702171   T   T   T
  0.2987516600344851  0.5812858322882318  0.2188705442634118   T   T   T
  0.6793504125562307  0.5827394789482490  0.2187443018884682   T   T   T
  0.9839168206616441  0.5775009465310589  0.2184543523945372   T   T   T
  0.5747946765831831  0.5606140421065137  0.2900157561209326   T   T   T
  0.3822439745059150  0.3586570106189456  0.2973449235201544   T   T   T
  0.5761436077749186  0.7538179296743138  0.3230164992037072   T   T   T
  0.5182194562551216  0.6778242088396518  0.2513545065950502   T   T   T
  0.4937396295197225  0.2437454014888051  0.0601147797507949   T   T   T
  0.8269921956280050  0.2435581163779179  0.0599742325415352   T   T   T
  0.1605066399234940  0.7435891769465872  0.0600336013998772   T   T   T
  0.4937022958133092  0.7435408215924663  0.0600694673873975   T   T   T
  0.8269150762291018  0.7436591372871159  0.0600103540378536   T   T   T
  0.1604950693380017  0.2435713366964340  0.0600073180575875   T   T   T
  0.9930628469084343  0.9968338465749059  0.1395413769354015   T   T   T
  0.3265505113513195  0.9975416280490881  0.1396993631188110   T   T   T
  0.6591590433513562  0.9974062420943099  0.1396789047962640   T   T   T
  0.9929007887792292  0.4972084186103763  0.1395374353386749   T   T   T
  0.3259764806244803  0.4974691075845941  0.1397584809925915   T   T   T
  0.6596560075761828  0.4972649728376259  0.1396513349266678   T   T   T
  0.1593897966479814  0.2459990335298535  0.1656988095525956   T   T   T
  0.4927020798191974  0.2484035387308408  0.1662099053118258   T   T   T
  0.8262617796289271  0.2452679025210154  0.1655822561132765   T   T   T
  0.1593957738436654  0.7469998243990940  0.1658713419095048   T   T   T
  0.4925720705920597  0.7465861486085253  0.1659169228937408   T   T   T
  0.8263563790890094  0.7469983920838404  0.1658216380706647   T   T   T
  0.3258073499980066  0.9936683150872974  0.1924785142617272   T   T   T
  0.6594363866993571  0.9933730999899807  0.1924684912663666   T   T   T
  0.9925636397607508  0.9938245209450253  0.1923391502786816   T   T   T
  0.3236496112528189  0.4949383192128589  0.1928450069068726   T   T   T
  0.9929147985297514  0.4912584382017577  0.1919928462380796   T   T   T
  0.6621142425540305  0.4929201533924682  0.1922367138893259   T   T   T
  0.9931412471175449  0.9967016407456412  0.0865892787768264   T   T   T
  0.3265513956441519  0.9967801813282429  0.0866742055502532   T   T   T
  0.6597101711616996  0.9968129966803615  0.0866645469453943   T   T   T
  0.9930948617954887  0.4967897620056315  0.0865915466348663   T   T   T
  0.3264484763819698  0.4967261156706818  0.0866971424039766   T   T   T
  0.6597630889463945  0.4967602422607820  0.0866616678915318   T   T   T
  0.1596040220889412  0.2472560561272700  0.1128052938962637   T   T   T
  0.4928525632245739  0.2473959105525933  0.1129663709272599   T   T   T
  0.8262546334945466  0.2471447038531877  0.1127687209839228   T   T   T
  0.1597143817524132  0.7472992269338400  0.1128388337715231   T   T   T
  0.4928278275370865  0.7471809704998256  0.1128785940288759   T   T   T
  0.8261330937647063  0.7473130915006265  0.1128282987005503   T   T   T
 
  0.00000000E+00  0.00000000E+00  0.00000000E+00
  0.00000000E+00  0.00000000E+00  0.00000000E+00
  0.00000000E+00  0.00000000E+00  0.00000000E+00
  0.00000000E+00  0.00000000E+00  0.00000000E+00
  0.00000000E+00  0.00000000E+00  0.00000000E+00
  0.00000000E+00  0.00000000E+00  0.00000000E+00
  0.00000000E+00  0.00000000E+00  0.00000000E+00
  0.00000000E+00  0.00000000E+00  0.00000000E+00
  0.00000000E+00  0.00000000E+00  0.00000000E+00
  0.00000000E+00  0.00000000E+00  0.00000000E+00
  0.00000000E+00  0.00000000E+00  0.00000000E+00
  0.00000000E+00  0.00000000E+00  0.00000000E+00
  0.00000000E+00  0.00000000E+00  0.00000000E+00
  0.00000000E+00  0.00000000E+00  0.00000000E+00
  0.00000000E+00  0.00000000E+00  0.00000000E+00
  0.00000000E+00  0.00000000E+00  0.00000000E+00
  0.00000000E+00  0.00000000E+00  0.00000000E+00
  0.00000000E+00  0.00000000E+00  0.00000000E+00
  0.00000000E+00  0.00000000E+00  0.00000000E+00
  0.00000000E+00  0.00000000E+00  0.00000000E+00
  0.00000000E+00  0.00000000E+00  0.00000000E+00
  0.00000000E+00  0.00000000E+00  0.00000000E+00
  0.00000000E+00  0.00000000E+00  0.00000000E+00
  0.00000000E+00  0.00000000E+00  0.00000000E+00
  0.00000000E+00  0.00000000E+00  0.00000000E+00
  0.00000000E+00  0.00000000E+00  0.00000000E+00
  0.00000000E+00  0.00000000E+00  0.00000000E+00
  0.00000000E+00  0.00000000E+00  0.00000000E+00
  0.00000000E+00  0.00000000E+00  0.00000000E+00
  0.00000000E+00  0.00000000E+00  0.00000000E+00
  0.00000000E+00  0.00000000E+00  0.00000000E+00
  0.00000000E+00  0.00000000E+00  0.00000000E+00
  0.00000000E+00  0.00000000E+00  0.00000000E+00
  0.00000000E+00  0.00000000E+00  0.00000000E+00
  0.00000000E+00  0.00000000E+00  0.00000000E+00
  0.00000000E+00  0.00000000E+00  0.00000000E+00
  0.00000000E+00  0.00000000E+00  0.00000000E+00
  0.00000000E+00  0.00000000E+00  0.00000000E+00
  0.00000000E+00  0.00000000E+00  0.00000000E+00
  0.00000000E+00  0.00000000E+00  0.00000000E+00
  0.00000000E+00  0.00000000E+00  0.00000000E+00
  0.00000000E+00  0.00000000E+00  0.00000000E+00
  0.00000000E+00  0.00000000E+00  0.00000000E+00
  0.00000000E+00  0.00000000E+00  0.00000000E+00
  0.00000000E+00  0.00000000E+00  0.00000000E+00
  0.00000000E+00  0.00000000E+00  0.00000000E+00
  0.00000000E+00  0.00000000E+00  0.00000000E+00
  0.00000000E+00  0.00000000E+00  0.00000000E+00
  0.00000000E+00  0.00000000E+00  0.00000000E+00
  0.00000000E+00  0.00000000E+00  0.00000000E+00
  0.00000000E+00  0.00000000E+00  0.00000000E+00
  0.00000000E+00  0.00000000E+00  0.00000000E+00
  0.00000000E+00  0.00000000E+00  0.00000000E+00
  0.00000000E+00  0.00000000E+00  0.00000000E+00
  0.00000000E+00  0.00000000E+00  0.00000000E+00
  0.00000000E+00  0.00000000E+00  0.00000000E+00
  0.00000000E+00  0.00000000E+00  0.00000000E+00
  0.00000000E+00  0.00000000E+00  0.00000000E+00
  0.00000000E+00  0.00000000E+00  0.00000000E+00
  0.00000000E+00  0.00000000E+00  0.00000000E+00
  0.00000000E+00  0.00000000E+00  0.00000000E+00
  0.00000000E+00  0.00000000E+00  0.00000000E+00
  0.00000000E+00  0.00000000E+00  0.00000000E+00
  0.00000000E+00  0.00000000E+00  0.00000000E+00
  0.00000000E+00  0.00000000E+00  0.00000000E+00
  0.00000000E+00  0.00000000E+00  0.00000000E+00
  0.00000000E+00  0.00000000E+00  0.00000000E+00
  0.00000000E+00  0.00000000E+00  0.00000000E+00
  0.00000000E+00  0.00000000E+00  0.00000000E+00
  0.00000000E+00  0.00000000E+00  0.00000000E+00
  0.00000000E+00  0.00000000E+00  0.00000000E+00
  0.00000000E+00  0.00000000E+00  0.00000000E+00
  0.00000000E+00  0.00000000E+00  0.00000000E+00
  0.00000000E+00  0.00000000E+00  0.00000000E+00
  0.00000000E+00  0.00000000E+00  0.00000000E+00
  0.00000000E+00  0.00000000E+00  0.00000000E+00
  0.00000000E+00  0.00000000E+00  0.00000000E+00
  0.00000000E+00  0.00000000E+00  0.00000000E+00
  0.00000000E+00  0.00000000E+00  0.00000000E+00
  0.00000000E+00  0.00000000E+00  0.00000000E+00
  0.00000000E+00  0.00000000E+00  0.00000000E+00
  0.00000000E+00  0.00000000E+00  0.00000000E+00
  0.00000000E+00  0.00000000E+00  0.00000000E+00
  0.00000000E+00  0.00000000E+00  0.00000000E+00
  0.00000000E+00  0.00000000E+00  0.00000000E+00
  0.00000000E+00  0.00000000E+00  0.00000000E+00
  0.00000000E+00  0.00000000E+00  0.00000000E+00
  0.00000000E+00  0.00000000E+00  0.00000000E+00
  0.00000000E+00  0.00000000E+00  0.00000000E+00
  0.00000000E+00  0.00000000E+00  0.00000000E+00
  0.00000000E+00  0.00000000E+00  0.00000000E+00
  0.00000000E+00  0.00000000E+00  0.00000000E+00
  0.00000000E+00  0.00000000E+00  0.00000000E+00
  0.00000000E+00  0.00000000E+00  0.00000000E+00
  0.00000000E+00  0.00000000E+00  0.00000000E+00
  0.00000000E+00  0.00000000E+00  0.00000000E+00
  0.00000000E+00  0.00000000E+00  0.00000000E+00
  0.00000000E+00  0.00000000E+00  0.00000000E+00
  0.00000000E+00  0.00000000E+00  0.00000000E+00
  0.00000000E+00  0.00000000E+00  0.00000000E+00
  0.00000000E+00  0.00000000E+00  0.00000000E+00
  0.00000000E+00  0.00000000E+00  0.00000000E+00
  0.00000000E+00  0.00000000E+00  0.00000000E+00
  0.00000000E+00  0.00000000E+00  0.00000000E+00
  0.00000000E+00  0.00000000E+00  0.00000000E+00
  0.00000000E+00  0.00000000E+00  0.00000000E+00
  0.00000000E+00  0.00000000E+00  0.00000000E+00
  0.00000000E+00  0.00000000E+00  0.00000000E+00
  0.00000000E+00  0.00000000E+00  0.00000000E+00
  0.00000000E+00  0.00000000E+00  0.00000000E+00
  0.00000000E+00  0.00000000E+00  0.00000000E+00
  0.00000000E+00  0.00000000E+00  0.00000000E+00
  0.00000000E+00  0.00000000E+00  0.00000000E+00
  0.00000000E+00  0.00000000E+00  0.00000000E+00
  0.00000000E+00  0.00000000E+00  0.00000000E+00
  0.00000000E+00  0.00000000E+00  0.00000000E+00
  0.00000000E+00  0.00000000E+00  0.00000000E+00
  0.00000000E+00  0.00000000E+00  0.00000000E+00
  0.00000000E+00  0.00000000E+00  0.00000000E+00
  0.00000000E+00  0.00000000E+00  0.00000000E+00
  0.00000000E+00  0.00000000E+00  0.00000000E+00
