C H O Si                                
   1.00000000000000     
     9.2874599999999994    0.0000000000000000    0.0000000000000000
     0.0000000000000000    8.7562999999999995    0.0000000000000000
     0.0000000000000000    0.0000000000000000   58.0000000000000000
   C    H    O    Si
    36    24    12    36
Selective dynamics
Direct
  0.0011674548880371  0.1360446790706330  0.4342594616351708   T   T   T
  0.0011674548880371  0.6360446790706330  0.4342594616351708   T   T   T
  0.3345007882210388  0.1360446790706330  0.4342594616351708   T   T   T
  0.3345007882210388  0.6360446790706330  0.4342594616351708   T   T   T
  0.6678341215550353  0.1360446790706330  0.4342594616351708   T   T   T
  0.6678341215550353  0.6360446790706330  0.4342594616351708   T   T   T
  0.1681612643550392  0.3822103152472058  0.4595995653711989   T   T   T
  0.1681612643550392  0.8822103152472057  0.4595995653711989   T   T   T
  0.5014945976890356  0.3822103152472058  0.4595995653711989   T   T   T
  0.5014945976890356  0.8822103152472057  0.4595995653711989   T   T   T
  0.8348279310220373  0.3822103152472058  0.4595995653711989   T   T   T
  0.8348279310220373  0.8822103152472057  0.4595995653711989   T   T   T
  0.0015985218579749  0.1319555101644087  0.4867997695064444   T   T   T
  0.0015985218579749  0.6319555101644085  0.4867997695064444   T   T   T
  0.3349318551909766  0.1319555101644087  0.4867997695064444   T   T   T
  0.3349318551909766  0.6319555101644085  0.4867997695064444   T   T   T
  0.6682651885249801  0.1319555101644087  0.4867997695064444   T   T   T
  0.6682651885249801  0.6319555101644085  0.4867997695064444   T   T   T
  0.1682652770559762  0.3819556789734039  0.5132002304935558   T   T   T
  0.1682652770559762  0.8819556789734038  0.5132002304935558   T   T   T
  0.5015986103899795  0.3819556789734039  0.5132002304935558   T   T   T
  0.5015986103899795  0.8819556789734038  0.5132002304935558   T   T   T
  0.8349319437229813  0.3819556789734039  0.5132002304935558   T   T   T
  0.8349319437229813  0.8819556789734038  0.5132002304935558   T   T   T
  0.0014945091570380  0.1322101464382106  0.5404004346288012   T   T   T
  0.0014945091570380  0.6322101464382105  0.5404004346288012   T   T   T
  0.3348278424900327  0.1322101464382106  0.5404004346288012   T   T   T
  0.3348278424900327  0.6322101464382105  0.5404004346288012   T   T   T
  0.6681611758240361  0.1322101464382106  0.5404004346288012   T   T   T
  0.6681611758240361  0.6322101464382105  0.5404004346288012   T   T   T
  0.1678342100860384  0.3860448478796282  0.5657405383648293   T   T   T
  0.1678342100860384  0.8860448478796282  0.5657405383648293   T   T   T
  0.5011675434200348  0.3860448478796282  0.5657405383648293   T   T   T
  0.5011675434200348  0.8860448478796282  0.5657405383648293   T   T   T
  0.8345008767530365  0.3860448478796282  0.5657405383648293   T   T   T
  0.8345008767530365  0.8860448478796282  0.5657405383648293   T   T   T
  0.0037888474127663  0.0631104112670623  0.4187974026054424   T   T   T
  0.0037888474127663  0.5631104112670622  0.4187974026054424   T   T   T
  0.3371221807467699  0.0631104112670623  0.4187974026054424   T   T   T
  0.3371221807467699  0.5631104112670622  0.4187974026054424   T   T   T
  0.6704555140797714  0.0631104112670623  0.4187974026054424   T   T   T
  0.6704555140797714  0.5631104112670622  0.4187974026054424   T   T   T
  0.1704557659567691  0.3131105800760645  0.5812025973945575   T   T   T
  0.1704557659567691  0.8131105800760645  0.5812025973945575   T   T   T
  0.5037890992907654  0.3131105800760645  0.5812025973945575   T   T   T
  0.5037890992907654  0.8131105800760645  0.5812025973945575   T   T   T
  0.8371224326237672  0.3131105800760645  0.5812025973945575   T   T   T
  0.8371224326237672  0.8131105800760645  0.5812025973945575   T   T   T
  0.0874306185194096  0.1139385365829107  0.5989436966415524   T   T   T
  0.0874306185194096  0.6139385365829108  0.5989436966415524   T   T   T
  0.4207639518524113  0.1139385365829107  0.5989436966415524   T   T   T
  0.4207639518524113  0.6139385365829108  0.5989436966415524   T   T   T
  0.7540972851854059  0.1139385365829107  0.5989436966415524   T   T   T
  0.7540972851854059  0.6139385365829108  0.5989436966415524   T   T   T
  0.2540972546334113  0.3639387810199075  0.4010563033584473   T   T   T
  0.2540972546334113  0.8639387810199076  0.4010563033584473   T   T   T
  0.5874305879664058  0.3639387810199075  0.4010563033584473   T   T   T
  0.5874305879664058  0.8639387810199076  0.4010563033584473   T   T   T
  0.9207639212994075  0.3639387810199075  0.4010563033584473   T   T   T
  0.9207639212994075  0.8639387810199076  0.4010563033584473   T   T   T
  0.1594416228348618  0.3423178376901490  0.4076582883139560   T   T   T
  0.1594416228348618  0.8423178376901488  0.4076582883139560   T   T   T
  0.4927749561688581  0.3423178376901490  0.4076582883139560   T   T   T
  0.4927749561688581  0.8423178376901488  0.4076582883139560   T   T   T
  0.8261082895018600  0.3423178376901490  0.4076582883139560   T   T   T
  0.8261082895018600  0.8423178376901488  0.4076582883139560   T   T   T
  0.9927749363018631  0.0923176688811467  0.5923417116860439   T   T   T
  0.9927749363018631  0.5923176688811465  0.5923417116860439   T   T   T
  0.3261082696358595  0.0923176688811467  0.5923417116860439   T   T   T
  0.3261082696358595  0.5923176688811465  0.5923417116860439   T   T   T
  0.6594416029688613  0.0923176688811467  0.5923417116860439   T   T   T
  0.6594416029688613  0.5923176688811465  0.5923417116860439   T   T   T
  0.1676663460812154  0.2532858145864097  0.4336328147837305   T   T   T
  0.1676663460812154  0.7532858145864098  0.4336328147837305   T   T   T
  0.5009996794152120  0.2532858145864097  0.4336328147837305   T   T   T
  0.5009996794152120  0.7532858145864098  0.4336328147837305   T   T   T
  0.8343330127482137  0.2532858145864097  0.4336328147837305   T   T   T
  0.8343330127482137  0.7532858145864098  0.4336328147837305   T   T   T
  0.0014661967356005  0.0062690910915349  0.4602708020806045   T   T   T
  0.0014661967356005  0.5062690910915347  0.4602708020806045   T   T   T
  0.3347995300686024  0.0062690910915349  0.4602708020806045   T   T   T
  0.3347995300686024  0.5062690910915347  0.4602708020806045   T   T   T
  0.6681328634025987  0.0062690910915349  0.4602708020806045   T   T   T
  0.6681328634025987  0.5062690910915347  0.4602708020806045   T   T   T
  0.1682557935100988  0.2568065968246864  0.4865593287093130   T   T   T
  0.1682557935100988  0.7568065968246862  0.4865593287093130   T   T   T
  0.5015891268440953  0.2568065968246864  0.4865593287093130   T   T   T
  0.5015891268440953  0.7568065968246862  0.4865593287093130   T   T   T
  0.8349224601770970  0.2568065968246864  0.4865593287093130   T   T   T
  0.8349224601770970  0.7568065968246862  0.4865593287093130   T   T   T
  0.0015890383120976  0.0068064280146892  0.5134406712906869   T   T   T
  0.0015890383120976  0.5068064280146891  0.5134406712906869   T   T   T
  0.3349223716450995  0.0068064280146892  0.5134406712906869   T   T   T
  0.3349223716450995  0.5068064280146891  0.5134406712906869   T   T   T
  0.6682557049790958  0.0068064280146892  0.5134406712906869   T   T   T
  0.6682557049790958  0.5068064280146891  0.5134406712906869   T   T   T
  0.1681329519336018  0.2562692599015319  0.5397291979193954   T   T   T
  0.1681329519336018  0.7562692599015318  0.5397291979193954   T   T   T
  0.5014662852675982  0.2562692599015319  0.5397291979193954   T   T   T
  0.5014662852675982  0.7562692599015318  0.5397291979193954   T   T   T
  0.8347996186005999  0.2562692599015319  0.5397291979193954   T   T   T
  0.8347996186005999  0.7562692599015318  0.5397291979193954   T   T   T
  0.0009995908832142  0.0032856457764126  0.5663671852162696   T   T   T
  0.0009995908832142  0.5032856457764127  0.5663671852162696   T   T   T
  0.3343329242162160  0.0032856457764126  0.5663671852162696   T   T   T
  0.3343329242162160  0.5032856457764127  0.5663671852162696   T   T   T
  0.6676662575502125  0.0032856457764126  0.5663671852162696   T   T   T
  0.6676662575502125  0.5032856457764127  0.5663671852162696   T   T   T
 
  0.00000000E+00  0.00000000E+00  0.00000000E+00
  0.00000000E+00  0.00000000E+00  0.00000000E+00
  0.00000000E+00  0.00000000E+00  0.00000000E+00
  0.00000000E+00  0.00000000E+00  0.00000000E+00
  0.00000000E+00  0.00000000E+00  0.00000000E+00
  0.00000000E+00  0.00000000E+00  0.00000000E+00
  0.00000000E+00  0.00000000E+00  0.00000000E+00
  0.00000000E+00  0.00000000E+00  0.00000000E+00
  0.00000000E+00  0.00000000E+00  0.00000000E+00
  0.00000000E+00  0.00000000E+00  0.00000000E+00
  0.00000000E+00  0.00000000E+00  0.00000000E+00
  0.00000000E+00  0.00000000E+00  0.00000000E+00
  0.00000000E+00  0.00000000E+00  0.00000000E+00
  0.00000000E+00  0.00000000E+00  0.00000000E+00
  0.00000000E+00  0.00000000E+00  0.00000000E+00
  0.00000000E+00  0.00000000E+00  0.00000000E+00
  0.00000000E+00  0.00000000E+00  0.00000000E+00
  0.00000000E+00  0.00000000E+00  0.00000000E+00
  0.00000000E+00  0.00000000E+00  0.00000000E+00
  0.00000000E+00  0.00000000E+00  0.00000000E+00
  0.00000000E+00  0.00000000E+00  0.00000000E+00
  0.00000000E+00  0.00000000E+00  0.00000000E+00
  0.00000000E+00  0.00000000E+00  0.00000000E+00
  0.00000000E+00  0.00000000E+00  0.00000000E+00
  0.00000000E+00  0.00000000E+00  0.00000000E+00
  0.00000000E+00  0.00000000E+00  0.00000000E+00
  0.00000000E+00  0.00000000E+00  0.00000000E+00
  0.00000000E+00  0.00000000E+00  0.00000000E+00
  0.00000000E+00  0.00000000E+00  0.00000000E+00
  0.00000000E+00  0.00000000E+00  0.00000000E+00
  0.00000000E+00  0.00000000E+00  0.00000000E+00
  0.00000000E+00  0.00000000E+00  0.00000000E+00
  0.00000000E+00  0.00000000E+00  0.00000000E+00
  0.00000000E+00  0.00000000E+00  0.00000000E+00
  0.00000000E+00  0.00000000E+00  0.00000000E+00
  0.00000000E+00  0.00000000E+00  0.00000000E+00
  0.00000000E+00  0.00000000E+00  0.00000000E+00
  0.00000000E+00  0.00000000E+00  0.00000000E+00
  0.00000000E+00  0.00000000E+00  0.00000000E+00
  0.00000000E+00  0.00000000E+00  0.00000000E+00
  0.00000000E+00  0.00000000E+00  0.00000000E+00
  0.00000000E+00  0.00000000E+00  0.00000000E+00
  0.00000000E+00  0.00000000E+00  0.00000000E+00
  0.00000000E+00  0.00000000E+00  0.00000000E+00
  0.00000000E+00  0.00000000E+00  0.00000000E+00
  0.00000000E+00  0.00000000E+00  0.00000000E+00
  0.00000000E+00  0.00000000E+00  0.00000000E+00
  0.00000000E+00  0.00000000E+00  0.00000000E+00
  0.00000000E+00  0.00000000E+00  0.00000000E+00
  0.00000000E+00  0.00000000E+00  0.00000000E+00
  0.00000000E+00  0.00000000E+00  0.00000000E+00
  0.00000000E+00  0.00000000E+00  0.00000000E+00
  0.00000000E+00  0.00000000E+00  0.00000000E+00
  0.00000000E+00  0.00000000E+00  0.00000000E+00
  0.00000000E+00  0.00000000E+00  0.00000000E+00
  0.00000000E+00  0.00000000E+00  0.00000000E+00
  0.00000000E+00  0.00000000E+00  0.00000000E+00
  0.00000000E+00  0.00000000E+00  0.00000000E+00
  0.00000000E+00  0.00000000E+00  0.00000000E+00
  0.00000000E+00  0.00000000E+00  0.00000000E+00
  0.00000000E+00  0.00000000E+00  0.00000000E+00
  0.00000000E+00  0.00000000E+00  0.00000000E+00
  0.00000000E+00  0.00000000E+00  0.00000000E+00
  0.00000000E+00  0.00000000E+00  0.00000000E+00
  0.00000000E+00  0.00000000E+00  0.00000000E+00
  0.00000000E+00  0.00000000E+00  0.00000000E+00
  0.00000000E+00  0.00000000E+00  0.00000000E+00
  0.00000000E+00  0.00000000E+00  0.00000000E+00
  0.00000000E+00  0.00000000E+00  0.00000000E+00
  0.00000000E+00  0.00000000E+00  0.00000000E+00
  0.00000000E+00  0.00000000E+00  0.00000000E+00
  0.00000000E+00  0.00000000E+00  0.00000000E+00
  0.00000000E+00  0.00000000E+00  0.00000000E+00
  0.00000000E+00  0.00000000E+00  0.00000000E+00
  0.00000000E+00  0.00000000E+00  0.00000000E+00
  0.00000000E+00  0.00000000E+00  0.00000000E+00
  0.00000000E+00  0.00000000E+00  0.00000000E+00
  0.00000000E+00  0.00000000E+00  0.00000000E+00
  0.00000000E+00  0.00000000E+00  0.00000000E+00
  0.00000000E+00  0.00000000E+00  0.00000000E+00
  0.00000000E+00  0.00000000E+00  0.00000000E+00
  0.00000000E+00  0.00000000E+00  0.00000000E+00
  0.00000000E+00  0.00000000E+00  0.00000000E+00
  0.00000000E+00  0.00000000E+00  0.00000000E+00
  0.00000000E+00  0.00000000E+00  0.00000000E+00
  0.00000000E+00  0.00000000E+00  0.00000000E+00
  0.00000000E+00  0.00000000E+00  0.00000000E+00
  0.00000000E+00  0.00000000E+00  0.00000000E+00
  0.00000000E+00  0.00000000E+00  0.00000000E+00
  0.00000000E+00  0.00000000E+00  0.00000000E+00
  0.00000000E+00  0.00000000E+00  0.00000000E+00
  0.00000000E+00  0.00000000E+00  0.00000000E+00
  0.00000000E+00  0.00000000E+00  0.00000000E+00
  0.00000000E+00  0.00000000E+00  0.00000000E+00
  0.00000000E+00  0.00000000E+00  0.00000000E+00
  0.00000000E+00  0.00000000E+00  0.00000000E+00
  0.00000000E+00  0.00000000E+00  0.00000000E+00
  0.00000000E+00  0.00000000E+00  0.00000000E+00
  0.00000000E+00  0.00000000E+00  0.00000000E+00
  0.00000000E+00  0.00000000E+00  0.00000000E+00
  0.00000000E+00  0.00000000E+00  0.00000000E+00
  0.00000000E+00  0.00000000E+00  0.00000000E+00
  0.00000000E+00  0.00000000E+00  0.00000000E+00
  0.00000000E+00  0.00000000E+00  0.00000000E+00
  0.00000000E+00  0.00000000E+00  0.00000000E+00
  0.00000000E+00  0.00000000E+00  0.00000000E+00
  0.00000000E+00  0.00000000E+00  0.00000000E+00
  0.00000000E+00  0.00000000E+00  0.00000000E+00
