C H O Si                                
   1.00000000000000     
     9.2874599999999994    0.0000000000000000    0.0000000000000000
     0.0000000000000000    8.7562999999999995    0.0000000000000000
     0.0000000000000000    0.0000000000000000   58.0000000000000000
   C    H    O    Si
    36    24    12    36
Selective dynamics
Direct
  0.0015375199532297  0.1360793391978299  0.4342650385961287   T   T   T
  0.0015375199532297  0.6360793391978299  0.4342650385961287   T   T   T
  0.3348708532862316  0.1360793391978299  0.4342650385961287   T   T   T
  0.3348708532862316  0.6360793391978299  0.4342650385961287   T   T   T
  0.6682041866202277  0.1360793391978299  0.4342650385961287   T   T   T
  0.6682041866202277  0.6360793391978299  0.4342650385961287   T   T   T
  0.1683394748481737  0.3819194381526750  0.4596377148975589   T   T   T
  0.1683394748481737  0.8819194381526749  0.4596377148975589   T   T   T
  0.5016728081821704  0.3819194381526750  0.4596377148975589   T   T   T
  0.5016728081821704  0.8819194381526749  0.4596377148975589   T   T   T
  0.8350061415151722  0.3819194381526750  0.4596377148975589   T   T   T
  0.8350061415151722  0.8819194381526749  0.4596377148975589   T   T   T
  0.0016563301026894  0.1316814002333879  0.4868054509522216   T   T   T
  0.0016563301026894  0.6316814002333876  0.4868054509522216   T   T   T
  0.3349896634356911  0.1316814002333879  0.4868054509522216   T   T   T
  0.3349896634356911  0.6316814002333876  0.4868054509522216   T   T   T
  0.6683229967696950  0.1316814002333879  0.4868054509522216   T   T   T
  0.6683229967696950  0.6316814002333876  0.4868054509522216   T   T   T
  0.1683230853006906  0.3816815690423832  0.5131945490477786   T   T   T
  0.1683230853006906  0.8816815690423828  0.5131945490477786   T   T   T
  0.5016564186346945  0.3816815690423832  0.5131945490477786   T   T   T
  0.5016564186346945  0.8816815690423828  0.5131945490477786   T   T   T
  0.8349897519676962  0.3816815690423832  0.5131945490477786   T   T   T
  0.8349897519676962  0.8816815690423828  0.5131945490477786   T   T   T
  0.0016727196501725  0.1319192693436797  0.5403622851024411   T   T   T
  0.0016727196501725  0.6319192693436797  0.5403622851024411   T   T   T
  0.3350060529831672  0.1319192693436797  0.5403622851024411   T   T   T
  0.3350060529831672  0.6319192693436797  0.5403622851024411   T   T   T
  0.6683393863171709  0.1319192693436797  0.5403622851024411   T   T   T
  0.6683393863171709  0.6319192693436797  0.5403622851024411   T   T   T
  0.1682042751512310  0.3860795080068251  0.5657349614038714   T   T   T
  0.1682042751512310  0.8860795080068251  0.5657349614038714   T   T   T
  0.5015376084852272  0.3860795080068251  0.5657349614038714   T   T   T
  0.5015376084852272  0.8860795080068251  0.5657349614038714   T   T   T
  0.8348709418182290  0.3860795080068251  0.5657349614038714   T   T   T
  0.8348709418182290  0.8860795080068251  0.5657349614038714   T   T   T
  0.0039728568520163  0.0634489910211156  0.4187619788845052   T   T   T
  0.0039728568520163  0.5634489910211156  0.4187619788845052   T   T   T
  0.3373061901860199  0.0634489910211156  0.4187619788845052   T   T   T
  0.3373061901860199  0.5634489910211156  0.4187619788845052   T   T   T
  0.6706395235190216  0.0634489910211156  0.4187619788845052   T   T   T
  0.6706395235190216  0.5634489910211156  0.4187619788845052   T   T   T
  0.1706397753960191  0.3134491598301179  0.5812380211154947   T   T   T
  0.1706397753960191  0.8134491598301179  0.5812380211154947   T   T   T
  0.5039731087300156  0.3134491598301179  0.5812380211154947   T   T   T
  0.5039731087300156  0.8134491598301179  0.5812380211154947   T   T   T
  0.8373064420630173  0.3134491598301179  0.5812380211154947   T   T   T
  0.8373064420630173  0.8134491598301179  0.5812380211154947   T   T   T
  0.0860916124314257  0.1127641527951471  0.5993415407631844   T   T   T
  0.0860916124314257  0.6127641527951471  0.5993415407631844   T   T   T
  0.4194249457644275  0.1127641527951471  0.5993415407631844   T   T   T
  0.4194249457644275  0.6127641527951471  0.5993415407631844   T   T   T
  0.7527582790974221  0.1127641527951471  0.5993415407631844   T   T   T
  0.7527582790974221  0.6127641527951471  0.5993415407631844   T   T   T
  0.2527582485454274  0.3627643972321440  0.4006584592368155   T   T   T
  0.2527582485454274  0.8627643972321439  0.4006584592368155   T   T   T
  0.5860915818784220  0.3627643972321440  0.4006584592368155   T   T   T
  0.5860915818784220  0.8627643972321439  0.4006584592368155   T   T   T
  0.9194249152114238  0.3627643972321440  0.4006584592368155   T   T   T
  0.9194249152114238  0.8627643972321439  0.4006584592368155   T   T   T
  0.1593371427455092  0.3438950856781621  0.4078500638591618   T   T   T
  0.1593371427455092  0.8438950856781623  0.4078500638591618   T   T   T
  0.4926704760795057  0.3438950856781621  0.4078500638591618   T   T   T
  0.4926704760795057  0.8438950856781623  0.4078500638591618   T   T   T
  0.8260038094125075  0.3438950856781621  0.4078500638591618   T   T   T
  0.8260038094125075  0.8438950856781623  0.4078500638591618   T   T   T
  0.9926704562125106  0.0938949168691598  0.5921499361408383   T   T   T
  0.9926704562125106  0.5938949168691600  0.5921499361408383   T   T   T
  0.3260037895465071  0.0938949168691598  0.5921499361408383   T   T   T
  0.3260037895465071  0.5938949168691600  0.5921499361408383   T   T   T
  0.6593371228795089  0.0938949168691598  0.5921499361408383   T   T   T
  0.6593371228795089  0.5938949168691600  0.5921499361408383   T   T   T
  0.1680775804713641  0.2533687122304715  0.4335399842870560   T   T   T
  0.1680775804713641  0.7533687122304719  0.4335399842870560   T   T   T
  0.5014109138053602  0.2533687122304715  0.4335399842870560   T   T   T
  0.5014109138053602  0.7533687122304719  0.4335399842870560   T   T   T
  0.8347442471383619  0.2533687122304715  0.4335399842870560   T   T   T
  0.8347442471383619  0.7533687122304719  0.4335399842870560   T   T   T
  0.0016461819051303  0.0061820774301198  0.4602020070077180   T   T   T
  0.0016461819051303  0.5061820774301198  0.4602020070077180   T   T   T
  0.3349795152381320  0.0061820774301198  0.4602020070077180   T   T   T
  0.3349795152381320  0.5061820774301198  0.4602020070077180   T   T   T
  0.6683128485721286  0.0061820774301198  0.4602020070077180   T   T   T
  0.6683128485721286  0.5061820774301198  0.4602020070077180   T   T   T
  0.1683179668854652  0.2565995957860914  0.4865492056364871   T   T   T
  0.1683179668854652  0.7565995957860914  0.4865492056364871   T   T   T
  0.5016513002194617  0.2565995957860914  0.4865492056364871   T   T   T
  0.5016513002194617  0.7565995957860914  0.4865492056364871   T   T   T
  0.8349846335524634  0.2565995957860914  0.4865492056364871   T   T   T
  0.8349846335524634  0.7565995957860914  0.4865492056364871   T   T   T
  0.0016512116874640  0.0065994269760943  0.5134507943635128   T   T   T
  0.0016512116874640  0.5065994269760943  0.5134507943635128   T   T   T
  0.3349845450204657  0.0065994269760943  0.5134507943635128   T   T   T
  0.3349845450204657  0.5065994269760943  0.5134507943635128   T   T   T
  0.6683178783544622  0.0065994269760943  0.5134507943635128   T   T   T
  0.6683178783544622  0.5065994269760943  0.5134507943635128   T   T   T
  0.1683129371031316  0.2561822462401169  0.5397979929922820   T   T   T
  0.1683129371031316  0.7561822462401169  0.5397979929922820   T   T   T
  0.5016462704371281  0.2561822462401169  0.5397979929922820   T   T   T
  0.5016462704371281  0.7561822462401169  0.5397979929922820   T   T   T
  0.8349796037701298  0.2561822462401169  0.5397979929922820   T   T   T
  0.8349796037701298  0.7561822462401169  0.5397979929922820   T   T   T
  0.0014108252733629  0.0033685434204745  0.5664600157129441   T   T   T
  0.0014108252733629  0.5033685434204748  0.5664600157129441   T   T   T
  0.3347441586063648  0.0033685434204745  0.5664600157129441   T   T   T
  0.3347441586063648  0.5033685434204748  0.5664600157129441   T   T   T
  0.6680774919403607  0.0033685434204745  0.5664600157129441   T   T   T
  0.6680774919403607  0.5033685434204748  0.5664600157129441   T   T   T
 
  0.00000000E+00  0.00000000E+00  0.00000000E+00
  0.00000000E+00  0.00000000E+00  0.00000000E+00
  0.00000000E+00  0.00000000E+00  0.00000000E+00
  0.00000000E+00  0.00000000E+00  0.00000000E+00
  0.00000000E+00  0.00000000E+00  0.00000000E+00
  0.00000000E+00  0.00000000E+00  0.00000000E+00
  0.00000000E+00  0.00000000E+00  0.00000000E+00
  0.00000000E+00  0.00000000E+00  0.00000000E+00
  0.00000000E+00  0.00000000E+00  0.00000000E+00
  0.00000000E+00  0.00000000E+00  0.00000000E+00
  0.00000000E+00  0.00000000E+00  0.00000000E+00
  0.00000000E+00  0.00000000E+00  0.00000000E+00
  0.00000000E+00  0.00000000E+00  0.00000000E+00
  0.00000000E+00  0.00000000E+00  0.00000000E+00
  0.00000000E+00  0.00000000E+00  0.00000000E+00
  0.00000000E+00  0.00000000E+00  0.00000000E+00
  0.00000000E+00  0.00000000E+00  0.00000000E+00
  0.00000000E+00  0.00000000E+00  0.00000000E+00
  0.00000000E+00  0.00000000E+00  0.00000000E+00
  0.00000000E+00  0.00000000E+00  0.00000000E+00
  0.00000000E+00  0.00000000E+00  0.00000000E+00
  0.00000000E+00  0.00000000E+00  0.00000000E+00
  0.00000000E+00  0.00000000E+00  0.00000000E+00
  0.00000000E+00  0.00000000E+00  0.00000000E+00
  0.00000000E+00  0.00000000E+00  0.00000000E+00
  0.00000000E+00  0.00000000E+00  0.00000000E+00
  0.00000000E+00  0.00000000E+00  0.00000000E+00
  0.00000000E+00  0.00000000E+00  0.00000000E+00
  0.00000000E+00  0.00000000E+00  0.00000000E+00
  0.00000000E+00  0.00000000E+00  0.00000000E+00
  0.00000000E+00  0.00000000E+00  0.00000000E+00
  0.00000000E+00  0.00000000E+00  0.00000000E+00
  0.00000000E+00  0.00000000E+00  0.00000000E+00
  0.00000000E+00  0.00000000E+00  0.00000000E+00
  0.00000000E+00  0.00000000E+00  0.00000000E+00
  0.00000000E+00  0.00000000E+00  0.00000000E+00
  0.00000000E+00  0.00000000E+00  0.00000000E+00
  0.00000000E+00  0.00000000E+00  0.00000000E+00
  0.00000000E+00  0.00000000E+00  0.00000000E+00
  0.00000000E+00  0.00000000E+00  0.00000000E+00
  0.00000000E+00  0.00000000E+00  0.00000000E+00
  0.00000000E+00  0.00000000E+00  0.00000000E+00
  0.00000000E+00  0.00000000E+00  0.00000000E+00
  0.00000000E+00  0.00000000E+00  0.00000000E+00
  0.00000000E+00  0.00000000E+00  0.00000000E+00
  0.00000000E+00  0.00000000E+00  0.00000000E+00
  0.00000000E+00  0.00000000E+00  0.00000000E+00
  0.00000000E+00  0.00000000E+00  0.00000000E+00
  0.00000000E+00  0.00000000E+00  0.00000000E+00
  0.00000000E+00  0.00000000E+00  0.00000000E+00
  0.00000000E+00  0.00000000E+00  0.00000000E+00
  0.00000000E+00  0.00000000E+00  0.00000000E+00
  0.00000000E+00  0.00000000E+00  0.00000000E+00
  0.00000000E+00  0.00000000E+00  0.00000000E+00
  0.00000000E+00  0.00000000E+00  0.00000000E+00
  0.00000000E+00  0.00000000E+00  0.00000000E+00
  0.00000000E+00  0.00000000E+00  0.00000000E+00
  0.00000000E+00  0.00000000E+00  0.00000000E+00
  0.00000000E+00  0.00000000E+00  0.00000000E+00
  0.00000000E+00  0.00000000E+00  0.00000000E+00
  0.00000000E+00  0.00000000E+00  0.00000000E+00
  0.00000000E+00  0.00000000E+00  0.00000000E+00
  0.00000000E+00  0.00000000E+00  0.00000000E+00
  0.00000000E+00  0.00000000E+00  0.00000000E+00
  0.00000000E+00  0.00000000E+00  0.00000000E+00
  0.00000000E+00  0.00000000E+00  0.00000000E+00
  0.00000000E+00  0.00000000E+00  0.00000000E+00
  0.00000000E+00  0.00000000E+00  0.00000000E+00
  0.00000000E+00  0.00000000E+00  0.00000000E+00
  0.00000000E+00  0.00000000E+00  0.00000000E+00
  0.00000000E+00  0.00000000E+00  0.00000000E+00
  0.00000000E+00  0.00000000E+00  0.00000000E+00
  0.00000000E+00  0.00000000E+00  0.00000000E+00
  0.00000000E+00  0.00000000E+00  0.00000000E+00
  0.00000000E+00  0.00000000E+00  0.00000000E+00
  0.00000000E+00  0.00000000E+00  0.00000000E+00
  0.00000000E+00  0.00000000E+00  0.00000000E+00
  0.00000000E+00  0.00000000E+00  0.00000000E+00
  0.00000000E+00  0.00000000E+00  0.00000000E+00
  0.00000000E+00  0.00000000E+00  0.00000000E+00
  0.00000000E+00  0.00000000E+00  0.00000000E+00
  0.00000000E+00  0.00000000E+00  0.00000000E+00
  0.00000000E+00  0.00000000E+00  0.00000000E+00
  0.00000000E+00  0.00000000E+00  0.00000000E+00
  0.00000000E+00  0.00000000E+00  0.00000000E+00
  0.00000000E+00  0.00000000E+00  0.00000000E+00
  0.00000000E+00  0.00000000E+00  0.00000000E+00
  0.00000000E+00  0.00000000E+00  0.00000000E+00
  0.00000000E+00  0.00000000E+00  0.00000000E+00
  0.00000000E+00  0.00000000E+00  0.00000000E+00
  0.00000000E+00  0.00000000E+00  0.00000000E+00
  0.00000000E+00  0.00000000E+00  0.00000000E+00
  0.00000000E+00  0.00000000E+00  0.00000000E+00
  0.00000000E+00  0.00000000E+00  0.00000000E+00
  0.00000000E+00  0.00000000E+00  0.00000000E+00
  0.00000000E+00  0.00000000E+00  0.00000000E+00
  0.00000000E+00  0.00000000E+00  0.00000000E+00
  0.00000000E+00  0.00000000E+00  0.00000000E+00
  0.00000000E+00  0.00000000E+00  0.00000000E+00
  0.00000000E+00  0.00000000E+00  0.00000000E+00
  0.00000000E+00  0.00000000E+00  0.00000000E+00
  0.00000000E+00  0.00000000E+00  0.00000000E+00
  0.00000000E+00  0.00000000E+00  0.00000000E+00
  0.00000000E+00  0.00000000E+00  0.00000000E+00
  0.00000000E+00  0.00000000E+00  0.00000000E+00
  0.00000000E+00  0.00000000E+00  0.00000000E+00
  0.00000000E+00  0.00000000E+00  0.00000000E+00
  0.00000000E+00  0.00000000E+00  0.00000000E+00
