C H O Si                                
   1.00000000000000     
     9.2874599999999994    0.0000000000000000    0.0000000000000000
     0.0000000000000000    8.7563099999999991    0.0000000000000000
     0.0000000000000000    0.0000000000000000   58.0000000000000000
   C    H    O    Si
    36    33    16    36
Selective dynamics
Direct
  0.9960289066018124  0.1302555979654386  0.0596069883622548   T   T   T
  0.3294237246778307  0.1304236822151631  0.0596881991103444   T   T   T
  0.6625704132606057  0.1304261105139669  0.0597102659767954   T   T   T
  0.9960246030226996  0.6305810233818615  0.0596196600428471   T   T   T
  0.3293323199144469  0.6302259881700085  0.0596599155861011   T   T   T
  0.6626592627152943  0.6301838156998383  0.0596813205919275   T   T   T
  0.1626418578041322  0.3757479295250399  0.1384621145490389   T   T   T
  0.4959685695585953  0.3758806768321540  0.1387468654397077   T   T   T
  0.8294233145271669  0.3757520526377265  0.1384680644149286   T   T   T
  0.1629304077254067  0.8760008977689064  0.1385213841778347   T   T   T
  0.4960650680630228  0.8754820670793394  0.1383347646531309   T   T   T
  0.8291866974102726  0.8758969927237955  0.1385707104287061   T   T   T
  0.3291430056940131  0.1266203929477518  0.1657169180328165   T   T   T
  0.6623309609423176  0.1266775309894828  0.1657699066933981   T   T   T
  0.9957175549739538  0.1256047016705839  0.1655124556814163   T   T   T
  0.3284090229477868  0.6260914428696640  0.1656203525543192   T   T   T
  0.6628116870534586  0.6258938105591673  0.1657041315912262   T   T   T
  0.9957554764963711  0.6261506776549608  0.1655827116515878   T   T   T
  0.1629655643912676  0.3790278866649059  0.1907554401327541   T   T   T
  0.4957718985651758  0.3839314775907174  0.1917005744740060   T   T   T
  0.8300517822017146  0.3789418238760210  0.1907645366313085   T   T   T
  0.1618694590926633  0.8805761660350641  0.1910138469410282   T   T   T
  0.4961418059262134  0.8893904745186743  0.1888603163185734   T   T   T
  0.8302388632146319  0.8804671113774258  0.1910763944504124   T   T   T
  0.1625746996591552  0.3759200138795299  0.0850072128319158   T   T   T
  0.4960262497864535  0.3759191477535548  0.0851699730720454   T   T   T
  0.8293554810701868  0.3759125497649909  0.0850204655492712   T   T   T
  0.1626966441151145  0.8759857266245440  0.0850354304198997   T   T   T
  0.4959240529070754  0.8758578756326414  0.0849869122064745   T   T   T
  0.8292525720178709  0.8759838025837395  0.0850574100732478   T   T   T
  0.3291652143347027  0.1257341392701873  0.1122090577071178   T   T   T
  0.6623652904082697  0.1257159311600583  0.1122323267900604   T   T   T
  0.9957889739090474  0.1256634165838252  0.1121316576461586   T   T   T
  0.3290710157849298  0.6255247830952000  0.1121730995434231   T   T   T
  0.6624496555208469  0.6255524398965876  0.1121850886382053   T   T   T
  0.9958134932146030  0.6259217510967788  0.1121423981220812   T   T   T
  0.0798134666405936  0.3575145749606028  0.0258165183909308   T   T   T
  0.4122280090222296  0.3578399177121366  0.0260406508794295   T   T   T
  0.7448473008600192  0.3570883277721640  0.0259515960235505   T   T   T
  0.0800834772714277  0.8579994872185779  0.0258414939270462   T   T   T
  0.4125699559095736  0.8569935844770812  0.0258436723496582   T   T   T
  0.7442940546777644  0.8572003458277473  0.0260250935314511   T   T   T
  0.3279835423019375  0.0580758380873629  0.0441574106559955   T   T   T
  0.6605075430386352  0.0580960919959360  0.0441813037926012   T   T   T
  0.9940987568815957  0.0579861061632421  0.0440683479376853   T   T   T
  0.3273508655704201  0.5578896887382166  0.0441303251124797   T   T   T
  0.6610867468699095  0.5578310757407906  0.0441531521276216   T   T   T
  0.9941198271285894  0.5583441944646097  0.0440775182886085   T   T   T
  0.8326315878510537  0.8086093568710425  0.2066332678716888   T   T   T
  0.8325154882033633  0.3066966161332462  0.2063096826236835   T   T   T
  0.1647487359826451  0.3075233926701948  0.2063829851986951   T   T   T
  0.4979382422772632  0.3110773717523160  0.2071890345862267   T   T   T
  0.1641880276238833  0.8081554705005113  0.2065106267898258   T   T   T
  0.5380351784378741  0.9266503033193814  0.2602315515437144   T   T   T
  0.0804006615092532  0.1083637202316358  0.2247124247733377   T   T   T
  0.4159000474899399  0.1055282440489795  0.2246574172810900   T   T   T
  0.7451867299530176  0.1065758579094251  0.2252684552149363   T   T   T
  0.0854491812231239  0.6082640917931311  0.2234416748907063   T   T   T
  0.3675160548575507  0.5704521620106761  0.2300918637438312   T   T   T
  0.7761580334208671  0.5997137569633758  0.2228242343987996   T   T   T
  0.4924371260539926  0.5414128230737250  0.2657100903179798   T   T   T
  0.4691757399252599  0.4572095847918767  0.3005084805930979   T   T   T
  0.5175815735072702  0.6262803853271915  0.3080882624639765   T   T   T
  0.2893955420210669  0.2730414077842336  0.2955937420457954   T   T   T
  0.4395758499149027  0.2184193038715396  0.2874985929752788   T   T   T
  0.6395272027247508  0.7696737187309138  0.3348790610439761   T   T   T
  0.5035649564140324  0.8626248895913652  0.3281804929114631   T   T   T
  0.5013801351166445  0.8746285821535044  0.2686967759408488   T   T   T
  0.5646020531011948  0.5365751770027074  0.2406152040136982   T   T   T
  0.1723469863557395  0.3386296784816321  0.0332890893342960   T   T   T
  0.5051722293996069  0.3392941605249006  0.0334371643860536   T   T   T
  0.8379334584647375  0.3387562935753946  0.0332976862471882   T   T   T
  0.1726020598019849  0.8388351872074323  0.0333201499879869   T   T   T
  0.5054093152510708  0.8383132618186601  0.0332577529253463   T   T   T
  0.8375163809904007  0.8390850213903580  0.0333415165897737   T   T   T
  0.3217849822678261  0.0874145731298791  0.2176172133478158   T   T   T
  0.6533752723093538  0.0877107329247801  0.2175678337272642   T   T   T
  0.9876579427588017  0.0892173216151114  0.2173147027706766   T   T   T
  0.3093335820942313  0.6035144619212675  0.2162742508939501   T   T   T
  0.6758952121397579  0.5908528782313067  0.2175175189234881   T   T   T
  0.9891125328273266  0.5865741602200001  0.2172361131205648   T   T   T
  0.5202047406474271  0.5504681729277721  0.2953825676554195   T   T   T
  0.3896133545312043  0.2652677202253361  0.3004920256128910   T   T   T
  0.5375876611742106  0.7591303701473309  0.3311490383282046   T   T   T
  0.4785274097010868  0.5057516309568542  0.2495797861496094   T   T   T
  0.4961298302658650  0.2477575082009810  0.0589703966416287   T   T   T
  0.8294139070555649  0.2475885643553696  0.0588525105880690   T   T   T
  0.1629331666139268  0.7476777803935886  0.0588673756816169   T   T   T
  0.4961454272641597  0.7474173311238942  0.0588352809968838   T   T   T
  0.8293331167198594  0.7477079600281404  0.0588825569425246   T   T   T
  0.1628325980668963  0.2475521343884095  0.0588446163213807   T   T   T
  0.9960903590071372  0.0005405938551936  0.1387464941567761   T   T   T
  0.3298199397540390  0.0008704988898918  0.1388722343880749   T   T   T
  0.6623986423541390  0.0009260139631042  0.1389047221670712   T   T   T
  0.9960934168428984  0.5008166885362599  0.1387371532408816   T   T   T
  0.3291991023869825  0.5007184170955180  0.1388370445772312   T   T   T
  0.6628283327293408  0.5005941824410706  0.1388290530086920   T   T   T
  0.1623890888886209  0.2500373807181063  0.1650344352823730   T   T   T
  0.4957492533777306  0.2517952010948252  0.1656129876356687   T   T   T
  0.8298015041698616  0.2498641231389300  0.1650105532120955   T   T   T
  0.1625293246588245  0.7508442478299168  0.1651193272018142   T   T   T
  0.4957580784286712  0.7488345885334752  0.1650970417708157   T   T   T
  0.8294039139595463  0.7506400111888226  0.1651794384810149   T   T   T
  0.3282139607553108  0.9971537837151969  0.1920251916050877   T   T   T
  0.6640049797532136  0.9971071039441189  0.1920826133214690   T   T   T
  0.9961764793433463  0.9983367169553472  0.1917524997816223   T   T   T
  0.3272678437767095  0.5013055453722512  0.1921232001515465   T   T   T
  0.9966446677842207  0.4960295777216758  0.1915385635995872   T   T   T
  0.6649418632350105  0.4983486618067796  0.1918971510724907   T   T   T
  0.9961121449670827  0.0002991946290939  0.0855143459002962   T   T   T
  0.3295090548959668  0.0003542772031353  0.0855616778388929   T   T   T
  0.6626710709450927  0.0003459492877135  0.0855774286870751   T   T   T
  0.9961019523844523  0.5004104330715753  0.0855105958963653   T   T   T
  0.3294139871910688  0.5002347872752386  0.0855568533329970   T   T   T
  0.6628310875140041  0.5002033769266711  0.0855675208968005   T   T   T
  0.1626491890822816  0.2506923889742099  0.1118524049456164   T   T   T
  0.4959926422859620  0.2508511603153056  0.1120504198074959   T   T   T
  0.8293455158375379  0.2506668261982256  0.1118524949448796   T   T   T
  0.1628598141842216  0.7508584042919898  0.1118890696896001   T   T   T
  0.4959400977237963  0.7502952813472390  0.1117815984407931   T   T   T
  0.8291588645550920  0.7508508607959830  0.1119145407870848   T   T   T
 
  0.00000000E+00  0.00000000E+00  0.00000000E+00
  0.00000000E+00  0.00000000E+00  0.00000000E+00
  0.00000000E+00  0.00000000E+00  0.00000000E+00
  0.00000000E+00  0.00000000E+00  0.00000000E+00
  0.00000000E+00  0.00000000E+00  0.00000000E+00
  0.00000000E+00  0.00000000E+00  0.00000000E+00
  0.00000000E+00  0.00000000E+00  0.00000000E+00
  0.00000000E+00  0.00000000E+00  0.00000000E+00
  0.00000000E+00  0.00000000E+00  0.00000000E+00
  0.00000000E+00  0.00000000E+00  0.00000000E+00
  0.00000000E+00  0.00000000E+00  0.00000000E+00
  0.00000000E+00  0.00000000E+00  0.00000000E+00
  0.00000000E+00  0.00000000E+00  0.00000000E+00
  0.00000000E+00  0.00000000E+00  0.00000000E+00
  0.00000000E+00  0.00000000E+00  0.00000000E+00
  0.00000000E+00  0.00000000E+00  0.00000000E+00
  0.00000000E+00  0.00000000E+00  0.00000000E+00
  0.00000000E+00  0.00000000E+00  0.00000000E+00
  0.00000000E+00  0.00000000E+00  0.00000000E+00
  0.00000000E+00  0.00000000E+00  0.00000000E+00
  0.00000000E+00  0.00000000E+00  0.00000000E+00
  0.00000000E+00  0.00000000E+00  0.00000000E+00
  0.00000000E+00  0.00000000E+00  0.00000000E+00
  0.00000000E+00  0.00000000E+00  0.00000000E+00
  0.00000000E+00  0.00000000E+00  0.00000000E+00
  0.00000000E+00  0.00000000E+00  0.00000000E+00
  0.00000000E+00  0.00000000E+00  0.00000000E+00
  0.00000000E+00  0.00000000E+00  0.00000000E+00
  0.00000000E+00  0.00000000E+00  0.00000000E+00
  0.00000000E+00  0.00000000E+00  0.00000000E+00
  0.00000000E+00  0.00000000E+00  0.00000000E+00
  0.00000000E+00  0.00000000E+00  0.00000000E+00
  0.00000000E+00  0.00000000E+00  0.00000000E+00
  0.00000000E+00  0.00000000E+00  0.00000000E+00
  0.00000000E+00  0.00000000E+00  0.00000000E+00
  0.00000000E+00  0.00000000E+00  0.00000000E+00
  0.00000000E+00  0.00000000E+00  0.00000000E+00
  0.00000000E+00  0.00000000E+00  0.00000000E+00
  0.00000000E+00  0.00000000E+00  0.00000000E+00
  0.00000000E+00  0.00000000E+00  0.00000000E+00
  0.00000000E+00  0.00000000E+00  0.00000000E+00
  0.00000000E+00  0.00000000E+00  0.00000000E+00
  0.00000000E+00  0.00000000E+00  0.00000000E+00
  0.00000000E+00  0.00000000E+00  0.00000000E+00
  0.00000000E+00  0.00000000E+00  0.00000000E+00
  0.00000000E+00  0.00000000E+00  0.00000000E+00
  0.00000000E+00  0.00000000E+00  0.00000000E+00
  0.00000000E+00  0.00000000E+00  0.00000000E+00
  0.00000000E+00  0.00000000E+00  0.00000000E+00
  0.00000000E+00  0.00000000E+00  0.00000000E+00
  0.00000000E+00  0.00000000E+00  0.00000000E+00
  0.00000000E+00  0.00000000E+00  0.00000000E+00
  0.00000000E+00  0.00000000E+00  0.00000000E+00
  0.00000000E+00  0.00000000E+00  0.00000000E+00
  0.00000000E+00  0.00000000E+00  0.00000000E+00
  0.00000000E+00  0.00000000E+00  0.00000000E+00
  0.00000000E+00  0.00000000E+00  0.00000000E+00
  0.00000000E+00  0.00000000E+00  0.00000000E+00
  0.00000000E+00  0.00000000E+00  0.00000000E+00
  0.00000000E+00  0.00000000E+00  0.00000000E+00
  0.00000000E+00  0.00000000E+00  0.00000000E+00
  0.00000000E+00  0.00000000E+00  0.00000000E+00
  0.00000000E+00  0.00000000E+00  0.00000000E+00
  0.00000000E+00  0.00000000E+00  0.00000000E+00
  0.00000000E+00  0.00000000E+00  0.00000000E+00
  0.00000000E+00  0.00000000E+00  0.00000000E+00
  0.00000000E+00  0.00000000E+00  0.00000000E+00
  0.00000000E+00  0.00000000E+00  0.00000000E+00
  0.00000000E+00  0.00000000E+00  0.00000000E+00
  0.00000000E+00  0.00000000E+00  0.00000000E+00
  0.00000000E+00  0.00000000E+00  0.00000000E+00
  0.00000000E+00  0.00000000E+00  0.00000000E+00
  0.00000000E+00  0.00000000E+00  0.00000000E+00
  0.00000000E+00  0.00000000E+00  0.00000000E+00
  0.00000000E+00  0.00000000E+00  0.00000000E+00
  0.00000000E+00  0.00000000E+00  0.00000000E+00
  0.00000000E+00  0.00000000E+00  0.00000000E+00
  0.00000000E+00  0.00000000E+00  0.00000000E+00
  0.00000000E+00  0.00000000E+00  0.00000000E+00
  0.00000000E+00  0.00000000E+00  0.00000000E+00
  0.00000000E+00  0.00000000E+00  0.00000000E+00
  0.00000000E+00  0.00000000E+00  0.00000000E+00
  0.00000000E+00  0.00000000E+00  0.00000000E+00
  0.00000000E+00  0.00000000E+00  0.00000000E+00
  0.00000000E+00  0.00000000E+00  0.00000000E+00
  0.00000000E+00  0.00000000E+00  0.00000000E+00
  0.00000000E+00  0.00000000E+00  0.00000000E+00
  0.00000000E+00  0.00000000E+00  0.00000000E+00
  0.00000000E+00  0.00000000E+00  0.00000000E+00
  0.00000000E+00  0.00000000E+00  0.00000000E+00
  0.00000000E+00  0.00000000E+00  0.00000000E+00
  0.00000000E+00  0.00000000E+00  0.00000000E+00
  0.00000000E+00  0.00000000E+00  0.00000000E+00
  0.00000000E+00  0.00000000E+00  0.00000000E+00
  0.00000000E+00  0.00000000E+00  0.00000000E+00
  0.00000000E+00  0.00000000E+00  0.00000000E+00
  0.00000000E+00  0.00000000E+00  0.00000000E+00
  0.00000000E+00  0.00000000E+00  0.00000000E+00
  0.00000000E+00  0.00000000E+00  0.00000000E+00
  0.00000000E+00  0.00000000E+00  0.00000000E+00
  0.00000000E+00  0.00000000E+00  0.00000000E+00
  0.00000000E+00  0.00000000E+00  0.00000000E+00
  0.00000000E+00  0.00000000E+00  0.00000000E+00
  0.00000000E+00  0.00000000E+00  0.00000000E+00
  0.00000000E+00  0.00000000E+00  0.00000000E+00
  0.00000000E+00  0.00000000E+00  0.00000000E+00
  0.00000000E+00  0.00000000E+00  0.00000000E+00
  0.00000000E+00  0.00000000E+00  0.00000000E+00
  0.00000000E+00  0.00000000E+00  0.00000000E+00
  0.00000000E+00  0.00000000E+00  0.00000000E+00
  0.00000000E+00  0.00000000E+00  0.00000000E+00
  0.00000000E+00  0.00000000E+00  0.00000000E+00
  0.00000000E+00  0.00000000E+00  0.00000000E+00
  0.00000000E+00  0.00000000E+00  0.00000000E+00
  0.00000000E+00  0.00000000E+00  0.00000000E+00
  0.00000000E+00  0.00000000E+00  0.00000000E+00
  0.00000000E+00  0.00000000E+00  0.00000000E+00
  0.00000000E+00  0.00000000E+00  0.00000000E+00
  0.00000000E+00  0.00000000E+00  0.00000000E+00
  0.00000000E+00  0.00000000E+00  0.00000000E+00
  0.00000000E+00  0.00000000E+00  0.00000000E+00
