C H O Si                                
   1.00000000000000     
     9.2874599999999994    0.0000000000000000    0.0000000000000000
     0.0000000000000000    8.7562999999999995    0.0000000000000000
     0.0000000000000000    0.0000000000000000   58.0000000000000000
   C    H    O    Si
    36    24    12    36
Selective dynamics
Direct
  0.0017453052293698  0.1359443697672425  0.4343004133566835   T   T   T
  0.0017453052293698  0.6359443697672426  0.4343004133566835   T   T   T
  0.3350786385623716  0.1359443697672425  0.4343004133566835   T   T   T
  0.3350786385623716  0.6359443697672426  0.4343004133566835   T   T   T
  0.6684119718963678  0.1359443697672425  0.4343004133566835   T   T   T
  0.6684119718963678  0.6359443697672426  0.4343004133566835   T   T   T
  0.1683223259287772  0.3815486974888919  0.4596651380706153   T   T   T
  0.1683223259287772  0.8815486974888920  0.4596651380706153   T   T   T
  0.5016556592627736  0.3815486974888919  0.4596651380706153   T   T   T
  0.5016556592627736  0.8815486974888920  0.4596651380706153   T   T   T
  0.8349889925957753  0.3815486974888919  0.4596651380706153   T   T   T
  0.8349889925957753  0.8815486974888920  0.4596651380706153   T   T   T
  0.0016131858650603  0.1313047848429082  0.4868113057836332   T   T   T
  0.0016131858650603  0.6313047848429082  0.4868113057836332   T   T   T
  0.3349465191980621  0.1313047848429082  0.4868113057836332   T   T   T
  0.3349465191980621  0.6313047848429082  0.4868113057836332   T   T   T
  0.6682798525320656  0.1313047848429082  0.4868113057836332   T   T   T
  0.6682798525320656  0.6313047848429082  0.4868113057836332   T   T   T
  0.1682799410630615  0.3813049536519034  0.5131886942163667   T   T   T
  0.1682799410630615  0.8813049536519034  0.5131886942163667   T   T   T
  0.5016132743970650  0.3813049536519034  0.5131886942163667   T   T   T
  0.5016132743970650  0.8813049536519034  0.5131886942163667   T   T   T
  0.8349466077300668  0.3813049536519034  0.5131886942163667   T   T   T
  0.8349466077300668  0.8813049536519034  0.5131886942163667   T   T   T
  0.0016555707307759  0.1315485286798966  0.5403348619293846   T   T   T
  0.0016555707307759  0.6315485286798967  0.5403348619293846   T   T   T
  0.3349889040637705  0.1315485286798966  0.5403348619293846   T   T   T
  0.3349889040637705  0.6315485286798967  0.5403348619293846   T   T   T
  0.6683222373977741  0.1315485286798966  0.5403348619293846   T   T   T
  0.6683222373977741  0.6315485286798967  0.5403348619293846   T   T   T
  0.1684120604273710  0.3859445385762378  0.5656995866433165   T   T   T
  0.1684120604273710  0.8859445385762378  0.5656995866433165   T   T   T
  0.5017453937613673  0.3859445385762378  0.5656995866433165   T   T   T
  0.5017453937613673  0.8859445385762378  0.5656995866433165   T   T   T
  0.8350787270943690  0.3859445385762378  0.5656995866433165   T   T   T
  0.8350787270943690  0.8859445385762378  0.5656995866433165   T   T   T
  0.0039000240532517  0.0637447482188551  0.4187532380428452   T   T   T
  0.0039000240532517  0.5637447482188551  0.4187532380428452   T   T   T
  0.3372333573872553  0.0637447482188551  0.4187532380428452   T   T   T
  0.3372333573872553  0.5637447482188551  0.4187532380428452   T   T   T
  0.6705666907202570  0.0637447482188551  0.4187532380428452   T   T   T
  0.6705666907202570  0.5637447482188551  0.4187532380428452   T   T   T
  0.1705669425972545  0.3137449170278575  0.5812467619571549   T   T   T
  0.1705669425972545  0.8137449170278575  0.5812467619571549   T   T   T
  0.5039002759312510  0.3137449170278575  0.5812467619571549   T   T   T
  0.5039002759312510  0.8137449170278575  0.5812467619571549   T   T   T
  0.8372336092642527  0.3137449170278575  0.5812467619571549   T   T   T
  0.8372336092642527  0.8137449170278575  0.5812467619571549   T   T   T
  0.0854294950912174  0.1124299722054836  0.5995691629851672   T   T   T
  0.0854294950912174  0.6124299722054836  0.5995691629851672   T   T   T
  0.4187628284242191  0.1124299722054836  0.5995691629851672   T   T   T
  0.4187628284242191  0.6124299722054836  0.5995691629851672   T   T   T
  0.7520961617572138  0.1124299722054836  0.5995691629851672   T   T   T
  0.7520961617572138  0.6124299722054836  0.5995691629851672   T   T   T
  0.2520961312052191  0.3624302166424804  0.4004308370148330   T   T   T
  0.2520961312052191  0.8624302166424804  0.4004308370148330   T   T   T
  0.5854294645382138  0.3624302166424804  0.4004308370148330   T   T   T
  0.5854294645382138  0.8624302166424804  0.4004308370148330   T   T   T
  0.9187627978712155  0.3624302166424804  0.4004308370148330   T   T   T
  0.9187627978712155  0.8624302166424804  0.4004308370148330   T   T   T
  0.1597082543944496  0.3448478148347624  0.4080336665502642   T   T   T
  0.1597082543944496  0.8448478148347626  0.4080336665502642   T   T   T
  0.4930415877284460  0.3448478148347624  0.4080336665502642   T   T   T
  0.4930415877284460  0.8448478148347626  0.4080336665502642   T   T   T
  0.8263749210614478  0.3448478148347624  0.4080336665502642   T   T   T
  0.8263749210614478  0.8448478148347626  0.4080336665502642   T   T   T
  0.9930415678614509  0.0948476460257601  0.5919663334497357   T   T   T
  0.9930415678614509  0.5948476460257602  0.5919663334497357   T   T   T
  0.3263749011954473  0.0948476460257601  0.5919663334497357   T   T   T
  0.3263749011954473  0.5948476460257602  0.5919663334497357   T   T   T
  0.6597082345284492  0.0948476460257601  0.5919663334497357   T   T   T
  0.6597082345284492  0.5948476460257602  0.5919663334497357   T   T   T
  0.1683492617687536  0.2532350505865287  0.4334651982227130   T   T   T
  0.1683492617687536  0.7532350505865285  0.4334651982227130   T   T   T
  0.5016825951027503  0.2532350505865287  0.4334651982227130   T   T   T
  0.5016825951027503  0.7532350505865285  0.4334651982227130   T   T   T
  0.8350159284357520  0.2532350505865287  0.4334651982227130   T   T   T
  0.8350159284357520  0.7532350505865285  0.4334651982227130   T   T   T
  0.0016368886008330  0.0061340037441640  0.4601468211646211   T   T   T
  0.0016368886008330  0.5061340037441640  0.4601468211646211   T   T   T
  0.3349702219338347  0.0061340037441640  0.4601468211646211   T   T   T
  0.3349702219338347  0.5061340037441640  0.4601468211646211   T   T   T
  0.6683035552678314  0.0061340037441640  0.4601468211646211   T   T   T
  0.6683035552678314  0.5061340037441640  0.4601468211646211   T   T   T
  0.1682719252632913  0.2567493508361642  0.4865176577296886   T   T   T
  0.1682719252632913  0.7567493508361640  0.4865176577296886   T   T   T
  0.5016052585972880  0.2567493508361642  0.4865176577296886   T   T   T
  0.5016052585972880  0.7567493508361640  0.4865176577296886   T   T   T
  0.8349385919302897  0.2567493508361642  0.4865176577296886   T   T   T
  0.8349385919302897  0.7567493508361640  0.4865176577296886   T   T   T
  0.0016051700652901  0.0067491820261670  0.5134823422703114   T   T   T
  0.0016051700652901  0.5067491820261669  0.5134823422703114   T   T   T
  0.3349385033982918  0.0067491820261670  0.5134823422703114   T   T   T
  0.3349385033982918  0.5067491820261669  0.5134823422703114   T   T   T
  0.6682718367322885  0.0067491820261670  0.5134823422703114   T   T   T
  0.6682718367322885  0.5067491820261669  0.5134823422703114   T   T   T
  0.1683036437988343  0.2561341725541610  0.5398531788353788   T   T   T
  0.1683036437988343  0.7561341725541610  0.5398531788353788   T   T   T
  0.5016369771328308  0.2561341725541610  0.5398531788353788   T   T   T
  0.5016369771328308  0.7561341725541610  0.5398531788353788   T   T   T
  0.8349703104658326  0.2561341725541610  0.5398531788353788   T   T   T
  0.8349703104658326  0.7561341725541610  0.5398531788353788   T   T   T
  0.0016825065707524  0.0032348817765316  0.5665348017772871   T   T   T
  0.0016825065707524  0.5032348817765314  0.5665348017772871   T   T   T
  0.3350158399037541  0.0032348817765316  0.5665348017772871   T   T   T
  0.3350158399037541  0.5032348817765314  0.5665348017772871   T   T   T
  0.6683491732377508  0.0032348817765316  0.5665348017772871   T   T   T
  0.6683491732377508  0.5032348817765314  0.5665348017772871   T   T   T
 
  0.00000000E+00  0.00000000E+00  0.00000000E+00
  0.00000000E+00  0.00000000E+00  0.00000000E+00
  0.00000000E+00  0.00000000E+00  0.00000000E+00
  0.00000000E+00  0.00000000E+00  0.00000000E+00
  0.00000000E+00  0.00000000E+00  0.00000000E+00
  0.00000000E+00  0.00000000E+00  0.00000000E+00
  0.00000000E+00  0.00000000E+00  0.00000000E+00
  0.00000000E+00  0.00000000E+00  0.00000000E+00
  0.00000000E+00  0.00000000E+00  0.00000000E+00
  0.00000000E+00  0.00000000E+00  0.00000000E+00
  0.00000000E+00  0.00000000E+00  0.00000000E+00
  0.00000000E+00  0.00000000E+00  0.00000000E+00
  0.00000000E+00  0.00000000E+00  0.00000000E+00
  0.00000000E+00  0.00000000E+00  0.00000000E+00
  0.00000000E+00  0.00000000E+00  0.00000000E+00
  0.00000000E+00  0.00000000E+00  0.00000000E+00
  0.00000000E+00  0.00000000E+00  0.00000000E+00
  0.00000000E+00  0.00000000E+00  0.00000000E+00
  0.00000000E+00  0.00000000E+00  0.00000000E+00
  0.00000000E+00  0.00000000E+00  0.00000000E+00
  0.00000000E+00  0.00000000E+00  0.00000000E+00
  0.00000000E+00  0.00000000E+00  0.00000000E+00
  0.00000000E+00  0.00000000E+00  0.00000000E+00
  0.00000000E+00  0.00000000E+00  0.00000000E+00
  0.00000000E+00  0.00000000E+00  0.00000000E+00
  0.00000000E+00  0.00000000E+00  0.00000000E+00
  0.00000000E+00  0.00000000E+00  0.00000000E+00
  0.00000000E+00  0.00000000E+00  0.00000000E+00
  0.00000000E+00  0.00000000E+00  0.00000000E+00
  0.00000000E+00  0.00000000E+00  0.00000000E+00
  0.00000000E+00  0.00000000E+00  0.00000000E+00
  0.00000000E+00  0.00000000E+00  0.00000000E+00
  0.00000000E+00  0.00000000E+00  0.00000000E+00
  0.00000000E+00  0.00000000E+00  0.00000000E+00
  0.00000000E+00  0.00000000E+00  0.00000000E+00
  0.00000000E+00  0.00000000E+00  0.00000000E+00
  0.00000000E+00  0.00000000E+00  0.00000000E+00
  0.00000000E+00  0.00000000E+00  0.00000000E+00
  0.00000000E+00  0.00000000E+00  0.00000000E+00
  0.00000000E+00  0.00000000E+00  0.00000000E+00
  0.00000000E+00  0.00000000E+00  0.00000000E+00
  0.00000000E+00  0.00000000E+00  0.00000000E+00
  0.00000000E+00  0.00000000E+00  0.00000000E+00
  0.00000000E+00  0.00000000E+00  0.00000000E+00
  0.00000000E+00  0.00000000E+00  0.00000000E+00
  0.00000000E+00  0.00000000E+00  0.00000000E+00
  0.00000000E+00  0.00000000E+00  0.00000000E+00
  0.00000000E+00  0.00000000E+00  0.00000000E+00
  0.00000000E+00  0.00000000E+00  0.00000000E+00
  0.00000000E+00  0.00000000E+00  0.00000000E+00
  0.00000000E+00  0.00000000E+00  0.00000000E+00
  0.00000000E+00  0.00000000E+00  0.00000000E+00
  0.00000000E+00  0.00000000E+00  0.00000000E+00
  0.00000000E+00  0.00000000E+00  0.00000000E+00
  0.00000000E+00  0.00000000E+00  0.00000000E+00
  0.00000000E+00  0.00000000E+00  0.00000000E+00
  0.00000000E+00  0.00000000E+00  0.00000000E+00
  0.00000000E+00  0.00000000E+00  0.00000000E+00
  0.00000000E+00  0.00000000E+00  0.00000000E+00
  0.00000000E+00  0.00000000E+00  0.00000000E+00
  0.00000000E+00  0.00000000E+00  0.00000000E+00
  0.00000000E+00  0.00000000E+00  0.00000000E+00
  0.00000000E+00  0.00000000E+00  0.00000000E+00
  0.00000000E+00  0.00000000E+00  0.00000000E+00
  0.00000000E+00  0.00000000E+00  0.00000000E+00
  0.00000000E+00  0.00000000E+00  0.00000000E+00
  0.00000000E+00  0.00000000E+00  0.00000000E+00
  0.00000000E+00  0.00000000E+00  0.00000000E+00
  0.00000000E+00  0.00000000E+00  0.00000000E+00
  0.00000000E+00  0.00000000E+00  0.00000000E+00
  0.00000000E+00  0.00000000E+00  0.00000000E+00
  0.00000000E+00  0.00000000E+00  0.00000000E+00
  0.00000000E+00  0.00000000E+00  0.00000000E+00
  0.00000000E+00  0.00000000E+00  0.00000000E+00
  0.00000000E+00  0.00000000E+00  0.00000000E+00
  0.00000000E+00  0.00000000E+00  0.00000000E+00
  0.00000000E+00  0.00000000E+00  0.00000000E+00
  0.00000000E+00  0.00000000E+00  0.00000000E+00
  0.00000000E+00  0.00000000E+00  0.00000000E+00
  0.00000000E+00  0.00000000E+00  0.00000000E+00
  0.00000000E+00  0.00000000E+00  0.00000000E+00
  0.00000000E+00  0.00000000E+00  0.00000000E+00
  0.00000000E+00  0.00000000E+00  0.00000000E+00
  0.00000000E+00  0.00000000E+00  0.00000000E+00
  0.00000000E+00  0.00000000E+00  0.00000000E+00
  0.00000000E+00  0.00000000E+00  0.00000000E+00
  0.00000000E+00  0.00000000E+00  0.00000000E+00
  0.00000000E+00  0.00000000E+00  0.00000000E+00
  0.00000000E+00  0.00000000E+00  0.00000000E+00
  0.00000000E+00  0.00000000E+00  0.00000000E+00
  0.00000000E+00  0.00000000E+00  0.00000000E+00
  0.00000000E+00  0.00000000E+00  0.00000000E+00
  0.00000000E+00  0.00000000E+00  0.00000000E+00
  0.00000000E+00  0.00000000E+00  0.00000000E+00
  0.00000000E+00  0.00000000E+00  0.00000000E+00
  0.00000000E+00  0.00000000E+00  0.00000000E+00
  0.00000000E+00  0.00000000E+00  0.00000000E+00
  0.00000000E+00  0.00000000E+00  0.00000000E+00
  0.00000000E+00  0.00000000E+00  0.00000000E+00
  0.00000000E+00  0.00000000E+00  0.00000000E+00
  0.00000000E+00  0.00000000E+00  0.00000000E+00
  0.00000000E+00  0.00000000E+00  0.00000000E+00
  0.00000000E+00  0.00000000E+00  0.00000000E+00
  0.00000000E+00  0.00000000E+00  0.00000000E+00
  0.00000000E+00  0.00000000E+00  0.00000000E+00
  0.00000000E+00  0.00000000E+00  0.00000000E+00
  0.00000000E+00  0.00000000E+00  0.00000000E+00
  0.00000000E+00  0.00000000E+00  0.00000000E+00
