C H O Si                                
   1.00000000000000     
    18.5749199999999988    0.0000000000000000    0.0000000000000000
     0.0000000000000000   17.5126199999999983    0.0000000000000000
     0.0000000000000000    0.0000000000000000   58.0000000000000000
   C    H    O    Si
   144   105    52   144
Selective dynamics
Direct
  0.4966644699622587  0.0629713313627753  0.0605194947445258   T   T   T
  0.1632321333438613  0.0630239250793652  0.0604810267758194   T   T   T
  0.3300054817131742  0.0630228870856997  0.0604934609299244   T   T   T
  0.4966325347387358  0.3129852027348927  0.0604979729137295   T   T   T
  0.1632264843115699  0.3130239163155913  0.0604903148562451   T   T   T
  0.3299811223628537  0.3130157158676387  0.0604970396476056   T   T   T
  0.0796501529306577  0.1858093185966483  0.1394191661839733   T   T   T
  0.2463115504621824  0.1858454834141300  0.1394281643770993   T   T   T
  0.4129691539261173  0.1858179911759633  0.1394397849853941   T   T   T
  0.0796613003441639  0.4358849522475134  0.1394142269484531   T   T   T
  0.2463194805327238  0.4358832142228164  0.1394329086182240   T   T   T
  0.4129620933345999  0.4358862797026147  0.1394418626670254   T   T   T
  0.1631227908571176  0.0609567378861993  0.1666120234756495   T   T   T
  0.3297765763408466  0.0608921155622432  0.1666163462524653   T   T   T
  0.4963707919948653  0.0608179143934894  0.1666059766047471   T   T   T
  0.1631296239772339  0.3109367286672179  0.1666181955446501   T   T   T
  0.3298248201112730  0.3109618763035289  0.1666316975770735   T   T   T
  0.4964199555173948  0.3110139773911996  0.1666002055909705   T   T   T
  0.0800195527752890  0.1881891092818213  0.1920223200526582   T   T   T
  0.2466335196654421  0.1879955989753966  0.1919814563079621   T   T   T
  0.4131323509200698  0.1879085012673112  0.1919549467551580   T   T   T
  0.0800827030922274  0.4379425085633327  0.1919906605293193   T   T   T
  0.2467467074308005  0.4380422305429457  0.1919861685322887   T   T   T
  0.4133893213207607  0.4381211410421593  0.1919858751331860   T   T   T
  0.0796200724750003  0.1859417322518915  0.0858455141698402   T   T   T
  0.2463181409979282  0.1859307622672509  0.0858815698539471   T   T   T
  0.4129952434625227  0.1859222183880292  0.0858809646733001   T   T   T
  0.0796504784089590  0.4359559294589423  0.0858538352202211   T   T   T
  0.2463227825365009  0.4359394088592700  0.0858810469312515   T   T   T
  0.4130049327298172  0.4359386617004506  0.0858734949433122   T   T   T
  0.1628879347623864  0.0608148251971281  0.1130185998104406   T   T   T
  0.3295898208365959  0.0608273490110134  0.1130334387184229   T   T   T
  0.4962723903277066  0.0608065243288653  0.1130566615763926   T   T   T
  0.1628694235783767  0.3108418850764643  0.1130330111874839   T   T   T
  0.3295700308650624  0.3108582660744908  0.1130400825780441   T   T   T
  0.4962518921808260  0.3108537121759493  0.1130412791017465   T   T   T
  0.4966922413844851  0.5629544057163590  0.0605234151059120   T   T   T
  0.1632652631140565  0.5630353261496066  0.0604895917276372   T   T   T
  0.3300194985990673  0.5630248904469776  0.0605044748049514   T   T   T
  0.4966728064206772  0.8129861905243766  0.0605215182775716   T   T   T
  0.1632193175202269  0.8130414563516577  0.0604749924356354   T   T   T
  0.3299915898950733  0.8130319087344791  0.0604813447891484   T   T   T
  0.0796711559520861  0.6858901497617931  0.1394280569566252   T   T   T
  0.2463267602130640  0.6858706184550923  0.1394318764332441   T   T   T
  0.4129799910432352  0.6858901432969509  0.1394405949949942   T   T   T
  0.0796992410817506  0.9357323832738393  0.1393991609559987   T   T   T
  0.2463037727972731  0.9358362332714812  0.1394204516306770   T   T   T
  0.4129520654927477  0.9357763646654667  0.1394372841959942   T   T   T
  0.1631300886035966  0.5609650697274331  0.1666285001637818   T   T   T
  0.3298501166030768  0.5610005355853505  0.1666333920720502   T   T   T
  0.4964494463897128  0.5611066934537489  0.1666220558130669   T   T   T
  0.1631596594440739  0.8109581624762120  0.1666224107026360   T   T   T
  0.3298412669954852  0.8109679161452757  0.1666263436040941   T   T   T
  0.4965023373020483  0.8109801288598605  0.1666415113059032   T   T   T
  0.0801382886882770  0.6881079126146530  0.1919986071799704   T   T   T
  0.2467431170942820  0.6880599904262736  0.1919886494888719   T   T   T
  0.4133752629843379  0.6881250699501915  0.1919997063504484   T   T   T
  0.0801312590566542  0.9380461888801390  0.1919740081415230   T   T   T
  0.2467345401010864  0.9380429490749496  0.1919825454646699   T   T   T
  0.4133724496429802  0.9380648835898968  0.1920036396292264   T   T   T
  0.0796195236737160  0.6859803714284721  0.0858535815969247   T   T   T
  0.2463193335648761  0.6859464855322909  0.0858746657178652   T   T   T
  0.4130049998417598  0.6859658059753763  0.0858853720592705   T   T   T
  0.0796277637126029  0.9359234541922828  0.0858334658212077   T   T   T
  0.2463201998442761  0.9359210488445799  0.0858610480677243   T   T   T
  0.4130052589280525  0.9359140875020459  0.0858812346008443   T   T   T
  0.1628998340822209  0.5608658242885386  0.1130287588641545   T   T   T
  0.3295823984646350  0.5608536850434328  0.1130372924480171   T   T   T
  0.4962708996599267  0.5608486938054948  0.1130514995051901   T   T   T
  0.1628876799545998  0.8108134789104194  0.1130152322866988   T   T   T
  0.3295710736508061  0.8108502705338745  0.1130248969904322   T   T   T
  0.4962846489163145  0.8108637292059777  0.1130609222336887   T   T   T
  0.9965266336014291  0.0630587828901075  0.0604408412390713   T   T   T
  0.6633146472433111  0.0630360752457836  0.0605841974570369   T   T   T
  0.8298851177523702  0.0630271374680462  0.0605303294523184   T   T   T
  0.9965119377476885  0.3130906979771342  0.0604312648030455   T   T   T
  0.6632665856472137  0.3129271896852350  0.0605881306468199   T   T   T
  0.8298479151958251  0.3130126906011737  0.0605209101995202   T   T   T
  0.5796204045822740  0.1858423302154658  0.1394434157759207   T   T   T
  0.7462991577051433  0.1860686327184470  0.1396297364097214   T   T   T
  0.9129727151497218  0.1857536294070721  0.1392978915110409   T   T   T
  0.5796270993460612  0.4359287172158919  0.1394699642524256   T   T   T
  0.7463435418836336  0.4358755789594235  0.1394752392756486   T   T   T
  0.9129977030645473  0.4359542294956471  0.1394014626335202   T   T   T
  0.6632836027889125  0.0612384051044230  0.1667504080686215   T   T   T
  0.8295411757247335  0.0611016682713733  0.1666835822505186   T   T   T
  0.9966090092173014  0.0606578223725288  0.1665054292133082   T   T   T
  0.6630203776952767  0.3110709489416654  0.1667955507855961   T   T   T
  0.8299186250177264  0.3110715542756737  0.1666410164471401   T   T   T
  0.9964931223752410  0.3110332489542765  0.1664666990376840   T   T   T
  0.5796996886650448  0.1875764954571914  0.1917938424680259   T   T   T
  0.7466195991450414  0.1897523658900027  0.1926838976814654   T   T   T
  0.9136520446374209  0.1869288158364927  0.1914626948466029   T   T   T
  0.5799712580588292  0.4384142120088180  0.1919921375567995   T   T   T
  0.7467270290947056  0.4379671699442652  0.1920064790735269   T   T   T
  0.9134756647110536  0.4384214161041814  0.1919011541156374   T   T   T
  0.5796633331649645  0.1859385224657628  0.0859163413016671   T   T   T
  0.7463113390784528  0.1859445660714908  0.0859979117449826   T   T   T
  0.9129219477803255  0.1859659746210259  0.0858091248249502   T   T   T
  0.5797112690577280  0.4359198808159513  0.0859227200754108   T   T   T
  0.7463194363359876  0.4359228311244365  0.0859130276986954   T   T   T
  0.9129418798946551  0.4359626532040128  0.0858550538223556   T   T   T
  0.6629290415865444  0.0608715810552652  0.1131148319644334   T   T   T
  0.8295394979268016  0.0608403381288568  0.1130631194278652   T   T   T
  0.9962538965451202  0.0607777714745759  0.1129905590242244   T   T   T
  0.6628863139387352  0.3108573830309068  0.1131415323017178   T   T   T
  0.8295722097587376  0.3108724324256350  0.1130619590279388   T   T   T
  0.9962279317591872  0.3108747853204252  0.1129722161238715   T   T   T
  0.9965891734728486  0.5630119498074436  0.0604791398129783   T   T   T
  0.6632964633318269  0.5629910787357393  0.0605322190124201   T   T   T
  0.8299570194177101  0.5630006379998587  0.0605092748700128   T   T   T
  0.9965034779585070  0.8130669298177932  0.0604678164294213   T   T   T
  0.6632635100889684  0.8129824032159944  0.0605366630192193   T   T   T
  0.8298808924359969  0.8130408524536028  0.0605075975571210   T   T   T
  0.5796701146578174  0.6858748553357613  0.1394626040166636   T   T   T
  0.7463309711936676  0.6859207769262863  0.1394501948063200   T   T   T
  0.9129822570645811  0.6858579486101248  0.1394404889493888   T   T   T
  0.5797186402548890  0.9359487406322546  0.1394955714299880   T   T   T
  0.7462784108735423  0.9358264599693713  0.1394634840461688   T   T   T
  0.9128984180153794  0.9359131858901848  0.1394547583456118   T   T   T
  0.6631863985263741  0.5610418715043742  0.1666342557267893   T   T   T
  0.8297920278693586  0.5610304510835297  0.1666265830727826   T   T   T
  0.9965778062475389  0.5610727430178880  0.1666027054490443   T   T   T
  0.6631464891213521  0.8109751743140126  0.1666585212812729   T   T   T
  0.8298605505855793  0.8109791059037942  0.1666359024401215   T   T   T
  0.9965089737000667  0.8109817999442737  0.1666205007127853   T   T   T
  0.5801112173622809  0.6880977252713543  0.1920165319658232   T   T   T
  0.7467597320475374  0.6881043206974040  0.1920052116054750   T   T   T
  0.9134133707985413  0.6881055733813951  0.1919952954548797   T   T   T
  0.5801131076871617  0.9380916589499256  0.1920209609915809   T   T   T
  0.7467342130311810  0.9380408457492737  0.1920233086572470   T   T   T
  0.9134023462979090  0.9380630807033232  0.1919823471339064   T   T   T
  0.5796904934073056  0.6859178597562702  0.0859094738689764   T   T   T
  0.7463092368250368  0.6859279409571095  0.0859055743158269   T   T   T
  0.9129270732433278  0.6859599742346509  0.0858607955668100   T   T   T
  0.5797157617205860  0.9359478045218288  0.0859219791745896   T   T   T
  0.7463015915670488  0.9359157969756378  0.0859094880931319   T   T   T
  0.9129092161537607  0.9359624640085211  0.0858687393029874   T   T   T
  0.6629264324499166  0.5608457267275132  0.1130678673844385   T   T   T
  0.8295675347504221  0.5608618052123808  0.1130466894308501   T   T   T
  0.9962558936829282  0.5608648178435671  0.1130230938907882   T   T   T
  0.6628994773902005  0.8108378113787548  0.1130661658338641   T   T   T
  0.8295634409501608  0.8108542904271379  0.1130436256706213   T   T   T
  0.9962009334809859  0.8108570860030504  0.1130273207138754   T   T   T
  0.0391995927774185  0.1781265999047504  0.0268309835470035   T   T   T
  0.2057817079267870  0.1780388302077920  0.0268959698883918   T   T   T
  0.3725098539786089  0.1780378003534307  0.0269089423023228   T   T   T
  0.0392077685440296  0.4280857854851611  0.0268325395592512   T   T   T
  0.2056099724866158  0.4278971825560169  0.0269216314681924   T   T   T
  0.3721514115658684  0.4278832756615203  0.0269250324880283   T   T   T
  0.1617667364138283  0.0267538160495444  0.0449614101988602   T   T   T
  0.3284748600839224  0.0267309925583453  0.0449833299441989   T   T   T
  0.4952038037918612  0.0267205869910950  0.0450008679098385   T   T   T
  0.1617580122307359  0.2766814856805824  0.0449910994418728   T   T   T
  0.3284378810829159  0.2766897924759226  0.0449923622103148   T   T   T
  0.4951622320078405  0.2767350084111601  0.0449840822647371   T   T   T
  0.4145084457350897  0.4017168314971249  0.2074856625266176   T   T   T
  0.4142546046871555  0.1515970975826604  0.2074633702263146   T   T   T
  0.0805766786662860  0.1518558813470072  0.2075275221235055   T   T   T
  0.2476291185985321  0.1516357227470388  0.2074789214854758   T   T   T
  0.0811481151640784  0.4015002462596604  0.2074816513739546   T   T   T
  0.2477248611186484  0.4016919684183186  0.2074924230352366   T   T   T
  0.0399351603885635  0.0516930525130192  0.2254365781048465   T   T   T
  0.2066214294856372  0.0518064727298794  0.2254582488874359   T   T   T
  0.3734368070083755  0.0517694022774788  0.2254391050754592   T   T   T
  0.0325134026685807  0.3031148089439668  0.2264439108330764   T   T   T
  0.2072056987893982  0.3015440560372248  0.2253352419878503   T   T   T
  0.3732797787244960  0.3017985438700783  0.2254850214089052   T   T   T
  0.0390599193385468  0.6780707194574707  0.0268808009203086   T   T   T
  0.2058956938355216  0.6780694204095915  0.0268892211270464   T   T   T
  0.3726205198604076  0.6780729362410429  0.0269091465553637   T   T   T
  0.0388114363290601  0.9278435031080329  0.0268786286795032   T   T   T
  0.2055161276115024  0.9278177874563908  0.0268980335774119   T   T   T
  0.3724943848082551  0.9279413882584997  0.0268909079385242   T   T   T
  0.1617860159474764  0.5267369165079542  0.0449842461722846   T   T   T
  0.3285261069789154  0.5267276560297456  0.0449959089122162   T   T   T
  0.4951562076616641  0.5266973598268260  0.0450034346156552   T   T   T
  0.1617170576267970  0.7767218443034785  0.0449689915861237   T   T   T
  0.3284544213948962  0.7767223530459845  0.0449779981577554   T   T   T
  0.4952256969926817  0.7767070999062309  0.0450090267016175   T   T   T
  0.4143782528769048  0.9016660412781070  0.2074996457521369   T   T   T
  0.4143831857330412  0.6516920976852844  0.2074901376111243   T   T   T
  0.0810845993603175  0.6516989957093713  0.2074918284805741   T   T   T
  0.2476966384623766  0.6516957531369494  0.2074913603548786   T   T   T
  0.0810556803847183  0.9016378672702902  0.2074704249346556   T   T   T
  0.2476862142402969  0.9016755907802093  0.2074881587140406   T   T   T
  0.0400689624993453  0.5520375610198877  0.2254357518108497   T   T   T
  0.2067142930196399  0.5518669060084626  0.2254377814107139   T   T   T
  0.3734111637162223  0.5519814082971720  0.2254253115429220   T   T   T
  0.0400828002423250  0.8018930606586693  0.2254543423374973   T   T   T
  0.2067400376719206  0.8019332523537249  0.2254618264749876   T   T   T
  0.3733337582282593  0.8018238678789616  0.2254730682728512   T   T   T
  0.5395036972089531  0.1781464008737356  0.0269012395812943   T   T   T
  0.7056320149800677  0.1781217226254342  0.0270375246460545   T   T   T
  0.8716398152896585  0.1778425008232170  0.0269423640293240   T   T   T
  0.5395534336583547  0.4280839499875235  0.0268775845698420   T   T   T
  0.7051341015182790  0.4277385800520534  0.0269963438734620   T   T   T
  0.8714230307637603  0.4277014740357587  0.0269514291129108   T   T   T
  0.6619074106279323  0.0267322340950654  0.0450737223387808   T   T   T
  0.8281520731033327  0.0267384162847000  0.0450186917310007   T   T   T
  0.9950046457403304  0.0268128305074068  0.0449257077789149   T   T   T
  0.6617465338981632  0.2765659134484310  0.0450954712117739   T   T   T
  0.8283250556823515  0.2766594375435623  0.0450273837024304   T   T   T
  0.9950104920232313  0.2768372853604908  0.0449181192081090   T   T   T
  0.9141853293846856  0.4022550409115059  0.2074194570728338   T   T   T
  0.9147814233792065  0.1508318540392494  0.2070036160092010   T   T   T
  0.5804874827789139  0.1514150008756396  0.2073383803241093   T   T   T
  0.7478104382987655  0.1528725462305502  0.2080687507260308   T   T   T
  0.5807400355993484  0.4019133378421407  0.2074579716002985   T   T   T
  0.7468684059687114  0.4015534652411988  0.2074965688131467   T   T   T
  0.5399469236335681  0.0519560902268244  0.2254819193275079   T   T   T
  0.7067350526895717  0.0512748796713409  0.2255655557641842   T   T   T
  0.8733651012204955  0.0516016978167499  0.2255009269794058   T   T   T
  0.5421236997310087  0.3006241698395583  0.2245250906034881   T   T   T
  0.6886589287881161  0.3098839163808039  0.2289224852472127   T   T   T
  0.8902571090432274  0.2950894684607143  0.2230515165545923   T   T   T
  0.7708588793870337  0.3055427906228879  0.2740986079730831   T   T   T
  0.7441567136247472  0.2376057620483709  0.2934261590003817   T   T   T
  0.7842645772838578  0.3200408256380841  0.3030445617020969   T   T   T
  0.6556752985743021  0.1930777126771814  0.3096157696311441   T   T   T
  0.7105212508728986  0.1296783842099856  0.3023090948052107   T   T   T
  0.8254413649892218  0.3672678838772848  0.3331121714292726   T   T   T
  0.7425131798757316  0.3797167381433663  0.3306712186668420   T   T   T
  0.7563353159874866  0.3964374273500247  0.2523603837483627   T   T   T
  0.7915770589701541  0.3251118181241502  0.2390752926283433   T   T   T
  0.5393281540050976  0.6781212507618342  0.0269176365051299   T   T   T
  0.7057739368826755  0.6780601696007372  0.0269400382799767   T   T   T
  0.8721764163281546  0.6780031091286904  0.0269216091168656   T   T   T
  0.5393383293175240  0.9280942157478541  0.0269165088591559   T   T   T
  0.7053272914416809  0.9278849637871364  0.0269740382271661   T   T   T
  0.8716784232009600  0.9278036675350635  0.0269582297209414   T   T   T
  0.6617897487314124  0.5266774132963332  0.0450276478678532   T   T   T
  0.8283910353365658  0.5266865093349877  0.0450020150325148   T   T   T
  0.9950225008726603  0.5267196649508795  0.0449666802830932   T   T   T
  0.6617541110056048  0.7767014696826154  0.0450277060364288   T   T   T
  0.8283107811729481  0.7767101014290303  0.0450045621283482   T   T   T
  0.9949336748956430  0.7767287463378777  0.0449674452433032   T   T   T
  0.9144862390095130  0.9016860403143681  0.2074842537396956   T   T   T
  0.9144819258038980  0.6517338309790413  0.2074991307134828   T   T   T
  0.5810688816813305  0.6517173972930986  0.2075096257316991   T   T   T
  0.7478105428717672  0.6517725241311442  0.2075104335999132   T   T   T
  0.5810581167950524  0.9017515685222833  0.2075258732311460   T   T   T
  0.7477550013375924  0.9016631253204705  0.2075198840675944   T   T   T
  0.5397477628435046  0.5523220271315854  0.2254416001857263   T   T   T
  0.7066926341356763  0.5530253992228253  0.2253077265642075   T   T   T
  0.8734078301712683  0.5523733957898338  0.2253804654705423   T   T   T
  0.5400184090920627  0.8018368061702671  0.2254727821152298   T   T   T
  0.7066986062367592  0.8018833808836869  0.2254664033211470   T   T   T
  0.8733982958458900  0.8018216468775368  0.2254675339144722   T   T   T
  0.0854130493117259  0.1669591597183132  0.0340949530807056   T   T   T
  0.2520915310373317  0.1669327032642383  0.0341113414367807   T   T   T
  0.4188198230889806  0.1669381389239862  0.0341261590557441   T   T   T
  0.0854255922780086  0.4169726947525834  0.0340979611773052   T   T   T
  0.2519905082882804  0.4168217417704682  0.0340962781523381   T   T   T
  0.4185667678827157  0.4168147466940370  0.0340787000653555   T   T   T
  0.1596848056421870  0.0418177063279424  0.2184592634421902   T   T   T
  0.3264192080674939  0.0417001571177488  0.2184985076260370   T   T   T
  0.4930031805261873  0.0416314083004499  0.2185202395511640   T   T   T
  0.1600174859770771  0.2917669302795183  0.2184870707204955   T   T   T
  0.3263360605676489  0.2917053429782210  0.2184949350620051   T   T   T
  0.4935588551382765  0.2913352105616079  0.2184337796081614   T   T   T
  0.0853627924678267  0.6669356144088612  0.0340962159237604   T   T   T
  0.2521756722206409  0.6668924403579735  0.0341118424032808   T   T   T
  0.4188945929738881  0.6668729260858732  0.0341327323394822   T   T   T
  0.0851797810052017  0.9168275793398085  0.0340628841849732   T   T   T
  0.2519179727753939  0.9168144688875745  0.0340692101471740   T   T   T
  0.4188032206581641  0.9168554059582316  0.0341091143279101   T   T   T
  0.1597321846131693  0.5416619791821918  0.2184915127263142   T   T   T
  0.3264041083581929  0.5417017743875713  0.2185016970073592   T   T   T
  0.4928188215207903  0.5419413463063267  0.2184878626674054   T   T   T
  0.1597754184743415  0.7917157355945283  0.2185089333800183   T   T   T
  0.3263713328223474  0.7918062944573584  0.2184873363953796   T   T   T
  0.4930547322839913  0.7918170413142738  0.2184942218653492   T   T   T
  0.5856988124488794  0.1668995998263909  0.0341674157627932   T   T   T
  0.7520024179447680  0.1669240879948615  0.0342008218959893   T   T   T
  0.9181798960048716  0.1668858207714627  0.0340388932190738   T   T   T
  0.5857256611718088  0.4168945535316894  0.0341700775635122   T   T   T
  0.7516449141484178  0.4167678096821688  0.0341124407106680   T   T   T
  0.9179688393002551  0.4168645632008088  0.0340548291624434   T   T   T
  0.6597488557406636  0.0417610715191181  0.2185359947520261   T   T   T
  0.8264059041264278  0.0418302517592194  0.2184885968495316   T   T   T
  0.9930124555229385  0.0418854949021910  0.2184044181751976   T   T   T
  0.6501221335367587  0.2920483540457073  0.2185591655167351   T   T   T
  0.8389255647642269  0.2918979908658211  0.2184958263464834   T   T   T
  0.9884780603558208  0.2911628740491982  0.2180479374038540   T   T   T
  0.7828761126624061  0.2796958262594737  0.2897601343004061   T   T   T
  0.6894458505824288  0.1782133814833290  0.2975322498799902   T   T   T
  0.7874689356436541  0.3782275840193058  0.3219618778580465   T   T   T
  0.7540667272501499  0.3409615271228332  0.2508173879010756   T   T   T
  0.5855899634616503  0.6669369347839388  0.0341521043258023   T   T   T
  0.7520943414796033  0.6668440728836228  0.0341286982931307   T   T   T
  0.9185654945436076  0.6668339325868914  0.0340793372070503   T   T   T
  0.5855884134599527  0.9169104324721914  0.0341559395037365   T   T   T
  0.7517689114459699  0.9167999567469508  0.0341073588131667   T   T   T
  0.9181789491531406  0.9169247730530500  0.0340845823632020   T   T   T
  0.6597555650123270  0.5417271666282629  0.2184943289947306   T   T   T
  0.8264317274742630  0.5416640162699445  0.2184906247847146   T   T   T
  0.9931126753474527  0.5417398192250645  0.2184763612629882   T   T   T
  0.6597338050747589  0.7917048923996602  0.2185125237384096   T   T   T
  0.8264260516633714  0.7917955966973275  0.2184873318036603   T   T   T
  0.9931096849811614  0.7917742463625400  0.2184911650111412   T   T   T
  0.2467245992857549  0.1216547973922746  0.0597644302055407   T   T   T
  0.4134287529594239  0.1216424283935118  0.0597794190428381   T   T   T
  0.0799938258062362  0.3716700342686279  0.0597488332003751   T   T   T
  0.2467025538119285  0.3716390869167191  0.0597663912348525   T   T   T
  0.4133777912712270  0.3716678620802103  0.0597571837838110   T   T   T
  0.0799904631576668  0.1216634541044953  0.0597435410960944   T   T   T
  0.4963032893542539  0.4984358512288116  0.1397065691618895   T   T   T
  0.1630194114636054  0.4983983918770625  0.1396857303939507   T   T   T
  0.3296600379574391  0.4984047225530556  0.1396977311085801   T   T   T
  0.4962975251096167  0.2483639003276827  0.1396882533214486   T   T   T
  0.1630061834717615  0.2483538268828377  0.1396813660435661   T   T   T
  0.3296531710583553  0.2483593352667283  0.1396938448588473   T   T   T
  0.0798110131707802  0.1230330349696830  0.1660095313713010   T   T   T
  0.2464687947243746  0.1231059961698589  0.1660355505648602   T   T   T
  0.4130771817316476  0.1230198523582411  0.1660291294870272   T   T   T
  0.0799042953926410  0.3731432864179010  0.1660042881738537   T   T   T
  0.2464757444115376  0.3731043008741363  0.1660383972658779   T   T   T
  0.4131279357129035  0.3731539925563626  0.1660429991054049   T   T   T
  0.1633568821721968  0.4966778778269166  0.1927468372922802   T   T   T
  0.3299967841670912  0.4967315421381463  0.1927603589512358   T   T   T
  0.4965717165949051  0.4969339097116185  0.1927413101752187   T   T   T
  0.1633517126296943  0.2468046261186289  0.1927742533537226   T   T   T
  0.4963667275032174  0.2465272884383490  0.1926878403174360   T   T   T
  0.3299122571434127  0.2466893211797664  0.1927457746210921   T   T   T
  0.4963820062858093  0.4980376754123371  0.0864463060113418   T   T   T
  0.1630156374973789  0.4980909568577296  0.0864161293958517   T   T   T
  0.3297043840375730  0.4980664039907753  0.0864317801895537   T   T   T
  0.4963363092013042  0.2480736512577915  0.0864344852622321   T   T   T
  0.1629987716090655  0.2480637154215386  0.0864182893550037   T   T   T
  0.3296863533705000  0.2480683097437311  0.0864293381601766   T   T   T
  0.0795704488849421  0.1232691891538206  0.1127419378154748   T   T   T
  0.2462711717819277  0.1232855391039968  0.1127796071243784   T   T   T
  0.4129392797731006  0.1232862727295074  0.1127782924430642   T   T   T
  0.0795854258848709  0.3733360807941585  0.1127476964510046   T   T   T
  0.2462508033607438  0.3733014031053496  0.1127810972084239   T   T   T
  0.4129132709080229  0.3733299422441581  0.1127759459617962   T   T   T
  0.2467621116578330  0.6216476141279356  0.0597667426659888   T   T   T
  0.4134467235605261  0.6216370837263645  0.0597921051660116   T   T   T
  0.0799734419781005  0.8716558598946921  0.0597326530381472   T   T   T
  0.2466995812861319  0.8716651769285166  0.0597439026789598   T   T   T
  0.4134065031863267  0.8716393684238120  0.0597735702002083   T   T   T
  0.0800211901608665  0.6216512299777315  0.0597514671756625   T   T   T
  0.4962856633026324  0.9982883323319729  0.1397003933302703   T   T   T
  0.1629956485681347  0.9983338874673133  0.1396704738552327   T   T   T
  0.3296430632269410  0.9983250023514479  0.1396879788389521   T   T   T
  0.4963402747529435  0.7483833188098914  0.1397077272683151   T   T   T
  0.1630144509349028  0.7483778562745338  0.1396841515547534   T   T   T
  0.3296635528015825  0.7483843240527867  0.1396883913223745   T   T   T
  0.0798726794623018  0.6231888449460226  0.1660339021840287   T   T   T
  0.2464926493945541  0.6231305852978444  0.1660453661604213   T   T   T
  0.4131329527689680  0.6232058043078825  0.1660472337457466   T   T   T
  0.0798490938368852  0.8730705557473234  0.1660256193649741   T   T   T
  0.2464994384839998  0.8730992693652919  0.1660346670983034   T   T   T
  0.4131594111591520  0.8731110544427645  0.1660519304893612   T   T   T
  0.1633473720259830  0.9967060300949226  0.1927367114093284   T   T   T
  0.3299893414676777  0.9967022044643103  0.1927534475174272   T   T   T
  0.4966378888154124  0.9967107919151266  0.1927668566219432   T   T   T
  0.1633781661063629  0.7467435132764881  0.1927581961748312   T   T   T
  0.4966641108101131  0.7467620073176370  0.1927630091583455   T   T   T
  0.3299990547010412  0.7467436119431997  0.1927505157714254   T   T   T
  0.4963762131767461  0.9980418981604476  0.0864432951726081   T   T   T
  0.1630060045769408  0.9980639991727547  0.0864022138428721   T   T   T
  0.3296983609416124  0.9980627312680033  0.0864194930471239   T   T   T
  0.4963798931489756  0.7480659656587287  0.0864469598040952   T   T   T
  0.1629997173640346  0.7480744406843467  0.0864061620954719   T   T   T
  0.3296772916253566  0.7480818835795368  0.0864166791801188   T   T   T
  0.0795819462977384  0.6233478772464837  0.1127609107899906   T   T   T
  0.2462616928245237  0.6233305347795683  0.1127763334068583   T   T   T
  0.4129378855367997  0.6233305999479265  0.1127870458102057   T   T   T
  0.0795734820919141  0.8732531302082763  0.1127394937115155   T   T   T
  0.2462308223433164  0.8732906496214066  0.1127632474997649   T   T   T
  0.4129142177156463  0.8732826719108843  0.1127760779105752   T   T   T
  0.7466802252957557  0.1217046230502605  0.0598587790075839   T   T   T
  0.9132536587318288  0.1217049198501172  0.0597135404798361   T   T   T
  0.5800501115275073  0.3715848940562442  0.0598334315312098   T   T   T
  0.7466222195378880  0.3716322003654310  0.0597963375553825   T   T   T
  0.9132195086643570  0.3717094117116314  0.0597291799011828   T   T   T
  0.5800761822055623  0.1216302661540355  0.0598295232307190   T   T   T
  0.9963760051845805  0.4984396165340976  0.1396711763532873   T   T   T
  0.6629778943809028  0.4984051064115114  0.1397182867994484   T   T   T
  0.8296710658309369  0.4984417223045510  0.1396986838447606   T   T   T
  0.9963061531888416  0.2482902572345150  0.1395541889380548   T   T   T
  0.6628780173635281  0.2484371566262472  0.1398283705086078   T   T   T
  0.8297141879950082  0.2483396877743885  0.1396814676940474   T   T   T
  0.5796478896173209  0.1229538574812272  0.1659994987747672   T   T   T
  0.7463665487645740  0.1238565734946152  0.1663823018533876   T   T   T
  0.9132348717641048  0.1224264967404023  0.1657332484435334   T   T   T
  0.5796599349850322  0.3732748917754324  0.1660822738777920   T   T   T
  0.7463716194625649  0.3730781864325512  0.1660602979890630   T   T   T
  0.9132570263074977  0.3733553165687042  0.1659851620577781   T   T   T
  0.6632288022866434  0.4968698332289705  0.1927344019772000   T   T   T
  0.8300592240988922  0.4968498979326831  0.1927292834244413   T   T   T
  0.9967890093664801  0.4968619891256327  0.1927173474679931   T   T   T
  0.6620965306217564  0.2474914099404635  0.1931257980659076   T   T   T
  0.9964459372119961  0.2461520245057673  0.1923123990448157   T   T   T
  0.8311193350124451  0.2464904143042265  0.1925447689312799   T   T   T
  0.9963324041275522  0.4980787978004786  0.0864056583170924   T   T   T
  0.6630392233141458  0.4980702055474266  0.0864643758615476   T   T   T
  0.8296559988435454  0.4980962104914394  0.0864364064886247   T   T   T
  0.9962947181772323  0.2481022514518904  0.0863581303506344   T   T   T
  0.6630154699745527  0.2480836256865806  0.0865267025246396   T   T   T
  0.8296267541323907  0.2481101367665273  0.0864536351870514   T   T   T
  0.5795786080301818  0.1233196006723197  0.1128131646433275   T   T   T
  0.7462419222739465  0.1233313242730953  0.1129090783020999   T   T   T
  0.9129127097268953  0.1232424087629768  0.1126785313892252   T   T   T