C H O Si                                
   1.00000000000000     
    18.5749199999999988    0.0000000000000000    0.0000000000000000
     0.0000000000000000   17.5126199999999983    0.0000000000000000
     0.0000000000000000    0.0000000000000000   58.0000000000000000
   C    H    O    Si
   144   105    52   144
Selective dynamics
Direct
  0.4966470937742105  0.0629487321604228  0.0605098137063338   T   T   T
  0.1632287295483415  0.0630003441211612  0.0604690127981425   T   T   T
  0.3299506748642744  0.0629818454825336  0.0604899139126277   T   T   T
  0.4965625821874781  0.3130003156059500  0.0604866041206108   T   T   T
  0.1632157843487735  0.3129806914955477  0.0604889861504104   T   T   T
  0.3299173082329714  0.3129785551547182  0.0604920379309342   T   T   T
  0.0796226327799272  0.1858269818777866  0.1394067641185622   T   T   T
  0.2462932247717378  0.1858568332363909  0.1394214166527771   T   T   T
  0.4129527560712957  0.1858298517503384  0.1394207523367394   T   T   T
  0.0796611693624103  0.4358880742492900  0.1394081612246108   T   T   T
  0.2463190600560714  0.4358795924027553  0.1394309949072001   T   T   T
  0.4129751277733157  0.4359259376817117  0.1394290622792106   T   T   T
  0.1630837376098469  0.0609472880299818  0.1666220453286975   T   T   T
  0.3297035851516046  0.0609078829834969  0.1666283077931850   T   T   T
  0.4963422804104909  0.0607909799648993  0.1666196768268795   T   T   T
  0.1630894047131281  0.3109233713218787  0.1666230493981340   T   T   T
  0.3297531595441014  0.3109811319391102  0.1666389078192287   T   T   T
  0.4963651257395692  0.3110031088903038  0.1666092204516830   T   T   T
  0.0799307535197783  0.1881281343699479  0.1920177607547820   T   T   T
  0.2466178040239714  0.1880113869564677  0.1919919417621862   T   T   T
  0.4131253772309803  0.1879226531279402  0.1919649455456278   T   T   T
  0.0799995557924452  0.4379203504841192  0.1919931865020334   T   T   T
  0.2466899911466148  0.4380397126371566  0.1919947791274195   T   T   T
  0.4133633040931156  0.4380879126862664  0.1919935425085054   T   T   T
  0.0795591540752690  0.1859435268309716  0.0858451835351061   T   T   T
  0.2462718728844714  0.1859001987376224  0.0858634344492959   T   T   T
  0.4129689752136665  0.1859010903901949  0.0858695649135802   T   T   T
  0.0795863822180019  0.4359352708156028  0.0858413252120085   T   T   T
  0.2462790408580878  0.4359119632587806  0.0858561257978441   T   T   T
  0.4129824444101571  0.4359048379108202  0.0858565121362510   T   T   T
  0.1628680868884919  0.0608286727747743  0.1130100325736858   T   T   T
  0.3295572224325405  0.0608123618209939  0.1130287021985019   T   T   T
  0.4962387246319906  0.0608028035885292  0.1130434237618302   T   T   T
  0.1628243420152806  0.3108259594086876  0.1130169078419195   T   T   T
  0.3295317749930449  0.3108265371595474  0.1130259451242748   T   T   T
  0.4961792865131195  0.3108418621637886  0.1130288891961313   T   T   T
  0.4966456588270701  0.5629348474622711  0.0605107175485585   T   T   T
  0.1632623651262835  0.5630176447475834  0.0604847469017919   T   T   T
  0.3299814657494046  0.5629688661530954  0.0605028172967720   T   T   T
  0.4966300070117953  0.8129717883248253  0.0605118272184312   T   T   T
  0.1631998312837344  0.8130135992491937  0.0604711550063459   T   T   T
  0.3299098161300152  0.8130148370750996  0.0604774890278226   T   T   T
  0.0796549187435664  0.6859075086664125  0.1394137898911767   T   T   T
  0.2463275983940139  0.6858715641105850  0.1394228188738121   T   T   T
  0.4129912498802937  0.6859079898729108  0.1394276012468419   T   T   T
  0.0797002271031936  0.9357310971762115  0.1393874132000117   T   T   T
  0.2463027707266180  0.9358414769283891  0.1394133396704766   T   T   T
  0.4129425151507612  0.9357964404748980  0.1394210854481363   T   T   T
  0.1631204453263842  0.5609694160583495  0.1666390781686767   T   T   T
  0.3297903152731991  0.5610008198760246  0.1666488081078595   T   T   T
  0.4964074232978244  0.5611202038526690  0.1666346610495630   T   T   T
  0.1631474225595808  0.8109462484140918  0.1666365454941487   T   T   T
  0.3297925975117024  0.8109668860221577  0.1666281260459213   T   T   T
  0.4964677808433892  0.8109751733237198  0.1666413987668856   T   T   T
  0.0800428786484877  0.6880673085731630  0.1920031995983879   T   T   T
  0.2466791945551431  0.6880619835524404  0.1919981917847116   T   T   T
  0.4133370837756246  0.6880756219797705  0.1920053004358326   T   T   T
  0.0800365163872369  0.9380055225530075  0.1919796355460411   T   T   T
  0.2466683191450478  0.9380349956006779  0.1919937165207339   T   T   T
  0.4133299686904819  0.9380260382926806  0.1920086818664552   T   T   T
  0.0795691286706572  0.6859319014825314  0.0858417071186363   T   T   T
  0.2462739502799759  0.6859327552637492  0.0858523633807364   T   T   T
  0.4129709937492433  0.6859358589009503  0.0858795819152278   T   T   T
  0.0795622031571914  0.9359197915252111  0.0858305803715161   T   T   T
  0.2462768429455526  0.9359200680924281  0.0858433761190978   T   T   T
  0.4129928222072973  0.9359051525577239  0.0858617465173486   T   T   T
  0.1628634567107132  0.5608756517822922  0.1130181188364746   T   T   T
  0.3295459711321637  0.5608688270525567  0.1130309873389442   T   T   T
  0.4962309070802323  0.5608580011134368  0.1130450764621419   T   T   T
  0.1628393608610063  0.8108086406972334  0.1130059733047227   T   T   T
  0.3295084640696527  0.8108156650282755  0.1130161142421985   T   T   T
  0.4962443358043635  0.8108672285004839  0.1130500184081421   T   T   T
  0.9964526873844072  0.0630524052478466  0.0604400114414201   T   T   T
  0.6632817535318515  0.0629956546803717  0.0605792321873014   T   T   T
  0.8298283182708672  0.0630087700097456  0.0605235620894647   T   T   T
  0.9964474972615051  0.3130868058260688  0.0604290597886713   T   T   T
  0.6632312695165009  0.3129184528982852  0.0605786419954307   T   T   T
  0.8298055556630236  0.3129788537606771  0.0605201648786201   T   T   T
  0.5796146433570059  0.1858642029430282  0.1394296365503309   T   T   T
  0.7462988102621753  0.1859810829444579  0.1396246740434237   T   T   T
  0.9129654850569239  0.1857533390028387  0.1392799855855761   T   T   T
  0.5796239362217469  0.4359619838918778  0.1394577123605726   T   T   T
  0.7463331205001800  0.4358845459705632  0.1394740043862864   T   T   T
  0.9129924881362508  0.4359651639806217  0.1393984713068102   T   T   T
  0.6632476950241202  0.0612645434448953  0.1667526629152981   T   T   T
  0.8294972654457513  0.0611082130920913  0.1666876959960980   T   T   T
  0.9966026904171856  0.0606446812022185  0.1665200838967703   T   T   T
  0.6630087859333308  0.3111120962797219  0.1667947196447383   T   T   T
  0.8298679014448079  0.3110910568033913  0.1666469238967162   T   T   T
  0.9964554507769771  0.3110259465745201  0.1664736472009425   T   T   T
  0.5796494944793329  0.1875807566655065  0.1917976497542695   T   T   T
  0.7465487036203652  0.1897628503764379  0.1926906368587020   T   T   T
  0.9135748248361686  0.1869924295361526  0.1914593434168432   T   T   T
  0.5798768318423394  0.4383617313385922  0.1919961872363602   T   T   T
  0.7466814243607026  0.4379678086068400  0.1920165435076729   T   T   T
  0.9134429669600627  0.4383710083885904  0.1919018063537249   T   T   T
  0.5796320825303385  0.1859285383752750  0.0859114513676837   T   T   T
  0.7462757928042122  0.1859119146385491  0.0859904782990592   T   T   T
  0.9128947113857580  0.1859387623938669  0.0858048203013493   T   T   T
  0.5796761609946723  0.4358766583153256  0.0859092838908867   T   T   T
  0.7463064951619039  0.4358996110405527  0.0858956922775923   T   T   T
  0.9129027662608094  0.4359366298013967  0.0858406100485934   T   T   T
  0.6629010142223635  0.0608724146443783  0.1131065367997982   T   T   T
  0.8294963633045573  0.0608250247976800  0.1130562046505298   T   T   T
  0.9961996660755398  0.0607918318875846  0.1129763823444285   T   T   T
  0.6628559752984652  0.3108598923098575  0.1131352921162900   T   T   T
  0.8295167016906682  0.3108878429683812  0.1130633907756298   T   T   T
  0.9961705298954197  0.3108620938116846  0.1129570793650441   T   T   T
  0.9965409071799366  0.5629990280860858  0.0604698488994156   T   T   T
  0.6632902194107259  0.5629430756388021  0.0605281064078025   T   T   T
  0.8298995640021491  0.5629631254098116  0.0604993923167707   T   T   T
  0.9964572962149508  0.8130370275860513  0.0604640004458629   T   T   T
  0.6632383545249967  0.8129519518566162  0.0605351603835680   T   T   T
  0.8298094070129086  0.8130135703208863  0.0605034812704964   T   T   T
  0.5796734517615353  0.6859074108581374  0.1394551003819560   T   T   T
  0.7463230942355841  0.6859476206037031  0.1394453887809703   T   T   T
  0.9129756193617686  0.6858714585444363  0.1394279517551420   T   T   T
  0.5797125832709796  0.9359491743945340  0.1394827219491875   T   T   T
  0.7462683123588639  0.9358172417243488  0.1394624296998712   T   T   T
  0.9128834006383125  0.9359235958396809  0.1394400915567851   T   T   T
  0.6631680654278221  0.5610615847784806  0.1666416670472599   T   T   T
  0.8297410764714404  0.5610554561444467  0.1666430764374451   T   T   T
  0.9965377659508637  0.5610460901802490  0.1666164849401267   T   T   T
  0.6631181229701987  0.8109825356529055  0.1666597687553712   T   T   T
  0.8298139542524312  0.8109850804628304  0.1666380469686113   T   T   T
  0.9964764095940908  0.8109607293021709  0.1666316118589896   T   T   T
  0.5800198291308900  0.6880696931541037  0.1920148356607221   T   T   T
  0.7467142304995597  0.6880805962061717  0.1920098157548464   T   T   T
  0.9133903861617730  0.6880627473748576  0.1920033121979082   T   T   T
  0.5800095886011352  0.9380484560589273  0.1920182725707460   T   T   T
  0.7466942453646569  0.9380199327295096  0.1920307220326136   T   T   T
  0.9133651281108617  0.9380240390649178  0.1919933463829095   T   T   T
  0.5796389278611060  0.6858968876238032  0.0859032473098371   T   T   T
  0.7462828274542358  0.6859014836938795  0.0858852387362449   T   T   T
  0.9128980027023096  0.6859238861270167  0.0858476282622487   T   T   T
  0.5796763605986920  0.9359041411325928  0.0859117730039116   T   T   T
  0.7462855375689659  0.9358867233479500  0.0858959811181345   T   T   T
  0.9129035480186766  0.9359320280150696  0.0858528459061443   T   T   T
  0.6629066938911441  0.5608399924088207  0.1130622142724516   T   T   T
  0.8295242799824062  0.5608597122626318  0.1130392041828663   T   T   T
  0.9962050772286186  0.5608591936073778  0.1130051946215097   T   T   T
  0.6628556057963743  0.8108319332011887  0.1130600707732162   T   T   T
  0.8294919677195707  0.8108309299283957  0.1130355983492612   T   T   T
  0.9961266061410656  0.8108467303663526  0.1130208167382949   T   T   T
  0.0392914850861174  0.1780948960403141  0.0268340770736429   T   T   T
  0.2058606518327658  0.1780078537101220  0.0268967135140932   T   T   T
  0.3725996125435315  0.1780006757156991  0.0269130056201167   T   T   T
  0.0392825128137751  0.4280485350302207  0.0268385462017875   T   T   T
  0.2056697916593709  0.4278533399223760  0.0269296503584928   T   T   T
  0.3722144136470897  0.4278416169420972  0.0269342799775989   T   T   T
  0.1617391534970617  0.0267571487749046  0.0449534664060306   T   T   T
  0.3284491731307487  0.0267308914870961  0.0449726449670247   T   T   T
  0.4951718798034382  0.0267156059677276  0.0449892985207018   T   T   T
  0.1617344550403117  0.2766757590480686  0.0449845959264252   T   T   T
  0.3284144192834031  0.2766875214657423  0.0449860329074076   T   T   T
  0.4951347362398442  0.2767237404976897  0.0449717187100083   T   T   T
  0.4144974794098637  0.4017231095592791  0.2074787956550054   T   T   T
  0.4142374271869281  0.1515843675761423  0.2074596964444040   T   T   T
  0.0805384451327497  0.1518605464115126  0.2075271400851833   T   T   T
  0.2476060743509758  0.1516140324989882  0.2074799841592567   T   T   T
  0.0811283098918048  0.4015050079047474  0.2074814638341486   T   T   T
  0.2477135080288349  0.4017037484415527  0.2074866825345594   T   T   T
  0.0400303086728383  0.0517321923462295  0.2254458142918635   T   T   T
  0.2067279526317471  0.0518466167060006  0.2254693386022039   T   T   T
  0.3735638790910568  0.0518111662194047  0.2254495801740071   T   T   T
  0.0324933528757625  0.3031074210046665  0.2264426951111719   T   T   T
  0.2072901643778210  0.3015724322237517  0.2253394390590444   T   T   T
  0.3733890091987420  0.3018378374743757  0.2254969805880241   T   T   T
  0.0391508250502115  0.6780353301869999  0.0268857262956454   T   T   T
  0.2059790570684117  0.6780378420199604  0.0268898044222547   T   T   T
  0.3727153188145737  0.6780389504100603  0.0269110910974133   T   T   T
  0.0388537469313919  0.9277955524782621  0.0268905594453260   T   T   T
  0.2055698447715350  0.9277701641700856  0.0269088870553330   T   T   T
  0.3725770604139793  0.9279001462482435  0.0268968595718984   T   T   T
  0.1617588171675130  0.5267304588666462  0.0449739610038560   T   T   T
  0.3285001475216763  0.5267212204258241  0.0449847010147945   T   T   T
  0.4951289290008004  0.5266969775983540  0.0449930896797130   T   T   T
  0.1616859278629736  0.7767335692611691  0.0449639355006481   T   T   T
  0.3284254215200388  0.7767201991376150  0.0449692714206946   T   T   T
  0.4952036814756728  0.7767053186474502  0.0449981484241346   T   T   T
  0.4143804223094349  0.9016655686898826  0.2074976513771443   T   T   T
  0.4143735996541778  0.6516834004462446  0.2074861569857876   T   T   T
  0.0810690851681137  0.6516959191289341  0.2074906075098158   T   T   T
  0.2476700435955839  0.6517006060978398  0.2074859602720573   T   T   T
  0.0810386624637340  0.9016373589868995  0.2074644864168613   T   T   T
  0.2476745165083368  0.9016880289194285  0.2074816509838130   T   T   T
  0.0401565476386338  0.5520804496335009  0.2254418197204740   T   T   T
  0.2068281432389775  0.5519117514871138  0.2254468801092645   T   T   T
  0.3735303013423899  0.5520314597546382  0.2254363779578696   T   T   T
  0.0401953881611662  0.8019388824446455  0.2254649543125584   T   T   T
  0.2068581723068313  0.8019847067204161  0.2254753206184746   T   T   T
  0.3734467497949738  0.8018680179301356  0.2254888565139845   T   T   T
  0.5396152314299709  0.1781114961315420  0.0269036601967305   T   T   T
  0.7056940657182051  0.1780761064660163  0.0270500142295557   T   T   T
  0.8717003326462409  0.1778054758341770  0.0269517578263164   T   T   T
  0.5396671343561286  0.4280407976923081  0.0268844287097565   T   T   T
  0.7051720940096571  0.4277038487527261  0.0270017831923849   T   T   T
  0.8714471919087368  0.4276794735131109  0.0269521527594985   T   T   T
  0.6618988708548884  0.0267343190801990  0.0450672752592336   T   T   T
  0.8281152994580684  0.0267478431758374  0.0450170133504154   T   T   T
  0.9949720381904439  0.0268177800777924  0.0449178418858708   T   T   T
  0.6617347680310235  0.2765549246684794  0.0450850644064419   T   T   T
  0.8282967696254581  0.2766561802068900  0.0450196239585365   T   T   T
  0.9949891163375972  0.2768322280071792  0.0449114365875791   T   T   T
  0.9141723272574377  0.4022544475202452  0.2074154649465250   T   T   T
  0.9147689569748844  0.1508319644871768  0.2069952480412664   T   T   T
  0.5804625988310748  0.1514282297127808  0.2073294332640263   T   T   T
  0.7477794956430176  0.1528575601094250  0.2080705566492868   T   T   T
  0.5807222971785715  0.4019048848586538  0.2074574844146930   T   T   T
  0.7468482482404165  0.4015443989180495  0.2074986561659945   T   T   T
  0.5400495597487889  0.0520003176397896  0.2254936075561292   T   T   T
  0.7067983294671294  0.0512890958736758  0.2255661984217742   T   T   T
  0.8734713880722944  0.0516332394392850  0.2255109718093491   T   T   T
  0.5421561950956578  0.3006517917686161  0.2245320730208409   T   T   T
  0.6887475405091473  0.3099189787708371  0.2289406967700708   T   T   T
  0.8902821156238433  0.2950657820240754  0.2230469966608501   T   T   T
  0.7708465723442049  0.3055701108468855  0.2740576081836946   T   T   T
  0.7441459916272418  0.2375689858444615  0.2934214230704457   T   T   T
  0.7842877352338223  0.3200420075485630  0.3030393842918699   T   T   T
  0.6557332176459570  0.1931161998456773  0.3096166068874354   T   T   T
  0.7105017866666217  0.1297091160741166  0.3023080602751976   T   T   T
  0.8254490999198344  0.3672513767852240  0.3331258735817343   T   T   T
  0.7424662040943151  0.3796414309142980  0.3306703186788362   T   T   T
  0.7563544507573550  0.3964806298502405  0.2523592802306676   T   T   T
  0.7915825286582325  0.3250975490238255  0.2390741802096486   T   T   T
  0.5394300039438028  0.6780863437919833  0.0269203436507610   T   T   T
  0.7058417291986666  0.6780212765709167  0.0269447588817050   T   T   T
  0.8722520856063238  0.6779635148715465  0.0269300714009029   T   T   T
  0.5394290349698265  0.9280524952306921  0.0269227307461771   T   T   T
  0.7053548309105762  0.9278512423018256  0.0269794120343726   T   T   T
  0.8717045927540755  0.9277702227597400  0.0269633067017102   T   T   T
  0.6617653254292958  0.5266715709410404  0.0450178604331589   T   T   T
  0.8283653023525280  0.5266767189550045  0.0449924385687312   T   T   T
  0.9949870501607992  0.5267232728500102  0.0449616752020904   T   T   T
  0.6617389552859879  0.7767041759147081  0.0450187583929625   T   T   T
  0.8282841471501976  0.7767148201490186  0.0450020959873079   T   T   T
  0.9949020354194675  0.7767296187568100  0.0449600048639453   T   T   T
  0.9144832079187607  0.9016642947501672  0.2074845359289501   T   T   T
  0.9144721313980388  0.6517259763191804  0.2074963952387718   T   T   T
  0.5810585012910573  0.6517115516822133  0.2075073760257607   T   T   T
  0.7477865117113193  0.6517701584799266  0.2075086196582578   T   T   T
  0.5810418577423530  0.9017593258876354  0.2075248415751401   T   T   T
  0.7477400755269878  0.9016485313984333  0.2075222541489050   T   T   T
  0.5398555318936001  0.5523672401574978  0.2254485837699951   T   T   T
  0.7067915266918506  0.5530689182415833  0.2253158521685354   T   T   T
  0.8735093719480350  0.5524197472315890  0.2253862374115835   T   T   T
  0.5401244621493515  0.8018748316038852  0.2254836295853192   T   T   T
  0.7068056205506290  0.8019216080806418  0.2254734314209571   T   T   T
  0.8734971794154317  0.8018585575104605  0.2254766187688121   T   T   T
  0.0855244478368920  0.1669491008653382  0.0341096070395468   T   T   T
  0.2522089134193150  0.1669480970749530  0.0341290762700304   T   T   T
  0.4189460682818018  0.1669678939304475  0.0341447800143580   T   T   T
  0.0855461658859989  0.4169706287551661  0.0341134749961686   T   T   T
  0.2521356690110093  0.4168426176964595  0.0341005459731343   T   T   T
  0.4187220322014649  0.4168465149144065  0.0340725568347816   T   T   T
  0.1598058846780974  0.0417885275732780  0.2184850353614090   T   T   T
  0.3265407044203476  0.0416777229386032  0.2185356696129181   T   T   T
  0.4931486127479788  0.0415912587610730  0.2185700533199148   T   T   T
  0.1600633835312862  0.2917262895714009  0.2185204351021730   T   T   T
  0.3264716811426894  0.2917027376466966  0.2185384651858022   T   T   T
  0.4935598011568508  0.2913212436661215  0.2184808152747270   T   T   T
  0.0854883687970712  0.6669341861847063  0.0341092439396335   T   T   T
  0.2522928048515355  0.6669025351496455  0.0341333251710927   T   T   T
  0.4190198309481700  0.6668790293851845  0.0341541052198045   T   T   T
  0.0853503802194511  0.9168490576825383  0.0340528117148554   T   T   T
  0.2520681114360328  0.9168422537360035  0.0340648080387214   T   T   T
  0.4189251851547360  0.9168644660283967  0.0341259381990196   T   T   T
  0.1598565343676283  0.5416461723872801  0.2185290699054749   T   T   T
  0.3265422859089472  0.5416842255736067  0.2185428447755612   T   T   T
  0.4929543190599971  0.5418997160545982  0.2185148113909301   T   T   T
  0.1598910582241620  0.7916825187865757  0.2185467709902175   T   T   T
  0.3265198854063042  0.7917735458312612  0.2185149715066205   T   T   T
  0.4931743096208702  0.7917904695324639  0.2185255131823158   T   T   T
  0.5857956534358775  0.1668614882537835  0.0342054160850441   T   T   T
  0.7521938762014370  0.1669542929723835  0.0341853761602376   T   T   T
  0.9183080180518476  0.1669381869114628  0.0340376227089809   T   T   T
  0.5858145910981293  0.4168582766282885  0.0342078641401982   T   T   T
  0.7517917946025955  0.4168114870142980  0.0340939833849783   T   T   T
  0.9180917315449010  0.4168974906117821  0.0340439551079562   T   T   T
  0.6598676532009565  0.0417409890425520  0.2185562671809098   T   T   T
  0.8265212642199934  0.0417940950780592  0.2185175002898712   T   T   T
  0.9931182732682999  0.0418149483013651  0.2184308705151309   T   T   T
  0.6503315940099290  0.2919621667756991  0.2185627353248782   T   T   T
  0.8389898787255335  0.2918859057943864  0.2184968510364584   T   T   T
  0.9884667558785170  0.2912248289030330  0.2180219922402935   T   T   T
  0.7829322108248730  0.2796544704066399  0.2897614735378997   T   T   T
  0.6894855264866985  0.1782789200703899  0.2975194079782430   T   T   T
  0.7874879974576890  0.3783571716281905  0.3219812370325530   T   T   T
  0.7540587387247605  0.3409572607259139  0.2508357900721171   T   T   T
  0.5857087092864318  0.6669122131412645  0.0341845783298029   T   T   T
  0.7522554564540587  0.6668627132801423  0.0341366026062658   T   T   T
  0.9187119287475630  0.6668623670112039  0.0340784189746293   T   T   T
  0.5857192387110606  0.9168899175585195  0.0341752472459252   T   T   T
  0.7519427759877046  0.9168298668983204  0.0340875977940843   T   T   T
  0.9183182796443544  0.9169787262241350  0.0340743460689191   T   T   T
  0.6598830148499564  0.5417039266131130  0.2185257065018422   T   T   T
  0.8265728809841513  0.5416407306097422  0.2185341888809962   T   T   T
  0.9932627752446134  0.5416962096584405  0.2185139442451134   T   T   T
  0.6598359818426786  0.7917021292582653  0.2185532864760951   T   T   T
  0.8265662769157811  0.7917753129788465  0.2185195997109252   T   T   T
  0.9932408119490870  0.7917363048127355  0.2185302326116931   T   T   T
  0.2467009289143470  0.1216564152325219  0.0597653086541380   T   T   T
  0.4134148490342822  0.1216480035630216  0.0597718494538913   T   T   T
  0.0799732893135153  0.3716728466941272  0.0597480897476337   T   T   T
  0.2466860430795381  0.3716373065019934  0.0597609970654952   T   T   T
  0.4133563031492613  0.3716780819841299  0.0597437840983781   T   T   T
  0.0799638100937519  0.1216575923985987  0.0597465712785826   T   T   T
  0.4962841272743420  0.4984667304022091  0.1397168482413284   T   T   T
  0.1630117877791703  0.4984424532918235  0.1396884969599903   T   T   T
  0.3296427208915343  0.4984329574801642  0.1397029571203955   T   T   T
  0.4962842645079330  0.2483996997469003  0.1396882555616536   T   T   T
  0.1629858727498597  0.2483766389686009  0.1396812077162905   T   T   T
  0.3296344787694009  0.2483843367671106  0.1396967174807046   T   T   T
  0.0797661239665676  0.1230227549165129  0.1660061535858589   T   T   T
  0.2464179667673955  0.1231221208488962  0.1660346431132800   T   T   T
  0.4130242167437553  0.1230403808440785  0.1660272861701076   T   T   T
  0.0798503127817601  0.3731524626430674  0.1660011907924936   T   T   T
  0.2464498074570483  0.3731409827821327  0.1660412217995889   T   T   T
  0.4130911843596108  0.3731678184405154  0.1660425841949847   T   T   T
  0.1633522870527916  0.4966702821938394  0.1927576317757138   T   T   T
  0.3300201706193894  0.4967212700722374  0.1927590046794791   T   T   T
  0.4965733216170794  0.4969207567549407  0.1927509588232232   T   T   T
  0.1633413891274111  0.2467894599305428  0.1927815150970062   T   T   T
  0.4964256262290551  0.2465140663080105  0.1926855624727605   T   T   T
  0.3299405426715780  0.2466973475790049  0.1927622273891498   T   T   T
  0.4963809375074368  0.4980411089656958  0.0864432880732766   T   T   T
  0.1629920908703741  0.4980846686562274  0.0864122802837408   T   T   T
  0.3296963929756617  0.4980522715970340  0.0864289058242882   T   T   T
  0.4963209783040503  0.2480708136198942  0.0864234260442810   T   T   T
  0.1629736536587982  0.2480592090960819  0.0864111790171814   T   T   T
  0.3296822131803555  0.2480464824967002  0.0864190615681064   T   T   T
  0.0795205678243402  0.1233183657382537  0.1127383183712349   T   T   T
  0.2461977775034412  0.1233329757339523  0.1127630575015282   T   T   T
  0.4128909966053596  0.1233203446673237  0.1127662259414881   T   T   T
  0.0795041949118074  0.3733783595816408  0.1127375742615621   T   T   T
  0.2461697370202220  0.3733587162202446  0.1127686844846120   T   T   T
  0.4128563692339168  0.3733730095337556  0.1127685050983387   T   T   T
  0.2467317096187755  0.6216439906446859  0.0597717502959257   T   T   T
  0.4134324544788390  0.6216375887795630  0.0597922611891937   T   T   T
  0.0799435082967262  0.8716606728141916  0.0597276769514650   T   T   T
  0.2466725662189219  0.8716616305761675  0.0597341862930931   T   T   T
  0.4134110150602556  0.8716312331352730  0.0597700353023093   T   T   T
  0.0799986157533845  0.6216759600436282  0.0597514116730207   T   T   T
  0.4962608588725829  0.9982951976151087  0.1397027113310239   T   T   T
  0.1629823530368062  0.9983385371449663  0.1396692642283266   T   T   T
  0.3296208377338520  0.9983505097262397  0.1396929115623651   T   T   T
  0.4963359860808035  0.7484126706334679  0.1397083539020106   T   T   T
  0.1630061926797168  0.7484106413280215  0.1396855921963149   T   T   T
  0.3296469303568485  0.7484051329892298  0.1396862546686815   T   T   T
  0.0798297971027081  0.6232222280450831  0.1660351296807283   T   T   T
  0.2464503567184244  0.6231593352600742  0.1660414031560861   T   T   T
  0.4130814022779647  0.6232162921127146  0.1660440041159330   T   T   T
  0.0798160078765557  0.8731010456452549  0.1660262911714955   T   T   T
  0.2464538897967709  0.8731425375392565  0.1660357793503222   T   T   T
  0.4131135447416944  0.8731358327349419  0.1660514841537453   T   T   T
  0.1633462335162330  0.9966959378914391  0.1927412027676200   T   T   T
  0.3299952704149000  0.9967019837423428  0.1927619547866724   T   T   T
  0.4966580852032645  0.9967039097971491  0.1927749363280614   T   T   T
  0.1633726409066457  0.7467474001933843  0.1927703684373753   T   T   T
  0.4966668204214974  0.7467450346412987  0.1927688656519373   T   T   T
  0.3300071967084933  0.7467414347703262  0.1927569964326076   T   T   T
  0.4963771397912419  0.9980356712824583  0.0864400505869892   T   T   T
  0.1629673197514125  0.9980470145252321  0.0863953816287417   T   T   T
  0.3296953582528691  0.9980401665552284  0.0864225133210638   T   T   T
  0.4963648890714479  0.7480715251825925  0.0864479315404628   T   T   T
  0.1629655120647340  0.7480671529185133  0.0863956953772454   T   T   T
  0.3296597420270029  0.7480726163493396  0.0864102026134943   T   T   T
  0.0795175248664753  0.6234068350708747  0.1127498444161220   T   T   T
  0.2461943586095271  0.6233884804004116  0.1127611181419048   T   T   T
  0.4128771808413921  0.6233739349011446  0.1127707697663205   T   T   T
  0.0795006448285306  0.8732985312108749  0.1127322632611117   T   T   T
  0.2461599006232651  0.8733364462129640  0.1127505204175051   T   T   T
  0.4128443999766886  0.8733254254597383  0.1127624137692616   T   T   T
  0.7466690421631523  0.1217182758559400  0.0598559448002970   T   T   T
  0.9132181034145075  0.1217201689313513  0.0597016168248507   T   T   T
  0.5800487561797405  0.3716002055297478  0.0598292405216540   T   T   T
  0.7466000280459246  0.3716625482003801  0.0597845176107463   T   T   T
  0.9131641311048007  0.3717242063231853  0.0597286600408182   T   T   T
  0.5800705864992401  0.1216387722882751  0.0598335409657310   T   T   T
  0.9963637361961295  0.4984640363996212  0.1396760890813346   T   T   T
  0.6629629379371400  0.4984212181463676  0.1397203456786429   T   T   T
  0.8296434363357000  0.4984675332654314  0.1397031356991028   T   T   T
  0.9962989856659981  0.2482943189736282  0.1395589008817268   T   T   T
  0.6628691477555552  0.2484520752796253  0.1398246728397877   T   T   T
  0.8296893062203935  0.2483517282153848  0.1396839783744844   T   T   T
  0.5795961796442806  0.1229654707513268  0.1659922893579681   T   T   T
  0.7463667316554491  0.1238821425441297  0.1663797964753756   T   T   T
  0.9131691006942253  0.1224326646371977  0.1657275620649087   T   T   T
  0.5796297435434997  0.3733077383616442  0.1660743064083559   T   T   T
  0.7463430028216193  0.3730903398123652  0.1660525478762879   T   T   T
  0.9131809430620579  0.3733669255095705  0.1659812121573005   T   T   T
  0.6632533342511393  0.4968473246980451  0.1927412852719196   T   T   T
  0.8301001182874828  0.4968305947945020  0.1927360095184338   T   T   T
  0.9967976166841035  0.4968455588200483  0.1927247671795631   T   T   T
  0.6620948846664831  0.2475398632054559  0.1931369468531402   T   T   T
  0.9964709306994212  0.2461091337235082  0.1922945500617818   T   T   T
  0.8311246215147451  0.2464718216224188  0.1925524310010274   T   T   T
  0.9962987536758612  0.4980822634357908  0.0864012249928274   T   T   T
  0.6630460785524183  0.4980574667497871  0.0864592108031351   T   T   T
  0.8296420764696631  0.4980857025604966  0.0864352772612414   T   T   T
  0.9962665810312926  0.2480846563654625  0.0863511391610781   T   T   T
  0.6629871146314914  0.2480529547873914  0.0865207874271702   T   T   T
  0.8296056267250487  0.2480727912317598  0.0864543811152181   T   T   T
  0.5795315687981525  0.1233596916262875  0.1127994043199606   T   T   T
  0.7461847632106337  0.1233538724153684  0.1128981898904900   T   T   T
  0.9128343952676712  0.1232722781722674  0.1126659505265553   T   T   T