C H O Si                                
   1.00000000000000     
    18.5749199999999988    0.0000000000000000    0.0000000000000000
     0.0000000000000000   17.5126199999999983    0.0000000000000000
     0.0000000000000000    0.0000000000000000   58.0000000000000000
   C    H    O    Si
   144   105    52   144
Selective dynamics
Direct
  0.4965846939709848  0.0631167164423518  0.0605162410877777   T   T   T
  0.1631856696555763  0.0630685372617536  0.0604908415411380   T   T   T
  0.3299073744940847  0.0630978640047263  0.0605061351779143   T   T   T
  0.4964758948149244  0.3131173332532020  0.0605161007226137   T   T   T
  0.1631004994649272  0.3131311563165725  0.0605015367572522   T   T   T
  0.3298009427547158  0.3131271638508701  0.0605111533775725   T   T   T
  0.0799768691375564  0.1858045006074542  0.1393837534379764   T   T   T
  0.2466052983162037  0.1858308407146559  0.1394089759879618   T   T   T
  0.4132554017779541  0.1858311875638918  0.1394309936257966   T   T   T
  0.0799312936694618  0.4358725539343330  0.1394169164963081   T   T   T
  0.2465715033602859  0.4358650245557700  0.1394170840391361   T   T   T
  0.4132207055903008  0.4358783030457876  0.1394345581889357   T   T   T
  0.1634458929680132  0.0608866964019290  0.1665532874581525   T   T   T
  0.3300594373582091  0.0609215193897410  0.1665770435429720   T   T   T
  0.4966620922316874  0.0608611999012954  0.1665744437787326   T   T   T
  0.1633938921298215  0.3109423573722334  0.1665695614141940   T   T   T
  0.3300527851067689  0.3109552947410066  0.1665964170701878   T   T   T
  0.4966575221586252  0.3110021144063672  0.1665896947715398   T   T   T
  0.0804347230380142  0.1880159740919144  0.1919372073125344   T   T   T
  0.2468872432265542  0.1879956800211955  0.1919504977857047   T   T   T
  0.4133884270259784  0.1879552049196423  0.1919504947038588   T   T   T
  0.0801512767696674  0.4380030065674509  0.1919717265664580   T   T   T
  0.2467968666511310  0.4380201247893019  0.1919573153705847   T   T   T
  0.4134332855846914  0.4381055718365692  0.1919623611579034   T   T   T
  0.0797699205990766  0.1859996275226764  0.0858404386404013   T   T   T
  0.2464404109546356  0.1859896162692829  0.0858671147899354   T   T   T
  0.4131037295174013  0.1860103470849859  0.0858715097506940   T   T   T
  0.0797956390061082  0.4360213863926684  0.0858648166739987   T   T   T
  0.2464678043619585  0.4360129134595461  0.0858770297897067   T   T   T
  0.4131162700422651  0.4360048128042780  0.0858782789625750   T   T   T
  0.1631226657684597  0.0608274980403032  0.1130039068579258   T   T   T
  0.3298000322211503  0.0608487742931301  0.1130298724914073   T   T   T
  0.4964573089946887  0.0608683281232268  0.1130467607325163   T   T   T
  0.1631663092975322  0.3108465672565049  0.1130193573503063   T   T   T
  0.3298495246609204  0.3108353467285153  0.1130392582817931   T   T   T
  0.4964842772563869  0.3108613901761466  0.1130491133317218   T   T   T
  0.4965858111248860  0.5630664598735606  0.0605266450314175   T   T   T
  0.1631972555531432  0.5631051714726876  0.0605107057638365   T   T   T
  0.3299389926932528  0.5631059765581951  0.0605121474683578   T   T   T
  0.4965158931136482  0.8131317787539150  0.0605290329900418   T   T   T
  0.1631089220161546  0.8130819413385323  0.0604849882972770   T   T   T
  0.3298413078574630  0.8131061447426383  0.0605018772100050   T   T   T
  0.0799072430703767  0.6858890297602659  0.1394135048545395   T   T   T
  0.2465544851618219  0.6858563556954745  0.1394210876073899   T   T   T
  0.4132147670443673  0.6858970811057671  0.1394307635973907   T   T   T
  0.0799944180179860  0.9357281789671510  0.1393667539623196   T   T   T
  0.2465999861258535  0.9358091897654247  0.1393936304462411   T   T   T
  0.4132443859987203  0.9358153616422051  0.1394161672304572   T   T   T
  0.1632906322995089  0.5609567404022744  0.1665958712392323   T   T   T
  0.3299820413303662  0.5609930588591738  0.1665958680107253   T   T   T
  0.4965870862167544  0.5610990938860211  0.1665822510989671   T   T   T
  0.1633477006884871  0.8109545698347981  0.1665622157494166   T   T   T
  0.3300173279145942  0.8109681362408585  0.1665856813522075   T   T   T
  0.4966993842972913  0.8110218652022377  0.1666066607561539   T   T   T
  0.0801845472623431  0.6881335151369538  0.1919504168674014   T   T   T
  0.2468048041587920  0.6880925093713591  0.1919682862864044   T   T   T
  0.4134496769506056  0.6881347375718049  0.1919658039004756   T   T   T
  0.0802553200128331  0.9380267751872362  0.1919202191529052   T   T   T
  0.2468427768588254  0.9380184819381582  0.1919395156774314   T   T   T
  0.4134725221708351  0.9380583003730252  0.1919566823866372   T   T   T
  0.0797677101014376  0.6860111113058325  0.0858640366959100   T   T   T
  0.2464613446651238  0.6859836784837527  0.0858744306818235   T   T   T
  0.4131306269400946  0.6860192901350429  0.0858760906501295   T   T   T
  0.0797843028354395  0.9359785317429553  0.0858332773874059   T   T   T
  0.2464543890861473  0.9359680903188305  0.0858568605246702   T   T   T
  0.4131205257429305  0.9360149818012935  0.0858654243146574   T   T   T
  0.1631154381696194  0.5608710260633043  0.1130363541741266   T   T   T
  0.3297954033214680  0.5608719169576153  0.1130407397021239   T   T   T
  0.4964460891300626  0.5608694067553552  0.1130494986344704   T   T   T
  0.1631812497666790  0.8108055673762500  0.1130051813787124   T   T   T
  0.3298486624471292  0.8108347955562554  0.1130267613062964   T   T   T
  0.4965335898445319  0.8108907152763447  0.1130553951826091   T   T   T
  0.9964798930429682  0.0630942749265823  0.0604702402424086   T   T   T
  0.6632139000240910  0.0631881712883502  0.0605967534967635   T   T   T
  0.8298037565018638  0.0631529249206329  0.0605590070697022   T   T   T
  0.9964133273320455  0.3131532781304884  0.0604766454153579   T   T   T
  0.6630978243191648  0.3131142945029718  0.0606028392243928   T   T   T
  0.8297620547459831  0.3131357364283741  0.0605516229857157   T   T   T
  0.5799188937340057  0.1858709207677129  0.1394485075266478   T   T   T
  0.7465776318533834  0.1861316615507497  0.1396453531145600   T   T   T
  0.9132992664418644  0.1857997497660945  0.1393226962650355   T   T   T
  0.5798821933916101  0.4359248647610112  0.1394620578901027   T   T   T
  0.7465988724503130  0.4358427565156687  0.1394836681504242   T   T   T
  0.9132881521144331  0.4359259766589128  0.1394183458505951   T   T   T
  0.6635830343967507  0.0613283424427626  0.1667577150463464   T   T   T
  0.8298452006908176  0.0612012034751571  0.1666763572355461   T   T   T
  0.9969301478468541  0.0606472937721673  0.1664557468214176   T   T   T
  0.6632605598117277  0.3110757052233958  0.1667996230062481   T   T   T
  0.8302242528576814  0.3110897380912053  0.1666646552155311   T   T   T
  0.9968053876044880  0.3109788583722585  0.1664898107563018   T   T   T
  0.5799888455779728  0.1876148085067253  0.1918336220803891   T   T   T
  0.7469545121093475  0.1898756009939581  0.1927203114835377   T   T   T
  0.9140195852890750  0.1868638126988743  0.1914920503751757   T   T   T
  0.5800440206746297  0.4385028586655424  0.1919793230282714   T   T   T
  0.7468194555528274  0.4380599651063964  0.1920006241306338   T   T   T
  0.9135690130108951  0.4384973403640213  0.1918997334391150   T   T   T
  0.5797829694551404  0.1860416328020997  0.0859088408751608   T   T   T
  0.7464170236772814  0.1860567426817745  0.0860091769107326   T   T   T
  0.9130701750947107  0.1860078883700496  0.0858243017677082   T   T   T
  0.5797982360167724  0.4359997913831107  0.0859108676254701   T   T   T
  0.7464407279808473  0.4359755889872759  0.0859337483003879   T   T   T
  0.9130836380753249  0.4360060468516332  0.0858770921602911   T   T   T
  0.6631305076934990  0.0609665414648530  0.1131242600203435   T   T   T
  0.8297477089856692  0.0609213731324342  0.1130808393533714   T   T   T
  0.9964636048495725  0.0608305607976114  0.1129857208075812   T   T   T
  0.6631260641152493  0.3108868165513307  0.1131585872677713   T   T   T
  0.8298662708002744  0.3108800328518246  0.1130949922425237   T   T   T
  0.9965152982959415  0.3108724004612297  0.1129927517872976   T   T   T
  0.9965105423699782  0.5630877968576339  0.0605091860164615   T   T   T
  0.6632032414071495  0.5630810834709848  0.0605491136186294   T   T   T
  0.8298636477340948  0.5630869316877330  0.0605327190732285   T   T   T
  0.9963984816486113  0.8131160345731748  0.0604982823214441   T   T   T
  0.6630902845410558  0.8131454704923174  0.0605482784851689   T   T   T
  0.8297533966687816  0.8131583779910145  0.0605245259763132   T   T   T
  0.5798989535535196  0.6858988270484802  0.1394495996666833   T   T   T
  0.7465326601583231  0.6859540439742857  0.1394384510213937   T   T   T
  0.9132117828308279  0.6858844869442531  0.1394275887805746   T   T   T
  0.5800146280534475  0.9360132253609111  0.1394871630959182   T   T   T
  0.7465344420495859  0.9359202999838426  0.1394604848136094   T   T   T
  0.9131679583108504  0.9359713721593077  0.1394319730110588   T   T   T
  0.6633504464304548  0.5610608664741702  0.1666043150774574   T   T   T
  0.8299381698289997  0.5610605908021472  0.1665930512665214   T   T   T
  0.9967378267448446  0.5610886695783530  0.1665673487890722   T   T   T
  0.6633165826655392  0.8110238929833153  0.1666207603685807   T   T   T
  0.8300151980552051  0.8110315935878827  0.1666021424306328   T   T   T
  0.9966707129824340  0.8110078219151123  0.1665637878367455   T   T   T
  0.5801763845604827  0.6881113301847588  0.1919805996241858   T   T   T
  0.7468199874381576  0.6881534756341976  0.1919787389323227   T   T   T
  0.9134693075182757  0.6881445901117469  0.1919548277504108   T   T   T
  0.5802433049285460  0.9381893716185471  0.1920039702669568   T   T   T
  0.7468792248541265  0.9381066285647541  0.1920017391510938   T   T   T
  0.9135166377072300  0.9381309171580167  0.1919382705429466   T   T   T
  0.5798021035959577  0.6859997003621431  0.0858993983485089   T   T   T
  0.7464225493463608  0.6860062400095316  0.0859005318897885   T   T   T
  0.9130561496875962  0.6860056930602436  0.0858744499711739   T   T   T
  0.5798095897621464  0.9360684518983055  0.0859145548578643   T   T   T
  0.7464071065556974  0.9360285228849548  0.0859172909013645   T   T   T
  0.9130529412384962  0.9360351740889811  0.0858700639883875   T   T   T
  0.6631205079758603  0.5608616984593263  0.1130734365742011   T   T   T
  0.8297679750766870  0.5608639343706705  0.1130580657143095   T   T   T
  0.9964525560472658  0.5608786074180662  0.1130336073802458   T   T   T
  0.6631317925314929  0.8109016694772054  0.1130694761937616   T   T   T
  0.8297985625747614  0.8108911313025133  0.1130517362027103   T   T   T
  0.9964573615870954  0.8108727658616635  0.1130283290470381   T   T   T
  0.0378493206799365  0.1771897365166940  0.0269711513856308   T   T   T
  0.2043125372198802  0.1771607898881503  0.0270333179205710   T   T   T
  0.3710091221670895  0.1771245403788851  0.0270315631047585   T   T   T
  0.0376798632291273  0.4272397758006876  0.0269916864192240   T   T   T
  0.2041136042421332  0.4271487957864156  0.0270328108907253   T   T   T
  0.3707628347408668  0.4271080308112500  0.0270370337413807   T   T   T
  0.1619629948900687  0.0267651583602496  0.0449800363052502   T   T   T
  0.3286139612151667  0.0267853764440638  0.0450005409229399   T   T   T
  0.4953436843864154  0.0268163270004223  0.0450135613447654   T   T   T
  0.1618061624377400  0.2768605859493962  0.0449868375343994   T   T   T
  0.3284627219753563  0.2768337924599050  0.0450023198560104   T   T   T
  0.4951582212301193  0.2768168603735796  0.0450132588825305   T   T   T
  0.4146643771655391  0.4018019998056667  0.2074793200698365   T   T   T
  0.4146085528216026  0.1516298000717762  0.2074630681587785   T   T   T
  0.0814084369295208  0.1516030925766466  0.2074239132542286   T   T   T
  0.2480323558621173  0.1517077718726201  0.2074680187306824   T   T   T
  0.0812847234946758  0.4016169136925894  0.2074756016343780   T   T   T
  0.2479333083362996  0.4017026427583712  0.2074665857933628   T   T   T
  0.0396753983102301  0.0518533050943431  0.2254165781648902   T   T   T
  0.2062928157586885  0.0519396598481924  0.2254521720424423   T   T   T
  0.3730097797142241  0.0519740754736782  0.2254468892322038   T   T   T
  0.0341536119419482  0.3020268301390814  0.2262629302362384   T   T   T
  0.2063261076368801  0.3020350019560313  0.2254720102214855   T   T   T
  0.3730969167045292  0.3019400302604324  0.2254560197289074   T   T   T
  0.0377172767996620  0.6772074025847237  0.0270249443931652   T   T   T
  0.2043759646810116  0.6771482208479653  0.0270341478399750   T   T   T
  0.3710599460581618  0.6771304768692121  0.0270415354850484   T   T   T
  0.0374946098247665  0.9271148014593553  0.0269891381583730   T   T   T
  0.2041518262436036  0.9270692074878764  0.0270086400207190   T   T   T
  0.3708642502284679  0.9270995934262083  0.0270153683552658   T   T   T
  0.1619167904874997  0.5267636145008320  0.0450124734995922   T   T   T
  0.3286494331131106  0.5267596760499416  0.0450122998106674   T   T   T
  0.4953144021199095  0.5267478199168489  0.0450227553395744   T   T   T
  0.1618265371545167  0.7767504551842646  0.0449809900476120   T   T   T
  0.3285238232283199  0.7767870369681749  0.0449967911482223   T   T   T
  0.4952434430575472  0.7768308911036897  0.0450225834113291   T   T   T
  0.4145864080593456  0.9017186400518096  0.2074626535165501   T   T   T
  0.4145968355048728  0.6517810982679102  0.2074696132857304   T   T   T
  0.0813045197614033  0.6518172131034117  0.2074601688973324   T   T   T
  0.2479513953841435  0.6518227118991141  0.2074883705363261   T   T   T
  0.0813425502453465  0.9016819139296454  0.2074229530535673   T   T   T
  0.2479903050117472  0.9016946038080697  0.2074439567398913   T   T   T
  0.0395243470927671  0.5526267996008188  0.2254607674797428   T   T   T
  0.2062452281928067  0.5524068089641225  0.2254270786169089   T   T   T
  0.3728413966050599  0.5523924592646410  0.2254328573097484   T   T   T
  0.0395406865162640  0.8021709450501445  0.2254706626993127   T   T   T
  0.2060150000899163  0.8023093466750019  0.2255044393749899   T   T   T
  0.3731663860125228  0.8020330461298260  0.2254303280609516   T   T   T
  0.5379795137606248  0.1771953987083544  0.0270193875674922   T   T   T
  0.7042105730102906  0.1772254883820582  0.0271680529540337   T   T   T
  0.8707432676141493  0.1771455893903365  0.0270055877265716   T   T   T
  0.5378360104386473  0.4271687989773204  0.0270245302665486   T   T   T
  0.7039656204598306  0.4270599409595460  0.0270970490199185   T   T   T
  0.8704896784733157  0.4271156340382183  0.0270484875055388   T   T   T
  0.6620488756470297  0.0268324608978884  0.0450977898698184   T   T   T
  0.8282880986977410  0.0268221849685975  0.0450580959233126   T   T   T
  0.9952047839428160  0.0268057794155970  0.0449591029744509   T   T   T
  0.6617788802837156  0.2766922971782573  0.0451223708263480   T   T   T
  0.8284002076373734  0.2767696692105202  0.0450552479173726   T   T   T
  0.9951011472759378  0.2769073724949119  0.0449565335523497   T   T   T
  0.9143511921308383  0.4025254409635078  0.2074558911109664   T   T   T
  0.9152991738255818  0.1507409346067982  0.2070363616699062   T   T   T
  0.5809263774889876  0.1513974824482102  0.2073634821413435   T   T   T
  0.7484143381321726  0.1529646530754168  0.2081052047864415   T   T   T
  0.5810006181275928  0.4021208998195837  0.2074662895685492   T   T   T
  0.7471206875456414  0.4018107910657546  0.2075304459922926   T   T   T
  0.5393241019968648  0.0521852111308978  0.2255264721047740   T   T   T
  0.7066023208830929  0.0515472053015697  0.2256242409946059   T   T   T
  0.8731484738556676  0.0518157988218303  0.2255308651730766   T   T   T
  0.5423985561512621  0.3009963507950502  0.2244231478338051   T   T   T
  0.6889087459867800  0.3102637601012524  0.2288932556325869   T   T   T
  0.8909025635632900  0.2950745669890590  0.2230673385165120   T   T   T
  0.7729143818757935  0.3053629193129686  0.2740817643567501   T   T   T
  0.7459264921096938  0.2375921459407204  0.2933796137704471   T   T   T
  0.7857400114992987  0.3197506982046470  0.3030836259062763   T   T   T
  0.6573262086315741  0.1945687446473649  0.3097900235910291   T   T   T
  0.7110086664744727  0.1302790283853780  0.3022990798232069   T   T   T
  0.8252845630536382  0.3661767384379437  0.3333215155140495   T   T   T
  0.7422155185843547  0.3771637487931396  0.3307190314187912   T   T   T
  0.7581817726676329  0.3958608604977890  0.2522211588824447   T   T   T
  0.7923217485376924  0.3240438287529488  0.2389119700195718   T   T   T
  0.5378243932842267  0.6771974562035669  0.0270414064955391   T   T   T
  0.7042939469485473  0.6771876382391292  0.0270644169166705   T   T   T
  0.8708393157028261  0.6771666612264516  0.0270571595763306   T   T   T
  0.5376844885171903  0.9271859641605892  0.0270417007756110   T   T   T
  0.7039931891667303  0.9271348325543274  0.0270713627986133   T   T   T
  0.8706548606711488  0.9271861758427631  0.0270407599607102   T   T   T
  0.6619285615514641  0.5267546888369853  0.0450470401122532   T   T   T
  0.8285375169845451  0.5267593343898943  0.0450294619688292   T   T   T
  0.9951886927577651  0.5267766869574352  0.0450060508522345   T   T   T
  0.6617618505895959  0.7768312232444592  0.0450445674611827   T   T   T
  0.8283517582961727  0.7768261683374953  0.0450226929198868   T   T   T
  0.9949915160050916  0.7767910681186416  0.0449989281612973   T   T   T
  0.9147200216873590  0.9018201333327039  0.2074509461649985   T   T   T
  0.9146846589182511  0.6518430725285969  0.2074696492386412   T   T   T
  0.5812730572889524  0.6517847950068226  0.2074924689320779   T   T   T
  0.7480529953692184  0.6518917477427177  0.2074988242755164   T   T   T
  0.5812959299788728  0.9018284005040280  0.2075079425826264   T   T   T
  0.7480900230427422  0.9017453572965372  0.2075018459407038   T   T   T
  0.5389415912491906  0.5527932794661998  0.2254877495885682   T   T   T
  0.7063257477767698  0.5535912154599505  0.2252939461001849   T   T   T
  0.8728061415791047  0.5529107437549537  0.2254159131834336   T   T   T
  0.5396262345340694  0.8021409281117772  0.2254824176033341   T   T   T
  0.7060331031396293  0.8023332597314944  0.2255388415567635   T   T   T
  0.8732212226898532  0.8020030185220181  0.2254304170430653   T   T   T
  0.0845480872969840  0.1669711095706595  0.0340713599413019   T   T   T
  0.2511098682173187  0.1669088391893534  0.0340691491097674   T   T   T
  0.4177905278015437  0.1668747752341440  0.0340751357583570   T   T   T
  0.0844013669993834  0.4168825026206864  0.0340599091829892   T   T   T
  0.2509325574061261  0.4168914898302523  0.0340582368755289   T   T   T
  0.4175719888961230  0.4168512522483167  0.0340645629797628   T   T   T
  0.1594942727808918  0.0418526403472909  0.2183830018314432   T   T   T
  0.3261471595693360  0.0418104208011764  0.2184221883151378   T   T   T
  0.4926145155347367  0.0418518422107090  0.2184328627692413   T   T   T
  0.1595629564469130  0.2918957874427157  0.2183939190559715   T   T   T
  0.3262446273614255  0.2917411777769627  0.2184399338434317   T   T   T
  0.4937857152417444  0.2916246593728402  0.2183880746720096   T   T   T
  0.0844699767283956  0.6669352779875189  0.0340845441823525   T   T   T
  0.2511588656721389  0.6669510778073551  0.0340853926474186   T   T   T
  0.4178481503956928  0.6669014321383758  0.0340859424401104   T   T   T
  0.0842743119631229  0.9168933881219719  0.0340439622680274   T   T   T
  0.2509657928553929  0.9168931533208745  0.0340475842234926   T   T   T
  0.4176641826388144  0.9168496740514550  0.0340544384669210   T   T   T
  0.1594348325648893  0.5418729459565653  0.2184236946975521   T   T   T
  0.3260252365531199  0.5418982321665546  0.2184227947985756   T   T   T
  0.4922729335060891  0.5421108002895813  0.2184185881866768   T   T   T
  0.1593305928702307  0.7920228715713320  0.2183906379181460   T   T   T
  0.3262574445041565  0.7919001372596874  0.2184346283700238   T   T   T
  0.4928092275020978  0.7918621511106114  0.2184473955201840   T   T   T
  0.5846886265513028  0.1669830985395320  0.0341159570714079   T   T   T
  0.7510282250972244  0.1671368373778169  0.0342088352505109   T   T   T
  0.9175528417072590  0.1667955024329386  0.0340206060021350   T   T   T
  0.5845542105151956  0.4169158312820720  0.0341114293708348   T   T   T
  0.7508072767548492  0.4168718120988832  0.0341145162399209   T   T   T
  0.9173326590389352  0.4168996106187706  0.0340603158621641   T   T   T
  0.6597397202436613  0.0417974403379065  0.2185517852853607   T   T   T
  0.8262863110811987  0.0418815312788911  0.2184770887196716   T   T   T
  0.9928884706398505  0.0421031085598529  0.2182976686749210   T   T   T
  0.6503820086979152  0.2923048384676819  0.2185587864776132   T   T   T
  0.8395882340683938  0.2917077787974675  0.2185231115296730   T   T   T
  0.9894909308742422  0.2908150622720143  0.2180936396006241   T   T   T
  0.7849270923131275  0.2794957289607056  0.2897669518343569   T   T   T
  0.6903897338079514  0.1790946803565704  0.2975665471456084   T   T   T
  0.7874360442724406  0.3773075648453387  0.3221322581917353   T   T   T
  0.7553270660327391  0.3403861399111059  0.2508000088812321   T   T   T
  0.5845717919483838  0.6669258572208533  0.0341061620966038   T   T   T
  0.7510981812747861  0.6668601740911323  0.0340884053596462   T   T   T
  0.9176528831043239  0.6668442372752096  0.0340735331575114   T   T   T
  0.5844434050364198  0.9169938154993571  0.0341121616093855   T   T   T
  0.7508231157999190  0.9169695177113955  0.0341009985713870   T   T   T
  0.9174759407385077  0.9168979615138555  0.0340581333121433   T   T   T
  0.6595243418374211  0.5419316837883070  0.2184526068934101   T   T   T
  0.8260632631125019  0.5419448847799218  0.2184238865202473   T   T   T
  0.9927992441111636  0.5419968583168938  0.2184168074432569   T   T   T
  0.6593290689420359  0.7918898861716546  0.2184564751822415   T   T   T
  0.8262845592936188  0.7918537975086356  0.2184535921825977   T   T   T
  0.9927573899643125  0.7919359857341135  0.2184083936044123   T   T   T
  0.2466183296435014  0.1217051732374520  0.0597752937135428   T   T   T
  0.4133080465019184  0.1217209686674627  0.0597878911503508   T   T   T
  0.0798651503654668  0.3717396967412349  0.0597791269608844   T   T   T
  0.2465394750455480  0.3717464701657951  0.0597798156510732   T   T   T
  0.4132200864814954  0.3717442805535303  0.0597854008909588   T   T   T
  0.0799225696133896  0.1216882631222217  0.0597640750995793   T   T   T
  0.4965291721829760  0.4983954097851531  0.1396956055822985   T   T   T
  0.1632547773884673  0.4983741411286497  0.1396793082466123   T   T   T
  0.3298854158724657  0.4983642870370315  0.1396841085166502   T   T   T
  0.4965736570121020  0.2483500836223630  0.1396939742183198   T   T   T
  0.1633128577375593  0.2483154393308334  0.1396553451702770   T   T   T
  0.3299200994123866  0.2483253130782297  0.1396850304400762   T   T   T
  0.0801668401165203  0.1229511876920512  0.1659470332180261   T   T   T
  0.2467501552992007  0.1230581594946418  0.1660082526083378   T   T   T
  0.4133587406293042  0.1230392811218458  0.1660188305140633   T   T   T
  0.0801472326890564  0.3731370281788790  0.1660015378525121   T   T   T
  0.2467020455141069  0.3730925997949867  0.1660156136588229   T   T   T
  0.4133286853655138  0.3731136694560792  0.1660322964660436   T   T   T
  0.1634453055266881  0.4966996420592329  0.1927082540438408   T   T   T
  0.3300597735080978  0.4967296655518349  0.1927058760932315   T   T   T
  0.4965961323449454  0.4969432123437003  0.1926936233193774   T   T   T
  0.1636358498300246  0.2467920563638769  0.1926996388067863   T   T   T
  0.4966606553709330  0.2465314054063344  0.1926664343100167   T   T   T
  0.3301381094841279  0.2466600208637222  0.1926961739447984   T   T   T
  0.4964777099916008  0.4981349202497634  0.0864527800252305   T   T   T
  0.1631544097282417  0.4981528546073345  0.0864357325751938   T   T   T
  0.3298328855961324  0.4981479206011835  0.0864425923823140   T   T   T
  0.4964503485127287  0.2481592618556464  0.0864450951975745   T   T   T
  0.1631342623351234  0.2481219519713841  0.0864157139532408   T   T   T
  0.3297973462188759  0.2481406360842749  0.0864352630591948   T   T   T
  0.0798286880953327  0.1232823874195349  0.1127234388950630   T   T   T
  0.2464952878705514  0.1233099988748519  0.1127676882505977   T   T   T
  0.4131533955667279  0.1233411437142580  0.1127742102710903   T   T   T
  0.0798766964029906  0.3733525247851581  0.1127559975961460   T   T   T
  0.2465369840329033  0.3733291498651906  0.1127779261245885   T   T   T
  0.4131823393327980  0.3733509437446785  0.1127856592548441   T   T   T
  0.2466531516429862  0.6217043134199642  0.0597882444084517   T   T   T
  0.4133436656323771  0.6217120592954024  0.0597962750561038   T   T   T
  0.0798528568708027  0.8716766343645276  0.0597606475171844   T   T   T
  0.2465551384421584  0.8716946162755653  0.0597643361680220   T   T   T
  0.4132439336548844  0.8717303953641127  0.0597848955853933   T   T   T
  0.0799314326234120  0.6217124771568996  0.0597888062337114   T   T   T
  0.4965505146449754  0.9983259825828459  0.1396868053312608   T   T   T
  0.1632937114016643  0.9982628818547428  0.1396339700036952   T   T   T
  0.3299079093087115  0.9983094864891980  0.1396660745335832   T   T   T
  0.4965578759512527  0.7483726659380632  0.1396949128643752   T   T   T
  0.1632475898899727  0.7483310084854038  0.1396573869019007   T   T   T
  0.3298757465156033  0.7483424258243552  0.1396779915516602   T   T   T
  0.0800255245048713  0.6231851374280291  0.1660117322030830   T   T   T
  0.2466458816751153  0.6231201132144958  0.1660332130892759   T   T   T
  0.4132722932002340  0.6231842626817544  0.1660241739198019   T   T   T
  0.0800306818441685  0.8730668919803136  0.1659800031707972   T   T   T
  0.2466752322382808  0.8730763422139212  0.1659990353804281   T   T   T
  0.4133210990274139  0.8731089454698299  0.1660219709647071   T   T   T
  0.1635001109557482  0.9966626930397859  0.1926697397492418   T   T   T
  0.3301208834782712  0.9966899798612275  0.1926866331877486   T   T   T
  0.4967655416563199  0.9967283962956003  0.1927038540823128   T   T   T
  0.1634482157297028  0.7467759987671835  0.1926831222755610   T   T   T
  0.4967536878622402  0.7467658006316968  0.1927147956302408   T   T   T
  0.3300893791446742  0.7467610831029139  0.1927056764342718   T   T   T
  0.4964816914243146  0.9981727980822743  0.0864443054388603   T   T   T
  0.1631461647534602  0.9980942606828699  0.0864052607308469   T   T   T
  0.3298221764303516  0.9981279104136558  0.0864271652093605   T   T   T
  0.4964853405942765  0.7481605988518227  0.0864489296560981   T   T   T
  0.1631432290583903  0.7481029110130020  0.0864116382715248   T   T   T
  0.3298180992947633  0.7481272855186339  0.0864295007937544   T   T   T
  0.0798126472365285  0.6233692992626017  0.1127670243427506   T   T   T
  0.2464918544938215  0.6233311970612080  0.1127805345287450   T   T   T
  0.4131510052326989  0.6233704661583216  0.1127826527699928   T   T   T
  0.0798655221749488  0.8732665048641588  0.1127285096640338   T   T   T
  0.2465281714307434  0.8732934385769088  0.1127560238403677   T   T   T
  0.4131834503152969  0.8733327632249001  0.1127707710754821   T   T   T
  0.7465862674723506  0.1218259837545863  0.0598902690975800   T   T   T
  0.9132046447199899  0.1217276906935394  0.0597471137594350   T   T   T
  0.5799021445381453  0.3717331979226925  0.0598294832361158   T   T   T
  0.7465088094796570  0.3717283969945293  0.0598267557482740   T   T   T
  0.9131485294466370  0.3717660615285917  0.0597768591927611   T   T   T
  0.5799824711460564  0.1217759169017273  0.0598262941047774   T   T   T
  0.9966200822934810  0.4984206518619567  0.1396674786658622   T   T   T
  0.6632082377248867  0.4983616255369993  0.1397184199200723   T   T   T
  0.8298967507289529  0.4983841270062723  0.1396995380743882   T   T   T
  0.9966436248699848  0.2482593877907986  0.1395691881814250   T   T   T
  0.6631390041317308  0.2484610001104681  0.1398384176453934   T   T   T
  0.8300179330219806  0.2483347508952364  0.1397101760471540   T   T   T
  0.5799530296982648  0.1230040059192823  0.1660125181625739   T   T   T
  0.7466780075388755  0.1239674880518057  0.1663973619446907   T   T   T
  0.9135649231259048  0.1224551519519521  0.1657456124682458   T   T   T
  0.5798712416589393  0.3732948155124232  0.1660821157838739   T   T   T
  0.7466191514764351  0.3730633090634389  0.1660756644456894   T   T   T
  0.9135375925464417  0.3733343710265636  0.1660070326467528   T   T   T
  0.6633241977663545  0.4969631914371684  0.1927012561269519   T   T   T
  0.8301567940341077  0.4969336109365001  0.1926798824621974   T   T   T
  0.9969015728978520  0.4969560286366133  0.1926810562743800   T   T   T
  0.6624080562577059  0.2475854697423506  0.1931512397960682   T   T   T
  0.9969027789778369  0.2459425548470561  0.1922966265369762   T   T   T
  0.8315690210381866  0.2464497063874671  0.1925500446162206   T   T   T
  0.9964689128029687  0.4981408246003826  0.0864341561178784   T   T   T
  0.6631369465989136  0.4981279272674787  0.0864806435782866   T   T   T
  0.8297729519660796  0.4981360830062868  0.0864657978412549   T   T   T
  0.9964511671498993  0.2481329482033096  0.0863876934301602   T   T   T
  0.6630983955984046  0.2481777824226358  0.0865424036692238   T   T   T
  0.8297703951955474  0.2481562505601271  0.0864824689886441   T   T   T
  0.5797945482876757  0.1233960202490296  0.1128139735440966   T   T   T
  0.7464390680157965  0.1234299070463234  0.1129230314927415   T   T   T
  0.9131548745027143  0.1232866915481195  0.1126994901668839   T   T   T