C H O Si                                
   1.00000000000000     
    18.5749199999999988    0.0000000000000000    0.0000000000000000
     0.0000000000000000   17.5126199999999983    0.0000000000000000
     0.0000000000000000    0.0000000000000000   58.0000000000000000
   C    H    O    Si
   144   105    52   144
Selective dynamics
Direct
  0.4965588238122779  0.0631584929931841  0.0605126054102916   T   T   T
  0.1631536892091500  0.0630806792492705  0.0604814065975423   T   T   T
  0.3298461505457862  0.0631048264666220  0.0605055050818457   T   T   T
  0.4964407662964006  0.3131484251230302  0.0605173512683667   T   T   T
  0.1630879716855282  0.3131290910815033  0.0605003053802731   T   T   T
  0.3297497754444946  0.3131248988822409  0.0605126763580826   T   T   T
  0.0799763514607252  0.1857965204483199  0.1393794250648842   T   T   T
  0.2466078999015089  0.1858293761936355  0.1394167591265338   T   T   T
  0.4132502550054215  0.1858433167339586  0.1394261814156064   T   T   T
  0.0799261710985833  0.4358951532753726  0.1394127996489566   T   T   T
  0.2465657816577122  0.4358805702052173  0.1394191491374366   T   T   T
  0.4132182279549957  0.4359041912067643  0.1394300672675043   T   T   T
  0.1634232036692557  0.0608590353311269  0.1665531740319093   T   T   T
  0.3300037234360250  0.0608976805392337  0.1665774783151731   T   T   T
  0.4966474097070724  0.0608385205550956  0.1665807639474975   T   T   T
  0.1633538221798400  0.3108982156780997  0.1665680379076504   T   T   T
  0.3299964820935006  0.3109245184861560  0.1665971860299611   T   T   T
  0.4966159837076077  0.3109658830149757  0.1665927610302757   T   T   T
  0.0803911482130745  0.1879621744477263  0.1919330700001169   T   T   T
  0.2468788706341206  0.1879827536161369  0.1919589249674743   T   T   T
  0.4134021437770563  0.1879199335454006  0.1919628390744589   T   T   T
  0.0800886637932421  0.4379702210401999  0.1919757900161643   T   T   T
  0.2467623142102744  0.4380171880462498  0.1919654138425412   T   T   T
  0.4134074007762772  0.4380581850304586  0.1919689040029592   T   T   T
  0.0797660085146202  0.1859623735488138  0.0858383076069808   T   T   T
  0.2464555415256892  0.1859400356465707  0.0858581963150779   T   T   T
  0.4131184404832639  0.1859713805298248  0.0858682615973388   T   T   T
  0.0798016334651850  0.4359892121598907  0.0858624570268501   T   T   T
  0.2464766254021206  0.4359712821055937  0.0858685455762824   T   T   T
  0.4131368531636486  0.4359686013019174  0.0858772689998299   T   T   T
  0.1631233024719949  0.0608440480416166  0.1129929071917409   T   T   T
  0.3297896550330141  0.0608537204442248  0.1130146961268392   T   T   T
  0.4964606416278213  0.0608861267471858  0.1130445668154181   T   T   T
  0.1631968017628546  0.3108485459479418  0.1130130408721835   T   T   T
  0.3298551796214952  0.3108451719018784  0.1130344375563158   T   T   T
  0.4964946159596849  0.3108559510904080  0.1130512668040879   T   T   T
  0.4965648192700579  0.5630906317668078  0.0605217020916737   T   T   T
  0.1631741924307802  0.5631110557278052  0.0605098728406503   T   T   T
  0.3298790154605883  0.5630961962230786  0.0605112754570217   T   T   T
  0.4964695357120172  0.8131668862620238  0.0605243976341624   T   T   T
  0.1631058623258259  0.8130688562853966  0.0604798907503582   T   T   T
  0.3297941587714678  0.8131065727736736  0.0604984427579586   T   T   T
  0.0799030059764678  0.6859013497676220  0.1394160300458074   T   T   T
  0.2465579762983398  0.6858434354756032  0.1394232947016834   T   T   T
  0.4132032398538659  0.6859163304263328  0.1394265275968026   T   T   T
  0.0799941105229517  0.9357389893827923  0.1393603022681740   T   T   T
  0.2466122441651794  0.9358072383091474  0.1393931760871587   T   T   T
  0.4132418377819423  0.9358261565944014  0.1394128146444911   T   T   T
  0.1632814457258307  0.5609525193218731  0.1666002771957638   T   T   T
  0.3299380396319514  0.5609607144582496  0.1665957964995975   T   T   T
  0.4965513217436716  0.5610875460643345  0.1665905776901934   T   T   T
  0.1633189898110362  0.8109106803832314  0.1665621738909649   T   T   T
  0.3299602070792466  0.8109282541419843  0.1665877023023646   T   T   T
  0.4966327537520068  0.8109909616850803  0.1666059431120230   T   T   T
  0.0801089484965978  0.6881004756584828  0.1919563569582981   T   T   T
  0.2467693327590332  0.6880911552200010  0.1919794483769324   T   T   T
  0.4134159080801468  0.6880847909717557  0.1919708442290237   T   T   T
  0.0801776071639345  0.9379870748920233  0.1919201842482178   T   T   T
  0.2468221511529864  0.9380090437565157  0.1919394377898656   T   T   T
  0.4134504830658702  0.9380254833599150  0.1919608750127444   T   T   T
  0.0797637957819793  0.6859689910650859  0.0858582082239008   T   T   T
  0.2464658737116776  0.6859316942070338  0.0858654350786748   T   T   T
  0.4131431163601030  0.6859686961165347  0.0858729005970203   T   T   T
  0.0797887770337709  0.9359406584714458  0.0858362840088128   T   T   T
  0.2464729161717759  0.9359442367959862  0.0858497332878555   T   T   T
  0.4131473135807310  0.9359825211056597  0.0858672260832989   T   T   T
  0.1631185021581179  0.5608737157841205  0.1130264081026676   T   T   T
  0.3298055733306632  0.5608752246574349  0.1130316380250364   T   T   T
  0.4964464152516324  0.5608883436628138  0.1130499304021255   T   T   T
  0.1631849131531427  0.8108237491875205  0.1130014822755768   T   T   T
  0.3298532837633296  0.8108431042347775  0.1130244397391558   T   T   T
  0.4965249587156344  0.8109047088537217  0.1130539246881975   T   T   T
  0.9964179362946588  0.0631130171764373  0.0604649396683606   T   T   T
  0.6631772826016878  0.0631859253403530  0.0605965969953725   T   T   T
  0.8297374224152976  0.0631424193003876  0.0605594410154918   T   T   T
  0.9963894952176716  0.3131620808986475  0.0604737113082191   T   T   T
  0.6630873039812158  0.3131206481407021  0.0606067263696961   T   T   T
  0.8297247243595878  0.3131047858059939  0.0605556619543682   T   T   T
  0.5798936868540309  0.1858899458380295  0.1394486836238833   T   T   T
  0.7465654073422163  0.1860675971428546  0.1396393372215757   T   T   T
  0.9133226859582338  0.1857756565931831  0.1393150922237522   T   T   T
  0.5798754737987792  0.4359458217254468  0.1394537831531707   T   T   T
  0.7465945485540796  0.4358285191875861  0.1394883125342206   T   T   T
  0.9132856959031539  0.4359514792049464  0.1394210236178358   T   T   T
  0.6635762302104793  0.0613338731222299  0.1667639543513807   T   T   T
  0.8298058340839441  0.0612378421591527  0.1666834084923996   T   T   T
  0.9969206205111678  0.0606446895037353  0.1664605680049062   T   T   T
  0.6632411627894936  0.3111428401716185  0.1668019316435524   T   T   T
  0.8301933575258524  0.3110739869320899  0.1666770635393029   T   T   T
  0.9967766590216042  0.3109480976120442  0.1664864469266175   T   T   T
  0.5799890853137211  0.1875939870302361  0.1918364168191836   T   T   T
  0.7469370391824837  0.1898572862455887  0.1927288576166194   T   T   T
  0.9139985301772700  0.1869346215098547  0.1915134479017110   T   T   T
  0.5799802473867059  0.4384499689647325  0.1919780041350235   T   T   T
  0.7467789171508858  0.4380217459593642  0.1920040462924065   T   T   T
  0.9135659851847425  0.4384645334779720  0.1918960602864358   T   T   T
  0.5797692977913558  0.1859854833062229  0.0859008179214122   T   T   T
  0.7464126088445450  0.1860297126329333  0.0860070556299806   T   T   T
  0.9130890136955377  0.1859828233050212  0.0858282474047019   T   T   T
  0.5797801666238850  0.4359331281416861  0.0859089266765045   T   T   T
  0.7464475528656513  0.4359161792161777  0.0859242228782266   T   T   T
  0.9131103191932181  0.4359642001395893  0.0858789035969178   T   T   T
  0.6631243783330173  0.0609393447266676  0.1131137189001331   T   T   T
  0.8297316435431562  0.0609157319259472  0.1130791972064685   T   T   T
  0.9964598904093099  0.0608250716117127  0.1129720299750643   T   T   T
  0.6631388403449708  0.3109047820880980  0.1131369678291848   T   T   T
  0.8298507285268329  0.3108685448308310  0.1130861994797996   T   T   T
  0.9965292943335737  0.3108679285680597  0.1129885873815599   T   T   T
  0.9964570705841845  0.5631227487539021  0.0605080894682522   T   T   T
  0.6631806698613701  0.5630736499938747  0.0605509106231999   T   T   T
  0.8297833151391074  0.5630749378496495  0.0605339571743633   T   T   T
  0.9963693226979673  0.8131318348478715  0.0605012792835267   T   T   T
  0.6630764004166330  0.8131322942941444  0.0605531520446089   T   T   T
  0.8297071954044930  0.8131491952855729  0.0605285163388722   T   T   T
  0.5798875811412197  0.6859138404360390  0.1394474414816620   T   T   T
  0.7465507255218543  0.6859752468637909  0.1394383937346015   T   T   T
  0.9132035414861740  0.6858947442865824  0.1394256262712637   T   T   T
  0.5800046844536190  0.9360733268013240  0.1394790453941483   T   T   T
  0.7465411613841516  0.9359423245970108  0.1394621995739710   T   T   T
  0.9131418874709638  0.9360139791108198  0.1394235759752134   T   T   T
  0.6633270208828252  0.5610747966570990  0.1666094202900688   T   T   T
  0.8298880299675665  0.5610724892485428  0.1665913495757831   T   T   T
  0.9966777887546749  0.5610764182456982  0.1665654642350852   T   T   T
  0.6632855875201972  0.8110140273242312  0.1666269180132397   T   T   T
  0.8299576538245009  0.8110052053936077  0.1666006032047180   T   T   T
  0.9966224547699296  0.8109856738914071  0.1665662881180071   T   T   T
  0.5800945698223073  0.6880622889780232  0.1919858816167454   T   T   T
  0.7467788373100270  0.6881440926997601  0.1919892372181584   T   T   T
  0.9134429794876188  0.6881083681138596  0.1919631742328356   T   T   T
  0.5801708735418664  0.9381343148385086  0.1920002119965769   T   T   T
  0.7468568985558983  0.9380773078753298  0.1920004735525149   T   T   T
  0.9134911178603491  0.9380886798405679  0.1919415922248977   T   T   T
  0.5797847376100064  0.6859389880771912  0.0858927462687960   T   T   T
  0.7464231744153684  0.6859599470434325  0.0858862103604697   T   T   T
  0.9130761576699420  0.6859544244240979  0.0858712903084742   T   T   T
  0.5798002701686202  0.9360223742037393  0.0859095863025555   T   T   T
  0.7464132567561428  0.9359687304517440  0.0859060991060936   T   T   T
  0.9130685824115976  0.9359869545866600  0.0858654457563229   T   T   T
  0.6631130519042510  0.5608636722995930  0.1130732158492299   T   T   T
  0.8297676431882041  0.5608623600183604  0.1130574282193324   T   T   T
  0.9964572851310088  0.5609016340946370  0.1130242814124749   T   T   T
  0.6631413589540279  0.8108975912957497  0.1130710225754070   T   T   T
  0.8298123478501935  0.8108875947033922  0.1130465236329320   T   T   T
  0.9964794989010055  0.8108768912576038  0.1130211094764662   T   T   T
  0.0378503240964488  0.1771266701842430  0.0269920826120002   T   T   T
  0.2042952331232509  0.1771065813780127  0.0270514559058760   T   T   T
  0.3709993226016853  0.1770657155020456  0.0270509591099496   T   T   T
  0.0376703183328561  0.4271901042040015  0.0270104761634639   T   T   T
  0.2040855665330114  0.4271070052145992  0.0270475891570677   T   T   T
  0.3707363575036732  0.4270637495680896  0.0270530453486537   T   T   T
  0.1619691741732527  0.0267641736461340  0.0449839391331914   T   T   T
  0.3286092553444968  0.0267952051285581  0.0450065503840181   T   T   T
  0.4953417913405417  0.0268157682506096  0.0450168327546691   T   T   T
  0.1617921098124804  0.2768751963933643  0.0449896850553313   T   T   T
  0.3284442928235455  0.2768503022545115  0.0450051170212844   T   T   T
  0.4951411743282434  0.2768335911930955  0.0450182246942438   T   T   T
  0.4146692898549946  0.4018148085677831  0.2074801540071523   T   T   T
  0.4146178861810837  0.1516355450022821  0.2074619285395961   T   T   T
  0.0814332107691828  0.1516079365284554  0.2074163975448746   T   T   T
  0.2480428666197754  0.1517287121690826  0.2074656970227651   T   T   T
  0.0812868385623365  0.4016321910708653  0.2074739847128370   T   T   T
  0.2479385432178954  0.4017180624012527  0.2074646056049534   T   T   T
  0.0396976888372117  0.0518824216588842  0.2254377781613340   T   T   T
  0.2063420731621601  0.0519742494489927  0.2254765773100204   T   T   T
  0.3730574364050365  0.0520090237140164  0.2254701377768963   T   T   T
  0.0341550666354375  0.3019616172572895  0.2262448265626745   T   T   T
  0.2063558490694373  0.3020842878818690  0.2255045283231565   T   T   T
  0.3731530819062973  0.3019542484463620  0.2254663016373687   T   T   T
  0.0377052199958043  0.6771483588688958  0.0270457255891016   T   T   T
  0.2043588039337804  0.6770895444507036  0.0270541495392647   T   T   T
  0.3710403642949014  0.6770699247649515  0.0270624550621185   T   T   T
  0.0374775952694626  0.9270699331815837  0.0270043132116177   T   T   T
  0.2041267801456932  0.9270218498041499  0.0270255936731866   T   T   T
  0.3708526510587352  0.9270495933253159  0.0270336740775663   T   T   T
  0.1619132606678924  0.5267693932059884  0.0450179572041065   T   T   T
  0.3286465529722841  0.5267643676590783  0.0450170541525521   T   T   T
  0.4953125122196564  0.5267574547344790  0.0450285664779298   T   T   T
  0.1618098567636966  0.7767533889945671  0.0449826650303519   T   T   T
  0.3285056847650876  0.7767969831493299  0.0450001033471364   T   T   T
  0.4952272099841805  0.7768426782660636  0.0450287376071236   T   T   T
  0.4145931175045529  0.9017317190521837  0.2074602876095780   T   T   T
  0.4146041209966453  0.6517884872188915  0.2074700625212876   T   T   T
  0.0813120699270641  0.6518221181197500  0.2074601209206075   T   T   T
  0.2479616609243524  0.6518402687228776  0.2074873454179686   T   T   T
  0.0813493240744142  0.9016999924806882  0.2074213926188682   T   T   T
  0.2479979849966619  0.9017172932739862  0.2074395556833882   T   T   T
  0.0395679413279660  0.5526852266316865  0.2254893612396845   T   T   T
  0.2062864959864269  0.5524564237164207  0.2254501846891441   T   T   T
  0.3728820346178235  0.5524452971607949  0.2254615610053802   T   T   T
  0.0395813479792133  0.8022163195988636  0.2255010560877782   T   T   T
  0.2060410960151081  0.8023594878739723  0.2255357871499573   T   T   T
  0.3732242030466471  0.8020717247398653  0.2254534321644192   T   T   T
  0.5379769288271217  0.1771231692024194  0.0270458528124441   T   T   T
  0.7041909796705402  0.1771596267336570  0.0271919868775275   T   T   T
  0.8707358907518753  0.1770952838111455  0.0270211526684454   T   T   T
  0.5378121390288725  0.4271070723229337  0.0270492214769094   T   T   T
  0.7039209306916807  0.4270199332489906  0.0271095840632225   T   T   T
  0.8704567481144508  0.4270795899238614  0.0270599430845182   T   T   T
  0.6620477829135397  0.0268464290690427  0.0451068767590930   T   T   T
  0.8282847423048735  0.0268271470103916  0.0450626815831123   T   T   T
  0.9952081889625936  0.0268120299863722  0.0449646482743744   T   T   T
  0.6617617554904964  0.2767142464133033  0.0451325326713140   T   T   T
  0.8283818980320377  0.2767938116726996  0.0450597827860436   T   T   T
  0.9950837273054726  0.2769231457489737  0.0449593885854680   T   T   T
  0.9143432026265153  0.4025544814587981  0.2074520243980742   T   T   T
  0.9153080410102441  0.1507260152097888  0.2070344220687499   T   T   T
  0.5809319373400381  0.1513933820003501  0.2073620004124018   T   T   T
  0.7484526196355412  0.1529853541893037  0.2081064475437382   T   T   T
  0.5810153573597641  0.4021485279693697  0.2074658928684982   T   T   T
  0.7471273803146389  0.4018439585985851  0.2075304993472899   T   T   T
  0.5393666574150036  0.0522236803737388  0.2255518084950870   T   T   T
  0.7066435370607819  0.0515820062778042  0.2256479247630449   T   T   T
  0.8731978829298916  0.0518460355161451  0.2255513047677981   T   T   T
  0.5424221501828838  0.3010184554177132  0.2244246048790828   T   T   T
  0.6889813200424680  0.3103464955013325  0.2289172077908025   T   T   T
  0.8909375944560752  0.2950675294924393  0.2230534014635590   T   T   T
  0.7729915056938363  0.3054126288414013  0.2740464970017231   T   T   T
  0.7459805260351589  0.2375673364425983  0.2933946791642023   T   T   T
  0.7857715019788741  0.3197277632176425  0.3031011544301286   T   T   T
  0.6573862000895523  0.1946350795172922  0.3097868287340211   T   T   T
  0.7110136524740561  0.1303395867446697  0.3022899436640822   T   T   T
  0.8252300440129576  0.3661399996168769  0.3333226002231775   T   T   T
  0.7422169876843197  0.3770688250631059  0.3307174232506815   T   T   T
  0.7582286306213633  0.3958591566583717  0.2522064753312672   T   T   T
  0.7923341862180573  0.3240044399741105  0.2388838779715045   T   T   T
  0.5378094707655966  0.6771366100290250  0.0270629598710671   T   T   T
  0.7042743069944783  0.6771269840520255  0.0270868583333680   T   T   T
  0.8708286457215383  0.6771077609219566  0.0270795180810025   T   T   T
  0.5376708270130707  0.9271282818174392  0.0270635602268480   T   T   T
  0.7039616903636685  0.9270911213058556  0.0270856106122995   T   T   T
  0.8706305073196620  0.9271399840548827  0.0270576064054561   T   T   T
  0.6619287466982154  0.5267733809988068  0.0450519444471397   T   T   T
  0.8285367404872782  0.5267761474634965  0.0450351559997925   T   T   T
  0.9951854900600093  0.5267901802135199  0.0450145503640094   T   T   T
  0.6617489004732164  0.7768480734732855  0.0450495042902947   T   T   T
  0.8283316873593317  0.7768468246399790  0.0450316694872834   T   T   T
  0.9949669947696990  0.7768084486325544  0.0450066489627049   T   T   T
  0.9147201627458290  0.9018301417132130  0.2074510743286556   T   T   T
  0.9146863556092366  0.6518439080631155  0.2074687970811520   T   T   T
  0.5812790275445930  0.6518014559525349  0.2074897721975469   T   T   T
  0.7480603913121775  0.6519088579975477  0.2074962329565799   T   T   T
  0.5813026127590557  0.9018641869754465  0.2075012322677703   T   T   T
  0.7480916634619630  0.9017757052629348  0.2074969022082386   T   T   T
  0.5389701062652125  0.5528316469261224  0.2255071610766199   T   T   T
  0.7063737504693732  0.5536495166919640  0.2253169166822110   T   T   T
  0.8728459883586190  0.5529646041104785  0.2254428094287055   T   T   T
  0.5396755415107967  0.8021904939975049  0.2255126229434387   T   T   T
  0.7060529726500300  0.8023827977057492  0.2255678632924160   T   T   T
  0.8732708487211210  0.8020313662405690  0.2254482809374337   T   T   T
  0.0846402539263833  0.1670015676355659  0.0340640765791207   T   T   T
  0.2511888846704525  0.1669367955039407  0.0340547367552009   T   T   T
  0.4178823359168932  0.1669145800234828  0.0340609742649994   T   T   T
  0.0844700240387912  0.4168881024822647  0.0340438424017682   T   T   T
  0.2509927225819573  0.4169094623693260  0.0340381512734447   T   T   T
  0.4176513725108029  0.4168931994004986  0.0340376280510932   T   T   T
  0.1596012543978621  0.0418410876014295  0.2183931158350786   T   T   T
  0.3262747523010507  0.0417904316716472  0.2184320738013283   T   T   T
  0.4927511675135145  0.0418288281950019  0.2184339529049147   T   T   T
  0.1596541074400910  0.2918847315490077  0.2183997986598095   T   T   T
  0.3263312332261589  0.2917225753438205  0.2184585193077724   T   T   T
  0.4937715489364491  0.2916431613631877  0.2184147757187654   T   T   T
  0.0845685903021687  0.6669775526032899  0.0340710865826980   T   T   T
  0.2512465403805973  0.6669923420420388  0.0340752882802058   T   T   T
  0.4179524249719677  0.6669556303646621  0.0340708513602618   T   T   T
  0.0843360446803545  0.9169203322715602  0.0340319615340137   T   T   T
  0.2510274162101916  0.9169149180954095  0.0340334810912154   T   T   T
  0.4177301231931349  0.9168819484763879  0.0340350949648364   T   T   T
  0.1595461365302667  0.5418704059444135  0.2184341462665152   T   T   T
  0.3261636423998380  0.5418907225893460  0.2184293708770425   T   T   T
  0.4924010048257857  0.5420705525017316  0.2184097245371567   T   T   T
  0.1594650455545117  0.7919953227673705  0.2183807952027801   T   T   T
  0.3263838115680601  0.7918762460019318  0.2184441455160409   T   T   T
  0.4929426047896182  0.7918296607916483  0.2184479355317464   T   T   T
  0.5847985076152799  0.1670276093262160  0.0340933857947883   T   T   T
  0.7511509825770000  0.1671851922688898  0.0341798577444922   T   T   T
  0.9176313165662527  0.1668342468974028  0.0339999301580624   T   T   T
  0.5846704564348902  0.4169624152764259  0.0340832344582536   T   T   T
  0.7508914468560026  0.4169214969321536  0.0340813837325883   T   T   T
  0.9174083228084069  0.4169499466251232  0.0340294149760293   T   T   T
  0.6598502976708316  0.0417956405250189  0.2185660908212994   T   T   T
  0.8264012761944799  0.0418564398253285  0.2184889325540328   T   T   T
  0.9930046141538321  0.0420620093307625  0.2182915628013496   T   T   T
  0.6505453578477424  0.2922635838639719  0.2185691442850896   T   T   T
  0.8396170846415338  0.2917249349632552  0.2185700158106387   T   T   T
  0.9894486158984843  0.2908439128330446  0.2180795329405140   T   T   T
  0.7849164655940588  0.2794312153418271  0.2897561930241537   T   T   T
  0.6904117660286498  0.1791440057625758  0.2975627118159259   T   T   T
  0.7874320157508533  0.3774534034244096  0.3221461379846018   T   T   T
  0.7553274998240763  0.3403702493143602  0.2508230961854876   T   T   T
  0.5846779928069629  0.6669668986588029  0.0340831782996578   T   T   T
  0.7511969959415637  0.6668991176689723  0.0340648377135293   T   T   T
  0.9177528716985662  0.6668913870080836  0.0340507500853874   T   T   T
  0.5845297240967677  0.9170214672037010  0.0340901838091447   T   T   T
  0.7508954903889548  0.9170043740213565  0.0340730681301852   T   T   T
  0.9175559116243913  0.9169493618336853  0.0340299962205651   T   T   T
  0.6596322916673669  0.5419182954196903  0.2184611261196238   T   T   T
  0.8261947101866005  0.5419211087753315  0.2184293282641012   T   T   T
  0.9929133772324978  0.5419625353506682  0.2184220158518302   T   T   T
  0.6594761296557642  0.7918490718332793  0.2184483799485306   T   T   T
  0.8263890005273722  0.7918278618861146  0.2184668231697298   T   T   T
  0.9928949935499463  0.7918947541506424  0.2184044934740731   T   T   T
  0.2465883213825575  0.1217452268447414  0.0597614288552670   T   T   T
  0.4132757804035656  0.1217720308453390  0.0597736631954300   T   T   T
  0.0798361481718240  0.3717971720205293  0.0597641029757376   T   T   T
  0.2464995707536023  0.3718048980022088  0.0597635491793886   T   T   T
  0.4131582484305083  0.3717940559626819  0.0597724750025235   T   T   T
  0.0798901721584486  0.1217322347929251  0.0597471133860741   T   T   T
  0.4965271810858238  0.4984201171576769  0.1396906431442199   T   T   T
  0.1632714875755833  0.4983800090204182  0.1396685635576215   T   T   T
  0.3298858679389243  0.4983782442417724  0.1396728308950491   T   T   T
  0.4965803655228501  0.2483603269150482  0.1396886036300792   T   T   T
  0.1633410868137263  0.2483085474314435  0.1396435511185594   T   T   T
  0.3299585245319670  0.2483195033070175  0.1396723246308801   T   T   T
  0.0801467921870102  0.1229158677257876  0.1659329083625234   T   T   T
  0.2467071640228932  0.1230749153596119  0.1660040893303004   T   T   T
  0.4133148338252187  0.1230407100166287  0.1660126908801177   T   T   T
  0.0801077280549804  0.3731511460259385  0.1659956237222725   T   T   T
  0.2466701454046252  0.3731041916910858  0.1660060106999495   T   T   T
  0.4132924170391737  0.3731270874015744  0.1660231685946362   T   T   T
  0.1634037519940149  0.4966918999557858  0.1927038165509033   T   T   T
  0.3300361715334444  0.4967165670966673  0.1926936534910792   T   T   T
  0.4965854018790419  0.4969275938157867  0.1926920928422267   T   T   T
  0.1636311319336977  0.2467679440228334  0.1926910454360586   T   T   T
  0.4966631985342552  0.2465422433650763  0.1926723012135716   T   T   T
  0.3301482265238094  0.2466862232882660  0.1927029024313720   T   T   T
  0.4964983527976212  0.4980837555001564  0.0864715842585961   T   T   T
  0.1631760415183612  0.4980867907108907  0.0864479073574064   T   T   T
  0.3298469943313512  0.4980918701593157  0.0864541579100053   T   T   T
  0.4964617426849228  0.2481075831996900  0.0864634241253257   T   T   T
  0.1631407768843290  0.2480746089218524  0.0864197657207051   T   T   T
  0.3298075421456064  0.2480734653741491  0.0864417840245255   T   T   T
  0.0797456127054717  0.1233330465409602  0.1127321391881192   T   T   T
  0.2464175590214052  0.1233532159009382  0.1127707073819281   T   T   T
  0.4130782301696200  0.1233724856932356  0.1127817745209923   T   T   T
  0.0798489414607933  0.3733754569269561  0.1127653752915869   T   T   T
  0.2465012728718337  0.3733582339030923  0.1127813800539717   T   T   T
  0.4131380007646467  0.3733682404719851  0.1127899576336183   T   T   T
  0.2466194623628833  0.6217537583842514  0.0597693745470815   T   T   T
  0.4133138518254306  0.6217694960097651  0.0597757986184562   T   T   T
  0.0798355801265770  0.8717536905245210  0.0597360665123091   T   T   T
  0.2465285585638976  0.8717652951553042  0.0597452416755048   T   T   T
  0.4132015445128404  0.8718040814382083  0.0597620847251471   T   T   T
  0.0799100727119688  0.6217593216075820  0.0597688061786723   T   T   T
  0.4965605782126881  0.9983342146739412  0.1396783384610661   T   T   T
  0.1633192410448659  0.9982590424967505  0.1396185479593106   T   T   T
  0.3299334907009083  0.9983167022932853  0.1396528141877995   T   T   T
  0.4965717671409976  0.7483833182082521  0.1396915142548562   T   T   T
  0.1632749180646214  0.7483338462554329  0.1396497618603214   T   T   T
  0.3298895419353521  0.7483509606045321  0.1396689591637786   T   T   T
  0.0799725509138250  0.6231885147390495  0.1660084453593005   T   T   T
  0.2465816202139988  0.6231239301372287  0.1660286421672223   T   T   T
  0.4132057821326414  0.6231784756418358  0.1660231211904943   T   T   T
  0.0799895700401783  0.8730478109410826  0.1659733127821986   T   T   T
  0.2466289459422087  0.8730802076916393  0.1659934407073106   T   T   T
  0.4132625560394149  0.8730990568150245  0.1660139878993770   T   T   T
  0.1634651226354007  0.9966552236302071  0.1926621190702881   T   T   T
  0.3300942130371402  0.9967053915568626  0.1926875348553006   T   T   T
  0.4967337704015665  0.9966986877377505  0.1926982365275750   T   T   T
  0.1634127479119570  0.7467586997735409  0.1926760945158339   T   T   T
  0.4967307443853044  0.7467431884026872  0.1927059004529958   T   T   T
  0.3300736202354874  0.7467599728308459  0.1927020871930084   T   T   T
  0.4964930812876041  0.9981303004040081  0.0864600090310236   T   T   T
  0.1631547124883521  0.9980570613039409  0.0864133625404547   T   T   T
  0.3298177365363589  0.9980683757317503  0.0864396412472173   T   T   T
  0.4965023960737667  0.7481071720260041  0.0864637024591387   T   T   T
  0.1631436527030320  0.7480619335869326  0.0864228127753212   T   T   T
  0.3298147393872395  0.7480799332059433  0.0864401102465042   T   T   T
  0.0797462607361032  0.6234007488738739  0.1127757548570195   T   T   T
  0.2464177429022412  0.6233661335236272  0.1127843549396801   T   T   T
  0.4130795852362543  0.6233961631799051  0.1127902571524442   T   T   T
  0.0798452977167163  0.8732911306639553  0.1127369530557562   T   T   T
  0.2464957392090281  0.8733116149774204  0.1127602090682398   T   T   T
  0.4131497943949562  0.8733534374736864  0.1127772584533072   T   T   T
  0.7465545879146814  0.1218794037696580  0.0598840235095047   T   T   T
  0.9131537952359983  0.1217770801373813  0.0597309959577033   T   T   T
  0.5798630522072347  0.3718044042036786  0.0597961265169835   T   T   T
  0.7464718519786898  0.3717630522153917  0.0598148878560979   T   T   T
  0.9130981578087888  0.3718141296695562  0.0597623809520213   T   T   T
  0.5799654537195086  0.1218419099867070  0.0597990096228005   T   T   T
  0.9966328591559037  0.4984269872805852  0.1396612892187237   T   T   T
  0.6632288094820126  0.4983733839148787  0.1397090670371918   T   T   T
  0.8299185695102956  0.4983838105405799  0.1396916661351981   T   T   T
  0.9966780387923208  0.2482430498048094  0.1395703948038620   T   T   T
  0.6631261603744701  0.2484818059568458  0.1398267850609361   T   T   T
  0.8300295672653276  0.2483036769574791  0.1397010859257208   T   T   T
  0.5799157681778581  0.1230081930670818  0.1660096287083142   T   T   T
  0.7466619161511180  0.1239694879038789  0.1663886151438673   T   T   T
  0.9135670641526560  0.1224559008691909  0.1657437142562517   T   T   T
  0.5798126795213993  0.3733108087705898  0.1660673599249425   T   T   T
  0.7465803961516110  0.3730648837954890  0.1660651052597291   T   T   T
  0.9134977218881353  0.3733433515007006  0.1659996718405589   T   T   T
  0.6633132106445877  0.4969519826186821  0.1927070536471498   T   T   T
  0.8301475897337599  0.4969412297795553  0.1926815953615121   T   T   T
  0.9968741238257695  0.4969562816276074  0.1926737382037762   T   T   T
  0.6623880931607031  0.2476165862202934  0.1931411865083053   T   T   T
  0.9969238604083976  0.2459412270777784  0.1922901115684758   T   T   T
  0.8315209214582239  0.2464583442663894  0.1925683755336560   T   T   T
  0.9964835179928406  0.4980952222793582  0.0864454277711204   T   T   T
  0.6631477498423859  0.4980598845682713  0.0864945978533073   T   T   T
  0.8297821822982938  0.4980703663684959  0.0864744161594614   T   T   T
  0.9964557908031549  0.2480853653706060  0.0863979219884743   T   T   T
  0.6630937481348030  0.2481346084998261  0.0865450798358570   T   T   T
  0.8297829970040103  0.2480964508499183  0.0864885693325681   T   T   T
  0.5797418666244603  0.1234186001496631  0.1128140278074575   T   T   T
  0.7464026142075559  0.1234297555884886  0.1129217176084859   T   T   T
  0.9130792276313585  0.1233263689555184  0.1127098795607968   T   T   T