C H O Si                                
   1.00000000000000     
    18.5749199999999988    0.0000000000000000    0.0000000000000000
     0.0000000000000000   17.5126199999999983    0.0000000000000000
     0.0000000000000000    0.0000000000000000   55.0000000000000000
   C    H    O    Si
   144   105    52   144
Selective dynamics
Direct
  0.4974121463302772  0.0660967309026491  0.0635564219272373   T   T   T
  0.1640426392042271  0.0659593887622719  0.0635863102325762   T   T   T
  0.3306776688029688  0.0659822803581301  0.0635871170871315   T   T   T
  0.4973434722837929  0.3160237860510750  0.0635746861780576   T   T   T
  0.1639226846073175  0.3160157434229619  0.0636142034285084   T   T   T
  0.3306217900627284  0.3159616969047471  0.0636182967312790   T   T   T
  0.0809068503141481  0.1885580272670776  0.1467485082759877   T   T   T
  0.2475484609667519  0.1885795238246543  0.1467856548280411   T   T   T
  0.4141838705884722  0.1885398532498028  0.1467914360174767   T   T   T
  0.0808764735938410  0.4386260574468582  0.1467967773491499   T   T   T
  0.2475592144506940  0.4386216869186366  0.1468172896375923   T   T   T
  0.4142007042603306  0.4385920479825189  0.1468229672610798   T   T   T
  0.1644303233643645  0.0635624351622597  0.1753664440753458   T   T   T
  0.3309435007843690  0.0635965561964777  0.1753880853921254   T   T   T
  0.4975063296066938  0.0633438046078804  0.1753260097297062   T   T   T
  0.1643159772480449  0.3137296450640354  0.1753913166190648   T   T   T
  0.3309185432859480  0.3137114319688049  0.1754203772833829   T   T   T
  0.4975494292671042  0.3136341786445905  0.1754272716431443   T   T   T
  0.0813663963280568  0.1905464764614027  0.2020484456663197   T   T   T
  0.2477293525706597  0.1908890273052667  0.2021606825643356   T   T   T
  0.4142280168602564  0.1906312455956201  0.2021506613302494   T   T   T
  0.0809761241197254  0.4408727246864116  0.2021547351204823   T   T   T
  0.2476521197809636  0.4409552927226508  0.2022127495700756   T   T   T
  0.4143545891309616  0.4409616677851098  0.2021903029331097   T   T   T
  0.0807108993805998  0.1887702214015475  0.0903268096582465   T   T   T
  0.2473829194837905  0.1887738265612038  0.0903663947698215   T   T   T
  0.4140770448111840  0.1887707182454342  0.0903562420401918   T   T   T
  0.0806895778846509  0.4387903648692582  0.0903523938202139   T   T   T
  0.2474075088976566  0.4387691091017414  0.0903828395079296   T   T   T
  0.4140931124673732  0.4387402940210594  0.0903717718456004   T   T   T
  0.1641570954707768  0.0635742050894728  0.1189406606133286   T   T   T
  0.3308257331090371  0.0635844955551963  0.1189500629011612   T   T   T
  0.4974975876961149  0.0635873780304269  0.1189469346325233   T   T   T
  0.1641227424702004  0.3136528699695727  0.1189651974869280   T   T   T
  0.3307984635209436  0.3136195585940329  0.1189805905546418   T   T   T
  0.4974550063325855  0.3136023187256394  0.1189835507257608   T   T   T
  0.4973860153282000  0.5658534125927435  0.0635811013952792   T   T   T
  0.1640229309152063  0.5658725860248982  0.0636084543602205   T   T   T
  0.3306929220098819  0.5658747309888416  0.0636114170357046   T   T   T
  0.4974558047661642  0.8159804778338556  0.0635286372626439   T   T   T
  0.1640659598757041  0.8158181917960590  0.0635852831153107   T   T   T
  0.3307318828580953  0.8158648609478423  0.0635731368544877   T   T   T
  0.0809045559924224  0.6885956746982429  0.1467567889319211   T   T   T
  0.2475678490071738  0.6885671764212455  0.1467921843405592   T   T   T
  0.4142275997888901  0.6886426191970314  0.1467610012962215   T   T   T
  0.0809732412768984  0.9384540944174535  0.1467063684641135   T   T   T
  0.2475813375468286  0.9385157614625103  0.1467561049272439   T   T   T
  0.4141867667823788  0.9384816203246981  0.1467304046943550   T   T   T
  0.1643285071208727  0.5637332904017658  0.1754233665344637   T   T   T
  0.3309709433922103  0.5637841214102619  0.1754370688995197   T   T   T
  0.4975029746101425  0.5639166819093017  0.1753976173927430   T   T   T
  0.1643271609950243  0.8136961101013419  0.1753683948725779   T   T   T
  0.3309574218736545  0.8137176228657567  0.1753745496072843   T   T   T
  0.4976511133125603  0.8137433152593613  0.1753408222152184   T   T   T
  0.0810639399007678  0.6908874015258357  0.2020865478361874   T   T   T
  0.2477178725974125  0.6909997960853892  0.2021868949651042   T   T   T
  0.4143805273774844  0.6910576231347214  0.2021390416842775   T   T   T
  0.0810537995820986  0.9407882988721435  0.2020975403734198   T   T   T
  0.2476697599940132  0.9408327417883009  0.2021684079363186   T   T   T
  0.4143314267983518  0.9407592426667769  0.2021287974817754   T   T   T
  0.0807064164033247  0.6886609598674076  0.0903359552941619   T   T   T
  0.2474357984675641  0.6886356078972622  0.0903671208741433   T   T   T
  0.4141445086362768  0.6886872424529269  0.0903401350985584   T   T   T
  0.0807491292237138  0.9387351132688267  0.0903021684262088   T   T   T
  0.2474466100217740  0.9387248320012849  0.0903350439958815   T   T   T
  0.4141410426142735  0.9387659405432091  0.0903134775508776   T   T   T
  0.1641354061793687  0.5635813151376016  0.1189808865947697   T   T   T
  0.3308479574896801  0.5635795199341742  0.1189895840564141   T   T   T
  0.4975066673249161  0.5635495425423205  0.1189901407560882   T   T   T
  0.1641689537793437  0.8135336172338556  0.1189243572136792   T   T   T
  0.3308269101086460  0.8135547515260185  0.1189240661397475   T   T   T
  0.4975405071668504  0.8136366823042083  0.1189142792508827   T   T   T
  0.9973208450906867  0.0660669272500586  0.0635357070744823   T   T   T
  0.6640881652482222  0.0660953548686235  0.0636762187311686   T   T   T
  0.8306181755398824  0.0660729219499549  0.0636607987517827   T   T   T
  0.9972417808508612  0.3160562757409708  0.0635513443725690   T   T   T
  0.6640465959523663  0.3159280021269529  0.0638067977525848   T   T   T
  0.8305736675553881  0.3159818894937385  0.0637586934257167   T   T   T
  0.5808338162334482  0.1885184171446374  0.1468245356214386   T   T   T
  0.7474853308721109  0.1887964411606034  0.1471146813605035   T   T   T
  0.9142155277645757  0.1885556114758531  0.1467676016868842   T   T   T
  0.5808249307502719  0.4385670476375824  0.1469172804091712   T   T   T
  0.7475242516307956  0.4384797915679814  0.1471444198239469   T   T   T
  0.9142164064230642  0.4385494347216154  0.1469026217404743   T   T   T
  0.6645321324142522  0.0638170570660528  0.1755382967044716   T   T   T
  0.8307976533927582  0.0638887433778307  0.1755208131897676   T   T   T
  0.9978839984665469  0.0632894289147691  0.1752748908577121   T   T   T
  0.6639160811245838  0.3136452365946258  0.1758245955926812   T   T   T
  0.8310849964293959  0.3136247558618870  0.1756995560994651   T   T   T
  0.9976578942193349  0.3137097380632494  0.1753807002937507   T   T   T
  0.5807141233428805  0.1896977990284114  0.2019569544325070   T   T   T
  0.7476964355075398  0.1922104853114726  0.2030211337036809   T   T   T
  0.9151714544129738  0.1895980458627952  0.2018291444257189   T   T   T
  0.5807691444186996  0.4415090296083402  0.2022210958513228   T   T   T
  0.7476839101447010  0.4430829115742381  0.2020873434149315   T   T   T
  0.9144426103451027  0.4413373509870078  0.2022191061878183   T   T   T
  0.5807603996078172  0.1888149180586522  0.0904019131651982   T   T   T
  0.7474088894438657  0.1888302542683671  0.0905759271317903   T   T   T
  0.9140455432229316  0.1888139409421848  0.0903632371790456   T   T   T
  0.5807564713963399  0.4386991347483377  0.0904425861220559   T   T   T
  0.7474091119470019  0.4386615190733940  0.0906067461512619   T   T   T
  0.9140546858631506  0.4387362612405427  0.0904294637297640   T   T   T
  0.6641939313982765  0.0636763068156731  0.1190543608455366   T   T   T
  0.8307939912094345  0.0636878863665080  0.1190446997566799   T   T   T
  0.9974865526402557  0.0635869236613658  0.1189211707600006   T   T   T
  0.6640970040563685  0.3135880483092106  0.1192272191013010   T   T   T
  0.8308307663633022  0.3136159435856248  0.1191654354295087   T   T   T
  0.9974650023591537  0.3136417640500264  0.1189519228660443   T   T   T
  0.9973162743040291  0.5659009636165364  0.0635811719455097   T   T   T
  0.6640670374138721  0.5657091688328351  0.0636955640767448   T   T   T
  0.8306356797346823  0.5657217738425198  0.0636927185150803   T   T   T
  0.9973399854209519  0.8159522448139136  0.0635313234150860   T   T   T
  0.6640989101903905  0.8158617772163900  0.0636191718209052   T   T   T
  0.8306842445477883  0.8158822929963558  0.0636078422968719   T   T   T
  0.5808852925328771  0.6887010582795239  0.1467438983681398   T   T   T
  0.7475699037565301  0.6886740310522762  0.1468029968662731   T   T   T
  0.9142479033497466  0.6886816248290702  0.1467700954724088   T   T   T
  0.5809980657876619  0.9386655447709970  0.1467854152264357   T   T   T
  0.7475876027928352  0.9385755389712261  0.1468075112910650   T   T   T
  0.9141615666722893  0.9386564710260247  0.1467809695648012   T   T   T
  0.6641958253617789  0.5642665788597709  0.1753743747019548   T   T   T
  0.8310408259381360  0.5642170659731474  0.1753844709342885   T   T   T
  0.9976934603421805  0.5638219764343076  0.1754093944897080   T   T   T
  0.6643274177385445  0.8137490859813278  0.1753907041731114   T   T   T
  0.8309895511347483  0.8137609741857541  0.1753964686451250   T   T   T
  0.9976551583941684  0.8137391349908760  0.1753408630737477   T   T   T
  0.5809908686873609  0.6909874370790986  0.2020996468021670   T   T   T
  0.7477204505027043  0.6910989526566260  0.2022016512440559   T   T   T
  0.9144648287279297  0.6910897592966317  0.2021561090688325   T   T   T
  0.5809932587152279  0.9408066167364733  0.2021382059645896   T   T   T
  0.7477117191426538  0.9408574713759464  0.2022141006460421   T   T   T
  0.9144107108517743  0.9408644138972722  0.2021411458486832   T   T   T
  0.5807997484026752  0.6886036756381719  0.0903648700952432   T   T   T
  0.7474245633426204  0.6885682835002724  0.0904158831236891   T   T   T
  0.9140269398342554  0.6886079894837999  0.0903747467614067   T   T   T
  0.5808218859309935  0.9388295865185924  0.0903430419202200   T   T   T
  0.7474488685051617  0.9388050084656305  0.0903842393373897   T   T   T
  0.9140699277376075  0.9388186673184226  0.0903423371370473   T   T   T
  0.6641987308203486  0.5634316024077212  0.1190915876820370   T   T   T
  0.8307763824232559  0.5634237452946744  0.1190966321265791   T   T   T
  0.9974463253452744  0.5635703329868664  0.1189944233321857   T   T   T
  0.6641805178880925  0.8135994065920230  0.1189529333264857   T   T   T
  0.8308124067403173  0.8135878974132087  0.1189555090940178   T   T   T
  0.9974451182186373  0.8136066826334046  0.1189131366518741   T   T   T
  0.0398593063925699  0.1795172599148512  0.0276401312098999   T   T   T
  0.2056975064841740  0.1795908385988421  0.0278951930347403   T   T   T
  0.3721220838936420  0.1793238433469885  0.0278583744901529   T   T   T
  0.0399263827035098  0.4297165345282323  0.0275785022596120   T   T   T
  0.2055419756239699  0.4293467908901550  0.0278942352443666   T   T   T
  0.3719159923975445  0.4292471288437428  0.0279006624238723   T   T   T
  0.1629789582270229  0.0298530532195712  0.0471704753581507   T   T   T
  0.3295193141527832  0.0298736701915404  0.0471721777839882   T   T   T
  0.4963093851959552  0.0299719754496983  0.0471420541763125   T   T   T
  0.1626928228054100  0.2799250848991952  0.0471990961197209   T   T   T
  0.3294503552165691  0.2798188172776271  0.0472131264422685   T   T   T
  0.4962703209255951  0.2799093456697254  0.0471596673792332   T   T   T
  0.4156399240327577  0.4048815743914078  0.2186141392033761   T   T   T
  0.4152471906731239  0.1544768113129563  0.2185532062298947   T   T   T
  0.0824688710017417  0.1545006153988938  0.2184714977836831   T   T   T
  0.2487388076306113  0.1546769528027225  0.2185508684337206   T   T   T
  0.0820782248444717  0.4047512379620059  0.2185687291377260   T   T   T
  0.2488313000741152  0.4047991507842459  0.2186189041401648   T   T   T
  0.0394917037966396  0.0544063545325247  0.2378120660673527   T   T   T
  0.2051067224969780  0.0548015380524747  0.2380313177255583   T   T   T
  0.3727707887208502  0.0544348509318400  0.2378628613513173   T   T   T
  0.0379562006707298  0.3037326186155030  0.2381106815832430   T   T   T
  0.2044565401670027  0.3046603899021775  0.2381639595770633   T   T   T
  0.3729920627766476  0.3040433134473333  0.2379384072404383   T   T   T
  0.0398018805313569  0.6794684231318475  0.0276731565450107   T   T   T
  0.2057667143211582  0.6794385459746916  0.0278917237266845   T   T   T
  0.3722182823288308  0.6792353255917739  0.0278632734175468   T   T   T
  0.0401568531229553  0.9296887053503616  0.0275998997770002   T   T   T
  0.2056187015925423  0.9293405601693113  0.0278809618807301   T   T   T
  0.3720053966401221  0.9292965824852114  0.0278643834846558   T   T   T
  0.1629386545294123  0.5297051473319434  0.0472075800510631   T   T   T
  0.3295490270392123  0.5296898635274099  0.0472145691123264   T   T   T
  0.4962148735544725  0.5296586079753330  0.0471833574739602   T   T   T
  0.1629502038649268  0.7797306291669206  0.0471668649111095   T   T   T
  0.3295686539205255  0.7797638559792162  0.0471574854382415   T   T   T
  0.4963305169849793  0.7798769466705391  0.0471105599720619   T   T   T
  0.4154863074407745  0.9045378299594931  0.2185168106815114   T   T   T
  0.4155882175006699  0.6549176676787279  0.2185434143259312   T   T   T
  0.0821536889926684  0.6548019211417690  0.2185032529616594   T   T   T
  0.2489157270192949  0.6549045187157656  0.2186045049168768   T   T   T
  0.0821768429713344  0.9045909950547033  0.2184885580216742   T   T   T
  0.2488639527799973  0.9046251910952487  0.2185618029703575   T   T   T
  0.0396236951481952  0.5546774202643359  0.2378827574117438   T   T   T
  0.2049247768924504  0.5550099708382976  0.2380875256165800   T   T   T
  0.3729393560382895  0.5544895768498201  0.2378842753835297   T   T   T
  0.0402009853317325  0.8041505655536877  0.2376955134300734   T   T   T
  0.2048289150193746  0.8047895670960070  0.2380819778013070   T   T   T
  0.3727908160190826  0.8042291874946926  0.2379389997813618   T   T   T
  0.5399472451395619  0.1794990737472054  0.0276732254800909   T   T   T
  0.7057543544572777  0.1795558691890880  0.0279855964190484   T   T   T
  0.8720534177898798  0.1793648709846680  0.0278550245480545   T   T   T
  0.5403709411456149  0.4295395849013470  0.0276676677233204   T   T   T
  0.7055992603244312  0.4292909585370087  0.0280651454831613   T   T   T
  0.8718048748112496  0.4292945227650441  0.0279122148975068   T   T   T
  0.6631164234780877  0.0299772594468121  0.0472616410878859   T   T   T
  0.8292817640517718  0.0299443917447243  0.0472508946651309   T   T   T
  0.9961242822057750  0.0299340075119389  0.0471238436167254   T   T   T
  0.6631180244027439  0.2797213411927444  0.0474146373792348   T   T   T
  0.8292446330684912  0.2798273002958566  0.0473572537939036   T   T   T
  0.9959451730968247  0.2799192919671087  0.0471425375497154   T   T   T
  0.9150038679091177  0.4056346152999915  0.2187104511062876   T   T   T
  0.9166256903752955  0.1535592952764758  0.2182580446961356   T   T   T
  0.5811677970162792  0.1536801688500046  0.2183985663175846   T   T   T
  0.7491066756391498  0.1552233415291405  0.2192398683712247   T   T   T
  0.5821092910578228  0.4056718409039676  0.2186837094942967   T   T   T
  0.7477426142906274  0.4103019220084210  0.2214347710453517   T   T   T
  0.5392507676858989  0.0545879627064762  0.2378073852843310   T   T   T
  0.7052410101783385  0.0545333016460974  0.2381195297198664   T   T   T
  0.8727203843396549  0.0546078996534557  0.2379576469875803   T   T   T
  0.5440233125000512  0.3036526887500432  0.2362639958605527   T   T   T
  0.6832185597964060  0.2858747765980197  0.2441208438815987   T   T   T
  0.8888107201005638  0.2991741775907755  0.2357862091403541   T   T   T
  0.7542843657073538  0.2729879411611373  0.2826422467938826   T   T   T
  0.7490945536392843  0.2310908175140634  0.3186947330066082   T   T   T
  0.7791604861949922  0.3141190708544869  0.3252830887302974   T   T   T
  0.6438921851592180  0.1666770478179970  0.3148141593012999   T   T   T
  0.7072857430415136  0.1093271048535224  0.3134093328363866   T   T   T
  0.8227996065475418  0.3846443499680126  0.3581961661579340   T   T   T
  0.7405918820981654  0.3988118602431741  0.3558884751531629   T   T   T
  0.7479686416361435  0.3997624535897107  0.2411086291884911   T   T   T
  0.7839411223391903  0.2718015337361013  0.2553622023986339   T   T   T
  0.5399597163514098  0.6793790158169680  0.0277047387217662   T   T   T
  0.7058056502920818  0.6793547300592809  0.0279234833950113   T   T   T
  0.8720891250247320  0.6792289207394784  0.0278815316181266   T   T   T
  0.5402073851489162  0.9296885822302792  0.0276192539011221   T   T   T
  0.7056427647050001  0.9293581304254279  0.0278985168415517   T   T   T
  0.8719783979524295  0.9293393165614212  0.0278718041157992   T   T   T
  0.6629544669237001  0.5295151981872052  0.0473022940727534   T   T   T
  0.8294920258188038  0.5294985186446186  0.0473060120946880   T   T   T
  0.9961510446997454  0.5296758969866605  0.0471912027445237   T   T   T
  0.6629797341179551  0.7798202328505260  0.0471893111365763   T   T   T
  0.8295028162939920  0.7798219904263132  0.0471829288418857   T   T   T
  0.9961551930649972  0.7798442922896841  0.0471157930536597   T   T   T
  0.9156036829189534  0.9046827208041361  0.2185382476281618   T   T   T
  0.9156331541901961  0.6549697059239267  0.2185647705766539   T   T   T
  0.5820656103423856  0.6548719817082659  0.2185096116177263   T   T   T
  0.7489360216279212  0.6550013259167693  0.2186156981175485   T   T   T
  0.5820467233563583  0.9046244292823791  0.2185329636165979   T   T   T
  0.7489485565311166  0.9046188616016613  0.2185993105807613   T   T   T
  0.5390204485096410  0.5548185007551263  0.2379496397846397   T   T   T
  0.7042387575582021  0.5559552122048564  0.2383147645652100   T   T   T
  0.8734337050872830  0.5544644082156581  0.2381165740168229   T   T   T
  0.5401600197245380  0.8041309811089277  0.2376886146623695   T   T   T
  0.7048214693558142  0.8047568103326839  0.2380888389850328   T   T   T
  0.8728292687400730  0.8042098348652570  0.2379470004510232   T   T   T
  0.0856450031095916  0.1707512938057612  0.0359320078563339   T   T   T
  0.2518360937579289  0.1707946894272327  0.0359778379591745   T   T   T
  0.4182949729736182  0.1708023502450692  0.0359472005642258   T   T   T
  0.0855848362022198  0.4206839605842005  0.0359180301041767   T   T   T
  0.2517276189933407  0.4205303435293827  0.0359470418132555   T   T   T
  0.4181596992566983  0.4206088068484450  0.0359337614421913   T   T   T
  0.1593270049379633  0.0454203178094699  0.2298048295968159   T   T   T
  0.3266087478383617  0.0453917447522927  0.2298283980359605   T   T   T
  0.4930771882864132  0.0452599801197142  0.2298089009685416   T   T   T
  0.1589465619646850  0.2953048878004328  0.2297791992329707   T   T   T
  0.3269040500164367  0.2953682111160267  0.2298303916074238   T   T   T
  0.4953549219027100  0.2947218439605410  0.2298103432575244   T   T   T
  0.0855946422969772  0.6705636250704065  0.0359449425642638   T   T   T
  0.2518856746945252  0.6706199982740695  0.0359825895420079   T   T   T
  0.4183808992816790  0.6706056365619718  0.0359475207370474   T   T   T
  0.0858496021906005  0.9204868383648328  0.0358965501803346   T   T   T
  0.2518129849827321  0.9204887280888533  0.0359242938310370   T   T   T
  0.4182468061684667  0.9206019620307829  0.0358931024841395   T   T   T
  0.1591943778640088  0.5455067211565412  0.2298483766715797   T   T   T
  0.3267094694102121  0.5456085010409767  0.2298681899154842   T   T   T
  0.4929255902290464  0.5461096031882273  0.2298259849484128   T   T   T
  0.1591442484958505  0.7953821156502693  0.2298028521350222   T   T   T
  0.3266830752631352  0.7955586520923413  0.2298300189269355   T   T   T
  0.4936913782317870  0.7954947875128616  0.2297899298152298   T   T   T
  0.5857206462787771  0.1708197174233508  0.0359824748668014   T   T   T
  0.7518442938144565  0.1710515717076124  0.0361322579203605   T   T   T
  0.9182187013889586  0.1707661662179771  0.0359404114215312   T   T   T
  0.5860063444206324  0.4204612400858262  0.0360138850133864   T   T   T
  0.7517231267151852  0.4207267083316585  0.0361849407131452   T   T   T
  0.9179951876348522  0.4206014035426572  0.0359720947982283   T   T   T
  0.6593835331452405  0.0450966521482620  0.2299502363507558   T   T   T
  0.8266245194650801  0.0453695775813746  0.2299048033436354   T   T   T
  0.9933339096569884  0.0455047754452494  0.2297519931690617   T   T   T
  0.6537312397381461  0.2997669086223159  0.2294460566687495   T   T   T
  0.8386004267712796  0.2948922990435324  0.2301186422192786   T   T   T
  0.9924836331232879  0.2944961507014031  0.2296538707618843   T   T   T
  0.7815305390465296  0.2725500033567727  0.3130072418389873   T   T   T
  0.6888660538391328  0.1524139501185607  0.3227910760662155   T   T   T
  0.7843269685917382  0.3916587250052208  0.3463291906937987   T   T   T
  0.7416151188149319  0.2590665650771636  0.2655487071851034   T   T   T
  0.5857484323621777  0.6704595941476634  0.0359798988410003   T   T   T
  0.7519026356419777  0.6704180086032713  0.0360173382086229   T   T   T
  0.9182245414287660  0.6705118274597676  0.0359716953472814   T   T   T
  0.5859047194116759  0.9206127952742097  0.0359293397096095   T   T   T
  0.7518190660466433  0.9205679755637415  0.0359617200783398   T   T   T
  0.9181920873768467  0.9206431301644646  0.0359176591553224   T   T   T
  0.6587944800554144  0.5463292959993259  0.2299154041269504   T   T   T
  0.8273900251381947  0.5469000201312857  0.2298347777553638   T   T   T
  0.9934352649624274  0.5457336955887256  0.2298440967375275   T   T   T
  0.6591213950727706  0.7953363202914747  0.2298230683531734   T   T   T
  0.8267367778827199  0.7955536662076115  0.2298303337172642   T   T   T
  0.9937530701104290  0.7954949128110240  0.2297856292831702   T   T   T
  0.2473813646746518  0.1247056422933246  0.0627153128469182   T   T   T
  0.4140231439979317  0.1247341174993231  0.0626878040591518   T   T   T
  0.0806470330908319  0.3747557215360682  0.0626726384520457   T   T   T
  0.2473215607163431  0.3746741207669579  0.0627264476013615   T   T   T
  0.4139799364558046  0.3746883864480006  0.0626983331155035   T   T   T
  0.0807619539511621  0.1247014660963864  0.0626666733217696   T   T   T
  0.4974959760205410  0.0011194567284126  0.1470351197237100   T   T   T
  0.1642772010826496  0.0011722944537432  0.1470391168963231   T   T   T
  0.3308810412665693  0.0012104213180996  0.1470576760578305   T   T   T
  0.4974921912218815  0.2512365367601168  0.1470928185526166   T   T   T
  0.1642184090016990  0.2512780001872517  0.1470583592102162   T   T   T
  0.3308593161176108  0.2512727092646031  0.1470868292560119   T   T   T
  0.0810987857273675  0.1256998878858815  0.1748048337787963   T   T   T
  0.2476704905162690  0.1259434834538601  0.1748943186841697   T   T   T
  0.4142796285012909  0.1257949142044871  0.1748792949023046   T   T   T
  0.0809959442101613  0.3760085614751363  0.1749025058239783   T   T   T
  0.2476068697732610  0.3760316086246729  0.1749358765100887   T   T   T
  0.4142359053039615  0.3759656007025044  0.1749468616747264   T   T   T
  0.1642971732030605  0.9995166546991600  0.2030458038184617   T   T   T
  0.3309862769469782  0.9995070902975578  0.2030587450004128   T   T   T
  0.4975935492135001  0.9994471228339898  0.2030200448701558   T   T   T
  0.1643909895477657  0.2495548916136001  0.2030123199008884   T   T   T
  0.4976708665790600  0.2489853510471065  0.2029822794961699   T   T   T
  0.3310556431226270  0.2495155383596050  0.2030513124390186   T   T   T
  0.4974705058670749  0.0011146620463081  0.0908072961996503   T   T   T
  0.1641207959011916  0.0010099679495002  0.0908151089081851   T   T   T
  0.3307883106480845  0.0010339741075953  0.0908219902732785   T   T   T
  0.4973870173440714  0.2510727532207483  0.0908426604378523   T   T   T
  0.1640273941458602  0.2510596400397470  0.0908412043670298   T   T   T
  0.3307100827524697  0.2510391017729210  0.0908552023266819   T   T   T
  0.0808111275702365  0.1262587571305150  0.1186240985271624   T   T   T
  0.2474825162311946  0.1262733400821506  0.1186632188281031   T   T   T
  0.4141531177081699  0.1262710112978503  0.1186604681371197   T   T   T
  0.0807948209041086  0.3763285365452796  0.1186610142019456   T   T   T
  0.2474706328330722  0.3763167355931631  0.1186908997159494   T   T   T
  0.4141306036891367  0.3762983137305035  0.1186890569046140   T   T   T
  0.2473931344785539  0.6245609156033717  0.0627251089581938   T   T   T
  0.4140640950097317  0.6245768268413148  0.0626939637918268   T   T   T
  0.0807947605765886  0.8745952189962044  0.0626536374350184   T   T   T
  0.2474156201742024  0.8745695765848731  0.0626926666149131   T   T   T
  0.4140701231406732  0.8746575339225465  0.0626541751527998   T   T   T
  0.0807321161553967  0.6245669858566640  0.0626889231714593   T   T   T
  0.4974887576190896  0.5012910474463045  0.1471281208724917   T   T   T
  0.1642324522819451  0.5012944633696832  0.1471071367494633   T   T   T
  0.3308829723129056  0.5013051636208790  0.1471214918781006   T   T   T
  0.4975056660447796  0.7513426215750583  0.1470248517701265   T   T   T
  0.1642362399017800  0.7512534990299244  0.1470472971962069   T   T   T
  0.3308645858501527  0.7512796218071822  0.1470497207941798   T   T   T
  0.0810367463864711  0.6260102847668831  0.1748732658474400   T   T   T
  0.2476376640957288  0.6260392940324705  0.1749324582219386   T   T   T
  0.4142087836800946  0.6261514992380903  0.1748969801036218   T   T   T
  0.0809846630349674  0.8759585663975930  0.1748433426600424   T   T   T
  0.2476144440359944  0.8759814700944630  0.1748882006065963   T   T   T
  0.4142564829872059  0.8759622473727493  0.1748600250104161   T   T   T
  0.1642566939857394  0.4996357470088311  0.2030886470096699   T   T   T
  0.3309773245020096  0.4996715660631695  0.2031073783663150   T   T   T
  0.4974098341922382  0.5000067607958832  0.2030920843071460   T   T   T
  0.1642940036344673  0.7496082467032492  0.2030191766912245   T   T   T
  0.4976771823596483  0.7497076732929818  0.2029938807199177   T   T   T
  0.3310162191764510  0.7497205747787724  0.2030497734532220   T   T   T
  0.4974374962712392  0.5010044504157467  0.0908650195806762   T   T   T
  0.1640763862244805  0.5010289573351744  0.0908589704506361   T   T   T
  0.3307757189642326  0.5010256175525534  0.0908685329498675   T   T   T
  0.4974646489618536  0.7509874146706543  0.0907973350961199   T   T   T
  0.1640815406774094  0.7508899753550039  0.0908217586694888   T   T   T
  0.3307558999773847  0.7509264996936957  0.0908167658455824   T   T   T
  0.0807972112544993  0.6262424070577512  0.1186611767549327   T   T   T
  0.2474904403333011  0.6262240395832019  0.1186828758185439   T   T   T
  0.4141711084597315  0.6262616787175438  0.1186641982772691   T   T   T
  0.0808479628853437  0.8762013181059575  0.1186014562897336   T   T   T
  0.2475008073441199  0.8762251662913190  0.1186331972736497   T   T   T
  0.4141410084250914  0.8762397350537166  0.1186122812880910   T   T   T
  0.7473869406096175  0.1248658997972548  0.0628582619237601   T   T   T
  0.9139665097749854  0.1247743894596918  0.0626930916945599   T   T   T
  0.5807912347761659  0.3746203225076343  0.0627779433366280   T   T   T
  0.7473193786333947  0.3746690903311726  0.0629245866491107   T   T   T
  0.9138843568054016  0.3747157717800791  0.0627428979168149   T   T   T
  0.5808210499511461  0.1248122175328144  0.0627256362159261   T   T   T
  0.9976670215036921  0.0010566128947520  0.1469957697215619   T   T   T
  0.6643926904886711  0.0013801848044611  0.1471710461854264   T   T   T
  0.8307656676903890  0.0013858564903605  0.1471578336885489   T   T   T
  0.9975454474660622  0.2512258562922227  0.1470279377091230   T   T   T
  0.6640007551739402  0.2513114343799897  0.1473834853938831   T   T   T
  0.8308828182850703  0.2512592605873007  0.1472672645687422   T   T   T
  0.5808329788331074  0.1254887492285092  0.1748415521843936   T   T   T
  0.7475645051312981  0.1266966303102006  0.1753808543444324   T   T   T
  0.9145776954521644  0.1253063367776718  0.1747148684692453   T   T   T
  0.5807113799177910  0.3761384274438504  0.1750772576238978   T   T   T
  0.7474146221027775  0.3752967826122610  0.1753994326320754   T   T   T
  0.9143221873621338  0.3761098750973648  0.1750363122015328   T   T   T
  0.6642661088739205  0.9994942096454100  0.2031392983064750   T   T   T
  0.8310441550469913  0.9995624181757391  0.2031271853510753   T   T   T
  0.9977434526588678  0.9994814166402870  0.2030012659037125   T   T   T
  0.6630073220690456  0.2501475779762890  0.2036909562268091   T   T   T
  0.9980424536195501  0.2488326049267172  0.2027700759994780   T   T   T
  0.8324823601038582  0.2490350199508916  0.2031976428381507   T   T   T
  0.9974380582603147  0.0010860219324182  0.0907873990048947   T   T   T
  0.6641599860096127  0.0011447971545180  0.0909001489231191   T   T   T
  0.8307463685138166  0.0011377846994526  0.0908919614827114   T   T   T
  0.9973687142903505  0.2510783060387922  0.0908077924427351   T   T   T
  0.6640576635426608  0.2510673971179352  0.0910529983125462   T   T   T
  0.8307066879174337  0.2510777882002455  0.0909993165435262   T   T   T
  0.5808084172198964  0.1263130798078483  0.1186974682317524   T   T   T
  0.7474601466326424  0.1263794522580612  0.1188931568931351   T   T   T
  0.9141436663028680  0.1263032866614539  0.1186478974384592   T   T   T