C H O Si                                
   1.00000000000000     
    18.5749199999999988    0.0000000000000000    0.0000000000000000
     0.0000000000000000   17.5126199999999983    0.0000000000000000
     0.0000000000000000    0.0000000000000000   55.0000000000000000
   C    H    O    Si
   144   105    52   144
Selective dynamics
Direct
  0.4974258068650956  0.0661093699436977  0.0635454240631197   T   T   T
  0.1641150846038714  0.0660171686913215  0.0636060517274511   T   T   T
  0.3307119531333668  0.0660066235599489  0.0636027878496183   T   T   T
  0.4974370376203590  0.3160819363423977  0.0635720084805955   T   T   T
  0.1641461426773868  0.3159356109073045  0.0636392216806843   T   T   T
  0.3307462925145044  0.3159575028439099  0.0636405219093163   T   T   T
  0.0809287064199695  0.1886495897189892  0.1467284864337950   T   T   T
  0.2475803113062559  0.1886187961821713  0.1467272319219197   T   T   T
  0.4141379349222411  0.1886916563437993  0.1468004771482196   T   T   T
  0.0809452584684452  0.4387744334651709  0.1467907987974745   T   T   T
  0.2475672400560112  0.4388079181374399  0.1468149006634211   T   T   T
  0.4141435996001292  0.4387775598653011  0.1468123808785138   T   T   T
  0.1644235488958619  0.0635451218328777  0.1753615885840875   T   T   T
  0.3309863672768899  0.0635669028581300  0.1753857430622830   T   T   T
  0.4973884374634355  0.0634849664242220  0.1753187519787351   T   T   T
  0.1644020543482674  0.3137995854169167  0.1753863639166961   T   T   T
  0.3308694790422601  0.3138468072467046  0.1754495511893288   T   T   T
  0.4974277460412532  0.3138262463479848  0.1754353537324602   T   T   T
  0.0815158561722225  0.1906530092532891  0.2019935177704397   T   T   T
  0.2478359831718752  0.1908471539908241  0.2020987157533128   T   T   T
  0.4141691722773546  0.1907124784201356  0.2021616328198231   T   T   T
  0.0809994627008593  0.4409229725671597  0.2021559513633124   T   T   T
  0.2475996791023296  0.4410521509980550  0.2022158457857431   T   T   T
  0.4142751789472661  0.4409863952324057  0.2021813489061400   T   T   T
  0.0807450590837572  0.1888662025786025  0.0903144764189774   T   T   T
  0.2474483320020611  0.1888169815682998  0.0903698976650145   T   T   T
  0.4141049009743432  0.1888702690463439  0.0903434952043008   T   T   T
  0.0807783663286816  0.4389034518655446  0.0903443537279006   T   T   T
  0.2474516734231648  0.4389209113113187  0.0903648102163248   T   T   T
  0.4140954160133309  0.4388967051608715  0.0903564398019167   T   T   T
  0.1641586891989357  0.0636385875533052  0.1189384168553045   T   T   T
  0.3308518494995035  0.0636247777133656  0.1189491552848616   T   T   T
  0.4974918570452128  0.0637290765731049  0.1189428448808311   T   T   T
  0.1641651644505415  0.3137715156612803  0.1189588697519608   T   T   T
  0.3307905038505493  0.3137745982163420  0.1189875809865414   T   T   T
  0.4974367861450338  0.3137815322299718  0.1189745565183443   T   T   T
  0.4974229565951742  0.5659546791338921  0.0635709944209854   T   T   T
  0.1640872679326291  0.5659492767047940  0.0636217018673246   T   T   T
  0.3307448516864344  0.5659604135434710  0.0636140689593993   T   T   T
  0.4974589556221802  0.8160719276101563  0.0635210724372511   T   T   T
  0.1641077421924977  0.8159263637823801  0.0636079179760377   T   T   T
  0.3307521444336745  0.8159605157119274  0.0635874605424419   T   T   T
  0.0809367732000983  0.6887628188445574  0.1467581351892696   T   T   T
  0.2475788606039866  0.6887418206720850  0.1467993460546355   T   T   T
  0.4142142475870020  0.6888007557974953  0.1467616934810535   T   T   T
  0.0809416589600450  0.9385532389481344  0.1467021953465317   T   T   T
  0.2475667781391022  0.9385525371003915  0.1467543827269052   T   T   T
  0.4141865478726396  0.9385495625406186  0.1467134877642141   T   T   T
  0.1643459696500373  0.5638816582040879  0.1754368932049694   T   T   T
  0.3309425828497213  0.5639295080668614  0.1754510309102028   T   T   T
  0.4974697685622064  0.5639845294941899  0.1753943261372638   T   T   T
  0.1642763061274668  0.8138156136137088  0.1753965111529285   T   T   T
  0.3309424640620367  0.8138355928579591  0.1753957579885911   T   T   T
  0.4976055993214848  0.8138738899147558  0.1753450413889761   T   T   T
  0.0809759202596916  0.6908983550614923  0.2020834890413370   T   T   T
  0.2476347481160826  0.6910777159435854  0.2021977662780404   T   T   T
  0.4143036696357292  0.6910804982375875  0.2021322247233853   T   T   T
  0.0809201500910065  0.9408165877653725  0.2021043199838870   T   T   T
  0.2475853520837497  0.9408399661799355  0.2021894196206344   T   T   T
  0.4142492089321631  0.9407931022553943  0.2021297573556217   T   T   T
  0.0807136185770789  0.6888157063105336  0.0903160444026401   T   T   T
  0.2474349267253950  0.6887956011706202  0.0903437540594145   T   T   T
  0.4141432887314952  0.6888370034838267  0.0903160448551223   T   T   T
  0.0807465012208382  0.9388658989362642  0.0902883150512540   T   T   T
  0.2474559805982107  0.9388298226817310  0.0903283768848826   T   T   T
  0.4141437270197345  0.9388740393590099  0.0902937905296746   T   T   T
  0.1641484246607719  0.5637776055255311  0.1189816395392482   T   T   T
  0.3308334738663525  0.5637924196985847  0.1189837053671222   T   T   T
  0.4974732042509891  0.5637386088338254  0.1189715541030954   T   T   T
  0.1641552892582924  0.8136521863661779  0.1189251479156520   T   T   T
  0.3308266198272574  0.8136568715907290  0.1189198459794614   T   T   T
  0.4975129091977186  0.8137947167456587  0.1188987656281565   T   T   T
  0.9973931395126870  0.0660926115878958  0.0635350260919144   T   T   T
  0.6641208222089128  0.0660907954795949  0.0636585919580890   T   T   T
  0.8306789899611620  0.0660761629752335  0.0636497565840579   T   T   T
  0.9974336845832307  0.3160915743476013  0.0635530535253221   T   T   T
  0.6641328917824971  0.3159328211686538  0.0637528492915863   T   T   T
  0.8307149760797314  0.3159690869163328  0.0637116431173264   T   T   T
  0.5807935638621715  0.1887277545718014  0.1467799163901758   T   T   T
  0.7474686386219355  0.1889435166385087  0.1470711537417128   T   T   T
  0.9142230621622263  0.1887088351592002  0.1467270323248132   T   T   T
  0.5808103166689143  0.4387703108619189  0.1468562607408504   T   T   T
  0.7475297734723604  0.4385233721681993  0.1471020352024419   T   T   T
  0.9142146770313574  0.4387702410143045  0.1468501630461345   T   T   T
  0.6644332107984413  0.0640169298377060  0.1755438138214741   T   T   T
  0.8307399381157741  0.0640760374623497  0.1755366352741147   T   T   T
  0.9978838369700449  0.0634031465439159  0.1752807686887341   T   T   T
  0.6638938765805155  0.3138076921146247  0.1757875877963000   T   T   T
  0.8310916333708281  0.3137951714065749  0.1756854044530833   T   T   T
  0.9977313829067247  0.3139046648056584  0.1753538295045483   T   T   T
  0.5804804771074674  0.1898098840439979  0.2018449797133507   T   T   T
  0.7476050799453703  0.1925071947602990  0.2029911896692967   T   T   T
  0.9153002565727792  0.1898081091778558  0.2017593694716429   T   T   T
  0.5807892966319763  0.4415300195828046  0.2021555779281644   T   T   T
  0.7476466475641235  0.4439346238875604  0.2016895905822053   T   T   T
  0.9143653583315147  0.4414902543844559  0.2021820833634175   T   T   T
  0.5807490567604936  0.1888931351272990  0.0903546016153684   T   T   T
  0.7474178904858483  0.1888970784739142  0.0905262820863985   T   T   T
  0.9140797460288578  0.1888945654767962  0.0903230141168975   T   T   T
  0.5807690083551429  0.4388562905819409  0.0903890938161481   T   T   T
  0.7474268013351818  0.4388275800065612  0.0905023759265498   T   T   T
  0.9140868945789777  0.4388714606931954  0.0903783996581623   T   T   T
  0.6641500068791542  0.0638121784763685  0.1190435850879241   T   T   T
  0.8307660564027729  0.0637976313962494  0.1190331445719802   T   T   T
  0.9974534504172466  0.0636892610336994  0.1189179557220882   T   T   T
  0.6640908946395343  0.3137472537231755  0.1191536634148922   T   T   T
  0.8308189960022020  0.3137651210544865  0.1191044853185959   T   T   T
  0.9974800358804646  0.3137955479069940  0.1189353348714662   T   T   T
  0.9973937484752371  0.5659596462111873  0.0635707105723738   T   T   T
  0.6641094643790809  0.5658632880781218  0.0636480635981965   T   T   T
  0.8307027047530162  0.5658808958095182  0.0636367989603343   T   T   T
  0.9973974175047143  0.8160742985337424  0.0635233882109840   T   T   T
  0.6641159850281275  0.8159467908611987  0.0636185355492750   T   T   T
  0.8307353781593808  0.8159716204573473  0.0635994523954306   T   T   T
  0.5808336471877686  0.6888847380177195  0.1467236119074258   T   T   T
  0.7475617139721712  0.6889022841077720  0.1467706243867800   T   T   T
  0.9143056580313518  0.6888615464132504  0.1467372721002350   T   T   T
  0.5809559414774308  0.9388259431254946  0.1467769823756745   T   T   T
  0.7475317831434548  0.9387262417929209  0.1468100074538125   T   T   T
  0.9141162063240217  0.9387848272194244  0.1467756134666447   T   T   T
  0.6640999363761990  0.5644407658766208  0.1753358686402764   T   T   T
  0.8310971159090810  0.5644377789804471  0.1753381434351895   T   T   T
  0.9977270594346028  0.5639339553928986  0.1754006540967221   T   T   T
  0.6642484609766254  0.8138780908153133  0.1754032322246345   T   T   T
  0.8309552822098913  0.8138837469229786  0.1754006341594513   T   T   T
  0.9976167358856278  0.8138584803093815  0.1753446716974469   T   T   T
  0.5808627449531905  0.6909904440970781  0.2020706129915422   T   T   T
  0.7476158370134774  0.6911641323865941  0.2021813074867101   T   T   T
  0.9144103439810424  0.6911428115254931  0.2021211505644994   T   T   T
  0.5808638213276084  0.9409218298866360  0.2021121083199604   T   T   T
  0.7475714962935842  0.9409314846007365  0.2022096087376579   T   T   T
  0.9142689849611628  0.9409046053466176  0.2021318226503918   T   T   T
  0.5807823539223120  0.6887815320780082  0.0903223208473193   T   T   T
  0.7474226749282725  0.6887898784521008  0.0903650207901904   T   T   T
  0.9140684772678666  0.6887879577042110  0.0903243795883619   T   T   T
  0.5807829773470055  0.9389636836036157  0.0903199536419408   T   T   T
  0.7474280874294709  0.9389143285581738  0.0903628963114280   T   T   T
  0.9140791259887442  0.9389416791314646  0.0903207276990553   T   T   T
  0.6641758253471589  0.5636503405383723  0.1190323853721783   T   T   T
  0.8307851486860471  0.5636588247328315  0.1190266449581054   T   T   T
  0.9974792686947668  0.5637274517252411  0.1189700941985316   T   T   T
  0.6641364139125828  0.8137965332576084  0.1189450470608341   T   T   T
  0.8308079452948305  0.8137781262830691  0.1189400224173687   T   T   T
  0.9974553948357496  0.8137646141394037  0.1189002983356323   T   T   T
  0.0395367151295149  0.1794730607205984  0.0278172558794710   T   T   T
  0.2052725108362883  0.1795759191941664  0.0281183920679600   T   T   T
  0.3716473841921372  0.1793161009637752  0.0280401681705618   T   T   T
  0.0399661720499841  0.4296333270662568  0.0277934435756283   T   T   T
  0.2051209381356286  0.4293036671343132  0.0281453246850575   T   T   T
  0.3714346503166850  0.4292688197867708  0.0281104034320038   T   T   T
  0.1630498559676376  0.0297889555095812  0.0472128424056420   T   T   T
  0.3293781519934060  0.0297885329670780  0.0472091899767879   T   T   T
  0.4962061762063388  0.0298679305283257  0.0471532793982442   T   T   T
  0.1629725055157963  0.2796841617337079  0.0472549244946420   T   T   T
  0.3294888837005935  0.2796875037853194  0.0472596039438843   T   T   T
  0.4962357395425229  0.2798746261082813  0.0471750268355680   T   T   T
  0.4156542529613947  0.4047948844496495  0.2185837645273241   T   T   T
  0.4151632880333078  0.1545869959917821  0.2185812458762887   T   T   T
  0.0824123730706344  0.1545872305189591  0.2184154185386711   T   T   T
  0.2487135728306283  0.1541599508768485  0.2183699910097983   T   T   T
  0.0820760653558640  0.4048730507007609  0.2185938224173299   T   T   T
  0.2487960764320798  0.4049604485629321  0.2186294585730921   T   T   T
  0.0397813629740103  0.0544162382861801  0.2376392719107587   T   T   T
  0.2052981603548462  0.0548722957015071  0.2378638677063785   T   T   T
  0.3731719293169697  0.0545180868437196  0.2376850662802194   T   T   T
  0.0392072668235023  0.3037347906791348  0.2378534765055715   T   T   T
  0.2045846011799003  0.3048574024963022  0.2381881413188947   T   T   T
  0.3736921692076366  0.3040497743089606  0.2377576638951932   T   T   T
  0.0394862365481952  0.6794497724593537  0.0278393985304849   T   T   T
  0.2053132999384615  0.6794805146203909  0.0280859438328985   T   T   T
  0.3717145354093307  0.6792438353776123  0.0280529619098625   T   T   T
  0.0398620592896953  0.9297181260326485  0.0277634047337860   T   T   T
  0.2051565474876269  0.9293606967541961  0.0280887418641671   T   T   T
  0.3714805662278115  0.9293460865805776  0.0280603494949724   T   T   T
  0.1629209413551994  0.5296434745850678  0.0472488596217320   T   T   T
  0.3295354580219539  0.5296430581893834  0.0472444387558949   T   T   T
  0.4961729699403873  0.5296391214663060  0.0471975667948373   T   T   T
  0.1629560692397300  0.7797772582844212  0.0472022954798638   T   T   T
  0.3295171016297697  0.7797877740574432  0.0471871499840834   T   T   T
  0.4962441500322567  0.7798518990461686  0.0471275155044298   T   T   T
  0.4155362553977729  0.9044807607759046  0.2185004499098145   T   T   T
  0.4156208668735963  0.6548879365662713  0.2185282647712239   T   T   T
  0.0821466507620461  0.6547557460920725  0.2184928803808878   T   T   T
  0.2489359532624769  0.6548703503943422  0.2185956419285871   T   T   T
  0.0820221196693934  0.9044963639533036  0.2184728614479398   T   T   T
  0.2488575789291442  0.9045074264393210  0.2185618134028710   T   T   T
  0.0399961573376092  0.5547548148807361  0.2377115287153351   T   T   T
  0.2051757315087352  0.5551801538840242  0.2379846481775489   T   T   T
  0.3734016718026978  0.5544397425452771  0.2376712780486649   T   T   T
  0.0407056196885741  0.8040964649805336  0.2374557582885470   T   T   T
  0.2050586969316196  0.8047847906941953  0.2379151111664658   T   T   T
  0.3731909627646566  0.8041358499256019  0.2377611860557568   T   T   T
  0.5395463958914168  0.1794704392135857  0.0278172920153027   T   T   T
  0.7053290009406029  0.1795505515523455  0.0281612483691837   T   T   T
  0.8716349271837330  0.1793245553592903  0.0280242669675998   T   T   T
  0.5400159389211007  0.4295963312779839  0.0278082729336600   T   T   T
  0.7051679865238364  0.4292702419219313  0.0281979047768906   T   T   T
  0.8714339123979600  0.4292662692942174  0.0281138684088245   T   T   T
  0.6631171005522859  0.0298479348275862  0.0472681280329077   T   T   T
  0.8292946910666316  0.0298384540919962  0.0472610746088793   T   T   T
  0.9961907296569438  0.0298512600982387  0.0471434153354808   T   T   T
  0.6630207085306736  0.2796317713763120  0.0473772633130721   T   T   T
  0.8294202817310229  0.2796886034033240  0.0473327511822641   T   T   T
  0.9962356844562053  0.2798947285354629  0.0471538853055293   T   T   T
  0.9148644376697388  0.4056717138778243  0.2186492868773608   T   T   T
  0.9166222797979902  0.1536703907056277  0.2181691768400711   T   T   T
  0.5811657249915370  0.1537794877751397  0.2182830105951193   T   T   T
  0.7490686190435515  0.1554060121590056  0.2191865629999993   T   T   T
  0.5824214836849808  0.4054563289490207  0.2185634409497501   T   T   T
  0.7478774917553754  0.4123253422257275  0.2243752627464871   T   T   T
  0.5396696928209687  0.0547138455945683  0.2375783957298064   T   T   T
  0.7054449888213024  0.0547370422616439  0.2379265867443259   T   T   T
  0.8731222165031234  0.0546353183376098  0.2377535972305877   T   T   T
  0.5444456062518055  0.3033931317363007  0.2360765002279785   T   T   T
  0.6833281901913427  0.2867121364977430  0.2439278894228519   T   T   T
  0.8895283800986113  0.2983205613061629  0.2356577426334067   T   T   T
  0.7547784104779335  0.2734557178231799  0.2825938592007818   T   T   T
  0.7493386364935153  0.2310718629145982  0.3186882674021330   T   T   T
  0.7793896910168883  0.3139914010578850  0.3254033958567150   T   T   T
  0.6440726575027607  0.1670266130982058  0.3146594038584683   T   T   T
  0.7072379525936869  0.1094040040967537  0.3132394198177020   T   T   T
  0.8229571531323532  0.3849122236573354  0.3582646137586294   T   T   T
  0.7407248338048986  0.3989753544369788  0.3559337026687013   T   T   T
  0.7482480172658064  0.4011982264257759  0.2408565973725748   T   T   T
  0.7837958740705365  0.2724367364678406  0.2552282121670664   T   T   T
  0.5395167558818759  0.6794346358520578  0.0278461348724256   T   T   T
  0.7053314008220433  0.6794745421498425  0.0280874986568558   T   T   T
  0.8717090441115339  0.6792452417954452  0.0280503341222195   T   T   T
  0.5398740763987433  0.9297194231422702  0.0277720445972282   T   T   T
  0.7051663329144375  0.9293620196182425  0.0280909449364420   T   T   T
  0.8714868390762704  0.9293461030085667  0.0280629065795457   T   T   T
  0.6629339248514956  0.5296167404442891  0.0472623087784634   T   T   T
  0.8295116367488700  0.5296074535090479  0.0472571575129000   T   T   T
  0.9961768971973687  0.5296366118667786  0.0471989686067407   T   T   T
  0.6629537611625526  0.7797946399582274  0.0472103571906356   T   T   T
  0.8295220107043030  0.7798052237195418  0.0471949352131273   T   T   T
  0.9961927265302433  0.7798558905905514  0.0471297604658520   T   T   T
  0.9155133210989506  0.9046138514016570  0.2185101649776833   T   T   T
  0.9156639591457956  0.6548639518641495  0.2184963098174687   T   T   T
  0.5820191362403175  0.6547637635080348  0.2184586534520043   T   T   T
  0.7489258612929026  0.6549110858157835  0.2185646623187828   T   T   T
  0.5819670994443223  0.9046296323233103  0.2184853050715519   T   T   T
  0.7488568652371520  0.9045313009826885  0.2185636714226824   T   T   T
  0.5395670825939409  0.5546364920414882  0.2376907361248307   T   T   T
  0.7048744196567494  0.5551218292964025  0.2380334172308407   T   T   T
  0.8736818135953107  0.5542198384041886  0.2379234403289072   T   T   T
  0.5406454301808362  0.8040700472174011  0.2374419505982531   T   T   T
  0.7050429929920423  0.8047301616353633  0.2379037157679730   T   T   T
  0.8732086101383422  0.8041158601377278  0.2377674795608104   T   T   T
  0.0856702051938812  0.1703605111622687  0.0358492492647897   T   T   T
  0.2518039924266017  0.1704990863005548  0.0359128326560032   T   T   T
  0.4181917548776317  0.1703350022547136  0.0358345944332097   T   T   T
  0.0859745186157099  0.4201404781342422  0.0358549618407624   T   T   T
  0.2517431184556587  0.4201151705080375  0.0358707491816868   T   T   T
  0.4180700063436664  0.4202013680001864  0.0358358380305733   T   T   T
  0.1591972021033816  0.0450103851076453  0.2298994577635345   T   T   T
  0.3266612433382506  0.0450145455072738  0.2299307028884873   T   T   T
  0.4930915773727919  0.0449619764612668  0.2298961193018879   T   T   T
  0.1591316256375750  0.2948482164122722  0.2298567433333537   T   T   T
  0.3271683254108038  0.2950409779409607  0.2299632293917359   T   T   T
  0.4953441049784939  0.2945139098957891  0.2299142388628202   T   T   T
  0.0856338283704679  0.6701886259792059  0.0358458884698168   T   T   T
  0.2518242936823362  0.6701770864259031  0.0358661965281296   T   T   T
  0.4182756143231555  0.6702661109115048  0.0358375442050801   T   T   T
  0.0858884754261887  0.9201787411475829  0.0358093258843434   T   T   T
  0.2517278180158423  0.9201849123521331  0.0358484971499762   T   T   T
  0.4181026687248912  0.9202773335180912  0.0357944481619440   T   T   T
  0.1591932509619720  0.5452254853158733  0.2299569089905584   T   T   T
  0.3267581038843070  0.5451704429918619  0.2299782502250314   T   T   T
  0.4930044319190470  0.5455161054905741  0.2299180567534307   T   T   T
  0.1590098787802557  0.7950448403936720  0.2299051765744385   T   T   T
  0.3267083178728287  0.7951583775151256  0.2299317012860030   T   T   T
  0.4937418136123027  0.7951203957452452  0.2298696254431670   T   T   T
  0.5856815297932046  0.1703145568064928  0.0358456418852437   T   T   T
  0.7518031976926345  0.1705727084238230  0.0360059780454685   T   T   T
  0.9181726294211708  0.1703187388686355  0.0358200716258485   T   T   T
  0.5860037412729074  0.4200596344715657  0.0358802524217009   T   T   T
  0.7517308856754532  0.4201276937844287  0.0359692852765228   T   T   T
  0.9180425433725284  0.4201501369008560  0.0358506958241335   T   T   T
  0.6592520663244614  0.0447498788435391  0.2300409561085885   T   T   T
  0.8266438134310347  0.0449949584604027  0.2299990526110816   T   T   T
  0.9932710621400240  0.0452038570948918  0.2298445456409313   T   T   T
  0.6520310589607304  0.2985430133566258  0.2295590849803305   T   T   T
  0.8391539491289965  0.2939406404827798  0.2302631771837531   T   T   T
  0.9932115937874180  0.2944141959367743  0.2297023231556785   T   T   T
  0.7819809695971321  0.2724892857028903  0.3131176041756454   T   T   T
  0.6888541062055262  0.1523737476621076  0.3226941789411957   T   T   T
  0.7844685496802459  0.3917432816919457  0.3463831553071441   T   T   T
  0.7418634779661913  0.2592101727188306  0.2655772193910959   T   T   T
  0.5856640061846170  0.6701527120682018  0.0358520923221818   T   T   T
  0.7518218615601894  0.6701415588157515  0.0358788081212761   T   T   T
  0.9182384031885074  0.6702220427439911  0.0358490239328825   T   T   T
  0.5859010613477601  0.9202013068158766  0.0358214253742698   T   T   T
  0.7517326732006859  0.9201880201982792  0.0358559708945176   T   T   T
  0.9180911734775530  0.9203017499269383  0.0358112156032880   T   T   T
  0.6588968840506904  0.5463294523319784  0.2298732637940354   T   T   T
  0.8273982988414587  0.5471988708155698  0.2297682747887834   T   T   T
  0.9935012673498604  0.5453599803547179  0.2299302601546025   T   T   T
  0.6589668619672611  0.7949621637327392  0.2299146030656916   T   T   T
  0.8267468062463481  0.7951609955699365  0.2299227991974717   T   T   T
  0.9938350786602155  0.7951241786130218  0.2298656390762746   T   T   T
  0.2474759844093509  0.1246986435886866  0.0628073036464844   T   T   T
  0.4140729671868219  0.1247021448306516  0.0627537321449746   T   T   T
  0.0808992730440878  0.3746459090874453  0.0627817031909408   T   T   T
  0.2474922126724792  0.3746260112306748  0.0628169693168577   T   T   T
  0.4140877783514842  0.3746786494643694  0.0627743076068774   T   T   T
  0.0808375451979117  0.1246783350240930  0.0627481294618338   T   T   T
  0.4974457729748004  0.0010900399347330  0.1470175114725354   T   T   T
  0.1642637584991367  0.0010237243529230  0.1470082976465716   T   T   T
  0.3309010802399561  0.0010424635348157  0.1470269970420097   T   T   T
  0.4974374545546094  0.2512664874479290  0.1470863326954797   T   T   T
  0.1642608344484024  0.2511760505448530  0.1470223903062459   T   T   T
  0.3308248213350333  0.2512353431497253  0.1470785358525593   T   T   T
  0.0811352367352274  0.1256482579428062  0.1747405218049061   T   T   T
  0.2477114095600060  0.1258601941134572  0.1748031444074049   T   T   T
  0.4142176550187401  0.1257984005204558  0.1748473744746072   T   T   T
  0.0810721318796936  0.3760088675329864  0.1748573520353950   T   T   T
  0.2476024504858711  0.3760570968442852  0.1748930421710838   T   T   T
  0.4141800407672844  0.3760006503794761  0.1748953737280539   T   T   T
  0.1641804474275297  0.9994477859515699  0.2029805399819283   T   T   T
  0.3309025487651905  0.9994566571873491  0.2030015324466143   T   T   T
  0.4974501308330060  0.9995173490467699  0.2029401559880705   T   T   T
  0.1645592379835281  0.2495480028544965  0.2029373715380392   T   T   T
  0.4975327603659958  0.2491181070965366  0.2029251519976193   T   T   T
  0.3310681716294828  0.2495640720916343  0.2030148688127388   T   T   T
  0.4974557991457918  0.0011251298079902  0.0908456830177918   T   T   T
  0.1641266867993332  0.0009778934208948  0.0908640360105210   T   T   T
  0.3308117246133975  0.0009865545698851  0.0908691764165202   T   T   T
  0.4974110667940120  0.2510764994430531  0.0908844027582573   T   T   T
  0.1641121920819011  0.2509522000842108  0.0908939569187762   T   T   T
  0.3307481578558370  0.2509940968219069  0.0909178806272681   T   T   T
  0.0808124179376091  0.1261462621706660  0.1186310898818179   T   T   T
  0.2475159904332190  0.1260835780332620  0.1186482072916988   T   T   T
  0.4141430180037370  0.1262123469019874  0.1186847570609744   T   T   T
  0.0808409352025256  0.3762720261251190  0.1186773364851070   T   T   T
  0.2474917928540743  0.3763140644455175  0.1186986236889316   T   T   T
  0.4141046611115211  0.3762878494504465  0.1187040675317854   T   T   T
  0.2474614030477104  0.6245751862448289  0.0627921075135968   T   T   T
  0.4141189152881022  0.6246127308774754  0.0627544025213010   T   T   T
  0.0808589541713161  0.8746381252830651  0.0627279943435848   T   T   T
  0.2474652889242320  0.8746021323256651  0.0627777291999892   T   T   T
  0.4140989261681797  0.8746851368058551  0.0627191759350139   T   T   T
  0.0808075194856882  0.6245822198053844  0.0627590412544593   T   T   T
  0.4974708446476301  0.5012695008026953  0.1470914031387915   T   T   T
  0.1642453379917923  0.5013089615808536  0.1470869833576974   T   T   T
  0.3308850150910689  0.5013475028211190  0.1471005459589018   T   T   T
  0.4975045290095854  0.7513332812997938  0.1469962006500853   T   T   T
  0.1642401765821538  0.7512475096500013  0.1470438735834981   T   T   T
  0.3308721375501801  0.7512616584655569  0.1470417922245906   T   T   T
  0.0810301064790565  0.6260020623173539  0.1748285145309843   T   T   T
  0.2476249596609627  0.6260822615210475  0.1748999974047202   T   T   T
  0.4142137072410842  0.6261197920916155  0.1748498600831684   T   T   T
  0.0809118589201934  0.8759596901316257  0.1748064818258541   T   T   T
  0.2475789393323937  0.8759554970909830  0.1748611775250158   T   T   T
  0.4142398813859204  0.8759699745332221  0.1748164435315771   T   T   T
  0.1642168064614112  0.4997007590984933  0.2030347746659678   T   T   T
  0.3309187401348375  0.4996788674173739  0.2030412571551605   T   T   T
  0.4973918694419814  0.4998914954962378  0.2029935875900149   T   T   T
  0.1641634719335166  0.7495953259757059  0.2029613073706676   T   T   T
  0.4975827194764359  0.7496781783925859  0.2029085212323827   T   T   T
  0.3309413420902522  0.7497069966168984  0.2029848267223368   T   T   T
  0.4974547098732967  0.5010389518924016  0.0908932435032938   T   T   T
  0.1641308096977283  0.5010539079320671  0.0909083571746538   T   T   T
  0.3307929429031201  0.5010710446315643  0.0909096955905188   T   T   T
  0.4974641317671760  0.7510175027225148  0.0908239928269751   T   T   T
  0.1640775897127719  0.7509064978718708  0.0908636631191497   T   T   T
  0.3307631474477637  0.7509297246413729  0.0908528975583009   T   T   T
  0.0808008818303803  0.6262509404980263  0.1186722274838028   T   T   T
  0.2474871933880227  0.6262595419265961  0.1186974257021505   T   T   T
  0.4141670571385060  0.6262748142015476  0.1186724781432004   T   T   T
  0.0808330396575817  0.8761557951618596  0.1186120106283882   T   T   T
  0.2474915759482039  0.8761301329332210  0.1186444985617502   T   T   T
  0.4141359460718309  0.8761744955561913  0.1186155486608964   T   T   T
  0.7474491942015350  0.1247820412040882  0.0629047312451290   T   T   T
  0.9140424497745261  0.1247222021983922  0.0627422136772374   T   T   T
  0.5808923161198709  0.3746258607861143  0.0628199416310062   T   T   T
  0.7474538494177095  0.3746114025969245  0.0629136641192133   T   T   T
  0.9140534797715214  0.3746621503877103  0.0627940626421494   T   T   T
  0.5808552868782996  0.1247417791996258  0.0627687450078226   T   T   T
  0.9976346233933006  0.0009957621360370  0.1469843499199018   T   T   T
  0.6643509158821623  0.0013921621484117  0.1471583569898159   T   T   T
  0.8307047402669580  0.0013662138728583  0.1471461344123092   T   T   T
  0.9975668751136485  0.2512060439110400  0.1469983351856247   T   T   T
  0.6640199414816961  0.2513703403820755  0.1473215822980360   T   T   T
  0.8308621833268522  0.2512911861511362  0.1472156092775381   T   T   T
  0.5806819743798871  0.1255572291339581  0.1747561007638495   T   T   T
  0.7474832618739460  0.1268331853794315  0.1753289308799444   T   T   T
  0.9146054854631547  0.1253793412752464  0.1746511866533302   T   T   T
  0.5806927567785339  0.3761486832424030  0.1749755282771782   T   T   T
  0.7473973566812381  0.3754036344395230  0.1754585974609577   T   T   T
  0.9143026570683037  0.3761804901941517  0.1749584456448424   T   T   T
  0.6641227658984838  0.9995568021142465  0.2030586955426402   T   T   T
  0.8308982497163420  0.9995827446126211  0.2030532826038621   T   T   T
  0.9976003294036491  0.9994961611080733  0.2029330887546130   T   T   T
  0.6627157670932370  0.2502122364755517  0.2035856786369851   T   T   T
  0.9982254827829875  0.2489740733596167  0.2026722067930731   T   T   T
  0.8325338682845597  0.2491624295146731  0.2031237901883645   T   T   T
  0.9974292725115881  0.0010823076664595  0.0908293612906349   T   T   T
  0.6641367706211150  0.0011270100914966  0.0909333400104596   T   T   T
  0.8307356364032450  0.0011047022362681  0.0909242613628155   T   T   T
  0.9974044753177026  0.2510571807088620  0.0908486414142784   T   T   T
  0.6640671175943064  0.2510285783106659  0.0910425377215753   T   T   T
  0.8307237085889133  0.2510375682983663  0.0909994355976896   T   T   T
  0.5807894104012090  0.1263082059666679  0.1186935115377431   T   T   T
  0.7474339651226721  0.1263298834133893  0.1188856824640776   T   T   T
  0.9141135324320182  0.1262525375265345  0.1186438567982604   T   T   T