C H O Si                                
   1.00000000000000     
     9.2874599999999994    0.0000000000000000    0.0000000000000000
     0.0000000000000000    8.7562999999999995    0.0000000000000000
     0.0000000000000000    0.0000000000000000   58.0000000000000000
   C    H    O    Si
    36    33    16    36
Selective dynamics
Direct
  0.0008740137758435  0.1351917759707013  0.3755434583932583   T   T   T
  0.0008474507288063  0.6353101097525290  0.3755549974694756   T   T   T
  0.3342461256540292  0.1352533071217454  0.3756450624656895   T   T   T
  0.3342184815289697  0.6351477404980317  0.3756599821954808   T   T   T
  0.6673679241456484  0.1351381188419878  0.3756458996902086   T   T   T
  0.6673921025800605  0.6350698517672161  0.3756422713951657   T   T   T
  0.1677707471284596  0.3813371386772709  0.4009690798233792   T   T   T
  0.1678246510292465  0.8813422912933215  0.4009927979783793   T   T   T
  0.5010891663227092  0.3813089058578376  0.4011117223561610   T   T   T
  0.5010797206204811  0.8812337186447922  0.4010438149837229   T   T   T
  0.8344350687661020  0.3812134932839854  0.4009361510957652   T   T   T
  0.8343775204557572  0.8812338452959915  0.4009691948419604   T   T   T
  0.0011541352875843  0.1309121537769741  0.4280864269138743   T   T   T
  0.0011383999283140  0.6311277266840073  0.4280973316466993   T   T   T
  0.3346448715614507  0.1310592527217335  0.4282073623484056   T   T   T
  0.3345831449271343  0.6309661262477402  0.4282343013408283   T   T   T
  0.6676538521621748  0.1310107121284479  0.4281951553029303   T   T   T
  0.6677260170854470  0.6309723909787284  0.4281874092721953   T   T   T
  0.1678911277872008  0.3809342172396684  0.4544809398339987   T   T   T
  0.1681835171179207  0.8810862749514651  0.4545495673474479   T   T   T
  0.5011669046223352  0.3813870335737196  0.4547552721693272   T   T   T
  0.5012295529875985  0.8808003673457521  0.4546181530702625   T   T   T
  0.8344952814207128  0.3808740532254032  0.4544228814742879   T   T   T
  0.8343725305363430  0.8810902082615460  0.4545106362309896   T   T   T
  0.0013077723307502  0.1306569859285127  0.4815001790268231   T   T   T
  0.0012940736560146  0.6313018749381640  0.4815864250934971   T   T   T
  0.3351327103397466  0.1317563753317056  0.4817999228466573   T   T   T
  0.3343824402884177  0.6314119665361174  0.4818794510659021   T   T   T
  0.6671790894027744  0.1316915544077027  0.4817806929971818   T   T   T
  0.6681441512215962  0.6315531338581641  0.4817584475586421   T   T   T
  0.1675865126021539  0.3833286111311452  0.5067946416658062   T   T   T
  0.1671992533446431  0.8857180394398784  0.5070848486261624   T   T   T
  0.5012141665479261  0.3891279215929567  0.5078999515160472   T   T   T
  0.5008270958869825  0.8850095834663779  0.5071919641357854   T   T   T
  0.8352431293459869  0.3828624446105981  0.5066671667708699   T   T   T
  0.8344851366122076  0.8855929826129260  0.5070212407012975   T   T   T
  0.0037478797189041  0.0622289946071186  0.3600851056856971   T   T   T
  0.0036699237111971  0.5623014668726480  0.3600990111462969   T   T   T
  0.3371747896492052  0.0621231327989839  0.3602056339572037   T   T   T
  0.3369896321160481  0.5619267885738173  0.3602295727704234   T   T   T
  0.6697238952305872  0.0620407801850864  0.3601997373820063   T   T   T
  0.6699312544039947  0.5619597518097151  0.3601964675154508   T   T   T
  0.1693665887873536  0.3108803538072629  0.5223067474179757   T   T   T
  0.1691161915591501  0.8124445348435752  0.5225077729284789   T   T   T
  0.5043914690699479  0.3148206947823718  0.5232171795350752   T   T   T
  0.5017806768484688  0.8120450594987761  0.5226621518387621   T   T   T
  0.8381360503481824  0.3103999224292438  0.5221724130439603   T   T   T
  0.8368180986983847  0.8131747139145964  0.5225171354857303   T   T   T
  0.0875982564455366  0.1182801823417763  0.5395464103625449   T   T   T
  0.0891404087731004  0.6114926876097639  0.5391861895464706   T   T   T
  0.4208911405330940  0.1186242313492021  0.5396810765937107   T   T   T
  0.3825671381464483  0.6357463504025048  0.5429971695210054   T   T   T
  0.7564908107109917  0.1170915763260799  0.5395357282078437   T   T   T
  0.7901334016088084  0.6002121965561976  0.5379169988620897   T   T   T
  0.2558971224922804  0.3668169504850209  0.3430980264444656   T   T   T
  0.2560859031068631  0.8667565053744077  0.3431289368260962   T   T   T
  0.5885796259675876  0.3669914070272661  0.3431608399540267   T   T   T
  0.5884550064822565  0.8668409759400698  0.3431149637152242   T   T   T
  0.9204987109579427  0.3674829430488500  0.3429544947876582   T   T   T
  0.9204595941645368  0.8676197753152259  0.3429826046833259   T   T   T
  0.5457656246884570  0.6164873297806320  0.5873118292767203   T   T   T
  0.4886152474725262  0.4768732427566588  0.6062836358439152   T   T   T
  0.5675294375760115  0.6396171816885022  0.6165174363486038   T   T   T
  0.3096441791165782  0.3840381103665627  0.6223042844753637   T   T   T
  0.4239150837841355  0.2599672042461609  0.6159185261000463   T   T   T
  0.6460416187539764  0.7346083170846754  0.6467233225808582   T   T   T
  0.4815520137718533  0.7656459348456905  0.6433694639106193   T   T   T
  0.5314585594229548  0.8045594927053139  0.5671565801409014   T   T   T
  0.5935001313655929  0.6591908375174990  0.5530373378202453   T   T   T
  0.1601911618386707  0.3412815154746491  0.3489591419550554   T   T   T
  0.1603267653090889  0.8414038506190181  0.3489881631445496   T   T   T
  0.4929765956286976  0.3417064692915853  0.3490922695816731   T   T   T
  0.4928880011017630  0.8413653282062240  0.3490412680675667   T   T   T
  0.8253478189353525  0.3410738004386588  0.3489411521901220   T   T   T
  0.8253167719783936  0.8411510933017231  0.3489652864993950   T   T   T
  0.9923064541285967  0.0925097995444128  0.5335468163431446   T   T   T
  0.9920928502579726  0.5884543674438610  0.5333958252743406   T   T   T
  0.3257661524852658  0.0915026065350339  0.5337604413499004   T   T   T
  0.3046508680979345  0.5909717491558766  0.5337805564359880   T   T   T
  0.6606043617388422  0.0917428522188800  0.5337180815479488   T   T   T
  0.6871689533496533  0.5917903857348554  0.5337942758887541   T   T   T
  0.5663601876013936  0.5603290722663387  0.6030635411997779   T   T   T
  0.3792764417967222  0.3543488023796903  0.6105276678044809   T   T   T
  0.5729300057504872  0.7575454196328987  0.6351479800805346   T   T   T
  0.5204243168278816  0.6944482796763822  0.5652318277402322   T   T   T
  0.1673940298748174  0.2523772107056486  0.3751201259597939   T   T   T
  0.1674356314444863  0.7523816697912463  0.3751409930037050   T   T   T
  0.5006265265775055  0.2524448040729319  0.3752294642655475   T   T   T
  0.5006072533423032  0.7523083962700844  0.3751914019236697   T   T   T
  0.8338667355124847  0.2522101650485463  0.3751021549765794   T   T   T
  0.8338117832138053  0.7522500531760287  0.3751241162129833   T   T   T
  0.0010643347251708  0.0051945034528436  0.4016482782555127   T   T   T
  0.0010581298898885  0.5052812797108823  0.4016505565620681   T   T   T
  0.3344997634131452  0.0053071002313006  0.4017446079049397   T   T   T
  0.3344326436510750  0.5052624633171439  0.4017676690434177   T   T   T
  0.6676281933927568  0.0052196023774941  0.4017354998144262   T   T   T
  0.6677068084927451  0.5051748048222904  0.4017334389375609   T   T   T
  0.1678753700300208  0.2556263685832373  0.4279106345753181   T   T   T
  0.1680044504888120  0.7557170557479468  0.4279588772415702   T   T   T
  0.5011432893394582  0.2557828125087684  0.4280894167533612   T   T   T
  0.5011207080781237  0.7556111305139835  0.4279989156425084   T   T   T
  0.8344558703268623  0.2555064407558302  0.4278710655994077   T   T   T
  0.8343663626163011  0.7556562463722570  0.4279297839382127   T   T   T
  0.0013133884997156  0.0052922601277636  0.4546309892511640   T   T   T
  0.0012331541858425  0.5055859835967353  0.4546239757353270   T   T   T
  0.3349140009726021  0.0058533720919268  0.4547894177128000   T   T   T
  0.3343297628337050  0.5058168854289674  0.4548477191636524   T   T   T
  0.6675194634918153  0.0057953264995972  0.4547788440165222   T   T   T
  0.6679716093934213  0.5056431731056721  0.4547465125383731   T   T   T
  0.1678178879220627  0.2544985182475443  0.4808144298021965   T   T   T
  0.1678040484742085  0.7556148383924285  0.4809991655897429   T   T   T
  0.5011235844271063  0.2570182579471066  0.4813500712228723   T   T   T
  0.5010328031782104  0.7551509762639482  0.4810632622596385   T   T   T
  0.8347559571066195  0.2540078887818986  0.4807064183549076   T   T   T
  0.8348297568199605  0.7555982095435407  0.4809485824408356   T   T   T
  0.0006137784458957  0.0029062450802833  0.5074298724033924   T   T   T
  0.0012108714213152  0.5003813365831886  0.5071132056441652   T   T   T
  0.3337574498284526  0.0026001959790346  0.5076019779786565   T   T   T
  0.3317226153837002  0.5038636124222726  0.5079213629935138   T   T   T
  0.6675617541785197  0.0024676498245034  0.5075875526868794   T   T   T
  0.6705400623078023  0.5018736394158488  0.5073621668828426   T   T   T
 
  0.00000000E+00  0.00000000E+00  0.00000000E+00
  0.00000000E+00  0.00000000E+00  0.00000000E+00
  0.00000000E+00  0.00000000E+00  0.00000000E+00
  0.00000000E+00  0.00000000E+00  0.00000000E+00
  0.00000000E+00  0.00000000E+00  0.00000000E+00
  0.00000000E+00  0.00000000E+00  0.00000000E+00
  0.00000000E+00  0.00000000E+00  0.00000000E+00
  0.00000000E+00  0.00000000E+00  0.00000000E+00
  0.00000000E+00  0.00000000E+00  0.00000000E+00
  0.00000000E+00  0.00000000E+00  0.00000000E+00
  0.00000000E+00  0.00000000E+00  0.00000000E+00
  0.00000000E+00  0.00000000E+00  0.00000000E+00
  0.00000000E+00  0.00000000E+00  0.00000000E+00
  0.00000000E+00  0.00000000E+00  0.00000000E+00
  0.00000000E+00  0.00000000E+00  0.00000000E+00
  0.00000000E+00  0.00000000E+00  0.00000000E+00
  0.00000000E+00  0.00000000E+00  0.00000000E+00
  0.00000000E+00  0.00000000E+00  0.00000000E+00
  0.00000000E+00  0.00000000E+00  0.00000000E+00
  0.00000000E+00  0.00000000E+00  0.00000000E+00
  0.00000000E+00  0.00000000E+00  0.00000000E+00
  0.00000000E+00  0.00000000E+00  0.00000000E+00
  0.00000000E+00  0.00000000E+00  0.00000000E+00
  0.00000000E+00  0.00000000E+00  0.00000000E+00
  0.00000000E+00  0.00000000E+00  0.00000000E+00
  0.00000000E+00  0.00000000E+00  0.00000000E+00
  0.00000000E+00  0.00000000E+00  0.00000000E+00
  0.00000000E+00  0.00000000E+00  0.00000000E+00
  0.00000000E+00  0.00000000E+00  0.00000000E+00
  0.00000000E+00  0.00000000E+00  0.00000000E+00
  0.00000000E+00  0.00000000E+00  0.00000000E+00
  0.00000000E+00  0.00000000E+00  0.00000000E+00
  0.00000000E+00  0.00000000E+00  0.00000000E+00
  0.00000000E+00  0.00000000E+00  0.00000000E+00
  0.00000000E+00  0.00000000E+00  0.00000000E+00
  0.00000000E+00  0.00000000E+00  0.00000000E+00
  0.00000000E+00  0.00000000E+00  0.00000000E+00
  0.00000000E+00  0.00000000E+00  0.00000000E+00
  0.00000000E+00  0.00000000E+00  0.00000000E+00
  0.00000000E+00  0.00000000E+00  0.00000000E+00
  0.00000000E+00  0.00000000E+00  0.00000000E+00
  0.00000000E+00  0.00000000E+00  0.00000000E+00
  0.00000000E+00  0.00000000E+00  0.00000000E+00
  0.00000000E+00  0.00000000E+00  0.00000000E+00
  0.00000000E+00  0.00000000E+00  0.00000000E+00
  0.00000000E+00  0.00000000E+00  0.00000000E+00
  0.00000000E+00  0.00000000E+00  0.00000000E+00
  0.00000000E+00  0.00000000E+00  0.00000000E+00
  0.00000000E+00  0.00000000E+00  0.00000000E+00
  0.00000000E+00  0.00000000E+00  0.00000000E+00
  0.00000000E+00  0.00000000E+00  0.00000000E+00
  0.00000000E+00  0.00000000E+00  0.00000000E+00
  0.00000000E+00  0.00000000E+00  0.00000000E+00
  0.00000000E+00  0.00000000E+00  0.00000000E+00
  0.00000000E+00  0.00000000E+00  0.00000000E+00
  0.00000000E+00  0.00000000E+00  0.00000000E+00
  0.00000000E+00  0.00000000E+00  0.00000000E+00
  0.00000000E+00  0.00000000E+00  0.00000000E+00
  0.00000000E+00  0.00000000E+00  0.00000000E+00
  0.00000000E+00  0.00000000E+00  0.00000000E+00
  0.00000000E+00  0.00000000E+00  0.00000000E+00
  0.00000000E+00  0.00000000E+00  0.00000000E+00
  0.00000000E+00  0.00000000E+00  0.00000000E+00
  0.00000000E+00  0.00000000E+00  0.00000000E+00
  0.00000000E+00  0.00000000E+00  0.00000000E+00
  0.00000000E+00  0.00000000E+00  0.00000000E+00
  0.00000000E+00  0.00000000E+00  0.00000000E+00
  0.00000000E+00  0.00000000E+00  0.00000000E+00
  0.00000000E+00  0.00000000E+00  0.00000000E+00
  0.00000000E+00  0.00000000E+00  0.00000000E+00
  0.00000000E+00  0.00000000E+00  0.00000000E+00
  0.00000000E+00  0.00000000E+00  0.00000000E+00
  0.00000000E+00  0.00000000E+00  0.00000000E+00
  0.00000000E+00  0.00000000E+00  0.00000000E+00
  0.00000000E+00  0.00000000E+00  0.00000000E+00
  0.00000000E+00  0.00000000E+00  0.00000000E+00
  0.00000000E+00  0.00000000E+00  0.00000000E+00
  0.00000000E+00  0.00000000E+00  0.00000000E+00
  0.00000000E+00  0.00000000E+00  0.00000000E+00
  0.00000000E+00  0.00000000E+00  0.00000000E+00
  0.00000000E+00  0.00000000E+00  0.00000000E+00
  0.00000000E+00  0.00000000E+00  0.00000000E+00
  0.00000000E+00  0.00000000E+00  0.00000000E+00
  0.00000000E+00  0.00000000E+00  0.00000000E+00
  0.00000000E+00  0.00000000E+00  0.00000000E+00
  0.00000000E+00  0.00000000E+00  0.00000000E+00
  0.00000000E+00  0.00000000E+00  0.00000000E+00
  0.00000000E+00  0.00000000E+00  0.00000000E+00
  0.00000000E+00  0.00000000E+00  0.00000000E+00
  0.00000000E+00  0.00000000E+00  0.00000000E+00
  0.00000000E+00  0.00000000E+00  0.00000000E+00
  0.00000000E+00  0.00000000E+00  0.00000000E+00
  0.00000000E+00  0.00000000E+00  0.00000000E+00
  0.00000000E+00  0.00000000E+00  0.00000000E+00
  0.00000000E+00  0.00000000E+00  0.00000000E+00
  0.00000000E+00  0.00000000E+00  0.00000000E+00
  0.00000000E+00  0.00000000E+00  0.00000000E+00
  0.00000000E+00  0.00000000E+00  0.00000000E+00
  0.00000000E+00  0.00000000E+00  0.00000000E+00
  0.00000000E+00  0.00000000E+00  0.00000000E+00
  0.00000000E+00  0.00000000E+00  0.00000000E+00
  0.00000000E+00  0.00000000E+00  0.00000000E+00
  0.00000000E+00  0.00000000E+00  0.00000000E+00
  0.00000000E+00  0.00000000E+00  0.00000000E+00
  0.00000000E+00  0.00000000E+00  0.00000000E+00
  0.00000000E+00  0.00000000E+00  0.00000000E+00
  0.00000000E+00  0.00000000E+00  0.00000000E+00
  0.00000000E+00  0.00000000E+00  0.00000000E+00
  0.00000000E+00  0.00000000E+00  0.00000000E+00
  0.00000000E+00  0.00000000E+00  0.00000000E+00
  0.00000000E+00  0.00000000E+00  0.00000000E+00
  0.00000000E+00  0.00000000E+00  0.00000000E+00
  0.00000000E+00  0.00000000E+00  0.00000000E+00
  0.00000000E+00  0.00000000E+00  0.00000000E+00
  0.00000000E+00  0.00000000E+00  0.00000000E+00
  0.00000000E+00  0.00000000E+00  0.00000000E+00
  0.00000000E+00  0.00000000E+00  0.00000000E+00
  0.00000000E+00  0.00000000E+00  0.00000000E+00
  0.00000000E+00  0.00000000E+00  0.00000000E+00
  0.00000000E+00  0.00000000E+00  0.00000000E+00
  0.00000000E+00  0.00000000E+00  0.00000000E+00
