C H O Si                                
   1.00000000000000     
     9.2874599999999994    0.0000000000000000    0.0000000000000000
     0.0000000000000000    8.7562999999999995    0.0000000000000000
     0.0000000000000000    0.0000000000000000   58.0000000000000000
   C    H    O    Si
    36    33    16    36
Selective dynamics
Direct
  0.0009402644786580  0.1350770676803536  0.3755877556298782   T   T   T
  0.0009312197188368  0.6351908420521089  0.3756010815705535   T   T   T
  0.3343139533996412  0.1351236735175507  0.3756903345975189   T   T   T
  0.3343118091013942  0.6350491034896631  0.3757019006880586   T   T   T
  0.6674520683692691  0.1350567192246003  0.3756909228020716   T   T   T
  0.6674795298340008  0.6349795411940345  0.3756849487472115   T   T   T
  0.1677844862817955  0.3811600499831159  0.4009724897238066   T   T   T
  0.1678760870845033  0.8811331958109834  0.4009983671455094   T   T   T
  0.5011225218220992  0.3811683920692546  0.4011200388177153   T   T   T
  0.5011141115841178  0.8810826347183432  0.4010515756172542   T   T   T
  0.8344574754096766  0.3810600734356595  0.4009401756125422   T   T   T
  0.8344137264512003  0.8811081078574550  0.4009717289626217   T   T   T
  0.0011634572198083  0.1308318439019564  0.4280893875359400   T   T   T
  0.0011350030043625  0.6310764732351476  0.4281042576351514   T   T   T
  0.3346489537821264  0.1310208992786981  0.4282114362672894   T   T   T
  0.3345677427766620  0.6308885342433104  0.4282354908046517   T   T   T
  0.6676533518775986  0.1309780725183965  0.4281993604266462   T   T   T
  0.6677402558789090  0.6309392221984303  0.4281888602471815   T   T   T
  0.1678830359873966  0.3808807589523543  0.4544776447528500   T   T   T
  0.1681884786674138  0.8810444986701995  0.4545486798595041   T   T   T
  0.5011609752515008  0.3813468001896041  0.4547604876692189   T   T   T
  0.5012085215860779  0.8807304341001208  0.4546181251219115   T   T   T
  0.8345031400381875  0.3807904718036055  0.4544197073239847   T   T   T
  0.8343467140503866  0.8810379433481342  0.4545066285566465   T   T   T
  0.0013367913205297  0.1304720065887907  0.4814870091081951   T   T   T
  0.0013127830192999  0.6311453454016861  0.4815716989331340   T   T   T
  0.3351440755958426  0.1316453723432654  0.4817934207806217   T   T   T
  0.3343940673418757  0.6312486270429464  0.4818751786641076   T   T   T
  0.6671919736912179  0.1315419549353510  0.4817725470771629   T   T   T
  0.6681584277047657  0.6313825914956330  0.4817526414652472   T   T   T
  0.1676634119701319  0.3832824815219857  0.5067562224394535   T   T   T
  0.1672702622139127  0.8856061021598735  0.5070382690810529   T   T   T
  0.5013307528233752  0.3890351630575640  0.5078551206816967   T   T   T
  0.5009107682957006  0.8849150432041664  0.5071478393247241   T   T   T
  0.8353631391804265  0.3827310756753652  0.5066132888388685   T   T   T
  0.8345662569548553  0.8854728013699549  0.5069752476666289   T   T   T
  0.0037326060039747  0.0624756179596266  0.3600865915630937   T   T   T
  0.0036699345885559  0.5625781170184545  0.3601010898688963   T   T   T
  0.3371708491613777  0.0623854047644606  0.3602066333833769   T   T   T
  0.3369767417590859  0.5621940849021436  0.3602313087038782   T   T   T
  0.6697082484961084  0.0623136131330625  0.3602043670327430   T   T   T
  0.6699301531486462  0.5622368151197273  0.3602013693569540   T   T   T
  0.1693929230941101  0.3111462999901699  0.5223000963002110   T   T   T
  0.1691244010274497  0.8127063954756167  0.5225000390943217   T   T   T
  0.5044661307351215  0.3151045191104881  0.5232098269277817   T   T   T
  0.5017871805664809  0.8122647860496280  0.5226480909780528   T   T   T
  0.8381252739589812  0.3106266658630102  0.5221576568414942   T   T   T
  0.8368027698823391  0.8134200701781924  0.5225066711440275   T   T   T
  0.0871892346210330  0.1182424998934094  0.5396874781778139   T   T   T
  0.0887243690848299  0.6114399847570348  0.5393163289124162   T   T   T
  0.4204826823644910  0.1186059168570980  0.5398144113717184   T   T   T
  0.3823936432387104  0.6354908827859432  0.5431146886161122   T   T   T
  0.7560548541351660  0.1170483967427834  0.5396771866916437   T   T   T
  0.7900747073102816  0.6000152438739758  0.5380118987513405   T   T   T
  0.2555192637627575  0.3667896652604500  0.3429617541943452   T   T   T
  0.2557112983961908  0.8667335477683792  0.3429920376982559   T   T   T
  0.5881902070382811  0.3669652468189212  0.3430266896023704   T   T   T
  0.5880684142845007  0.8668205982600347  0.3429793012173852   T   T   T
  0.9200961266155766  0.3674773801257962  0.3428178609345156   T   T   T
  0.9200367706927901  0.8676068079294178  0.3428466552664477   T   T   T
  0.5455379456415145  0.6161026904885820  0.5873957131924669   T   T   T
  0.4885053217102054  0.4767815014858393  0.6062949855873641   T   T   T
  0.5675327645037189  0.6397731667844099  0.6165354653603156   T   T   T
  0.3095517179895290  0.3839030457730009  0.6222826682502285   T   T   T
  0.4238640380838155  0.2598751470233527  0.6159179515302765   T   T   T
  0.6460758944976264  0.7346742288939322  0.6467380474066124   T   T   T
  0.4816435613734656  0.7657711035085135  0.6433865668944081   T   T   T
  0.5313480338941809  0.8045296165213603  0.5671602987682920   T   T   T
  0.5934101925182389  0.6594624620956286  0.5531585811152756   T   T   T
  0.1603616666501901  0.3415832187609621  0.3490694930233027   T   T   T
  0.1605112680018486  0.8417114726169167  0.3491020336396324   T   T   T
  0.4931443266753465  0.3419774379201840  0.3492022597664854   T   T   T
  0.4930522819530020  0.8416389767523315  0.3491474464176099   T   T   T
  0.8255143368014718  0.3413337060387919  0.3490483485633609   T   T   T
  0.8254763345738020  0.8414115901719735  0.3490790823289323   T   T   T
  0.9924859885745732  0.0927675973894655  0.5334342805237845   T   T   T
  0.9922197142591671  0.5887241965856035  0.5332936562141811   T   T   T
  0.3259429871225573  0.0917430612788835  0.5336423255239087   T   T   T
  0.3050266703753783  0.5913867817609209  0.5336834142799541   T   T   T
  0.6607425626721279  0.0920320365426438  0.5336013802993956   T   T   T
  0.6875228812770416  0.5920409206804282  0.5336478734785455   T   T   T
  0.5663133221042148  0.5603246422943435  0.6030804265907205   T   T   T
  0.3793687448386988  0.3543522542796833  0.6105259454971129   T   T   T
  0.5729921942425190  0.7575180962175664  0.6351540450001123   T   T   T
  0.5195906499584553  0.6945601090293247  0.5651214256318644   T   T   T
  0.1675033442216565  0.2522688439119120  0.3750598083935731   T   T   T
  0.1675643690154270  0.7522644945294046  0.3750810422998689   T   T   T
  0.5007160496791618  0.2523596730537659  0.3751753088064939   T   T   T
  0.5007272364770129  0.7522370846725563  0.3751330475281927   T   T   T
  0.8339886776892659  0.2521273582997038  0.3750435738833669   T   T   T
  0.8339460601782500  0.7521722419456188  0.3750700924895537   T   T   T
  0.0011347713360549  0.0050341521224720  0.4016084661440225   T   T   T
  0.0010873886181638  0.5051409409961256  0.4016143898564937   T   T   T
  0.3345231962813205  0.0051453503452042  0.4017059177696178   T   T   T
  0.3344601532818492  0.5051119692364775  0.4017248912139210   T   T   T
  0.6676713415620225  0.0051025547345123  0.4016957374289566   T   T   T
  0.6677478922626005  0.5050574704077413  0.4016921593301533   T   T   T
  0.1678731030820434  0.2556925948812601  0.4278977077981442   T   T   T
  0.1680171296599335  0.7557811105891457  0.4279476249512507   T   T   T
  0.5011439062329167  0.2558915787233745  0.4280811091090426   T   T   T
  0.5011194410459331  0.7556821800101767  0.4279871247026114   T   T   T
  0.8344678200792232  0.2555655340379613  0.4278567754034985   T   T   T
  0.8343772578034951  0.7557474808671109  0.4279149737229821   T   T   T
  0.0013058940872356  0.0052862331905034  0.4546421109627638   T   T   T
  0.0012231082567944  0.5055822562887803  0.4546340309338190   T   T   T
  0.3349074297888561  0.0058905848912969  0.4548017151894212   T   T   T
  0.3343226364935734  0.5058382429974989  0.4548622838001761   T   T   T
  0.6674820262847937  0.0058105444862736  0.4547872821438916   T   T   T
  0.6679734986352412  0.5056652219932675  0.4547568709188025   T   T   T
  0.1678310627150972  0.2544031914223049  0.4808516391707313   T   T   T
  0.1678296991835256  0.7555055363644013  0.4810384060016675   T   T   T
  0.5011448896314046  0.2569521077699114  0.4813985264717592   T   T   T
  0.5010482483920854  0.7550226668689127  0.4811011370660667   T   T   T
  0.8347986105615126  0.2538642613915858  0.4807432504864916   T   T   T
  0.8348377700919086  0.7554913013873359  0.4809832156657836   T   T   T
  0.0007409043089680  0.0028057230984369  0.5074854535450279   T   T   T
  0.0013087729276145  0.5003235683036281  0.5071669836900853   T   T   T
  0.3338633772812894  0.0025008049160699  0.5076525138726843   T   T   T
  0.3318481759363988  0.5038126936045914  0.5079939545712416   T   T   T
  0.6677211450564595  0.0023792051428765  0.5076390401547018   T   T   T
  0.6707406791637437  0.5017894863125878  0.5074246255780805   T   T   T
 
  0.00000000E+00  0.00000000E+00  0.00000000E+00
  0.00000000E+00  0.00000000E+00  0.00000000E+00
  0.00000000E+00  0.00000000E+00  0.00000000E+00
  0.00000000E+00  0.00000000E+00  0.00000000E+00
  0.00000000E+00  0.00000000E+00  0.00000000E+00
  0.00000000E+00  0.00000000E+00  0.00000000E+00
  0.00000000E+00  0.00000000E+00  0.00000000E+00
  0.00000000E+00  0.00000000E+00  0.00000000E+00
  0.00000000E+00  0.00000000E+00  0.00000000E+00
  0.00000000E+00  0.00000000E+00  0.00000000E+00
  0.00000000E+00  0.00000000E+00  0.00000000E+00
  0.00000000E+00  0.00000000E+00  0.00000000E+00
  0.00000000E+00  0.00000000E+00  0.00000000E+00
  0.00000000E+00  0.00000000E+00  0.00000000E+00
  0.00000000E+00  0.00000000E+00  0.00000000E+00
  0.00000000E+00  0.00000000E+00  0.00000000E+00
  0.00000000E+00  0.00000000E+00  0.00000000E+00
  0.00000000E+00  0.00000000E+00  0.00000000E+00
  0.00000000E+00  0.00000000E+00  0.00000000E+00
  0.00000000E+00  0.00000000E+00  0.00000000E+00
  0.00000000E+00  0.00000000E+00  0.00000000E+00
  0.00000000E+00  0.00000000E+00  0.00000000E+00
  0.00000000E+00  0.00000000E+00  0.00000000E+00
  0.00000000E+00  0.00000000E+00  0.00000000E+00
  0.00000000E+00  0.00000000E+00  0.00000000E+00
  0.00000000E+00  0.00000000E+00  0.00000000E+00
  0.00000000E+00  0.00000000E+00  0.00000000E+00
  0.00000000E+00  0.00000000E+00  0.00000000E+00
  0.00000000E+00  0.00000000E+00  0.00000000E+00
  0.00000000E+00  0.00000000E+00  0.00000000E+00
  0.00000000E+00  0.00000000E+00  0.00000000E+00
  0.00000000E+00  0.00000000E+00  0.00000000E+00
  0.00000000E+00  0.00000000E+00  0.00000000E+00
  0.00000000E+00  0.00000000E+00  0.00000000E+00
  0.00000000E+00  0.00000000E+00  0.00000000E+00
  0.00000000E+00  0.00000000E+00  0.00000000E+00
  0.00000000E+00  0.00000000E+00  0.00000000E+00
  0.00000000E+00  0.00000000E+00  0.00000000E+00
  0.00000000E+00  0.00000000E+00  0.00000000E+00
  0.00000000E+00  0.00000000E+00  0.00000000E+00
  0.00000000E+00  0.00000000E+00  0.00000000E+00
  0.00000000E+00  0.00000000E+00  0.00000000E+00
  0.00000000E+00  0.00000000E+00  0.00000000E+00
  0.00000000E+00  0.00000000E+00  0.00000000E+00
  0.00000000E+00  0.00000000E+00  0.00000000E+00
  0.00000000E+00  0.00000000E+00  0.00000000E+00
  0.00000000E+00  0.00000000E+00  0.00000000E+00
  0.00000000E+00  0.00000000E+00  0.00000000E+00
  0.00000000E+00  0.00000000E+00  0.00000000E+00
  0.00000000E+00  0.00000000E+00  0.00000000E+00
  0.00000000E+00  0.00000000E+00  0.00000000E+00
  0.00000000E+00  0.00000000E+00  0.00000000E+00
  0.00000000E+00  0.00000000E+00  0.00000000E+00
  0.00000000E+00  0.00000000E+00  0.00000000E+00
  0.00000000E+00  0.00000000E+00  0.00000000E+00
  0.00000000E+00  0.00000000E+00  0.00000000E+00
  0.00000000E+00  0.00000000E+00  0.00000000E+00
  0.00000000E+00  0.00000000E+00  0.00000000E+00
  0.00000000E+00  0.00000000E+00  0.00000000E+00
  0.00000000E+00  0.00000000E+00  0.00000000E+00
  0.00000000E+00  0.00000000E+00  0.00000000E+00
  0.00000000E+00  0.00000000E+00  0.00000000E+00
  0.00000000E+00  0.00000000E+00  0.00000000E+00
  0.00000000E+00  0.00000000E+00  0.00000000E+00
  0.00000000E+00  0.00000000E+00  0.00000000E+00
  0.00000000E+00  0.00000000E+00  0.00000000E+00
  0.00000000E+00  0.00000000E+00  0.00000000E+00
  0.00000000E+00  0.00000000E+00  0.00000000E+00
  0.00000000E+00  0.00000000E+00  0.00000000E+00
  0.00000000E+00  0.00000000E+00  0.00000000E+00
  0.00000000E+00  0.00000000E+00  0.00000000E+00
  0.00000000E+00  0.00000000E+00  0.00000000E+00
  0.00000000E+00  0.00000000E+00  0.00000000E+00
  0.00000000E+00  0.00000000E+00  0.00000000E+00
  0.00000000E+00  0.00000000E+00  0.00000000E+00
  0.00000000E+00  0.00000000E+00  0.00000000E+00
  0.00000000E+00  0.00000000E+00  0.00000000E+00
  0.00000000E+00  0.00000000E+00  0.00000000E+00
  0.00000000E+00  0.00000000E+00  0.00000000E+00
  0.00000000E+00  0.00000000E+00  0.00000000E+00
  0.00000000E+00  0.00000000E+00  0.00000000E+00
  0.00000000E+00  0.00000000E+00  0.00000000E+00
  0.00000000E+00  0.00000000E+00  0.00000000E+00
  0.00000000E+00  0.00000000E+00  0.00000000E+00
  0.00000000E+00  0.00000000E+00  0.00000000E+00
  0.00000000E+00  0.00000000E+00  0.00000000E+00
  0.00000000E+00  0.00000000E+00  0.00000000E+00
  0.00000000E+00  0.00000000E+00  0.00000000E+00
  0.00000000E+00  0.00000000E+00  0.00000000E+00
  0.00000000E+00  0.00000000E+00  0.00000000E+00
  0.00000000E+00  0.00000000E+00  0.00000000E+00
  0.00000000E+00  0.00000000E+00  0.00000000E+00
  0.00000000E+00  0.00000000E+00  0.00000000E+00
  0.00000000E+00  0.00000000E+00  0.00000000E+00
  0.00000000E+00  0.00000000E+00  0.00000000E+00
  0.00000000E+00  0.00000000E+00  0.00000000E+00
  0.00000000E+00  0.00000000E+00  0.00000000E+00
  0.00000000E+00  0.00000000E+00  0.00000000E+00
  0.00000000E+00  0.00000000E+00  0.00000000E+00
  0.00000000E+00  0.00000000E+00  0.00000000E+00
  0.00000000E+00  0.00000000E+00  0.00000000E+00
  0.00000000E+00  0.00000000E+00  0.00000000E+00
  0.00000000E+00  0.00000000E+00  0.00000000E+00
  0.00000000E+00  0.00000000E+00  0.00000000E+00
  0.00000000E+00  0.00000000E+00  0.00000000E+00
  0.00000000E+00  0.00000000E+00  0.00000000E+00
  0.00000000E+00  0.00000000E+00  0.00000000E+00
  0.00000000E+00  0.00000000E+00  0.00000000E+00
  0.00000000E+00  0.00000000E+00  0.00000000E+00
  0.00000000E+00  0.00000000E+00  0.00000000E+00
  0.00000000E+00  0.00000000E+00  0.00000000E+00
  0.00000000E+00  0.00000000E+00  0.00000000E+00
  0.00000000E+00  0.00000000E+00  0.00000000E+00
  0.00000000E+00  0.00000000E+00  0.00000000E+00
  0.00000000E+00  0.00000000E+00  0.00000000E+00
  0.00000000E+00  0.00000000E+00  0.00000000E+00
  0.00000000E+00  0.00000000E+00  0.00000000E+00
  0.00000000E+00  0.00000000E+00  0.00000000E+00
  0.00000000E+00  0.00000000E+00  0.00000000E+00
  0.00000000E+00  0.00000000E+00  0.00000000E+00
  0.00000000E+00  0.00000000E+00  0.00000000E+00
