C H O Si                                
   1.00000000000000     
     9.2874599999999994    0.0000000000000000    0.0000000000000000
     0.0000000000000000    8.7562999999999995    0.0000000000000000
     0.0000000000000000    0.0000000000000000   58.0000000000000000
   C    H    O    Si
    36    33    16    36
Selective dynamics
Direct
  0.0008827326894250  0.1351479880715755  0.3755500096984493   T   T   T
  0.0008849790964883  0.6352630001759211  0.3755604483126535   T   T   T
  0.3342998439591828  0.1352148645133493  0.3756524031814630   T   T   T
  0.3342253577669501  0.6351101730442891  0.3756650640295691   T   T   T
  0.6674113868234657  0.1351130876894625  0.3756553515253555   T   T   T
  0.6674350603114750  0.6350417952423311  0.3756512540344207   T   T   T
  0.1677557623273815  0.3812719284574732  0.4009699203684415   T   T   T
  0.1678215278043339  0.8812935128727512  0.4010001912625988   T   T   T
  0.5010561722003944  0.3812184703070832  0.4011119024746728   T   T   T
  0.5010448681699483  0.8811493733485333  0.4010489839976308   T   T   T
  0.8344272820858314  0.3811497457272012  0.4009335799728012   T   T   T
  0.8343414387134265  0.8811782343440676  0.4009669758737442   T   T   T
  0.0011393635472649  0.1309466480690640  0.4280808274254777   T   T   T
  0.0011562916279360  0.6311496188401181  0.4280921027967342   T   T   T
  0.3346306478343031  0.1310865247883287  0.4282052705085914   T   T   T
  0.3345485728537853  0.6309952352275021  0.4282306183843723   T   T   T
  0.6676609865228639  0.1310010230901995  0.4281950647731686   T   T   T
  0.6677062716333524  0.6309836341425659  0.4281872973560142   T   T   T
  0.1678992238808725  0.3809426805434940  0.4544799045376892   T   T   T
  0.1681849296588957  0.8810919480147102  0.4545451081997983   T   T   T
  0.5011797411407160  0.3813669921269365  0.4547581708943081   T   T   T
  0.5012913051535247  0.8807824464373021  0.4546191636913530   T   T   T
  0.8345008875880352  0.3809083701538247  0.4544244870727558   T   T   T
  0.8343792645253488  0.8810765182356725  0.4545154214792749   T   T   T
  0.0012942723764231  0.1306068441921685  0.4815002794032893   T   T   T
  0.0012849732647596  0.6312172083955261  0.4815873003778465   T   T   T
  0.3351404962846285  0.1317100767101488  0.4818008334778586   T   T   T
  0.3344227579209343  0.6313418382865120  0.4818760035311119   T   T   T
  0.6671679358448154  0.1316578209201074  0.4817848745477384   T   T   T
  0.6681235436905913  0.6315157245165556  0.4817608721370510   T   T   T
  0.1675824507871452  0.3833069305092508  0.5067933990157891   T   T   T
  0.1672217861401073  0.8856825472666134  0.5070837519551000   T   T   T
  0.5011767868947962  0.3890704085106366  0.5078898142181336   T   T   T
  0.5008005688030429  0.8849852080219400  0.5071836831778056   T   T   T
  0.8352985136056846  0.3828298460802835  0.5066614630223922   T   T   T
  0.8344851239071279  0.8855592458752184  0.5070147258412265   T   T   T
  0.0037602134243932  0.0623283744882476  0.3600901771457015   T   T   T
  0.0036658994195443  0.5623738412028262  0.3601032693121040   T   T   T
  0.3371793039914482  0.0622142847946250  0.3602128430553625   T   T   T
  0.3370110535169294  0.5619978278390040  0.3602310838405073   T   T   T
  0.6697364702634527  0.0621264667746918  0.3602035976018743   T   T   T
  0.6699355747440581  0.5620307098538042  0.3601970960845858   T   T   T
  0.1693494658302087  0.3109236491421636  0.5223114374326308   T   T   T
  0.1691134134499878  0.8125232428169417  0.5225079211731544   T   T   T
  0.5043516867719268  0.3149122587091501  0.5232191620927509   T   T   T
  0.5017771226301048  0.8121221918840977  0.5226615544317234   T   T   T
  0.8381480626885421  0.3105050754957678  0.5221738279625733   T   T   T
  0.8368332528685748  0.8132611033260134  0.5225178201100130   T   T   T
  0.0874957471213025  0.1182612406943387  0.5395666608773552   T   T   T
  0.0890191032514392  0.6115001876994826  0.5392048547903808   T   T   T
  0.4207918630932663  0.1186090961796243  0.5397055404088595   T   T   T
  0.3824465804473076  0.6357732820523101  0.5430163837470785   T   T   T
  0.7564077021422843  0.1170873238507213  0.5395556093003782   T   T   T
  0.7900600608130849  0.6002246316191711  0.5379303352599484   T   T   T
  0.2557868148904390  0.3667933942655499  0.3430746973015673   T   T   T
  0.2559810946606770  0.8667307648546734  0.3431061296930253   T   T   T
  0.5884725671326478  0.3669664865865411  0.3431363381524908   T   T   T
  0.5883540677750760  0.8668155385369291  0.3430906536342387   T   T   T
  0.9203937941667999  0.3674427256355383  0.3429308211487349   T   T   T
  0.9203615101731825  0.8675782022557018  0.3429598572983502   T   T   T
  0.5459060816228172  0.6164684752233603  0.5873161981754659   T   T   T
  0.4886112624654958  0.4768269273308675  0.6062780623611720   T   T   T
  0.5675509915803325  0.6396449615713644  0.6165192813343294   T   T   T
  0.3097204769583840  0.3841486747340634  0.6223151252594756   T   T   T
  0.4239638222383721  0.2600551889904063  0.6159171161362700   T   T   T
  0.6460380112878715  0.7345579913244701  0.6467089260606600   T   T   T
  0.4815011676568924  0.7655611122992644  0.6433526181100004   T   T   T
  0.5315273661128044  0.8045690691417204  0.5671694454048015   T   T   T
  0.5935070891921451  0.6592769555972633  0.5530609661192454   T   T   T
  0.1602380359810876  0.3412836496330656  0.3489964559513721   T   T   T
  0.1603632622530340  0.8414157998386543  0.3490236042855731   T   T   T
  0.4930270621180518  0.3417255464002491  0.3491293290078178   T   T   T
  0.4929311436035553  0.8413862378699586  0.3490745373893360   T   T   T
  0.8253930949613371  0.3411116821938570  0.3489802213901087   T   T   T
  0.8253553765903573  0.8411826469966749  0.3489991804089299   T   T   T
  0.9923571431269783  0.0925434500950400  0.5335069472281971   T   T   T
  0.9921744657598939  0.5884442017695886  0.5333546316675455   T   T   T
  0.3258399077028585  0.0915083357067085  0.5337215146873981   T   T   T
  0.3047850320444498  0.5910525764810542  0.5337413713868923   T   T   T
  0.6606694998902577  0.0917548446528107  0.5336827394115532   T   T   T
  0.6872191293546295  0.5917180652927559  0.5337526358192728   T   T   T
  0.5663792391195788  0.5603469868938690  0.6030540868136536   T   T   T
  0.3792701036928947  0.3543818692985707  0.6105257676735965   T   T   T
  0.5728721171431729  0.7574702035417850  0.6351367117021619   T   T   T
  0.5203341251581936  0.6945031040845986  0.5651995703496622   T   T   T
  0.1674501244887363  0.2523490645610302  0.3751006289216874   T   T   T
  0.1674711616335285  0.7523920131486130  0.3751232406076122   T   T   T
  0.5006410692805405  0.2523930119786451  0.3752082442095205   T   T   T
  0.5006236217343515  0.7522597193931363  0.3751711014151469   T   T   T
  0.8338950612855512  0.2521642729955337  0.3750821713987588   T   T   T
  0.8338654875495130  0.7522088133518706  0.3751018162375287   T   T   T
  0.0010451267153871  0.0051930171705055  0.4016315098880948   T   T   T
  0.0010605749151519  0.5052673354068122  0.4016320010207697   T   T   T
  0.3344761054128362  0.0053205919036483  0.4017236025456883   T   T   T
  0.3344174902387578  0.5052780917600425  0.4017510288740180   T   T   T
  0.6676086635229409  0.0051892052906144  0.4017175090222174   T   T   T
  0.6676743220529471  0.5051411153799575  0.4017162523264515   T   T   T
  0.1678524581039310  0.2556397387296024  0.4279043758310173   T   T   T
  0.1679905749797991  0.7557631572448021  0.4279553620250428   T   T   T
  0.5011211082756930  0.2557933409012167  0.4280839388733941   T   T   T
  0.5011017654194351  0.7556529059906237  0.4279958866875806   T   T   T
  0.8344376066935384  0.2555559988791194  0.4278674438126515   T   T   T
  0.8343646110348552  0.7557086687677046  0.4279276588422180   T   T   T
  0.0013130966677437  0.0053264089420609  0.4546294915235680   T   T   T
  0.0012298743930415  0.5056439667962563  0.4546218305613543   T   T   T
  0.3349458648246335  0.0058564788909857  0.4547871009238760   T   T   T
  0.3343481288134383  0.5058319589744463  0.4548458819772352   T   T   T
  0.6675291511794981  0.0058236996047494  0.4547845938115239   T   T   T
  0.6679588790642025  0.5056889116858565  0.4547512287177973   T   T   T
  0.1678548475323680  0.2544778740946909  0.4808388129430918   T   T   T
  0.1677967960057542  0.7556254143272182  0.4810220615684159   T   T   T
  0.5011263864844160  0.2570028897416766  0.4813713823880401   T   T   T
  0.5010257526960702  0.7551790914955133  0.4810822859512904   T   T   T
  0.8347580564306525  0.2539754764905038  0.4807303537895395   T   T   T
  0.8348554580300047  0.7556387865213403  0.4809745057332134   T   T   T
  0.0006341785332191  0.0028656429502951  0.5074526181888955   T   T   T
  0.0012229556595380  0.5003557214939491  0.5071395708480805   T   T   T
  0.3337767064246275  0.0025324397761718  0.5076288014413939   T   T   T
  0.3317653108717646  0.5038640068496385  0.5079501116332737   T   T   T
  0.6676042913091025  0.0024114677379911  0.5076111983901318   T   T   T
  0.6705276367550066  0.5018295141014613  0.5073895672682021   T   T   T
 
  0.00000000E+00  0.00000000E+00  0.00000000E+00
  0.00000000E+00  0.00000000E+00  0.00000000E+00
  0.00000000E+00  0.00000000E+00  0.00000000E+00
  0.00000000E+00  0.00000000E+00  0.00000000E+00
  0.00000000E+00  0.00000000E+00  0.00000000E+00
  0.00000000E+00  0.00000000E+00  0.00000000E+00
  0.00000000E+00  0.00000000E+00  0.00000000E+00
  0.00000000E+00  0.00000000E+00  0.00000000E+00
  0.00000000E+00  0.00000000E+00  0.00000000E+00
  0.00000000E+00  0.00000000E+00  0.00000000E+00
  0.00000000E+00  0.00000000E+00  0.00000000E+00
  0.00000000E+00  0.00000000E+00  0.00000000E+00
  0.00000000E+00  0.00000000E+00  0.00000000E+00
  0.00000000E+00  0.00000000E+00  0.00000000E+00
  0.00000000E+00  0.00000000E+00  0.00000000E+00
  0.00000000E+00  0.00000000E+00  0.00000000E+00
  0.00000000E+00  0.00000000E+00  0.00000000E+00
  0.00000000E+00  0.00000000E+00  0.00000000E+00
  0.00000000E+00  0.00000000E+00  0.00000000E+00
  0.00000000E+00  0.00000000E+00  0.00000000E+00
  0.00000000E+00  0.00000000E+00  0.00000000E+00
  0.00000000E+00  0.00000000E+00  0.00000000E+00
  0.00000000E+00  0.00000000E+00  0.00000000E+00
  0.00000000E+00  0.00000000E+00  0.00000000E+00
  0.00000000E+00  0.00000000E+00  0.00000000E+00
  0.00000000E+00  0.00000000E+00  0.00000000E+00
  0.00000000E+00  0.00000000E+00  0.00000000E+00
  0.00000000E+00  0.00000000E+00  0.00000000E+00
  0.00000000E+00  0.00000000E+00  0.00000000E+00
  0.00000000E+00  0.00000000E+00  0.00000000E+00
  0.00000000E+00  0.00000000E+00  0.00000000E+00
  0.00000000E+00  0.00000000E+00  0.00000000E+00
  0.00000000E+00  0.00000000E+00  0.00000000E+00
  0.00000000E+00  0.00000000E+00  0.00000000E+00
  0.00000000E+00  0.00000000E+00  0.00000000E+00
  0.00000000E+00  0.00000000E+00  0.00000000E+00
  0.00000000E+00  0.00000000E+00  0.00000000E+00
  0.00000000E+00  0.00000000E+00  0.00000000E+00
  0.00000000E+00  0.00000000E+00  0.00000000E+00
  0.00000000E+00  0.00000000E+00  0.00000000E+00
  0.00000000E+00  0.00000000E+00  0.00000000E+00
  0.00000000E+00  0.00000000E+00  0.00000000E+00
  0.00000000E+00  0.00000000E+00  0.00000000E+00
  0.00000000E+00  0.00000000E+00  0.00000000E+00
  0.00000000E+00  0.00000000E+00  0.00000000E+00
  0.00000000E+00  0.00000000E+00  0.00000000E+00
  0.00000000E+00  0.00000000E+00  0.00000000E+00
  0.00000000E+00  0.00000000E+00  0.00000000E+00
  0.00000000E+00  0.00000000E+00  0.00000000E+00
  0.00000000E+00  0.00000000E+00  0.00000000E+00
  0.00000000E+00  0.00000000E+00  0.00000000E+00
  0.00000000E+00  0.00000000E+00  0.00000000E+00
  0.00000000E+00  0.00000000E+00  0.00000000E+00
  0.00000000E+00  0.00000000E+00  0.00000000E+00
  0.00000000E+00  0.00000000E+00  0.00000000E+00
  0.00000000E+00  0.00000000E+00  0.00000000E+00
  0.00000000E+00  0.00000000E+00  0.00000000E+00
  0.00000000E+00  0.00000000E+00  0.00000000E+00
  0.00000000E+00  0.00000000E+00  0.00000000E+00
  0.00000000E+00  0.00000000E+00  0.00000000E+00
  0.00000000E+00  0.00000000E+00  0.00000000E+00
  0.00000000E+00  0.00000000E+00  0.00000000E+00
  0.00000000E+00  0.00000000E+00  0.00000000E+00
  0.00000000E+00  0.00000000E+00  0.00000000E+00
  0.00000000E+00  0.00000000E+00  0.00000000E+00
  0.00000000E+00  0.00000000E+00  0.00000000E+00
  0.00000000E+00  0.00000000E+00  0.00000000E+00
  0.00000000E+00  0.00000000E+00  0.00000000E+00
  0.00000000E+00  0.00000000E+00  0.00000000E+00
  0.00000000E+00  0.00000000E+00  0.00000000E+00
  0.00000000E+00  0.00000000E+00  0.00000000E+00
  0.00000000E+00  0.00000000E+00  0.00000000E+00
  0.00000000E+00  0.00000000E+00  0.00000000E+00
  0.00000000E+00  0.00000000E+00  0.00000000E+00
  0.00000000E+00  0.00000000E+00  0.00000000E+00
  0.00000000E+00  0.00000000E+00  0.00000000E+00
  0.00000000E+00  0.00000000E+00  0.00000000E+00
  0.00000000E+00  0.00000000E+00  0.00000000E+00
  0.00000000E+00  0.00000000E+00  0.00000000E+00
  0.00000000E+00  0.00000000E+00  0.00000000E+00
  0.00000000E+00  0.00000000E+00  0.00000000E+00
  0.00000000E+00  0.00000000E+00  0.00000000E+00
  0.00000000E+00  0.00000000E+00  0.00000000E+00
  0.00000000E+00  0.00000000E+00  0.00000000E+00
  0.00000000E+00  0.00000000E+00  0.00000000E+00
  0.00000000E+00  0.00000000E+00  0.00000000E+00
  0.00000000E+00  0.00000000E+00  0.00000000E+00
  0.00000000E+00  0.00000000E+00  0.00000000E+00
  0.00000000E+00  0.00000000E+00  0.00000000E+00
  0.00000000E+00  0.00000000E+00  0.00000000E+00
  0.00000000E+00  0.00000000E+00  0.00000000E+00
  0.00000000E+00  0.00000000E+00  0.00000000E+00
  0.00000000E+00  0.00000000E+00  0.00000000E+00
  0.00000000E+00  0.00000000E+00  0.00000000E+00
  0.00000000E+00  0.00000000E+00  0.00000000E+00
  0.00000000E+00  0.00000000E+00  0.00000000E+00
  0.00000000E+00  0.00000000E+00  0.00000000E+00
  0.00000000E+00  0.00000000E+00  0.00000000E+00
  0.00000000E+00  0.00000000E+00  0.00000000E+00
  0.00000000E+00  0.00000000E+00  0.00000000E+00
  0.00000000E+00  0.00000000E+00  0.00000000E+00
  0.00000000E+00  0.00000000E+00  0.00000000E+00
  0.00000000E+00  0.00000000E+00  0.00000000E+00
  0.00000000E+00  0.00000000E+00  0.00000000E+00
  0.00000000E+00  0.00000000E+00  0.00000000E+00
  0.00000000E+00  0.00000000E+00  0.00000000E+00
  0.00000000E+00  0.00000000E+00  0.00000000E+00
  0.00000000E+00  0.00000000E+00  0.00000000E+00
  0.00000000E+00  0.00000000E+00  0.00000000E+00
  0.00000000E+00  0.00000000E+00  0.00000000E+00
  0.00000000E+00  0.00000000E+00  0.00000000E+00
  0.00000000E+00  0.00000000E+00  0.00000000E+00
  0.00000000E+00  0.00000000E+00  0.00000000E+00
  0.00000000E+00  0.00000000E+00  0.00000000E+00
  0.00000000E+00  0.00000000E+00  0.00000000E+00
  0.00000000E+00  0.00000000E+00  0.00000000E+00
  0.00000000E+00  0.00000000E+00  0.00000000E+00
  0.00000000E+00  0.00000000E+00  0.00000000E+00
  0.00000000E+00  0.00000000E+00  0.00000000E+00
  0.00000000E+00  0.00000000E+00  0.00000000E+00
  0.00000000E+00  0.00000000E+00  0.00000000E+00
