C H O Si                                
   1.00000000000000     
     9.2874599999999994    0.0000000000000000    0.0000000000000000
     0.0000000000000000    8.7563099999999991    0.0000000000000000
     0.0000000000000000    0.0000000000000000   58.0000000000000000
   C    H    O    Si
    36    33    16    36
Selective dynamics
Direct
  0.9924527703971534  0.1262881290999570  0.0604136631944964   T   T   T
  0.3258466206829722  0.1262186383679498  0.0604899258943000   T   T   T
  0.6591152716936726  0.1262676047960255  0.0604648543284203   T   T   T
  0.9925111986786096  0.6263668204424117  0.0604278086754167   T   T   T
  0.3258670852229363  0.6260544349034256  0.0605075701891852   T   T   T
  0.6591917284523936  0.6262456695451760  0.0604713881183497   T   T   T
  0.1600048486923671  0.3711131757127207  0.1394243556665181   T   T   T
  0.4932221838705965  0.3715117863284183  0.1396391214271484   T   T   T
  0.8265575790559245  0.3710397196198712  0.1393241707403497   T   T   T
  0.1602788210278369  0.8711364277035056  0.1394590508728273   T   T   T
  0.4932264263177903  0.8709046197523386  0.1394931212229742   T   T   T
  0.8264664327271092  0.8712116484772738  0.1394405285257071   T   T   T
  0.3275903592707283  0.1216841952097829  0.1666713367969340   T   T   T
  0.6598100463138847  0.1214725934835172  0.1666115923042152   T   T   T
  0.9940858560646606  0.1205291764686870  0.1663977105265567   T   T   T
  0.3269310229019102  0.6211826310079401  0.1667786170761133   T   T   T
  0.6607194207292072  0.6212841632774002  0.1666337098852692   T   T   T
  0.9938954108391762  0.6211649611170780  0.1664821454388538   T   T   T
  0.1612245673819840  0.3744117452934321  0.1918644559275602   T   T   T
  0.4945479421698154  0.3789559006863192  0.1926937996479182   T   T   T
  0.8287146881361022  0.3730390685055726  0.1915055920056918   T   T   T
  0.1606689467525591  0.8763805330061606  0.1920222997547539   T   T   T
  0.4941637584796313  0.8755589449795854  0.1920626530781949   T   T   T
  0.8275867512193874  0.8763059883423884  0.1919340014872999   T   T   T
  0.1593367565533824  0.3714692738125211  0.0858752158584380   T   T   T
  0.4926821015994408  0.3713985152350775  0.0860053553114183   T   T   T
  0.8259530798821721  0.3715467547315133  0.0858381464608422   T   T   T
  0.1593945003327993  0.8714926110015324  0.0858952637098400   T   T   T
  0.4926124214467186  0.8713907272949531  0.0859365824236827   T   T   T
  0.8259284695448601  0.8715425607000982  0.0858880804897246   T   T   T
  0.3262255253827516  0.1213137052940364  0.1130742572624983   T   T   T
  0.6594567074815652  0.1212337274264040  0.1130523284217838   T   T   T
  0.9929026056746630  0.1211825003535307  0.1129762613143099   T   T   T
  0.3261618112475199  0.6211450435935469  0.1131061435384481   T   T   T
  0.6595077588011016  0.6212791533838725  0.1130492438488894   T   T   T
  0.9928495617190547  0.6213608972128767  0.1129905974717143   T   T   T
  0.0802801956673456  0.3523477222282906  0.0258762544077941   T   T   T
  0.4123458702237332  0.3523751547238022  0.0260893850641677   T   T   T
  0.7454829842732146  0.3522452956347672  0.0259452114577657   T   T   T
  0.0806270689325256  0.8524041145837128  0.0258957460683595   T   T   T
  0.4122901370486444  0.8521198248675319  0.0260456216580745   T   T   T
  0.7454802650640773  0.8522499719745060  0.0259963288316186   T   T   T
  0.3233882038331789  0.0536001243255901  0.0449768958378045   T   T   T
  0.6560694550093475  0.0536716669596136  0.0449576632304786   T   T   T
  0.9898356753359777  0.0538044120979106  0.0448881852601499   T   T   T
  0.3232116213170317  0.5533612337456268  0.0450063766063764   T   T   T
  0.6563464006337513  0.5536183042058207  0.0449659519513043   T   T   T
  0.9898250332712074  0.5538692187854879  0.0449021206027417   T   T   T
  0.8299741500809007  0.8048914061650870  0.2075454757561424   T   T   T
  0.8311659725293247  0.3011465830986880  0.2070983674823476   T   T   T
  0.1626357405401667  0.3023061226382431  0.2074304370657245   T   T   T
  0.4978101254579644  0.3057240107169321  0.2081314838572165   T   T   T
  0.1628728362610594  0.8037733610260052  0.2075334897839405   T   T   T
  0.4948344101903344  0.8032056660538940  0.2076041222806325   T   T   T
  0.0726671883403441  0.1034066153690861  0.2264498020003380   T   T   T
  0.4084900900705106  0.1041699247330314  0.2263826080743336   T   T   T
  0.7414361381067625  0.1031880163249363  0.2264011981365639   T   T   T
  0.0717832283807120  0.6006832370219042  0.2261190091755156   T   T   T
  0.3771280164156097  0.6176865207432816  0.2295145956748884   T   T   T
  0.7799870991457437  0.5894161213512241  0.2234833524598666   T   T   T
  0.5453800842395573  0.6087786744929159  0.2749309158541442   T   T   T
  0.4922495232892277  0.4732196343336078  0.2939394459932516   T   T   T
  0.5720928262244732  0.6388273124836107  0.3038053443510440   T   T   T
  0.3134090218691617  0.3862055217165136  0.3093092067705775   T   T   T
  0.4226931512883325  0.2585245364678707  0.3022428615218281   T   T   T
  0.6513631018436257  0.7318186500518078  0.3339786709198491   T   T   T
  0.4858533098043494  0.7575189493502622  0.3310348680931728   T   T   T
  0.5112547056285961  0.7895714678573506  0.2525495035129858   T   T   T
  0.5832577814935918  0.6485106873487665  0.2394813416998553   T   T   T
  0.1696723574474279  0.3387732128304575  0.0344866598884864   T   T   T
  0.5020617693248202  0.3399272220263428  0.0346666525920766   T   T   T
  0.8353132300161704  0.3392651358394690  0.0344722825709264   T   T   T
  0.1699354890749506  0.8386807769478526  0.0345168483195069   T   T   T
  0.5021445775787680  0.8393249649073461  0.0345740615365963   T   T   T
  0.8352900129091994  0.8394483825510213  0.0345327323521899   T   T   T
  0.3183387472239943  0.0880291102170228  0.2180615896775817   T   T   T
  0.6513950316633558  0.0884278548237337  0.2179805104306376   T   T   T
  0.9833169724031378  0.0885270550571471  0.2178778453102513   T   T   T
  0.3026024466617136  0.5889902251357286  0.2181248453265681   T   T   T
  0.6789387413323390  0.5853216360860982  0.2181797577568380   T   T   T
  0.9814605417672554  0.5847444177538359  0.2177547157407783   T   T   T
  0.5701539436610572  0.5579201246289589  0.2904390786854244   T   T   T
  0.3817234084905194  0.3559311533311144  0.2973697423723269   T   T   T
  0.5767287413882038  0.7536026679522012  0.3226013890274597   T   T   T
  0.5069294009553910  0.6785160110907903  0.2509340121304559   T   T   T
  0.4924581027711321  0.2443598491340321  0.0595783439866115   T   T   T
  0.8257636536132561  0.2443085370331215  0.0594568812420432   T   T   T
  0.1593840011670910  0.7441890751277879  0.0595104682424391   T   T   T
  0.4924957490594458  0.7442416470054998  0.0595326772718254   T   T   T
  0.8257958713140385  0.7443793100807795  0.0594971887019847   T   T   T
  0.1592510481093519  0.2442467723950895  0.0594835274294572   T   T   T
  0.9934445574739635  0.9964244746346811  0.1396247239413094   T   T   T
  0.3268793951420755  0.9970351770063499  0.1397771929556225   T   T   T
  0.6595935685487130  0.9968365464050709  0.1397432167016199   T   T   T
  0.9933165083207687  0.4967360612053607  0.1396212752256277   T   T   T
  0.3264808703482963  0.4969806986174868  0.1398515837648937   T   T   T
  0.6600163815662400  0.4968069764416447  0.1397218244898857   T   T   T
  0.1604833330186389  0.2458841740003925  0.1660657980234082   T   T   T
  0.4936999481006570  0.2479352812978896  0.1664960615302769   T   T   T
  0.8274284139685675  0.2449430280698794  0.1658590776786480   T   T   T
  0.1604400384844972  0.7466685347566950  0.1662054179241749   T   T   T
  0.4935229080377791  0.7461355687186877  0.1662215795103096   T   T   T
  0.8272698918416334  0.7465959616389358  0.1661522084806267   T   T   T
  0.3272480724947703  0.9940087365293188  0.1929957313288040   T   T   T
  0.6609087131872798  0.9939674667296795  0.1929477732152528   T   T   T
  0.9939299614876097  0.9942035688742265  0.1928475535128191   T   T   T
  0.3258780108664592  0.4953145049472562  0.1934328898961221   T   T   T
  0.9945321279744871  0.4915714310657329  0.1925199678076037   T   T   T
  0.6637310048873452  0.4925085712644559  0.1927319377893275   T   T   T
  0.9926649622927716  0.9968779457219727  0.0862398714568687   T   T   T
  0.3260704389915028  0.9968401094916832  0.0863215773748188   T   T   T
  0.6592297270934891  0.9968754855103588  0.0862952531345280   T   T   T
  0.9926406143323164  0.4968807883446299  0.0862430312883390   T   T   T
  0.3260456468542750  0.4967633238104158  0.0863458917342484   T   T   T
  0.6592978779174605  0.4968406726370226  0.0863006552305641   T   T   T
  0.1595179222951464  0.2469676605198769  0.1127099031350346   T   T   T
  0.4928367804815634  0.2470435175869490  0.1128635961145949   T   T   T
  0.8261684011341534  0.2468864710643243  0.1126497808057120   T   T   T
  0.1596635677232737  0.7469865768114902  0.1127424646752343   T   T   T
  0.4927572977227093  0.7468917413396503  0.1127770655629895   T   T   T
  0.8261271264422352  0.7470360788578303  0.1127224067396632   T   T   T
 
  0.00000000E+00  0.00000000E+00  0.00000000E+00
  0.00000000E+00  0.00000000E+00  0.00000000E+00
  0.00000000E+00  0.00000000E+00  0.00000000E+00
  0.00000000E+00  0.00000000E+00  0.00000000E+00
  0.00000000E+00  0.00000000E+00  0.00000000E+00
  0.00000000E+00  0.00000000E+00  0.00000000E+00
  0.00000000E+00  0.00000000E+00  0.00000000E+00
  0.00000000E+00  0.00000000E+00  0.00000000E+00
  0.00000000E+00  0.00000000E+00  0.00000000E+00
  0.00000000E+00  0.00000000E+00  0.00000000E+00
  0.00000000E+00  0.00000000E+00  0.00000000E+00
  0.00000000E+00  0.00000000E+00  0.00000000E+00
  0.00000000E+00  0.00000000E+00  0.00000000E+00
  0.00000000E+00  0.00000000E+00  0.00000000E+00
  0.00000000E+00  0.00000000E+00  0.00000000E+00
  0.00000000E+00  0.00000000E+00  0.00000000E+00
  0.00000000E+00  0.00000000E+00  0.00000000E+00
  0.00000000E+00  0.00000000E+00  0.00000000E+00
  0.00000000E+00  0.00000000E+00  0.00000000E+00
  0.00000000E+00  0.00000000E+00  0.00000000E+00
  0.00000000E+00  0.00000000E+00  0.00000000E+00
  0.00000000E+00  0.00000000E+00  0.00000000E+00
  0.00000000E+00  0.00000000E+00  0.00000000E+00
  0.00000000E+00  0.00000000E+00  0.00000000E+00
  0.00000000E+00  0.00000000E+00  0.00000000E+00
  0.00000000E+00  0.00000000E+00  0.00000000E+00
  0.00000000E+00  0.00000000E+00  0.00000000E+00
  0.00000000E+00  0.00000000E+00  0.00000000E+00
  0.00000000E+00  0.00000000E+00  0.00000000E+00
  0.00000000E+00  0.00000000E+00  0.00000000E+00
  0.00000000E+00  0.00000000E+00  0.00000000E+00
  0.00000000E+00  0.00000000E+00  0.00000000E+00
  0.00000000E+00  0.00000000E+00  0.00000000E+00
  0.00000000E+00  0.00000000E+00  0.00000000E+00
  0.00000000E+00  0.00000000E+00  0.00000000E+00
  0.00000000E+00  0.00000000E+00  0.00000000E+00
  0.00000000E+00  0.00000000E+00  0.00000000E+00
  0.00000000E+00  0.00000000E+00  0.00000000E+00
  0.00000000E+00  0.00000000E+00  0.00000000E+00
  0.00000000E+00  0.00000000E+00  0.00000000E+00
  0.00000000E+00  0.00000000E+00  0.00000000E+00
  0.00000000E+00  0.00000000E+00  0.00000000E+00
  0.00000000E+00  0.00000000E+00  0.00000000E+00
  0.00000000E+00  0.00000000E+00  0.00000000E+00
  0.00000000E+00  0.00000000E+00  0.00000000E+00
  0.00000000E+00  0.00000000E+00  0.00000000E+00
  0.00000000E+00  0.00000000E+00  0.00000000E+00
  0.00000000E+00  0.00000000E+00  0.00000000E+00
  0.00000000E+00  0.00000000E+00  0.00000000E+00
  0.00000000E+00  0.00000000E+00  0.00000000E+00
  0.00000000E+00  0.00000000E+00  0.00000000E+00
  0.00000000E+00  0.00000000E+00  0.00000000E+00
  0.00000000E+00  0.00000000E+00  0.00000000E+00
  0.00000000E+00  0.00000000E+00  0.00000000E+00
  0.00000000E+00  0.00000000E+00  0.00000000E+00
  0.00000000E+00  0.00000000E+00  0.00000000E+00
  0.00000000E+00  0.00000000E+00  0.00000000E+00
  0.00000000E+00  0.00000000E+00  0.00000000E+00
  0.00000000E+00  0.00000000E+00  0.00000000E+00
  0.00000000E+00  0.00000000E+00  0.00000000E+00
  0.00000000E+00  0.00000000E+00  0.00000000E+00
  0.00000000E+00  0.00000000E+00  0.00000000E+00
  0.00000000E+00  0.00000000E+00  0.00000000E+00
  0.00000000E+00  0.00000000E+00  0.00000000E+00
  0.00000000E+00  0.00000000E+00  0.00000000E+00
  0.00000000E+00  0.00000000E+00  0.00000000E+00
  0.00000000E+00  0.00000000E+00  0.00000000E+00
  0.00000000E+00  0.00000000E+00  0.00000000E+00
  0.00000000E+00  0.00000000E+00  0.00000000E+00
  0.00000000E+00  0.00000000E+00  0.00000000E+00
  0.00000000E+00  0.00000000E+00  0.00000000E+00
  0.00000000E+00  0.00000000E+00  0.00000000E+00
  0.00000000E+00  0.00000000E+00  0.00000000E+00
  0.00000000E+00  0.00000000E+00  0.00000000E+00
  0.00000000E+00  0.00000000E+00  0.00000000E+00
  0.00000000E+00  0.00000000E+00  0.00000000E+00
  0.00000000E+00  0.00000000E+00  0.00000000E+00
  0.00000000E+00  0.00000000E+00  0.00000000E+00
  0.00000000E+00  0.00000000E+00  0.00000000E+00
  0.00000000E+00  0.00000000E+00  0.00000000E+00
  0.00000000E+00  0.00000000E+00  0.00000000E+00
  0.00000000E+00  0.00000000E+00  0.00000000E+00
  0.00000000E+00  0.00000000E+00  0.00000000E+00
  0.00000000E+00  0.00000000E+00  0.00000000E+00
  0.00000000E+00  0.00000000E+00  0.00000000E+00
  0.00000000E+00  0.00000000E+00  0.00000000E+00
  0.00000000E+00  0.00000000E+00  0.00000000E+00
  0.00000000E+00  0.00000000E+00  0.00000000E+00
  0.00000000E+00  0.00000000E+00  0.00000000E+00
  0.00000000E+00  0.00000000E+00  0.00000000E+00
  0.00000000E+00  0.00000000E+00  0.00000000E+00
  0.00000000E+00  0.00000000E+00  0.00000000E+00
  0.00000000E+00  0.00000000E+00  0.00000000E+00
  0.00000000E+00  0.00000000E+00  0.00000000E+00
  0.00000000E+00  0.00000000E+00  0.00000000E+00
  0.00000000E+00  0.00000000E+00  0.00000000E+00
  0.00000000E+00  0.00000000E+00  0.00000000E+00
  0.00000000E+00  0.00000000E+00  0.00000000E+00
  0.00000000E+00  0.00000000E+00  0.00000000E+00
  0.00000000E+00  0.00000000E+00  0.00000000E+00
  0.00000000E+00  0.00000000E+00  0.00000000E+00
  0.00000000E+00  0.00000000E+00  0.00000000E+00
  0.00000000E+00  0.00000000E+00  0.00000000E+00
  0.00000000E+00  0.00000000E+00  0.00000000E+00
  0.00000000E+00  0.00000000E+00  0.00000000E+00
  0.00000000E+00  0.00000000E+00  0.00000000E+00
  0.00000000E+00  0.00000000E+00  0.00000000E+00
  0.00000000E+00  0.00000000E+00  0.00000000E+00
  0.00000000E+00  0.00000000E+00  0.00000000E+00
  0.00000000E+00  0.00000000E+00  0.00000000E+00
  0.00000000E+00  0.00000000E+00  0.00000000E+00
  0.00000000E+00  0.00000000E+00  0.00000000E+00
  0.00000000E+00  0.00000000E+00  0.00000000E+00
  0.00000000E+00  0.00000000E+00  0.00000000E+00
  0.00000000E+00  0.00000000E+00  0.00000000E+00
  0.00000000E+00  0.00000000E+00  0.00000000E+00
  0.00000000E+00  0.00000000E+00  0.00000000E+00
  0.00000000E+00  0.00000000E+00  0.00000000E+00
  0.00000000E+00  0.00000000E+00  0.00000000E+00
  0.00000000E+00  0.00000000E+00  0.00000000E+00
  0.00000000E+00  0.00000000E+00  0.00000000E+00
