C H O Si                                
   1.00000000000000     
     9.2874599999999994    0.0000000000000000    0.0000000000000000
     0.0000000000000000    8.7563099999999991    0.0000000000000000
     0.0000000000000000    0.0000000000000000   58.0000000000000000
   C    H    O    Si
    36    33    16    36
Selective dynamics
Direct
  0.9924861000031406  0.1264092469775860  0.0604044353379880   T   T   T
  0.3258469030400000  0.1261654384964099  0.0604861182921275   T   T   T
  0.6590679479401328  0.1262746475124215  0.0604615157336112   T   T   T
  0.9925017955477398  0.6264031584487830  0.0604238435003931   T   T   T
  0.3259426141752327  0.6260347994940875  0.0604984547250510   T   T   T
  0.6591334181459528  0.6262447514128293  0.0604703620462794   T   T   T
  0.1599348216313967  0.3711035500631709  0.1394097431283704   T   T   T
  0.4932605705365826  0.3714525906311816  0.1396297722876408   T   T   T
  0.8265998042847728  0.3710525959075479  0.1393169328998848   T   T   T
  0.1602002303911034  0.8711538942699800  0.1394471373301103   T   T   T
  0.4931730897520745  0.8709537277771867  0.1395055236293879   T   T   T
  0.8264785047682494  0.8711668818669801  0.1394362250792868   T   T   T
  0.3276180813303078  0.1216688129088036  0.1666705766051799   T   T   T
  0.6598034323123380  0.1213929621776360  0.1666098205575114   T   T   T
  0.9940129149733464  0.1205915922543228  0.1663924456822164   T   T   T
  0.3269302943930147  0.6211791967969957  0.1667855648681273   T   T   T
  0.6606119084712689  0.6212862399188724  0.1666357594233655   T   T   T
  0.9938583769667011  0.6211441832224132  0.1664876418012768   T   T   T
  0.1611384969066136  0.3743543554966291  0.1918674136084460   T   T   T
  0.4944228653922974  0.3788536387736591  0.1926842275103983   T   T   T
  0.8285643577958499  0.3730857819237867  0.1915329520951351   T   T   T
  0.1604602853350515  0.8762839354481017  0.1920215765338419   T   T   T
  0.4940352855948930  0.8755547966174276  0.1920690079745169   T   T   T
  0.8274706238666667  0.8762435767068165  0.1919369174262363   T   T   T
  0.1592757038733917  0.3714893793373374  0.0858702814818542   T   T   T
  0.4926470700431863  0.3714076228520257  0.0860000527520018   T   T   T
  0.8259268401806755  0.3714772520702818  0.0858400637076915   T   T   T
  0.1593804648403734  0.8715289301679864  0.0858977775674063   T   T   T
  0.4925872264221657  0.8714069575276813  0.0859369156628504   T   T   T
  0.8259148262269133  0.8715541997408673  0.0858900194358954   T   T   T
  0.3261981087323109  0.1212749969977719  0.1130821474958273   T   T   T
  0.6593454806879577  0.1212199016118701  0.1130604615949670   T   T   T
  0.9927467150564426  0.1212296206413877  0.1129864138417025   T   T   T
  0.3261229459562762  0.6211108553083518  0.1131085624956109   T   T   T
  0.6593810751632432  0.6212841903528650  0.1130592470749502   T   T   T
  0.9928036761350403  0.6213632181564154  0.1129995337685106   T   T   T
  0.0802693062532692  0.3523405099618005  0.0259006565206855   T   T   T
  0.4123234009121517  0.3523733263621076  0.0261115887096828   T   T   T
  0.7454510811517870  0.3522302680239929  0.0259694156994620   T   T   T
  0.0805902476653289  0.8523950447422096  0.0259186410965139   T   T   T
  0.4122527449060018  0.8521061007434373  0.0260681736892604   T   T   T
  0.7454394670185835  0.8522347420365314  0.0260205930846312   T   T   T
  0.3233176803417875  0.0535094708797664  0.0449786879451014   T   T   T
  0.6559886014446593  0.0535491881304469  0.0449582552019218   T   T   T
  0.9897686580500119  0.0537509907811210  0.0449031083509685   T   T   T
  0.3231324297499421  0.5532320699607618  0.0450028588354432   T   T   T
  0.6562647101474111  0.5535196701560080  0.0449687620800989   T   T   T
  0.9897550546990790  0.5538117678676030  0.0449145938063367   T   T   T
  0.8300342643592480  0.8048200713790150  0.2075519461798330   T   T   T
  0.8312199927107563  0.3010797804480163  0.2071044071007762   T   T   T
  0.1626970441019355  0.3022679391149287  0.2074342152817172   T   T   T
  0.4979080216489982  0.3057445731931100  0.2081378024803608   T   T   T
  0.1629150142024294  0.8037212968142149  0.2075401340706139   T   T   T
  0.4948803502303431  0.8031771035576069  0.2076054942231531   T   T   T
  0.0726867732645079  0.1034703030436616  0.2264320462288616   T   T   T
  0.4085238052603682  0.1042638479340904  0.2263835813047942   T   T   T
  0.7414473068692128  0.1032680230935297  0.2263977234521911   T   T   T
  0.0718578834407977  0.6006605249783236  0.2261068453158106   T   T   T
  0.3771723554775878  0.6177425786533423  0.2295170466251453   T   T   T
  0.7799401749649850  0.5893822177964146  0.2234600286757233   T   T   T
  0.5454830117771545  0.6088238171739030  0.2749201152919696   T   T   T
  0.4923607928497715  0.4731903188421273  0.2939480405963765   T   T   T
  0.5722130580788020  0.6389447580088651  0.3038081804256785   T   T   T
  0.3135444034503529  0.3862894198027198  0.3093152089626418   T   T   T
  0.4226598864828608  0.2586070722283544  0.3022432471376921   T   T   T
  0.6513861308562584  0.7318205147520941  0.3339975987508641   T   T   T
  0.4857249521056157  0.7574384050867825  0.3310414591990111   T   T   T
  0.5114036106893067  0.7896722409994770  0.2525428471869514   T   T   T
  0.5834116612765513  0.6483263239384808  0.2394475248479303   T   T   T
  0.1697457110137917  0.3390015539714710  0.0344890445529949   T   T   T
  0.5020534635688663  0.3402873512540536  0.0346751155504304   T   T   T
  0.8353477418390367  0.3395500562650456  0.0344825036376384   T   T   T
  0.1700518490188829  0.8389131514863628  0.0345178008007746   T   T   T
  0.5021835619279142  0.8396751524901891  0.0345745280322579   T   T   T
  0.8353383212252641  0.8397786629256286  0.0345374169131619   T   T   T
  0.3185747131380112  0.0881150457743456  0.2180487291446202   T   T   T
  0.6515950434736192  0.0885604915278086  0.2179595316421341   T   T   T
  0.9833848873651302  0.0885592352321017  0.2178538194581500   T   T   T
  0.3026910431501730  0.5890416065503756  0.2181276768940387   T   T   T
  0.6787450596614378  0.5853340219355024  0.2181989440567077   T   T   T
  0.9817140228675296  0.5849072731071321  0.2177062691274221   T   T   T
  0.5702360615367483  0.5577543850615430  0.2904401249809240   T   T   T
  0.3816918407822975  0.3560383008320667  0.2973318059002934   T   T   T
  0.5767613709616601  0.7538020687166985  0.3226124656000012   T   T   T
  0.5072114476027116  0.6787029752813174  0.2509064901853796   T   T   T
  0.4924990016563912  0.2442932585931380  0.0595690008723874   T   T   T
  0.8257922631342806  0.2443849061906000  0.0594229217198286   T   T   T
  0.1594063043239010  0.7441230649849897  0.0595023625241609   T   T   T
  0.4925424109768114  0.7441768826755019  0.0595149440166417   T   T   T
  0.8258149401422549  0.7443658613158581  0.0594702360980309   T   T   T
  0.1593321384832909  0.2441849474160472  0.0594709263192913   T   T   T
  0.9935091556060646  0.9964244349053225  0.1396415005673496   T   T   T
  0.3268927126485286  0.9969892425214683  0.1397852310260087   T   T   T
  0.6596020972711635  0.9967844822259930  0.1397527871936007   T   T   T
  0.9933344358772668  0.4967189216554107  0.1396386084408005   T   T   T
  0.3264954149300647  0.4969328710133460  0.1398656593893594   T   T   T
  0.6600236001206813  0.4968216546949773  0.1397308900743848   T   T   T
  0.1604969194016579  0.2457986854923090  0.1660640206755537   T   T   T
  0.4937086410048329  0.2478292436370652  0.1664995770258454   T   T   T
  0.8274345517599867  0.2448155777173735  0.1658469498237850   T   T   T
  0.1604371572752534  0.7465733966676293  0.1662047941601323   T   T   T
  0.4934945749950717  0.7460845211319451  0.1662172722181986   T   T   T
  0.8272918997787446  0.7465482244675562  0.1661574793090307   T   T   T
  0.3272899276216731  0.9940016345903049  0.1930097283483598   T   T   T
  0.6609409142226809  0.9939003325993706  0.1929684199187729   T   T   T
  0.9940322527923962  0.9940608615087240  0.1928572108762752   T   T   T
  0.3257717670275334  0.4952639822509646  0.1934415078613455   T   T   T
  0.9946190402977785  0.4914950921370557  0.1925283574369073   T   T   T
  0.6638792918306663  0.4923269743782057  0.1927330954381757   T   T   T
  0.9926656600735630  0.9968481527765032  0.0862337651378256   T   T   T
  0.3260383867917540  0.9967955156830778  0.0863095581591122   T   T   T
  0.6592241365596768  0.9967627921270332  0.0862917856982230   T   T   T
  0.9926497272275860  0.4968570280806309  0.0862420209518848   T   T   T
  0.3260204022847976  0.4966523018461024  0.0863384842079365   T   T   T
  0.6592795550930974  0.4967478797842229  0.0862981710383689   T   T   T
  0.1594503435463975  0.2469486012626943  0.1127079411040295   T   T   T
  0.4927579004942925  0.2470261774297978  0.1128579919355294   T   T   T
  0.8260273996765506  0.2469183185445721  0.1126444597943919   T   T   T
  0.1595633551476670  0.7469543708770638  0.1127376354415084   T   T   T
  0.4926514273340333  0.7469225671398098  0.1127675030374340   T   T   T
  0.8259877756661065  0.7470065324123435  0.1127205743276376   T   T   T
 
  0.00000000E+00  0.00000000E+00  0.00000000E+00
  0.00000000E+00  0.00000000E+00  0.00000000E+00
  0.00000000E+00  0.00000000E+00  0.00000000E+00
  0.00000000E+00  0.00000000E+00  0.00000000E+00
  0.00000000E+00  0.00000000E+00  0.00000000E+00
  0.00000000E+00  0.00000000E+00  0.00000000E+00
  0.00000000E+00  0.00000000E+00  0.00000000E+00
  0.00000000E+00  0.00000000E+00  0.00000000E+00
  0.00000000E+00  0.00000000E+00  0.00000000E+00
  0.00000000E+00  0.00000000E+00  0.00000000E+00
  0.00000000E+00  0.00000000E+00  0.00000000E+00
  0.00000000E+00  0.00000000E+00  0.00000000E+00
  0.00000000E+00  0.00000000E+00  0.00000000E+00
  0.00000000E+00  0.00000000E+00  0.00000000E+00
  0.00000000E+00  0.00000000E+00  0.00000000E+00
  0.00000000E+00  0.00000000E+00  0.00000000E+00
  0.00000000E+00  0.00000000E+00  0.00000000E+00
  0.00000000E+00  0.00000000E+00  0.00000000E+00
  0.00000000E+00  0.00000000E+00  0.00000000E+00
  0.00000000E+00  0.00000000E+00  0.00000000E+00
  0.00000000E+00  0.00000000E+00  0.00000000E+00
  0.00000000E+00  0.00000000E+00  0.00000000E+00
  0.00000000E+00  0.00000000E+00  0.00000000E+00
  0.00000000E+00  0.00000000E+00  0.00000000E+00
  0.00000000E+00  0.00000000E+00  0.00000000E+00
  0.00000000E+00  0.00000000E+00  0.00000000E+00
  0.00000000E+00  0.00000000E+00  0.00000000E+00
  0.00000000E+00  0.00000000E+00  0.00000000E+00
  0.00000000E+00  0.00000000E+00  0.00000000E+00
  0.00000000E+00  0.00000000E+00  0.00000000E+00
  0.00000000E+00  0.00000000E+00  0.00000000E+00
  0.00000000E+00  0.00000000E+00  0.00000000E+00
  0.00000000E+00  0.00000000E+00  0.00000000E+00
  0.00000000E+00  0.00000000E+00  0.00000000E+00
  0.00000000E+00  0.00000000E+00  0.00000000E+00
  0.00000000E+00  0.00000000E+00  0.00000000E+00
  0.00000000E+00  0.00000000E+00  0.00000000E+00
  0.00000000E+00  0.00000000E+00  0.00000000E+00
  0.00000000E+00  0.00000000E+00  0.00000000E+00
  0.00000000E+00  0.00000000E+00  0.00000000E+00
  0.00000000E+00  0.00000000E+00  0.00000000E+00
  0.00000000E+00  0.00000000E+00  0.00000000E+00
  0.00000000E+00  0.00000000E+00  0.00000000E+00
  0.00000000E+00  0.00000000E+00  0.00000000E+00
  0.00000000E+00  0.00000000E+00  0.00000000E+00
  0.00000000E+00  0.00000000E+00  0.00000000E+00
  0.00000000E+00  0.00000000E+00  0.00000000E+00
  0.00000000E+00  0.00000000E+00  0.00000000E+00
  0.00000000E+00  0.00000000E+00  0.00000000E+00
  0.00000000E+00  0.00000000E+00  0.00000000E+00
  0.00000000E+00  0.00000000E+00  0.00000000E+00
  0.00000000E+00  0.00000000E+00  0.00000000E+00
  0.00000000E+00  0.00000000E+00  0.00000000E+00
  0.00000000E+00  0.00000000E+00  0.00000000E+00
  0.00000000E+00  0.00000000E+00  0.00000000E+00
  0.00000000E+00  0.00000000E+00  0.00000000E+00
  0.00000000E+00  0.00000000E+00  0.00000000E+00
  0.00000000E+00  0.00000000E+00  0.00000000E+00
  0.00000000E+00  0.00000000E+00  0.00000000E+00
  0.00000000E+00  0.00000000E+00  0.00000000E+00
  0.00000000E+00  0.00000000E+00  0.00000000E+00
  0.00000000E+00  0.00000000E+00  0.00000000E+00
  0.00000000E+00  0.00000000E+00  0.00000000E+00
  0.00000000E+00  0.00000000E+00  0.00000000E+00
  0.00000000E+00  0.00000000E+00  0.00000000E+00
  0.00000000E+00  0.00000000E+00  0.00000000E+00
  0.00000000E+00  0.00000000E+00  0.00000000E+00
  0.00000000E+00  0.00000000E+00  0.00000000E+00
  0.00000000E+00  0.00000000E+00  0.00000000E+00
  0.00000000E+00  0.00000000E+00  0.00000000E+00
  0.00000000E+00  0.00000000E+00  0.00000000E+00
  0.00000000E+00  0.00000000E+00  0.00000000E+00
  0.00000000E+00  0.00000000E+00  0.00000000E+00
  0.00000000E+00  0.00000000E+00  0.00000000E+00
  0.00000000E+00  0.00000000E+00  0.00000000E+00
  0.00000000E+00  0.00000000E+00  0.00000000E+00
  0.00000000E+00  0.00000000E+00  0.00000000E+00
  0.00000000E+00  0.00000000E+00  0.00000000E+00
  0.00000000E+00  0.00000000E+00  0.00000000E+00
  0.00000000E+00  0.00000000E+00  0.00000000E+00
  0.00000000E+00  0.00000000E+00  0.00000000E+00
  0.00000000E+00  0.00000000E+00  0.00000000E+00
  0.00000000E+00  0.00000000E+00  0.00000000E+00
  0.00000000E+00  0.00000000E+00  0.00000000E+00
  0.00000000E+00  0.00000000E+00  0.00000000E+00
  0.00000000E+00  0.00000000E+00  0.00000000E+00
  0.00000000E+00  0.00000000E+00  0.00000000E+00
  0.00000000E+00  0.00000000E+00  0.00000000E+00
  0.00000000E+00  0.00000000E+00  0.00000000E+00
  0.00000000E+00  0.00000000E+00  0.00000000E+00
  0.00000000E+00  0.00000000E+00  0.00000000E+00
  0.00000000E+00  0.00000000E+00  0.00000000E+00
  0.00000000E+00  0.00000000E+00  0.00000000E+00
  0.00000000E+00  0.00000000E+00  0.00000000E+00
  0.00000000E+00  0.00000000E+00  0.00000000E+00
  0.00000000E+00  0.00000000E+00  0.00000000E+00
  0.00000000E+00  0.00000000E+00  0.00000000E+00
  0.00000000E+00  0.00000000E+00  0.00000000E+00
  0.00000000E+00  0.00000000E+00  0.00000000E+00
  0.00000000E+00  0.00000000E+00  0.00000000E+00
  0.00000000E+00  0.00000000E+00  0.00000000E+00
  0.00000000E+00  0.00000000E+00  0.00000000E+00
  0.00000000E+00  0.00000000E+00  0.00000000E+00
  0.00000000E+00  0.00000000E+00  0.00000000E+00
  0.00000000E+00  0.00000000E+00  0.00000000E+00
  0.00000000E+00  0.00000000E+00  0.00000000E+00
  0.00000000E+00  0.00000000E+00  0.00000000E+00
  0.00000000E+00  0.00000000E+00  0.00000000E+00
  0.00000000E+00  0.00000000E+00  0.00000000E+00
  0.00000000E+00  0.00000000E+00  0.00000000E+00
  0.00000000E+00  0.00000000E+00  0.00000000E+00
  0.00000000E+00  0.00000000E+00  0.00000000E+00
  0.00000000E+00  0.00000000E+00  0.00000000E+00
  0.00000000E+00  0.00000000E+00  0.00000000E+00
  0.00000000E+00  0.00000000E+00  0.00000000E+00
  0.00000000E+00  0.00000000E+00  0.00000000E+00
  0.00000000E+00  0.00000000E+00  0.00000000E+00
  0.00000000E+00  0.00000000E+00  0.00000000E+00
  0.00000000E+00  0.00000000E+00  0.00000000E+00
  0.00000000E+00  0.00000000E+00  0.00000000E+00
  0.00000000E+00  0.00000000E+00  0.00000000E+00
