C H O Si                                
   1.00000000000000     
     9.2874599999999994    0.0000000000000000    0.0000000000000000
     0.0000000000000000    8.7562999999999995    0.0000000000000000
     0.0000000000000000    0.0000000000000000   58.0000000000000000
   C    H    O    Si
    36    33    16    36
Selective dynamics
Direct
  0.0030348766679453  0.1353309156072535  0.3754165554857913   T   T   T
  0.0030116847180495  0.6354193524226173  0.3754337975054335   T   T   T
  0.3363675628838402  0.1354109854714595  0.3755331595872844   T   T   T
  0.3363693237579327  0.6352820998264795  0.3755416998161620   T   T   T
  0.6694867476875001  0.1353123420071732  0.3755291126144875   T   T   T
  0.6695175572102197  0.6352594675903404  0.3755237245309876   T   T   T
  0.1694289720016069  0.3805716267870481  0.4009139047835630   T   T   T
  0.1695167110777877  0.8805634108257064  0.4009288343203696   T   T   T
  0.5027762263203097  0.3805555316356878  0.4010574457539460   T   T   T
  0.5027500607710906  0.8805265172401459  0.4009849888286309   T   T   T
  0.8361144697708907  0.3804685723068479  0.4008614761139744   T   T   T
  0.8360661429415307  0.8804838643375500  0.4008925276279762   T   T   T
  0.0027443563031075  0.1302777169796787  0.4280072927752502   T   T   T
  0.0027178248500341  0.6305245758032282  0.4280392245018569   T   T   T
  0.3360657000182841  0.1304438455673847  0.4281386873144740   T   T   T
  0.3359975642620876  0.6303740909610722  0.4281556688650278   T   T   T
  0.6692498472836923  0.1303721469880397  0.4281098389105025   T   T   T
  0.6693231003400986  0.6303628286617022  0.4281050276888913   T   T   T
  0.1694172724001192  0.3803785199012481  0.4544652375975874   T   T   T
  0.1696701502803745  0.8804484734059462  0.4545066623393142   T   T   T
  0.5026897094560311  0.3807386172975258  0.4547031422604668   T   T   T
  0.5027124464075867  0.8801598273259477  0.4545634602385332   T   T   T
  0.8360195733758017  0.3802539174241882  0.4543652670346651   T   T   T
  0.8359015017572884  0.8804364717633612  0.4544570407873437   T   T   T
  0.0031593419444881  0.1300138156930823  0.4814456561349979   T   T   T
  0.0030556558821535  0.6305188194915906  0.4815711357123178   T   T   T
  0.3368556974827698  0.1311932533076885  0.4817342294149203   T   T   T
  0.3360901906364515  0.6305369280621829  0.4818012555033234   T   T   T
  0.6689159812494065  0.1309642503618535  0.4816893486576506   T   T   T
  0.6698803805070278  0.6306833427406919  0.4816888753250524   T   T   T
  0.1697433416775687  0.3838951093282996  0.5068922197415283   T   T   T
  0.1694524883081518  0.8858094004541177  0.5070498882870473   T   T   T
  0.5034168020521852  0.3889120276474921  0.5078054632181799   T   T   T
  0.5030635950893825  0.8850217051567493  0.5071105987894295   T   T   T
  0.8372937580249034  0.3828324120920055  0.5066273871880330   T   T   T
  0.8365876938859791  0.8858908945145950  0.5069677717306118   T   T   T
  0.0053720714029517  0.0631663734599281  0.3598502721421249   T   T   T
  0.0053245719220128  0.5632149321443966  0.3598715389505370   T   T   T
  0.3388437062689261  0.0631483238677085  0.3599775828307918   T   T   T
  0.3386823230923365  0.5629276404060169  0.3599976544187971   T   T   T
  0.6713265580488961  0.0630520271874587  0.3599718518825126   T   T   T
  0.6715484048792711  0.5629700836767607  0.3599698628404733   T   T   T
  0.1711167140348820  0.3118790031426947  0.5224761132451818   T   T   T
  0.1717539045791535  0.8133645320719625  0.5225818444651721   T   T   T
  0.5062108509650343  0.3156978852678795  0.5232620595038361   T   T   T
  0.5036365768879094  0.8128676990516753  0.5226710050235329   T   T   T
  0.8395939422206679  0.3109114799772508  0.5222176567586512   T   T   T
  0.8386970441015480  0.8145020800821294  0.5225882768036483   T   T   T
  0.0802973786417742  0.1114116701323760  0.5418148704644122   T   T   T
  0.0788205615592694  0.6110964909613514  0.5413855390712324   T   T   T
  0.4144129314503467  0.1130792095316144  0.5417800748082097   T   T   T
  0.3818369210482366  0.6295825466490175  0.5446468601804033   T   T   T
  0.7483249082921923  0.1115652589640176  0.5417788534648389   T   T   T
  0.7873976673986782  0.5995828608345328  0.5388695108429629   T   T   T
  0.2488098045907220  0.3606339242050075  0.3407257903089370   T   T   T
  0.2490426894016589  0.8605366514340655  0.3407599415826110   T   T   T
  0.5812479233254391  0.3607477586096046  0.3408011063947113   T   T   T
  0.5810596258139842  0.8606228822120275  0.3407366297968807   T   T   T
  0.9130022575266771  0.3606818245042132  0.3405074475688197   T   T   T
  0.9129890348185750  0.8607189259899051  0.3405364482430430   T   T   T
  0.5367279396903055  0.6099821719082024  0.5888662453692061   T   T   T
  0.4836394360716494  0.4716743703687429  0.6076393927632201   T   T   T
  0.5633223485851042  0.6387716179702957  0.6176319970772327   T   T   T
  0.3031929020373694  0.3761107915685814  0.6218428703379052   T   T   T
  0.4230043860555882  0.2552258517063248  0.6166110179372524   T   T   T
  0.6482682058562258  0.7350256307874736  0.6468960493192297   T   T   T
  0.4840060206238323  0.7704052952985725  0.6440287602614181   T   T   T
  0.5078529788960680  0.7982588005869785  0.5676756221364517   T   T   T
  0.5862807642935522  0.6614261164418379  0.5544085769534514   T   T   T
  0.1600400979665058  0.3483130565857293  0.3495486217779546   T   T   T
  0.1602028909226487  0.8483244655798804  0.3495704504423163   T   T   T
  0.4927497818098340  0.3488265236520099  0.3497103184236709   T   T   T
  0.4925821860363256  0.8483756634622850  0.3496362837440123   T   T   T
  0.8250840864588328  0.3480406411848508  0.3495194002465425   T   T   T
  0.8250987927506517  0.8481856425183713  0.3495583685395322   T   T   T
  0.9921106620377832  0.0987675774731564  0.5328657834694968   T   T   T
  0.9891073561652760  0.5935096616703467  0.5329334639728158   T   T   T
  0.3257063786098581  0.0976091508319460  0.5330742061216555   T   T   T
  0.3089812700207291  0.5993527848231728  0.5329814087402752   T   T   T
  0.6594799934449552  0.0978075531468200  0.5330191497032827   T   T   T
  0.6870050881970646  0.5969005373206743  0.5332159121805228   T   T   T
  0.5604014523758561  0.5573789257461090  0.6042670952416777   T   T   T
  0.3783125407530797  0.3485998715776889  0.6108304968337827   T   T   T
  0.5737593919912531  0.7572112401997640  0.6355051062968787   T   T   T
  0.5058339250294849  0.6877572361300482  0.5652622025912328   T   T   T
  0.1697635471610039  0.2535081303082804  0.3744491821440964   T   T   T
  0.1698233936604870  0.7534862375884543  0.3744700714434284   T   T   T
  0.5029641492739281  0.2535850122673904  0.3745747089379574   T   T   T
  0.5029436807798562  0.7534630563490609  0.3745260255219866   T   T   T
  0.8362118803331201  0.2533024475148586  0.3744130092094869   T   T   T
  0.8361717844254859  0.7533451300864864  0.3744403891323055   T   T   T
  0.0027951845878735  0.0060407827373352  0.4012227595135501   T   T   T
  0.0027633182243068  0.5061314439565772  0.4012379956248120   T   T   T
  0.3361523391498841  0.0061615698106157  0.4013281328292377   T   T   T
  0.3361034227847880  0.5061060424408512  0.4013499486008378   T   T   T
  0.6693567199966640  0.0060594985710211  0.4013118218342801   T   T   T
  0.6694270236261934  0.5060137083574795  0.4013114556444975   T   T   T
  0.1693890998392500  0.2562616042200974  0.4277539310256041   T   T   T
  0.1695207343881510  0.7563367749627157  0.4277848483256039   T   T   T
  0.5026665957176132  0.2563518163399598  0.4279228264042420   T   T   T
  0.5026443176204659  0.7561951169770220  0.4278227095666255   T   T   T
  0.8360626675374124  0.2561037784006280  0.4276831513315695   T   T   T
  0.8359816348219358  0.7562762393226218  0.4277422506953544   T   T   T
  0.0029105810284429  0.0058090544253198  0.4546981708926550   T   T   T
  0.0028011079109350  0.5060695283705331  0.4547122809311859   T   T   T
  0.3364023185388005  0.0064132519432073  0.4548627298414733   T   T   T
  0.3359448677102645  0.5063641911007728  0.4549170980158695   T   T   T
  0.6690530596730141  0.0062390551742056  0.4548276685978119   T   T   T
  0.6695202733612395  0.5061417824086968  0.4548039595920004   T   T   T
  0.1695760978752519  0.2554137502901329  0.4811592647749763   T   T   T
  0.1696246355848481  0.7561429003012993  0.4812919352451335   T   T   T
  0.5028948721366083  0.2576952327096023  0.4816382848316926   T   T   T
  0.5026930536545419  0.7555633034394110  0.4813102910384888   T   T   T
  0.8365142891338062  0.2546116203643423  0.4809775207743749   T   T   T
  0.8365071757214185  0.7561565775430416  0.4812301613603660   T   T   T
  0.0030607325231065  0.0038666086444580  0.5079624714926616   T   T   T
  0.0032751400938253  0.5012396945448025  0.5077139112584513   T   T   T
  0.3361621207890325  0.0035874545977719  0.5081024610937188   T   T   T
  0.3343144680344872  0.5049994093096015  0.5085245476101187   T   T   T
  0.6699017664090953  0.0034697727064624  0.5080695911602243   T   T   T
  0.6727392329881974  0.5026652856203809  0.5079236433892464   T   T   T
 
  0.00000000E+00  0.00000000E+00  0.00000000E+00
  0.00000000E+00  0.00000000E+00  0.00000000E+00
  0.00000000E+00  0.00000000E+00  0.00000000E+00
  0.00000000E+00  0.00000000E+00  0.00000000E+00
  0.00000000E+00  0.00000000E+00  0.00000000E+00
  0.00000000E+00  0.00000000E+00  0.00000000E+00
  0.00000000E+00  0.00000000E+00  0.00000000E+00
  0.00000000E+00  0.00000000E+00  0.00000000E+00
  0.00000000E+00  0.00000000E+00  0.00000000E+00
  0.00000000E+00  0.00000000E+00  0.00000000E+00
  0.00000000E+00  0.00000000E+00  0.00000000E+00
  0.00000000E+00  0.00000000E+00  0.00000000E+00
  0.00000000E+00  0.00000000E+00  0.00000000E+00
  0.00000000E+00  0.00000000E+00  0.00000000E+00
  0.00000000E+00  0.00000000E+00  0.00000000E+00
  0.00000000E+00  0.00000000E+00  0.00000000E+00
  0.00000000E+00  0.00000000E+00  0.00000000E+00
  0.00000000E+00  0.00000000E+00  0.00000000E+00
  0.00000000E+00  0.00000000E+00  0.00000000E+00
  0.00000000E+00  0.00000000E+00  0.00000000E+00
  0.00000000E+00  0.00000000E+00  0.00000000E+00
  0.00000000E+00  0.00000000E+00  0.00000000E+00
  0.00000000E+00  0.00000000E+00  0.00000000E+00
  0.00000000E+00  0.00000000E+00  0.00000000E+00
  0.00000000E+00  0.00000000E+00  0.00000000E+00
  0.00000000E+00  0.00000000E+00  0.00000000E+00
  0.00000000E+00  0.00000000E+00  0.00000000E+00
  0.00000000E+00  0.00000000E+00  0.00000000E+00
  0.00000000E+00  0.00000000E+00  0.00000000E+00
  0.00000000E+00  0.00000000E+00  0.00000000E+00
  0.00000000E+00  0.00000000E+00  0.00000000E+00
  0.00000000E+00  0.00000000E+00  0.00000000E+00
  0.00000000E+00  0.00000000E+00  0.00000000E+00
  0.00000000E+00  0.00000000E+00  0.00000000E+00
  0.00000000E+00  0.00000000E+00  0.00000000E+00
  0.00000000E+00  0.00000000E+00  0.00000000E+00
  0.00000000E+00  0.00000000E+00  0.00000000E+00
  0.00000000E+00  0.00000000E+00  0.00000000E+00
  0.00000000E+00  0.00000000E+00  0.00000000E+00
  0.00000000E+00  0.00000000E+00  0.00000000E+00
  0.00000000E+00  0.00000000E+00  0.00000000E+00
  0.00000000E+00  0.00000000E+00  0.00000000E+00
  0.00000000E+00  0.00000000E+00  0.00000000E+00
  0.00000000E+00  0.00000000E+00  0.00000000E+00
  0.00000000E+00  0.00000000E+00  0.00000000E+00
  0.00000000E+00  0.00000000E+00  0.00000000E+00
  0.00000000E+00  0.00000000E+00  0.00000000E+00
  0.00000000E+00  0.00000000E+00  0.00000000E+00
  0.00000000E+00  0.00000000E+00  0.00000000E+00
  0.00000000E+00  0.00000000E+00  0.00000000E+00
  0.00000000E+00  0.00000000E+00  0.00000000E+00
  0.00000000E+00  0.00000000E+00  0.00000000E+00
  0.00000000E+00  0.00000000E+00  0.00000000E+00
  0.00000000E+00  0.00000000E+00  0.00000000E+00
  0.00000000E+00  0.00000000E+00  0.00000000E+00
  0.00000000E+00  0.00000000E+00  0.00000000E+00
  0.00000000E+00  0.00000000E+00  0.00000000E+00
  0.00000000E+00  0.00000000E+00  0.00000000E+00
  0.00000000E+00  0.00000000E+00  0.00000000E+00
  0.00000000E+00  0.00000000E+00  0.00000000E+00
  0.00000000E+00  0.00000000E+00  0.00000000E+00
  0.00000000E+00  0.00000000E+00  0.00000000E+00
  0.00000000E+00  0.00000000E+00  0.00000000E+00
  0.00000000E+00  0.00000000E+00  0.00000000E+00
  0.00000000E+00  0.00000000E+00  0.00000000E+00
  0.00000000E+00  0.00000000E+00  0.00000000E+00
  0.00000000E+00  0.00000000E+00  0.00000000E+00
  0.00000000E+00  0.00000000E+00  0.00000000E+00
  0.00000000E+00  0.00000000E+00  0.00000000E+00
  0.00000000E+00  0.00000000E+00  0.00000000E+00
  0.00000000E+00  0.00000000E+00  0.00000000E+00
  0.00000000E+00  0.00000000E+00  0.00000000E+00
  0.00000000E+00  0.00000000E+00  0.00000000E+00
  0.00000000E+00  0.00000000E+00  0.00000000E+00
  0.00000000E+00  0.00000000E+00  0.00000000E+00
  0.00000000E+00  0.00000000E+00  0.00000000E+00
  0.00000000E+00  0.00000000E+00  0.00000000E+00
  0.00000000E+00  0.00000000E+00  0.00000000E+00
  0.00000000E+00  0.00000000E+00  0.00000000E+00
  0.00000000E+00  0.00000000E+00  0.00000000E+00
  0.00000000E+00  0.00000000E+00  0.00000000E+00
  0.00000000E+00  0.00000000E+00  0.00000000E+00
  0.00000000E+00  0.00000000E+00  0.00000000E+00
  0.00000000E+00  0.00000000E+00  0.00000000E+00
  0.00000000E+00  0.00000000E+00  0.00000000E+00
  0.00000000E+00  0.00000000E+00  0.00000000E+00
  0.00000000E+00  0.00000000E+00  0.00000000E+00
  0.00000000E+00  0.00000000E+00  0.00000000E+00
  0.00000000E+00  0.00000000E+00  0.00000000E+00
  0.00000000E+00  0.00000000E+00  0.00000000E+00
  0.00000000E+00  0.00000000E+00  0.00000000E+00
  0.00000000E+00  0.00000000E+00  0.00000000E+00
  0.00000000E+00  0.00000000E+00  0.00000000E+00
  0.00000000E+00  0.00000000E+00  0.00000000E+00
  0.00000000E+00  0.00000000E+00  0.00000000E+00
  0.00000000E+00  0.00000000E+00  0.00000000E+00
  0.00000000E+00  0.00000000E+00  0.00000000E+00
  0.00000000E+00  0.00000000E+00  0.00000000E+00
  0.00000000E+00  0.00000000E+00  0.00000000E+00
  0.00000000E+00  0.00000000E+00  0.00000000E+00
  0.00000000E+00  0.00000000E+00  0.00000000E+00
  0.00000000E+00  0.00000000E+00  0.00000000E+00
  0.00000000E+00  0.00000000E+00  0.00000000E+00
  0.00000000E+00  0.00000000E+00  0.00000000E+00
  0.00000000E+00  0.00000000E+00  0.00000000E+00
  0.00000000E+00  0.00000000E+00  0.00000000E+00
  0.00000000E+00  0.00000000E+00  0.00000000E+00
  0.00000000E+00  0.00000000E+00  0.00000000E+00
  0.00000000E+00  0.00000000E+00  0.00000000E+00
  0.00000000E+00  0.00000000E+00  0.00000000E+00
  0.00000000E+00  0.00000000E+00  0.00000000E+00
  0.00000000E+00  0.00000000E+00  0.00000000E+00
  0.00000000E+00  0.00000000E+00  0.00000000E+00
  0.00000000E+00  0.00000000E+00  0.00000000E+00
  0.00000000E+00  0.00000000E+00  0.00000000E+00
  0.00000000E+00  0.00000000E+00  0.00000000E+00
  0.00000000E+00  0.00000000E+00  0.00000000E+00
  0.00000000E+00  0.00000000E+00  0.00000000E+00
  0.00000000E+00  0.00000000E+00  0.00000000E+00
  0.00000000E+00  0.00000000E+00  0.00000000E+00
  0.00000000E+00  0.00000000E+00  0.00000000E+00
