C H O Si                                
   1.00000000000000     
     9.2874599999999994    0.0000000000000000    0.0000000000000000
     0.0000000000000000    8.7562999999999995    0.0000000000000000
     0.0000000000000000    0.0000000000000000   58.0000000000000000
   C    H    O    Si
    36    33    16    36
Selective dynamics
Direct
  0.0025902007467253  0.1356256609710094  0.3754778787903050   T   T   T
  0.0026249598599666  0.6357454809567701  0.3755015239391317   T   T   T
  0.3360009226877442  0.1356806757252101  0.3755865766318487   T   T   T
  0.3359806677333084  0.6355755748992645  0.3755958827666215   T   T   T
  0.6691003922382224  0.1355734019188724  0.3755895777834926   T   T   T
  0.6691190922354568  0.6355429722225614  0.3755919492883312   T   T   T
  0.1693029873503916  0.3811193095079595  0.4009111674742338   T   T   T
  0.1693591225877340  0.8811317363696868  0.4009322351025806   T   T   T
  0.5026536068411810  0.3811637470424710  0.4010458621536510   T   T   T
  0.5026327230721925  0.8810922172940243  0.4009820070564428   T   T   T
  0.8359824160831588  0.3810437052709149  0.4008579587598588   T   T   T
  0.8359173252433338  0.8810186004308075  0.4009044607839325   T   T   T
  0.0026299426466210  0.1308767539344939  0.4280268920882311   T   T   T
  0.0026527072571945  0.6311061944036365  0.4280586325298858   T   T   T
  0.3360247198686517  0.1310973453055693  0.4281564248789455   T   T   T
  0.3359532937279445  0.6309267153217218  0.4281705565498630   T   T   T
  0.6691915375873252  0.1309738213097668  0.4281233379418903   T   T   T
  0.6692627498756848  0.6309788175896748  0.4281178959554475   T   T   T
  0.1693813468884876  0.3808835805296417  0.4544570719213671   T   T   T
  0.1696057287313077  0.8810365336748943  0.4545106395242540   T   T   T
  0.5026639867264019  0.3812815963823398  0.4546898478967890   T   T   T
  0.5026727448789302  0.8807381095820955  0.4545616398166986   T   T   T
  0.8360281843042202  0.3807609944848254  0.4543650731817806   T   T   T
  0.8358501556052500  0.8809938816340964  0.4544664046587348   T   T   T
  0.0031017407611204  0.1303871784997822  0.4814700352577659   T   T   T
  0.0029603173406884  0.6310111142932688  0.4815864023878358   T   T   T
  0.3367429340961754  0.1316318782165201  0.4817595500890625   T   T   T
  0.3359691101238489  0.6309772100527453  0.4818020725693958   T   T   T
  0.6688055484484640  0.1313646743672843  0.4817141357706050   T   T   T
  0.6697554469934074  0.6310965869671955  0.4817019749842986   T   T   T
  0.1694340514516694  0.3840224822643518  0.5068389400965451   T   T   T
  0.1691898132969862  0.8859987368173122  0.5070196480235284   T   T   T
  0.5031207468131703  0.3891459601573719  0.5077861026853127   T   T   T
  0.5027491728443467  0.8852027887839801  0.5070872750409102   T   T   T
  0.8369421112424419  0.3830066657649920  0.5066032441204043   T   T   T
  0.8363359617593611  0.8859812226398888  0.5069561013895043   T   T   T
  0.0049335759043302  0.0632829582095716  0.3599332841459070   T   T   T
  0.0048963774549649  0.5634008046454205  0.3599579042465781   T   T   T
  0.3383896959361717  0.0632981335581830  0.3600543713650106   T   T   T
  0.3382094006515934  0.5631851601097545  0.3600627449692784   T   T   T
  0.6708210478874009  0.0631849487537540  0.3600506481210231   T   T   T
  0.6710341706382345  0.5631602050293248  0.3600553796722767   T   T   T
  0.1709891898614601  0.3119525361338304  0.5224059621082187   T   T   T
  0.1713452758547204  0.8134328363818684  0.5225271717320655   T   T   T
  0.5058364996614078  0.3155812210593754  0.5231972234904625   T   T   T
  0.5032642346658661  0.8129611825708346  0.5226321954008000   T   T   T
  0.8392960534389813  0.3109042211065148  0.5221664135939967   T   T   T
  0.8383109179375280  0.8145263292091828  0.5225654951466484   T   T   T
  0.0818239392438867  0.1118830136349800  0.5414710249086198   T   T   T
  0.0801503345797127  0.6112288596728949  0.5410537825825715   T   T   T
  0.4157831864860968  0.1135127175596538  0.5414424337913829   T   T   T
  0.3819871571458801  0.6299239617783761  0.5443830361235116   T   T   T
  0.7498451166981184  0.1119516540154415  0.5414257786260741   T   T   T
  0.7877490067919406  0.5998235961719451  0.5386994483652016   T   T   T
  0.2504533885252370  0.3611023450277117  0.3411412663203728   T   T   T
  0.2507048249719975  0.8610006936056441  0.3411755526176463   T   T   T
  0.5829189626209382  0.3612582243961132  0.3412002842732727   T   T   T
  0.5827197343760914  0.8611261004740993  0.3411354248471420   T   T   T
  0.9147223991555407  0.3611907748453578  0.3409058569473186   T   T   T
  0.9147201097961066  0.8612213743696481  0.3409422123430340   T   T   T
  0.5377039192827081  0.6110966020452577  0.5886700875876167   T   T   T
  0.4841073841643370  0.4725141817848180  0.6074609313089228   T   T   T
  0.5636466516958893  0.6391025606537957  0.6174938866562063   T   T   T
  0.3038192040762668  0.3768416219059891  0.6218486993049456   T   T   T
  0.4231114424487967  0.2556553252475637  0.6164970476955315   T   T   T
  0.6481644362633632  0.7351314005853530  0.6468953773912784   T   T   T
  0.4839407493132171  0.7702733421447983  0.6439825836995585   T   T   T
  0.5093887675989590  0.7993129501530155  0.5675652290180232   T   T   T
  0.5868998790062108  0.6614783053730906  0.5542450213437997   T   T   T
  0.1597050241967377  0.3455442372327484  0.3493086901310824   T   T   T
  0.1598723620990421  0.8455842751915453  0.3493264309442796   T   T   T
  0.4924002042170561  0.3460915253631914  0.3494504129904350   T   T   T
  0.4922297550007034  0.8456218197715857  0.3493770885122062   T   T   T
  0.8247348572001691  0.3452830500020281  0.3492632484348581   T   T   T
  0.8247384138974750  0.8454296238410594  0.3493073204080174   T   T   T
  0.9917531208221155  0.0961725040436091  0.5331250432625960   T   T   T
  0.9890067358779383  0.5914915923369597  0.5331143785633922   T   T   T
  0.3254430114993825  0.0951463915061228  0.5333041334614429   T   T   T
  0.3078219484095378  0.5968376596631760  0.5331818438063096   T   T   T
  0.6592314565750558  0.0952965352109705  0.5332674545463320   T   T   T
  0.6866527316885851  0.5955672277239052  0.5333943050830484   T   T   T
  0.5609000906447401  0.5580292844509432  0.6041196688534495   T   T   T
  0.3784321436014406  0.3491007985352360  0.6107612225461398   T   T   T
  0.5738646167072702  0.7575833985595292  0.6354876426719261   T   T   T
  0.5073235554176379  0.6887149268042618  0.5652907507917341   T   T   T
  0.1692924619725644  0.2533370334976505  0.3745880036373063   T   T   T
  0.1693552207135285  0.7533502382464456  0.3746071271089504   T   T   T
  0.5025213853010166  0.2534775674687900  0.3746990428640203   T   T   T
  0.5024982759664426  0.7533660678277126  0.3746562729514590   T   T   T
  0.8357343775777302  0.2532029027158978  0.3745423337996246   T   T   T
  0.8356883418563785  0.7532408738802996  0.3745797089997078   T   T   T
  0.0026000934244286  0.0060218635010285  0.4013151489579739   T   T   T
  0.0026157078399189  0.5061087881387669  0.4013284054924191   T   T   T
  0.3359797931440467  0.0061427983258628  0.4014167825515200   T   T   T
  0.3359378835362562  0.5060858104672166  0.4014363265190983   T   T   T
  0.6692082702560550  0.0060236235510950  0.4014047200793393   T   T   T
  0.6692708828675490  0.5059962043683125  0.4014029757828170   T   T   T
  0.1692809222324753  0.2564220932215789  0.4277715514493108   T   T   T
  0.1694443287707752  0.7565389699028813  0.4278094788012762   T   T   T
  0.5026025729936532  0.2565721839689089  0.4279286160750960   T   T   T
  0.5025530252391299  0.7563964522977484  0.4278405291694782   T   T   T
  0.8359518089761908  0.2562890402296410  0.4276983750425372   T   T   T
  0.8358814460517626  0.7564400024179551  0.4277732194800636   T   T   T
  0.0028261897250225  0.0060587977126536  0.4546740572062460   T   T   T
  0.0027640020643557  0.5063005358166796  0.4546845557688447   T   T   T
  0.3363378295649578  0.0066763813109609  0.4548338501459662   T   T   T
  0.3358823640445772  0.5065442269216930  0.4548793959198392   T   T   T
  0.6689886163901971  0.0064621638748099  0.4548046670043069   T   T   T
  0.6695042300962052  0.5063607859769509  0.4547720195332660   T   T   T
  0.1694737998984282  0.2554183413488680  0.4810703845069163   T   T   T
  0.1695028201056822  0.7562011019024268  0.4812110902451850   T   T   T
  0.5027830380044843  0.2577815289990143  0.4815533369316778   T   T   T
  0.5025557984793720  0.7556441684200311  0.4812332625298646   T   T   T
  0.8364200250753030  0.2545881566511699  0.4808984893076264   T   T   T
  0.8363638828148837  0.7561748485531594  0.4811572151497318   T   T   T
  0.0027191103817677  0.0037115725078104  0.5078695602924326   T   T   T
  0.0029180581339196  0.5011735987513041  0.5076014132461744   T   T   T
  0.3358101093363088  0.0034214186671151  0.5079992750653980   T   T   T
  0.3338675824413218  0.5048912297590240  0.5083876941752475   T   T   T
  0.6695661554932287  0.0033027306352459  0.5079765470550502   T   T   T
  0.6724149026221082  0.5026947637232164  0.5078306012580742   T   T   T
 
  0.00000000E+00  0.00000000E+00  0.00000000E+00
  0.00000000E+00  0.00000000E+00  0.00000000E+00
  0.00000000E+00  0.00000000E+00  0.00000000E+00
  0.00000000E+00  0.00000000E+00  0.00000000E+00
  0.00000000E+00  0.00000000E+00  0.00000000E+00
  0.00000000E+00  0.00000000E+00  0.00000000E+00
  0.00000000E+00  0.00000000E+00  0.00000000E+00
  0.00000000E+00  0.00000000E+00  0.00000000E+00
  0.00000000E+00  0.00000000E+00  0.00000000E+00
  0.00000000E+00  0.00000000E+00  0.00000000E+00
  0.00000000E+00  0.00000000E+00  0.00000000E+00
  0.00000000E+00  0.00000000E+00  0.00000000E+00
  0.00000000E+00  0.00000000E+00  0.00000000E+00
  0.00000000E+00  0.00000000E+00  0.00000000E+00
  0.00000000E+00  0.00000000E+00  0.00000000E+00
  0.00000000E+00  0.00000000E+00  0.00000000E+00
  0.00000000E+00  0.00000000E+00  0.00000000E+00
  0.00000000E+00  0.00000000E+00  0.00000000E+00
  0.00000000E+00  0.00000000E+00  0.00000000E+00
  0.00000000E+00  0.00000000E+00  0.00000000E+00
  0.00000000E+00  0.00000000E+00  0.00000000E+00
  0.00000000E+00  0.00000000E+00  0.00000000E+00
  0.00000000E+00  0.00000000E+00  0.00000000E+00
  0.00000000E+00  0.00000000E+00  0.00000000E+00
  0.00000000E+00  0.00000000E+00  0.00000000E+00
  0.00000000E+00  0.00000000E+00  0.00000000E+00
  0.00000000E+00  0.00000000E+00  0.00000000E+00
  0.00000000E+00  0.00000000E+00  0.00000000E+00
  0.00000000E+00  0.00000000E+00  0.00000000E+00
  0.00000000E+00  0.00000000E+00  0.00000000E+00
  0.00000000E+00  0.00000000E+00  0.00000000E+00
  0.00000000E+00  0.00000000E+00  0.00000000E+00
  0.00000000E+00  0.00000000E+00  0.00000000E+00
  0.00000000E+00  0.00000000E+00  0.00000000E+00
  0.00000000E+00  0.00000000E+00  0.00000000E+00
  0.00000000E+00  0.00000000E+00  0.00000000E+00
  0.00000000E+00  0.00000000E+00  0.00000000E+00
  0.00000000E+00  0.00000000E+00  0.00000000E+00
  0.00000000E+00  0.00000000E+00  0.00000000E+00
  0.00000000E+00  0.00000000E+00  0.00000000E+00
  0.00000000E+00  0.00000000E+00  0.00000000E+00
  0.00000000E+00  0.00000000E+00  0.00000000E+00
  0.00000000E+00  0.00000000E+00  0.00000000E+00
  0.00000000E+00  0.00000000E+00  0.00000000E+00
  0.00000000E+00  0.00000000E+00  0.00000000E+00
  0.00000000E+00  0.00000000E+00  0.00000000E+00
  0.00000000E+00  0.00000000E+00  0.00000000E+00
  0.00000000E+00  0.00000000E+00  0.00000000E+00
  0.00000000E+00  0.00000000E+00  0.00000000E+00
  0.00000000E+00  0.00000000E+00  0.00000000E+00
  0.00000000E+00  0.00000000E+00  0.00000000E+00
  0.00000000E+00  0.00000000E+00  0.00000000E+00
  0.00000000E+00  0.00000000E+00  0.00000000E+00
  0.00000000E+00  0.00000000E+00  0.00000000E+00
  0.00000000E+00  0.00000000E+00  0.00000000E+00
  0.00000000E+00  0.00000000E+00  0.00000000E+00
  0.00000000E+00  0.00000000E+00  0.00000000E+00
  0.00000000E+00  0.00000000E+00  0.00000000E+00
  0.00000000E+00  0.00000000E+00  0.00000000E+00
  0.00000000E+00  0.00000000E+00  0.00000000E+00
  0.00000000E+00  0.00000000E+00  0.00000000E+00
  0.00000000E+00  0.00000000E+00  0.00000000E+00
  0.00000000E+00  0.00000000E+00  0.00000000E+00
  0.00000000E+00  0.00000000E+00  0.00000000E+00
  0.00000000E+00  0.00000000E+00  0.00000000E+00
  0.00000000E+00  0.00000000E+00  0.00000000E+00
  0.00000000E+00  0.00000000E+00  0.00000000E+00
  0.00000000E+00  0.00000000E+00  0.00000000E+00
  0.00000000E+00  0.00000000E+00  0.00000000E+00
  0.00000000E+00  0.00000000E+00  0.00000000E+00
  0.00000000E+00  0.00000000E+00  0.00000000E+00
  0.00000000E+00  0.00000000E+00  0.00000000E+00
  0.00000000E+00  0.00000000E+00  0.00000000E+00
  0.00000000E+00  0.00000000E+00  0.00000000E+00
  0.00000000E+00  0.00000000E+00  0.00000000E+00
  0.00000000E+00  0.00000000E+00  0.00000000E+00
  0.00000000E+00  0.00000000E+00  0.00000000E+00
  0.00000000E+00  0.00000000E+00  0.00000000E+00
  0.00000000E+00  0.00000000E+00  0.00000000E+00
  0.00000000E+00  0.00000000E+00  0.00000000E+00
  0.00000000E+00  0.00000000E+00  0.00000000E+00
  0.00000000E+00  0.00000000E+00  0.00000000E+00
  0.00000000E+00  0.00000000E+00  0.00000000E+00
  0.00000000E+00  0.00000000E+00  0.00000000E+00
  0.00000000E+00  0.00000000E+00  0.00000000E+00
  0.00000000E+00  0.00000000E+00  0.00000000E+00
  0.00000000E+00  0.00000000E+00  0.00000000E+00
  0.00000000E+00  0.00000000E+00  0.00000000E+00
  0.00000000E+00  0.00000000E+00  0.00000000E+00
  0.00000000E+00  0.00000000E+00  0.00000000E+00
  0.00000000E+00  0.00000000E+00  0.00000000E+00
  0.00000000E+00  0.00000000E+00  0.00000000E+00
  0.00000000E+00  0.00000000E+00  0.00000000E+00
  0.00000000E+00  0.00000000E+00  0.00000000E+00
  0.00000000E+00  0.00000000E+00  0.00000000E+00
  0.00000000E+00  0.00000000E+00  0.00000000E+00
  0.00000000E+00  0.00000000E+00  0.00000000E+00
  0.00000000E+00  0.00000000E+00  0.00000000E+00
  0.00000000E+00  0.00000000E+00  0.00000000E+00
  0.00000000E+00  0.00000000E+00  0.00000000E+00
  0.00000000E+00  0.00000000E+00  0.00000000E+00
  0.00000000E+00  0.00000000E+00  0.00000000E+00
  0.00000000E+00  0.00000000E+00  0.00000000E+00
  0.00000000E+00  0.00000000E+00  0.00000000E+00
  0.00000000E+00  0.00000000E+00  0.00000000E+00
  0.00000000E+00  0.00000000E+00  0.00000000E+00
  0.00000000E+00  0.00000000E+00  0.00000000E+00
  0.00000000E+00  0.00000000E+00  0.00000000E+00
  0.00000000E+00  0.00000000E+00  0.00000000E+00
  0.00000000E+00  0.00000000E+00  0.00000000E+00
  0.00000000E+00  0.00000000E+00  0.00000000E+00
  0.00000000E+00  0.00000000E+00  0.00000000E+00
  0.00000000E+00  0.00000000E+00  0.00000000E+00
  0.00000000E+00  0.00000000E+00  0.00000000E+00
  0.00000000E+00  0.00000000E+00  0.00000000E+00
  0.00000000E+00  0.00000000E+00  0.00000000E+00
  0.00000000E+00  0.00000000E+00  0.00000000E+00
  0.00000000E+00  0.00000000E+00  0.00000000E+00
  0.00000000E+00  0.00000000E+00  0.00000000E+00
  0.00000000E+00  0.00000000E+00  0.00000000E+00
  0.00000000E+00  0.00000000E+00  0.00000000E+00
