C H O Si                                
   1.00000000000000     
     9.2874599999999994    0.0000000000000000    0.0000000000000000
     0.0000000000000000    8.7563099999999991    0.0000000000000000
     0.0000000000000000    0.0000000000000000   58.0000000000000000
   C    H    O    Si
    36    31    16    36
Selective dynamics
Direct
  0.9959283676879759  0.1308514023935620  0.0594340249827447   T   T   T
  0.3293654607537412  0.1310703569547460  0.0594856553248063   T   T   T
  0.6625267037307769  0.1310343155411998  0.0595371681856783   T   T   T
  0.9958512752908668  0.6311340167713316  0.0594513261763367   T   T   T
  0.3292447958355725  0.6308225448075020  0.0594885844464195   T   T   T
  0.6625978022550105  0.6308330733730020  0.0595134246399932   T   T   T
  0.1614034840219422  0.3766916657971008  0.1381735750760350   T   T   T
  0.4947772976126164  0.3768626533602935  0.1386512796334055   T   T   T
  0.8281727004772605  0.3766644324378429  0.1382567696196485   T   T   T
  0.1618507777477339  0.8765412058139777  0.1383178575264512   T   T   T
  0.4947878242538930  0.8745438180704244  0.1383790892182413   T   T   T
  0.8276701924038380  0.8765565631817774  0.1383801234934505   T   T   T
  0.3279686524016730  0.1268261175743813  0.1656538244910354   T   T   T
  0.6614836568782659  0.1271163538522178  0.1657924502983915   T   T   T
  0.9946478741348979  0.1258232774515399  0.1652649389297462   T   T   T
  0.3277986903928556  0.6267691005974735  0.1657085041910650   T   T   T
  0.6617617485071599  0.6269209989304716  0.1656756655352776   T   T   T
  0.9946505704695220  0.6266313304629482  0.1653320714597142   T   T   T
  0.1610440923001996  0.3779310474741980  0.1901895937672703   T   T   T
  0.4943674950117152  0.3847121266628573  0.1917443443061452   T   T   T
  0.8287777607169833  0.3789363029855596  0.1904543372818155   T   T   T
  0.1614070890591402  0.8804238325724488  0.1907156590381241   T   T   T
  0.4945565177684085  0.8775012297801342  0.1913958329556281   T   T   T
  0.8282561315894914  0.8809436004680891  0.1909173190773813   T   T   T
  0.1619330133353281  0.3769394424945237  0.0847596952956582   T   T   T
  0.4952668095560230  0.3769852533450615  0.0849477118645422   T   T   T
  0.8286034907037269  0.3769250655018668  0.0848030928344870   T   T   T
  0.1620929086117450  0.8770968442843763  0.0848122664264236   T   T   T
  0.4952754858867382  0.8767487069144341  0.0847688386236729   T   T   T
  0.8284491072913176  0.8771339385174431  0.0848517171370818   T   T   T
  0.3285073301585377  0.1264277824377452  0.1120458784973590   T   T   T
  0.6614610875768634  0.1264029725920112  0.1121049018478504   T   T   T
  0.9949685653315621  0.1264474879245186  0.1119446739555212   T   T   T
  0.3284160000804296  0.6263775337946642  0.1120396495597718   T   T   T
  0.6616127678369808  0.6263536231337563  0.1120436159318296   T   T   T
  0.9949444327743632  0.6269723822047999  0.1119201254924528   T   T   T
  0.0759328785879786  0.3642900124762306  0.0269482083344618   T   T   T
  0.4091363139366788  0.3642573390101476  0.0270684094808136   T   T   T
  0.7423685445418980  0.3642066407747648  0.0269833112002934   T   T   T
  0.0759042801247225  0.8643214055395958  0.0269959910399996   T   T   T
  0.4089440166005692  0.8632563821341640  0.0269026369492584   T   T   T
  0.7420828043684702  0.8640967788339339  0.0269923508654130   T   T   T
  0.3271810216858103  0.0582173343899546  0.0440176468785947   T   T   T
  0.6595877924887238  0.0580650513587302  0.0440810682876421   T   T   T
  0.9931281403548258  0.0581803195624524  0.0439492034895591   T   T   T
  0.3263732248193303  0.5577738044273969  0.0440461511901087   T   T   T
  0.6602517844283095  0.5577718817956809  0.0440697150662430   T   T   T
  0.9931264873812116  0.5586144172575571  0.0439506356026495   T   T   T
  0.8307875305861763  0.8067226087537313  0.2062348921773909   T   T   T
  0.8318824790250676  0.3062681952881535  0.2059287288569704   T   T   T
  0.1628141095988876  0.3054300367314209  0.2056851398449244   T   T   T
  0.4967746682105406  0.3097974988216978  0.2069898536377415   T   T   T
  0.1627370047335763  0.8062370053258738  0.2060318757435601   T   T   T
  0.0907622283145118  0.1113699353654265  0.2222449945371644   T   T   T
  0.4164466131594757  0.1041547503631072  0.2236019629475005   T   T   T
  0.7556290196534178  0.1182274260835525  0.2218158974450710   T   T   T
  0.0951696964894307  0.5974824040841413  0.2220437990293885   T   T   T
  0.3683701980734805  0.5646835885281513  0.2301387791661837   T   T   T
  0.7833068468651732  0.5901023324223644  0.2223109261249702   T   T   T
  0.5082688965988343  0.5423613483164190  0.2662409063176193   T   T   T
  0.4742401815461826  0.4559679062938134  0.3008206223244275   T   T   T
  0.5228487212584926  0.6231997851857257  0.3091623486344052   T   T   T
  0.2898706308167774  0.2745127573036939  0.2967055269097056   T   T   T
  0.4392059411059016  0.2160547267437075  0.2889189128381365   T   T   T
  0.6384724932128060  0.7736889495567074  0.3350732740372975   T   T   T
  0.5023443120342970  0.8623403506722654  0.3273336592381235   T   T   T
  0.5717715143081206  0.5355040770560802  0.2403337584960528   T   T   T
  0.1710976464993343  0.3365223706160398  0.0327889408347729   T   T   T
  0.5043748997223851  0.3370588253178798  0.0329321544188386   T   T   T
  0.8375886478445510  0.3365793407286382  0.0328217073296259   T   T   T
  0.1710941902948743  0.8366229295998908  0.0328290231635490   T   T   T
  0.5042711150928482  0.8362952006005275  0.0327710906603773   T   T   T
  0.8373189959308087  0.8368271969499127  0.0328580148230827   T   T   T
  0.3198793828739098  0.0885191460338131  0.2173143226298709   T   T   T
  0.6578011463589126  0.0881889360928565  0.2176140967727962   T   T   T
  0.9922714214979800  0.0876542678678830  0.2173510397907022   T   T   T
  0.2976726679082391  0.5870021919304630  0.2176685483092084   T   T   T
  0.6807965067492273  0.5828057825438282  0.2182435787216706   T   T   T
  0.9937957125395890  0.5823013651459290  0.2172473225270635   T   T   T
  0.5314014904526811  0.5471672027677674  0.2965676880208633   T   T   T
  0.3902132226862768  0.2682225465334215  0.3015299633650901   T   T   T
  0.5364087920678613  0.7610364823979027  0.3316572262524845   T   T   T
  0.4898381925031039  0.5040503191163567  0.2504517969055956   T   T   T
  0.4961497061398324  0.2483422398141162  0.0590788452568037   T   T   T
  0.8294308720464932  0.2481275280752144  0.0589766990440569   T   T   T
  0.1628955703968748  0.7482109106374727  0.0589894903634055   T   T   T
  0.4961506436811183  0.7481327054327390  0.0589645279977061   T   T   T
  0.8292906331530842  0.7483012191642502  0.0590135182349886   T   T   T
  0.1628496891105005  0.2481046614667966  0.0589480572033961   T   T   T
  0.9947836962657861  0.0004165431702601  0.1385921158318776   T   T   T
  0.3296854129298293  0.0008761195465742  0.1388798136276215   T   T   T
  0.6599034821602345  0.0010103393135492  0.1389677322598133   T   T   T
  0.9948323915977337  0.5010584147872438  0.1385422764004867   T   T   T
  0.3282517680871403  0.5018643175856641  0.1388919436545901   T   T   T
  0.6614019882699284  0.5018221560604876  0.1388652459522704   T   T   T
  0.1620307690390251  0.2487094349612844  0.1645863107096593   T   T   T
  0.4945636756446322  0.2511339427530995  0.1654564038002148   T   T   T
  0.8276886858302557  0.2490117566812320  0.1647017684641985   T   T   T
  0.1619189069039744  0.7506621431054240  0.1649239074933974   T   T   T
  0.4946667969727316  0.7542449678202684  0.1663438483408782   T   T   T
  0.8278273725288635  0.7509810104740102  0.1650295328837571   T   T   T
  0.3335397205731018  0.9911467052725318  0.1915685739228888   T   T   T
  0.6551391353968464  0.9913774028163393  0.1917900854642919   T   T   T
  0.9949899912407206  0.9970142912124184  0.1912200347259251   T   T   T
  0.3248921970100537  0.5000636217152254  0.1918918431702609   T   T   T
  0.9953405525274877  0.4952444635300491  0.1908969203647247   T   T   T
  0.6635167053832079  0.4989287621693825  0.1916169180392899   T   T   T
  0.9953620550826160  0.0009418860847163  0.0855299507329993   T   T   T
  0.3289821677704214  0.0010643427144688  0.0855980868159179   T   T   T
  0.6617716073811776  0.0010639419222227  0.0856482313493853   T   T   T
  0.9953348589920661  0.5010432237719131  0.0855203750387708   T   T   T
  0.3287530200842898  0.5010216311804698  0.0856209774807508   T   T   T
  0.6620009761108054  0.5010467476745857  0.0856353279577238   T   T   T
  0.1619341199314196  0.2511341434751868  0.1117991113841057   T   T   T
  0.4950253393431553  0.2515079247094343  0.1120792901025129   T   T   T
  0.8281154151741401  0.2511375136257872  0.1118536144071134   T   T   T
  0.1621133456785921  0.7513405809737490  0.1118747420592272   T   T   T
  0.4950556532263251  0.7514852116405585  0.1119859855919305   T   T   T
  0.8279466716973987  0.7514110583084274  0.1119070863847017   T   T   T
 
  0.00000000E+00  0.00000000E+00  0.00000000E+00
  0.00000000E+00  0.00000000E+00  0.00000000E+00
  0.00000000E+00  0.00000000E+00  0.00000000E+00
  0.00000000E+00  0.00000000E+00  0.00000000E+00
  0.00000000E+00  0.00000000E+00  0.00000000E+00
  0.00000000E+00  0.00000000E+00  0.00000000E+00
  0.00000000E+00  0.00000000E+00  0.00000000E+00
  0.00000000E+00  0.00000000E+00  0.00000000E+00
  0.00000000E+00  0.00000000E+00  0.00000000E+00
  0.00000000E+00  0.00000000E+00  0.00000000E+00
  0.00000000E+00  0.00000000E+00  0.00000000E+00
  0.00000000E+00  0.00000000E+00  0.00000000E+00
  0.00000000E+00  0.00000000E+00  0.00000000E+00
  0.00000000E+00  0.00000000E+00  0.00000000E+00
  0.00000000E+00  0.00000000E+00  0.00000000E+00
  0.00000000E+00  0.00000000E+00  0.00000000E+00
  0.00000000E+00  0.00000000E+00  0.00000000E+00
  0.00000000E+00  0.00000000E+00  0.00000000E+00
  0.00000000E+00  0.00000000E+00  0.00000000E+00
  0.00000000E+00  0.00000000E+00  0.00000000E+00
  0.00000000E+00  0.00000000E+00  0.00000000E+00
  0.00000000E+00  0.00000000E+00  0.00000000E+00
  0.00000000E+00  0.00000000E+00  0.00000000E+00
  0.00000000E+00  0.00000000E+00  0.00000000E+00
  0.00000000E+00  0.00000000E+00  0.00000000E+00
  0.00000000E+00  0.00000000E+00  0.00000000E+00
  0.00000000E+00  0.00000000E+00  0.00000000E+00
  0.00000000E+00  0.00000000E+00  0.00000000E+00
  0.00000000E+00  0.00000000E+00  0.00000000E+00
  0.00000000E+00  0.00000000E+00  0.00000000E+00
  0.00000000E+00  0.00000000E+00  0.00000000E+00
  0.00000000E+00  0.00000000E+00  0.00000000E+00
  0.00000000E+00  0.00000000E+00  0.00000000E+00
  0.00000000E+00  0.00000000E+00  0.00000000E+00
  0.00000000E+00  0.00000000E+00  0.00000000E+00
  0.00000000E+00  0.00000000E+00  0.00000000E+00
  0.00000000E+00  0.00000000E+00  0.00000000E+00
  0.00000000E+00  0.00000000E+00  0.00000000E+00
  0.00000000E+00  0.00000000E+00  0.00000000E+00
  0.00000000E+00  0.00000000E+00  0.00000000E+00
  0.00000000E+00  0.00000000E+00  0.00000000E+00
  0.00000000E+00  0.00000000E+00  0.00000000E+00
  0.00000000E+00  0.00000000E+00  0.00000000E+00
  0.00000000E+00  0.00000000E+00  0.00000000E+00
  0.00000000E+00  0.00000000E+00  0.00000000E+00
  0.00000000E+00  0.00000000E+00  0.00000000E+00
  0.00000000E+00  0.00000000E+00  0.00000000E+00
  0.00000000E+00  0.00000000E+00  0.00000000E+00
  0.00000000E+00  0.00000000E+00  0.00000000E+00
  0.00000000E+00  0.00000000E+00  0.00000000E+00
  0.00000000E+00  0.00000000E+00  0.00000000E+00
  0.00000000E+00  0.00000000E+00  0.00000000E+00
  0.00000000E+00  0.00000000E+00  0.00000000E+00
  0.00000000E+00  0.00000000E+00  0.00000000E+00
  0.00000000E+00  0.00000000E+00  0.00000000E+00
  0.00000000E+00  0.00000000E+00  0.00000000E+00
  0.00000000E+00  0.00000000E+00  0.00000000E+00
  0.00000000E+00  0.00000000E+00  0.00000000E+00
  0.00000000E+00  0.00000000E+00  0.00000000E+00
  0.00000000E+00  0.00000000E+00  0.00000000E+00
  0.00000000E+00  0.00000000E+00  0.00000000E+00
  0.00000000E+00  0.00000000E+00  0.00000000E+00
  0.00000000E+00  0.00000000E+00  0.00000000E+00
  0.00000000E+00  0.00000000E+00  0.00000000E+00
  0.00000000E+00  0.00000000E+00  0.00000000E+00
  0.00000000E+00  0.00000000E+00  0.00000000E+00
  0.00000000E+00  0.00000000E+00  0.00000000E+00
  0.00000000E+00  0.00000000E+00  0.00000000E+00
  0.00000000E+00  0.00000000E+00  0.00000000E+00
  0.00000000E+00  0.00000000E+00  0.00000000E+00
  0.00000000E+00  0.00000000E+00  0.00000000E+00
  0.00000000E+00  0.00000000E+00  0.00000000E+00
  0.00000000E+00  0.00000000E+00  0.00000000E+00
  0.00000000E+00  0.00000000E+00  0.00000000E+00
  0.00000000E+00  0.00000000E+00  0.00000000E+00
  0.00000000E+00  0.00000000E+00  0.00000000E+00
  0.00000000E+00  0.00000000E+00  0.00000000E+00
  0.00000000E+00  0.00000000E+00  0.00000000E+00
  0.00000000E+00  0.00000000E+00  0.00000000E+00
  0.00000000E+00  0.00000000E+00  0.00000000E+00
  0.00000000E+00  0.00000000E+00  0.00000000E+00
  0.00000000E+00  0.00000000E+00  0.00000000E+00
  0.00000000E+00  0.00000000E+00  0.00000000E+00
  0.00000000E+00  0.00000000E+00  0.00000000E+00
  0.00000000E+00  0.00000000E+00  0.00000000E+00
  0.00000000E+00  0.00000000E+00  0.00000000E+00
  0.00000000E+00  0.00000000E+00  0.00000000E+00
  0.00000000E+00  0.00000000E+00  0.00000000E+00
  0.00000000E+00  0.00000000E+00  0.00000000E+00
  0.00000000E+00  0.00000000E+00  0.00000000E+00
  0.00000000E+00  0.00000000E+00  0.00000000E+00
  0.00000000E+00  0.00000000E+00  0.00000000E+00
  0.00000000E+00  0.00000000E+00  0.00000000E+00
  0.00000000E+00  0.00000000E+00  0.00000000E+00
  0.00000000E+00  0.00000000E+00  0.00000000E+00
  0.00000000E+00  0.00000000E+00  0.00000000E+00
  0.00000000E+00  0.00000000E+00  0.00000000E+00
  0.00000000E+00  0.00000000E+00  0.00000000E+00
  0.00000000E+00  0.00000000E+00  0.00000000E+00
  0.00000000E+00  0.00000000E+00  0.00000000E+00
  0.00000000E+00  0.00000000E+00  0.00000000E+00
  0.00000000E+00  0.00000000E+00  0.00000000E+00
  0.00000000E+00  0.00000000E+00  0.00000000E+00
  0.00000000E+00  0.00000000E+00  0.00000000E+00
  0.00000000E+00  0.00000000E+00  0.00000000E+00
  0.00000000E+00  0.00000000E+00  0.00000000E+00
  0.00000000E+00  0.00000000E+00  0.00000000E+00
  0.00000000E+00  0.00000000E+00  0.00000000E+00
  0.00000000E+00  0.00000000E+00  0.00000000E+00
  0.00000000E+00  0.00000000E+00  0.00000000E+00
  0.00000000E+00  0.00000000E+00  0.00000000E+00
  0.00000000E+00  0.00000000E+00  0.00000000E+00
  0.00000000E+00  0.00000000E+00  0.00000000E+00
  0.00000000E+00  0.00000000E+00  0.00000000E+00
  0.00000000E+00  0.00000000E+00  0.00000000E+00
  0.00000000E+00  0.00000000E+00  0.00000000E+00
  0.00000000E+00  0.00000000E+00  0.00000000E+00
  0.00000000E+00  0.00000000E+00  0.00000000E+00
  0.00000000E+00  0.00000000E+00  0.00000000E+00
