C H O Si                                
   1.00000000000000     
     9.2874599999999994    0.0000000000000000    0.0000000000000000
     0.0000000000000000    8.7563099999999991    0.0000000000000000
     0.0000000000000000    0.0000000000000000   58.0000000000000000
   C    H    O    Si
    36    31    16    36
Selective dynamics
Direct
  0.9958957709296097  0.1308643852120393  0.0594405377195333   T   T   T
  0.3293960775079988  0.1310689119186700  0.0594990397260470   T   T   T
  0.6625422719288230  0.1309491505109430  0.0595464274612889   T   T   T
  0.9958682912107044  0.6311513545758805  0.0594613911379518   T   T   T
  0.3292962786382672  0.6308547191045017  0.0594937252725599   T   T   T
  0.6625880385820262  0.6307312040995027  0.0595269058237116   T   T   T
  0.1614545135611531  0.3766493973829939  0.1381697539746138   T   T   T
  0.4947231078598863  0.3768537757607637  0.1386507701228180   T   T   T
  0.8281315121150993  0.3767097959779004  0.1382449083297100   T   T   T
  0.1618572310826376  0.8764353610312784  0.1383167836011729   T   T   T
  0.4947375470223557  0.8746173729871943  0.1383593368924484   T   T   T
  0.8275893726613959  0.8765621114198267  0.1383747525480908   T   T   T
  0.3279426072495717  0.1268587066020999  0.1656602166159143   T   T   T
  0.6616167839300025  0.1270841470391900  0.1657986251530240   T   T   T
  0.9945840834826004  0.1257216686723699  0.1652543480366107   T   T   T
  0.3277370750935595  0.6267311234512003  0.1657087490808878   T   T   T
  0.6618240987420557  0.6269132348155699  0.1656827409980497   T   T   T
  0.9946972186020243  0.6266108164435031  0.1653211060691905   T   T   T
  0.1610986518208904  0.3779079245469199  0.1901889890024062   T   T   T
  0.4942846086417141  0.3847167302267998  0.1917570070999550   T   T   T
  0.8287300837923511  0.3790009993295646  0.1904637448715139   T   T   T
  0.1613775259643575  0.8804209197768375  0.1907042707508938   T   T   T
  0.4946944388282596  0.8773632321511937  0.1913822215794870   T   T   T
  0.8283169090690408  0.8810616018173995  0.1909100750844400   T   T   T
  0.1620469121567221  0.3769823222597083  0.0847746977731363   T   T   T
  0.4952402423180456  0.3770432712709990  0.0849538606034280   T   T   T
  0.8286172873120679  0.3770300876522092  0.0848155059285383   T   T   T
  0.1621893538247630  0.8770543555597774  0.0848256001799457   T   T   T
  0.4952471148289237  0.8767661070886876  0.0847792596822914   T   T   T
  0.8284671812816097  0.8771660292506954  0.0848572021642647   T   T   T
  0.3285437290797320  0.1264682831599523  0.1120460499917941   T   T   T
  0.6614962670299889  0.1264351705200486  0.1121062836048781   T   T   T
  0.9948523675521158  0.1264288254367081  0.1119399365703440   T   T   T
  0.3283857253136445  0.6263516474589874  0.1120378844250717   T   T   T
  0.6617401204303734  0.6263275579104188  0.1120427870450392   T   T   T
  0.9948677582656331  0.6269132550068008  0.1119271615359282   T   T   T
  0.0760771515460888  0.3642399558576551  0.0269538259344751   T   T   T
  0.4092151720337868  0.3642414774527151  0.0270646255482424   T   T   T
  0.7425190209887347  0.3641577237991902  0.0269892761390139   T   T   T
  0.0760163285076433  0.8642921503953487  0.0270030601598663   T   T   T
  0.4089988089448318  0.8632063113113012  0.0268901969272303   T   T   T
  0.7422279939579345  0.8640534619591453  0.0269920430268293   T   T   T
  0.3272570483536887  0.0583270813309640  0.0440154816492263   T   T   T
  0.6596597703784568  0.0581270306921803  0.0440744841856416   T   T   T
  0.9931914121569179  0.0582455298771285  0.0439472869615641   T   T   T
  0.3264062000194689  0.5577923059011569  0.0440496240086316   T   T   T
  0.6604026131471736  0.5577792381633084  0.0440678043591681   T   T   T
  0.9931786307911581  0.5587419543579291  0.0439467655107692   T   T   T
  0.8308694225630133  0.8068679133921729  0.2062300274701261   T   T   T
  0.8318675784386981  0.3062708986297884  0.2059329726452556   T   T   T
  0.1625732467815763  0.3053500937608963  0.2056846226438035   T   T   T
  0.4966636480164703  0.3097679677844979  0.2070050727024579   T   T   T
  0.1628009147835382  0.8063283945224538  0.2060293794196472   T   T   T
  0.0908389135168914  0.1114040951342936  0.2222151634432468   T   T   T
  0.4167661899169956  0.1035935130383145  0.2235882117180149   T   T   T
  0.7558457016519843  0.1181772655558096  0.2218069451356214   T   T   T
  0.0952769152551178  0.5973789596497472  0.2220337276134687   T   T   T
  0.3685089527062692  0.5647975155477347  0.2301113539882752   T   T   T
  0.7831303952849051  0.5900130542092141  0.2223183030677510   T   T   T
  0.5082126815561685  0.5427224129367597  0.2662162772929520   T   T   T
  0.4740944976671346  0.4558654529811332  0.3008062511385491   T   T   T
  0.5226602573919356  0.6231609740477837  0.3091449845771119   T   T   T
  0.2898865455284011  0.2743105695515453  0.2966648555592528   T   T   T
  0.4393113902952207  0.2163564298901270  0.2888690324665309   T   T   T
  0.6386146182703625  0.7734933680222359  0.3350572943357630   T   T   T
  0.5024133302183041  0.8623868172420383  0.3273608581746589   T   T   T
  0.5714678648973521  0.5359007913843226  0.2403250164324807   T   T   T
  0.1713040459544794  0.3366645601018166  0.0327982937979825   T   T   T
  0.5044795798358798  0.3370648781638376  0.0329229319623287   T   T   T
  0.8378197273325293  0.3366746426018216  0.0328226845549790   T   T   T
  0.1712491471835421  0.8366845714909887  0.0328350038762392   T   T   T
  0.5043952724689252  0.8365353500698315  0.0327786382869987   T   T   T
  0.8375307340745527  0.8369137894073688  0.0328497613835884   T   T   T
  0.3200164450964731  0.0884879150515388  0.2173314027119810   T   T   T
  0.6579453379594026  0.0884373019593336  0.2176041982893414   T   T   T
  0.9923603013109970  0.0875176151862832  0.2173418972540196   T   T   T
  0.2975942366427855  0.5867219284671661  0.2176638803570460   T   T   T
  0.6807248120276187  0.5826476604883508  0.2182115024387841   T   T   T
  0.9938501173036232  0.5824429854544152  0.2172413494103852   T   T   T
  0.5310897521545129  0.5471430715944612  0.2965469005027610   T   T   T
  0.3902359222348308  0.2682341337629378  0.3014948743440188   T   T   T
  0.5365565303102016  0.7610031708966382  0.3316182390398272   T   T   T
  0.4900551580257237  0.5034530399955258  0.2504733929431146   T   T   T
  0.4962394736857338  0.2483452456640207  0.0590894455146766   T   T   T
  0.8294564024357632  0.2481607869366637  0.0589971489658087   T   T   T
  0.1629084346858481  0.7482266848539642  0.0590102653231132   T   T   T
  0.4961562086586468  0.7481753658152073  0.0589858967853686   T   T   T
  0.8292866741974313  0.7483409478163146  0.0590205560398733   T   T   T
  0.1628523366087634  0.2481543111255700  0.0589657161558603   T   T   T
  0.9946019338510789  0.0003895198607041  0.1385941459464847   T   T   T
  0.3296703207830924  0.0008156316576524  0.1388887775295430   T   T   T
  0.6597650892051516  0.0009901299289943  0.1389738711326849   T   T   T
  0.9946924950599590  0.5010897893006013  0.1385361100305071   T   T   T
  0.3281818625432085  0.5018423425359082  0.1389062361407246   T   T   T
  0.6612338054150838  0.5017926829117224  0.1388730239000213   T   T   T
  0.1619239757968572  0.2487660559378961  0.1645784413298520   T   T   T
  0.4945388077664029  0.2510871452142411  0.1654545967266878   T   T   T
  0.8275643942036411  0.2490380325190437  0.1647152613226686   T   T   T
  0.1619311774649674  0.7506320301210352  0.1649226696818217   T   T   T
  0.4945850867543217  0.7540169184876842  0.1663497645166525   T   T   T
  0.8277720691313406  0.7510507366963007  0.1650319479573684   T   T   T
  0.3336264054892119  0.9909971358409947  0.1915848124409816   T   T   T
  0.6551894261732090  0.9913690070296237  0.1918089204334551   T   T   T
  0.9950079289718755  0.9970407391731254  0.1912147920397801   T   T   T
  0.3248633416919636  0.4999469453449216  0.1918893724643935   T   T   T
  0.9952582254458283  0.4952864389151629  0.1909011849594171   T   T   T
  0.6633523214591993  0.4989811408900537  0.1916190823421210   T   T   T
  0.9952158193152912  0.0010452638497233  0.0855407153792774   T   T   T
  0.3289024015900204  0.0011056479201469  0.0856085991872924   T   T   T
  0.6614747421375721  0.0011543698483765  0.0856567024300506   T   T   T
  0.9952050903124717  0.5011811610799657  0.0855373616087644   T   T   T
  0.3285709870122220  0.5011643613176928  0.0856286898598332   T   T   T
  0.6618339428997549  0.5010971463373298  0.0856415584565700   T   T   T
  0.1618358610266500  0.2511676125668144  0.1118175543654781   T   T   T
  0.4948885006527761  0.2513966587856328  0.1120863081755196   T   T   T
  0.8279602337768950  0.2511121605508906  0.1118588024413240   T   T   T
  0.1619314760419630  0.7513278681653427  0.1118705898462852   T   T   T
  0.4949298465747972  0.7514795723603155  0.1119886633275793   T   T   T
  0.8278623677279658  0.7513969509472095  0.1119124642465460   T   T   T
 
  0.00000000E+00  0.00000000E+00  0.00000000E+00
  0.00000000E+00  0.00000000E+00  0.00000000E+00
  0.00000000E+00  0.00000000E+00  0.00000000E+00
  0.00000000E+00  0.00000000E+00  0.00000000E+00
  0.00000000E+00  0.00000000E+00  0.00000000E+00
  0.00000000E+00  0.00000000E+00  0.00000000E+00
  0.00000000E+00  0.00000000E+00  0.00000000E+00
  0.00000000E+00  0.00000000E+00  0.00000000E+00
  0.00000000E+00  0.00000000E+00  0.00000000E+00
  0.00000000E+00  0.00000000E+00  0.00000000E+00
  0.00000000E+00  0.00000000E+00  0.00000000E+00
  0.00000000E+00  0.00000000E+00  0.00000000E+00
  0.00000000E+00  0.00000000E+00  0.00000000E+00
  0.00000000E+00  0.00000000E+00  0.00000000E+00
  0.00000000E+00  0.00000000E+00  0.00000000E+00
  0.00000000E+00  0.00000000E+00  0.00000000E+00
  0.00000000E+00  0.00000000E+00  0.00000000E+00
  0.00000000E+00  0.00000000E+00  0.00000000E+00
  0.00000000E+00  0.00000000E+00  0.00000000E+00
  0.00000000E+00  0.00000000E+00  0.00000000E+00
  0.00000000E+00  0.00000000E+00  0.00000000E+00
  0.00000000E+00  0.00000000E+00  0.00000000E+00
  0.00000000E+00  0.00000000E+00  0.00000000E+00
  0.00000000E+00  0.00000000E+00  0.00000000E+00
  0.00000000E+00  0.00000000E+00  0.00000000E+00
  0.00000000E+00  0.00000000E+00  0.00000000E+00
  0.00000000E+00  0.00000000E+00  0.00000000E+00
  0.00000000E+00  0.00000000E+00  0.00000000E+00
  0.00000000E+00  0.00000000E+00  0.00000000E+00
  0.00000000E+00  0.00000000E+00  0.00000000E+00
  0.00000000E+00  0.00000000E+00  0.00000000E+00
  0.00000000E+00  0.00000000E+00  0.00000000E+00
  0.00000000E+00  0.00000000E+00  0.00000000E+00
  0.00000000E+00  0.00000000E+00  0.00000000E+00
  0.00000000E+00  0.00000000E+00  0.00000000E+00
  0.00000000E+00  0.00000000E+00  0.00000000E+00
  0.00000000E+00  0.00000000E+00  0.00000000E+00
  0.00000000E+00  0.00000000E+00  0.00000000E+00
  0.00000000E+00  0.00000000E+00  0.00000000E+00
  0.00000000E+00  0.00000000E+00  0.00000000E+00
  0.00000000E+00  0.00000000E+00  0.00000000E+00
  0.00000000E+00  0.00000000E+00  0.00000000E+00
  0.00000000E+00  0.00000000E+00  0.00000000E+00
  0.00000000E+00  0.00000000E+00  0.00000000E+00
  0.00000000E+00  0.00000000E+00  0.00000000E+00
  0.00000000E+00  0.00000000E+00  0.00000000E+00
  0.00000000E+00  0.00000000E+00  0.00000000E+00
  0.00000000E+00  0.00000000E+00  0.00000000E+00
  0.00000000E+00  0.00000000E+00  0.00000000E+00
  0.00000000E+00  0.00000000E+00  0.00000000E+00
  0.00000000E+00  0.00000000E+00  0.00000000E+00
  0.00000000E+00  0.00000000E+00  0.00000000E+00
  0.00000000E+00  0.00000000E+00  0.00000000E+00
  0.00000000E+00  0.00000000E+00  0.00000000E+00
  0.00000000E+00  0.00000000E+00  0.00000000E+00
  0.00000000E+00  0.00000000E+00  0.00000000E+00
  0.00000000E+00  0.00000000E+00  0.00000000E+00
  0.00000000E+00  0.00000000E+00  0.00000000E+00
  0.00000000E+00  0.00000000E+00  0.00000000E+00
  0.00000000E+00  0.00000000E+00  0.00000000E+00
  0.00000000E+00  0.00000000E+00  0.00000000E+00
  0.00000000E+00  0.00000000E+00  0.00000000E+00
  0.00000000E+00  0.00000000E+00  0.00000000E+00
  0.00000000E+00  0.00000000E+00  0.00000000E+00
  0.00000000E+00  0.00000000E+00  0.00000000E+00
  0.00000000E+00  0.00000000E+00  0.00000000E+00
  0.00000000E+00  0.00000000E+00  0.00000000E+00
  0.00000000E+00  0.00000000E+00  0.00000000E+00
  0.00000000E+00  0.00000000E+00  0.00000000E+00
  0.00000000E+00  0.00000000E+00  0.00000000E+00
  0.00000000E+00  0.00000000E+00  0.00000000E+00
  0.00000000E+00  0.00000000E+00  0.00000000E+00
  0.00000000E+00  0.00000000E+00  0.00000000E+00
  0.00000000E+00  0.00000000E+00  0.00000000E+00
  0.00000000E+00  0.00000000E+00  0.00000000E+00
  0.00000000E+00  0.00000000E+00  0.00000000E+00
  0.00000000E+00  0.00000000E+00  0.00000000E+00
  0.00000000E+00  0.00000000E+00  0.00000000E+00
  0.00000000E+00  0.00000000E+00  0.00000000E+00
  0.00000000E+00  0.00000000E+00  0.00000000E+00
  0.00000000E+00  0.00000000E+00  0.00000000E+00
  0.00000000E+00  0.00000000E+00  0.00000000E+00
  0.00000000E+00  0.00000000E+00  0.00000000E+00
  0.00000000E+00  0.00000000E+00  0.00000000E+00
  0.00000000E+00  0.00000000E+00  0.00000000E+00
  0.00000000E+00  0.00000000E+00  0.00000000E+00
  0.00000000E+00  0.00000000E+00  0.00000000E+00
  0.00000000E+00  0.00000000E+00  0.00000000E+00
  0.00000000E+00  0.00000000E+00  0.00000000E+00
  0.00000000E+00  0.00000000E+00  0.00000000E+00
  0.00000000E+00  0.00000000E+00  0.00000000E+00
  0.00000000E+00  0.00000000E+00  0.00000000E+00
  0.00000000E+00  0.00000000E+00  0.00000000E+00
  0.00000000E+00  0.00000000E+00  0.00000000E+00
  0.00000000E+00  0.00000000E+00  0.00000000E+00
  0.00000000E+00  0.00000000E+00  0.00000000E+00
  0.00000000E+00  0.00000000E+00  0.00000000E+00
  0.00000000E+00  0.00000000E+00  0.00000000E+00
  0.00000000E+00  0.00000000E+00  0.00000000E+00
  0.00000000E+00  0.00000000E+00  0.00000000E+00
  0.00000000E+00  0.00000000E+00  0.00000000E+00
  0.00000000E+00  0.00000000E+00  0.00000000E+00
  0.00000000E+00  0.00000000E+00  0.00000000E+00
  0.00000000E+00  0.00000000E+00  0.00000000E+00
  0.00000000E+00  0.00000000E+00  0.00000000E+00
  0.00000000E+00  0.00000000E+00  0.00000000E+00
  0.00000000E+00  0.00000000E+00  0.00000000E+00
  0.00000000E+00  0.00000000E+00  0.00000000E+00
  0.00000000E+00  0.00000000E+00  0.00000000E+00
  0.00000000E+00  0.00000000E+00  0.00000000E+00
  0.00000000E+00  0.00000000E+00  0.00000000E+00
  0.00000000E+00  0.00000000E+00  0.00000000E+00
  0.00000000E+00  0.00000000E+00  0.00000000E+00
  0.00000000E+00  0.00000000E+00  0.00000000E+00
  0.00000000E+00  0.00000000E+00  0.00000000E+00
  0.00000000E+00  0.00000000E+00  0.00000000E+00
  0.00000000E+00  0.00000000E+00  0.00000000E+00
  0.00000000E+00  0.00000000E+00  0.00000000E+00
  0.00000000E+00  0.00000000E+00  0.00000000E+00
  0.00000000E+00  0.00000000E+00  0.00000000E+00
  0.00000000E+00  0.00000000E+00  0.00000000E+00
