C H O Si                                
   1.00000000000000     
    18.5749199999999988    0.0000000000000000    0.0000000000000000
     0.0000000000000000   17.5126199999999983    0.0000000000000000
     0.0000000000000000    0.0000000000000000   58.0000000000000000
   C    H    O    Si
   144   105    52   144
Selective dynamics
Direct
  0.4995244250113749  0.0653537783886554  0.0600831287312113   T   T   T
  0.1661976497827237  0.0654041557639503  0.0601176815867829   T   T   T
  0.3327713796987757  0.0653879183799409  0.0601062180198819   T   T   T
  0.4995402931148870  0.3154094334272353  0.0600642612503557   T   T   T
  0.1661886136972493  0.3154316327755702  0.0601323220987146   T   T   T
  0.3327894522958824  0.3154219865346687  0.0601218136400029   T   T   T
  0.0827587104808912  0.1880975152495280  0.1390075526668582   T   T   T
  0.2494133732942544  0.1881386961049844  0.1390130931231223   T   T   T
  0.4160682332541202  0.1880964427827998  0.1389674358572595   T   T   T
  0.0826940973511423  0.4381459670920163  0.1390419019851158   T   T   T
  0.2493914287932560  0.4381857017771328  0.1390192464639030   T   T   T
  0.4160968146900196  0.4382256129296587  0.1389803580900412   T   T   T
  0.1662552426255246  0.0631462637780921  0.1661401901825182   T   T   T
  0.3327607962745827  0.0631398668265401  0.1661263199250443   T   T   T
  0.4993251712040611  0.0628866425931032  0.1660156630513500   T   T   T
  0.1662017266259788  0.3132555901371019  0.1661560830830172   T   T   T
  0.3327843329455960  0.3132926195326409  0.1661408976514849   T   T   T
  0.4992990925526440  0.3132176488408033  0.1659965396315489   T   T   T
  0.0829608272147274  0.1901055012127671  0.1915247991234484   T   T   T
  0.2494433740827672  0.1903206257442802  0.1915447769619642   T   T   T
  0.4159294493899213  0.1902375343055262  0.1915007800590552   T   T   T
  0.0826007866689095  0.4403168845951763  0.1915792353783577   T   T   T
  0.2494649029824626  0.4403421437734854  0.1915565477136189   T   T   T
  0.4163526184559647  0.4404238108090883  0.1915331874966704   T   T   T
  0.0827403214272087  0.1883035974342673  0.0854637996903331   T   T   T
  0.2493871070207746  0.1883553384594301  0.0854634703698628   T   T   T
  0.4161144003726480  0.1883047615759826  0.0854420960652111   T   T   T
  0.0827362163752439  0.4383045749497714  0.0854833763258975   T   T   T
  0.2494199985423334  0.4383735744796704  0.0854772729103123   T   T   T
  0.4161544528694244  0.4383677043852797  0.0854431741421046   T   T   T
  0.1661322828988042  0.0631302683668144  0.1126185761198126   T   T   T
  0.3327050776616384  0.0630975721143292  0.1125969548533228   T   T   T
  0.4994245224003313  0.0630951434158977  0.1125843153967184   T   T   T
  0.1661251507100424  0.3131757126892944  0.1126299294038298   T   T   T
  0.3327365136315088  0.3131635932987750  0.1126139606596482   T   T   T
  0.4994322816329646  0.3131785554773046  0.1125579619967446   T   T   T
  0.4995757821388868  0.5654657196614232  0.0600814843864127   T   T   T
  0.1662106572172572  0.5653903698960733  0.0601397056805599   T   T   T
  0.3328227842332575  0.5654458282587264  0.0601155706332363   T   T   T
  0.4995424923230233  0.8154585657241286  0.0601051260771215   T   T   T
  0.1661693152728940  0.8153404203819911  0.0601307876818124   T   T   T
  0.3327659160746472  0.8153695901943478  0.0601109860055728   T   T   T
  0.0827356404458095  0.6881091465061931  0.1390481028669301   T   T   T
  0.2493901493991672  0.6881218024125726  0.1390276940322325   T   T   T
  0.4160836270707467  0.6882172019117450  0.1389936323872728   T   T   T
  0.0827829347616782  0.9380459063082507  0.1390107258853451   T   T   T
  0.2493966325868927  0.9380766067139514  0.1390071853843702   T   T   T
  0.4160278693552508  0.9380021837594764  0.1389669302110915   T   T   T
  0.1661461063857815  0.5632059786437448  0.1661744446389240   T   T   T
  0.3328013697794114  0.5632332014630499  0.1661478269750795   T   T   T
  0.4994152182881844  0.5633904298468704  0.1660949822383367   T   T   T
  0.1661989231772422  0.8131719909110341  0.1661653910596720   T   T   T
  0.3327982923751290  0.8131757149202580  0.1661501674012059   T   T   T
  0.4994832604427796  0.8132575904129714  0.1661385031075996   T   T   T
  0.0827601393121821  0.6902868186806771  0.1915744214043915   T   T   T
  0.2494471670038328  0.6902906506259675  0.1915702621408269   T   T   T
  0.4161326348612151  0.6902690361068904  0.1915260728592417   T   T   T
  0.0827976366027321  0.9402681105934100  0.1915427461990424   T   T   T
  0.2494617112329598  0.9402491287540505  0.1915481693252296   T   T   T
  0.4161225216843943  0.9402863160331784  0.1915331633861337   T   T   T
  0.0827160203893615  0.6882771066762782  0.0854931552875400   T   T   T
  0.2493723499861618  0.6883110512170286  0.0854700673094198   T   T   T
  0.4161358357790415  0.6883756478668360  0.0854537598162748   T   T   T
  0.0827540615337659  0.9382975342222146  0.0854662575315806   T   T   T
  0.2493634937305879  0.9382958154577872  0.0854545615988955   T   T   T
  0.4160827389176819  0.9382949150835251  0.0854402925356125   T   T   T
  0.1661088105330582  0.5631540003831907  0.1126399407822802   T   T   T
  0.3327326177310599  0.5631751336150361  0.1126139337259114   T   T   T
  0.4994387090394686  0.5632109891198263  0.1125934638236476   T   T   T
  0.1661247057316697  0.8131081825922373  0.1126302094957625   T   T   T
  0.3326923518911067  0.8131004745144428  0.1126006848821858   T   T   T
  0.4994104152678784  0.8132519621810125  0.1126180217099656   T   T   T
  0.9995051524874720  0.0653541095995323  0.0601114356042123   T   T   T
  0.6662449386099820  0.0653923067280668  0.0601605951073967   T   T   T
  0.8327761595698602  0.0653666765308431  0.0601858810221522   T   T   T
  0.9995140340848839  0.3153958949850418  0.0601281273046876   T   T   T
  0.6662255157507158  0.3153401272111442  0.0601052981040447   T   T   T
  0.8328104803229658  0.3152923230129622  0.0601406843330994   T   T   T
  0.5827282983653905  0.1880858135430427  0.1388796706010328   T   T   T
  0.7493263129338755  0.1885539187066863  0.1392714598031805   T   T   T
  0.9160390852137666  0.1882590494302881  0.1389576824336374   T   T   T
  0.5827197221020934  0.4382092823863105  0.1389685197226984   T   T   T
  0.7493215445160759  0.4373125767909010  0.1389344084769349   T   T   T
  0.9160081159789764  0.4381576970059203  0.1390861889599859   T   T   T
  0.6664214704489785  0.0634320363043081  0.1662307405960369   T   T   T
  0.8324853692112062  0.0637433263149395  0.1663000156421106   T   T   T
  0.9995696671123275  0.0630836814520620  0.1660720254012949   T   T   T
  0.6657771160950524  0.3135140014957570  0.1663069408910610   T   T   T
  0.8328128310506557  0.3134890912770421  0.1662854074590286   T   T   T
  0.9995322699804264  0.3132737690355527  0.1661351125831071   T   T   T
  0.5823632979681279  0.1891519397568237  0.1909779075593585   T   T   T
  0.7489433635058886  0.1925298059702565  0.1923151115467275   T   T   T
  0.9163370598209589  0.1896707277666271  0.1912102877043987   T   T   T
  0.5827995352813166  0.4403792051918791  0.1914243129156140   T   T   T
  0.7492188400424900  0.4390159819812640  0.1918418340147751   T   T   T
  0.9158933561152408  0.4403080805991544  0.1916303910734963   T   T   T
  0.5827533292146679  0.1882979272070568  0.0854012136829531   T   T   T
  0.7493785561351084  0.1883809162088534  0.0855863054698732   T   T   T
  0.9160978550512051  0.1882963057717259  0.0854570032632558   T   T   T
  0.5828051547618395  0.4383567681914079  0.0854227883322921   T   T   T
  0.7494025015649119  0.4382791973372922  0.0853497993746511   T   T   T
  0.9160682493725445  0.4382923892757628  0.0855051566004185   T   T   T
  0.6661871397293193  0.0632451439020307  0.1126767480023779   T   T   T
  0.8326868280438283  0.0632912504917375  0.1127105766361230   T   T   T
  0.9994130870514903  0.0631410660735808  0.1126263997944137   T   T   T
  0.6660928577332244  0.3131378959851280  0.1126475910534751   T   T   T
  0.8326987437239538  0.3131273461681702  0.1126523661553386   T   T   T
  0.9993975169097804  0.3131903163151696  0.1126381853296299   T   T   T
  0.9995286152839747  0.5653559944311681  0.0601457436079970   T   T   T
  0.6662702045882031  0.5654892923822231  0.0600680780785522   T   T   T
  0.8328480573864990  0.5654462484242386  0.0601219778470424   T   T   T
  0.9994962852873757  0.8153745646776568  0.0601496732698266   T   T   T
  0.6662481244433450  0.8154500634568120  0.0601439850558201   T   T   T
  0.8327813677356096  0.8154057363413342  0.0601613807847050   T   T   T
  0.5826067937531725  0.6882933959134504  0.1389732008198858   T   T   T
  0.7494035609768603  0.6880360229311615  0.1390613741270318   T   T   T
  0.9162073385530798  0.6882245576991993  0.1390332947967037   T   T   T
  0.5828577036795308  0.9382122677789861  0.1390470168321490   T   T   T
  0.7494523473433473  0.9381561331598764  0.1390536513908386   T   T   T
  0.9159879216029593  0.9382881720174642  0.1390729464743666   T   T   T
  0.6657088545096591  0.5633674726255651  0.1662161703264404   T   T   T
  0.8330311918962653  0.5631738655082051  0.1663363703573293   T   T   T
  0.9994234285400300  0.5632624996277678  0.1661806854929150   T   T   T
  0.6662238516822034  0.8131624792304037  0.1661692101917646   T   T   T
  0.8327827673748039  0.8131536181985320  0.1661861183101790   T   T   T
  0.9994757315462138  0.8132614287852529  0.1661605373678018   T   T   T
  0.5827053404995201  0.6903227615736867  0.1915354453151114   T   T   T
  0.7493961696154451  0.6901740985596102  0.1915905071331102   T   T   T
  0.9161824420060360  0.6903620536962721  0.1915581450997945   T   T   T
  0.5827779007498571  0.9403093986350599  0.1915619883358810   T   T   T
  0.7494421283328979  0.9403137411036047  0.1915756192000021   T   T   T
  0.9160897361005390  0.9404307709242099  0.1915556099385338   T   T   T
  0.5827819514344823  0.6883567377441310  0.0854413743535956   T   T   T
  0.7494265389241958  0.6883479577715593  0.0854803208535798   T   T   T
  0.9161101721215229  0.6882911360837588  0.0855012692502631   T   T   T
  0.5827988581378729  0.9383447078439894  0.0854803041537316   T   T   T
  0.7494326714943490  0.9383777510100517  0.0855096488137188   T   T   T
  0.9160907500347500  0.9383475990823786  0.0855142279835298   T   T   T
  0.6661480403419464  0.5630557936995824  0.1126200434801178   T   T   T
  0.8326950579875948  0.5629940512891571  0.1126827827500187   T   T   T
  0.9993859736443439  0.5631200837690223  0.1126672574834447   T   T   T
  0.6661690438074699  0.8131640420924886  0.1126409975012054   T   T   T
  0.8327398817226763  0.8131513787816597  0.1126544185570855   T   T   T
  0.9994387108472217  0.8132367691101002  0.1126604986083347   T   T   T
  0.0407769278589685  0.1793070385574057  0.0265125563113636   T   T   T
  0.2073391204963546  0.1792755171954750  0.0265187962743070   T   T   T
  0.3739537390631075  0.1792361892479365  0.0265126505025030   T   T   T
  0.0408008547153531  0.4292832987644588  0.0265270345778924   T   T   T
  0.2073361779391676  0.4291898994319094  0.0265253440730907   T   T   T
  0.3738318100872763  0.4291597241569106  0.0265234755100116   T   T   T
  0.1650029455894978  0.0290978526643403  0.0446055435692684   T   T   T
  0.3315896853570976  0.0290892741783715  0.0445920629999307   T   T   T
  0.4982691046765239  0.0290510273034806  0.0445678251394603   T   T   T
  0.1649795180667739  0.2791004251204696  0.0446272185775661   T   T   T
  0.3316084848170078  0.2790790742364817  0.0446168427500307   T   T   T
  0.4983217359038127  0.2791318870791118  0.0445450297883343   T   T   T
  0.4178115560739181  0.4039757184257493  0.2070093938875827   T   T   T
  0.4173294818831960  0.1539330193653107  0.2069997791409239   T   T   T
  0.0841306036131381  0.1538064907312875  0.2070241076208299   T   T   T
  0.2507380806347357  0.1539977656666681  0.2070424203869483   T   T   T
  0.0838886155629158  0.4038384829905682  0.2070502334271397   T   T   T
  0.2507491681930633  0.4039390387296323  0.2070388498270631   T   T   T
  0.0419734714946485  0.0543751784515004  0.2249698260543833   T   T   T
  0.2083013453282177  0.0544817656895046  0.2250470819259844   T   T   T
  0.3748903838514089  0.0546810285442967  0.2250123620958780   T   T   T
  0.0404632121178947  0.3037994078499703  0.2253531583647347   T   T   T
  0.2082338799716046  0.3045297365320522  0.2250469494337172   T   T   T
  0.3746903324536922  0.3049514925514850  0.2250878567995838   T   T   T
  0.0407877468141993  0.6793120041684281  0.0265554583559760   T   T   T
  0.2072862510532031  0.6792247705094464  0.0265313188027537   T   T   T
  0.3739568578434107  0.6792679427489773  0.0265163275350426   T   T   T
  0.0408913931914201  0.9292048075358851  0.0264890667762491   T   T   T
  0.2073043828746404  0.9291310626333287  0.0264951764076835   T   T   T
  0.3739028174602903  0.9291160160204025  0.0264916883897913   T   T   T
  0.1649425915641189  0.5290824530789920  0.0446306875361794   T   T   T
  0.3317007316219092  0.5291362192585972  0.0446050730773482   T   T   T
  0.4983860080818803  0.5291796621930024  0.0445618803468900   T   T   T
  0.1649096249784152  0.7789899274259764  0.0446298694526545   T   T   T
  0.3315955841955540  0.7790120941221291  0.0446068973272807   T   T   T
  0.4984594111393010  0.7791349140197720  0.0445972139506436   T   T   T
  0.4173810866246718  0.9039324641302325  0.2070246512588100   T   T   T
  0.4174596697500257  0.6538568954219227  0.2070059804170654   T   T   T
  0.0839358110977165  0.6539209541319189  0.2070633278201600   T   T   T
  0.2507146909300731  0.6539163799418251  0.2070584408628021   T   T   T
  0.0839990496252294  0.9039849897754344  0.2070497020909301   T   T   T
  0.2507180692569425  0.9039332858072862  0.2070482331246854   T   T   T
  0.0428600517522088  0.5539266039902886  0.2248779890869692   T   T   T
  0.2084173027729652  0.5540259062909375  0.2250849143160181   T   T   T
  0.3752653079166241  0.5541580763284208  0.2250316331426861   T   T   T
  0.0419766051106282  0.8043060869282184  0.2250156913984685   T   T   T
  0.2082431104076139  0.8043153827777245  0.2251052313262278   T   T   T
  0.3754004400043500  0.8040594458651308  0.2250017680015844   T   T   T
  0.5407820009506773  0.1791892365683118  0.0264861891591377   T   T   T
  0.7073540909293965  0.1793063073564992  0.0266701587051362   T   T   T
  0.8739181203550458  0.1792608611389827  0.0265605746650807   T   T   T
  0.5406355839319752  0.4292210634270662  0.0265113948986337   T   T   T
  0.7075159139932001  0.4290426116543422  0.0264290237172321   T   T   T
  0.8737940651393280  0.4291204245073560  0.0266123130642043   T   T   T
  0.6652196604347711  0.0290074230705249  0.0446669172953432   T   T   T
  0.8315038280974190  0.0289971509857101  0.0446880202898643   T   T   T
  0.9983275949364597  0.0290547051705703  0.0445983434090524   T   T   T
  0.6649168955101695  0.2788886870069703  0.0446239193055372   T   T   T
  0.8318486822665312  0.2788598753920492  0.0446554153200048   T   T   T
  0.9982905991752153  0.2791219606845070  0.0446111233996598   T   T   T
  0.9169455040586009  0.4036296043485488  0.2070422420044160   T   T   T
  0.9176079145909057  0.1535052080762151  0.2067457282407128   T   T   T
  0.5832577934444184  0.1534317771102669  0.2066071723520046   T   T   T
  0.7504024607287207  0.1558142305666298  0.2077261040228656   T   T   T
  0.5839166667852648  0.4037282138605120  0.2068405360291373   T   T   T
  0.7700420533035156  0.4643767451089445  0.2618889684374435   T   T   T
  0.5415293429263448  0.0556009312726660  0.2248156744040021   T   T   T
  0.7083852369334335  0.0553422210037973  0.2249198396908647   T   T   T
  0.8746157884864368  0.0553945661674905  0.2250561219655736   T   T   T
  0.5489274271943950  0.3013931065831956  0.2228591412945294   T   T   T
  0.6844275440799874  0.2829428464682766  0.2311464762514773   T   T   T
  0.8908720573478169  0.2962361861183686  0.2235774929332375   T   T   T
  0.7496025072336382  0.2702812678751834  0.2664837625034109   T   T   T
  0.7353803334535615  0.2275949987248189  0.3006987703851652   T   T   T
  0.7593438521482094  0.3121235333062333  0.3085195602110861   T   T   T
  0.6442767429681437  0.1359569793343764  0.2960713267458526   T   T   T
  0.7183216697511057  0.1078101058986547  0.2873845175051117   T   T   T
  0.8181747231268730  0.3861888939417827  0.3347597585027213   T   T   T
  0.7513691082063325  0.4323744266283162  0.3268606016653334   T   T   T
  0.7523726096138668  0.4385729650313763  0.2705436203436883   T   T   T
  0.7842016315784147  0.2677817205798573  0.2410849923786222   T   T   T
  0.5406288047066014  0.6793861664718422  0.0265032512227877   T   T   T
  0.7074060229883335  0.6793970039238290  0.0265333828715792   T   T   T
  0.8741785246347610  0.6793592012594418  0.0265525192934064   T   T   T
  0.5409291894650061  0.9292711207574487  0.0265024880771833   T   T   T
  0.7074186865104888  0.9292212003960504  0.0265603042864908   T   T   T
  0.8739845970338239  0.9292117100558368  0.0265732086393851   T   T   T
  0.6651224802107705  0.5292197180524522  0.0445442749214841   T   T   T
  0.8317020738873079  0.5291552826301208  0.0446074445705195   T   T   T
  0.9982848264771251  0.5290718939548512  0.0446282142620362   T   T   T
  0.6650643090745192  0.7791570590509744  0.0446323845107534   T   T   T
  0.8316118087704087  0.7791015151369827  0.0446492314000487   T   T   T
  0.9981832954895434  0.7790500060945899  0.0446414700174742   T   T   T
  0.9172953644279460  0.9041603783208528  0.2070643734819492   T   T   T
  0.9170767903428424  0.6537829753984574  0.2069988697761810   T   T   T
  0.5843603373719063  0.6535520552059162  0.2069343827250520   T   T   T
  0.7504211037445629  0.6533101297359399  0.2069792230406736   T   T   T
  0.5839972234072129  0.9039693318623676  0.2070561039456493   T   T   T
  0.7507335321797640  0.9039396924256373  0.2070631453087524   T   T   T
  0.5436287248723438  0.5538846632361681  0.2245151372411990   T   T   T
  0.7085229853120023  0.5498499744476177  0.2252186416786025   T   T   T
  0.8781645652296707  0.5545868010105559  0.2240161194220688   T   T   T
  0.5416067590978072  0.8042614357557105  0.2250367751721468   T   T   T
  0.7082645453689612  0.8042604620190987  0.2250400335567507   T   T   T
  0.8756606212986270  0.8040510841100479  0.2249455153934140   T   T   T
  0.0874358651485611  0.1691337282202873  0.0336505872401239   T   T   T
  0.2540075091336199  0.1691084212600099  0.0336473355104267   T   T   T
  0.4206476133140113  0.1690721376858103  0.0336278626995239   T   T   T
  0.0874496264672505  0.4192143554762944  0.0336821540672021   T   T   T
  0.2540154462857532  0.4191470187215791  0.0336651883274697   T   T   T
  0.4205697035696604  0.4191605982391707  0.0336316115062706   T   T   T
  0.1616066054826667  0.0443368922945600  0.2179275070911214   T   T   T
  0.3281881206715066  0.0443721145791084  0.2179203858945131   T   T   T
  0.4947990737588188  0.0443500242216321  0.2178729544443757   T   T   T
  0.1615414661870695  0.2943388220473973  0.2179349075266170   T   T   T
  0.3281986739983314  0.2943681488931663  0.2179193703482366   T   T   T
  0.4986062405431538  0.2934791997599838  0.2177831527883830   T   T   T
  0.0874602706147918  0.6691256336239523  0.0336820429206845   T   T   T
  0.2539762936825181  0.6690947995911919  0.0336523909194559   T   T   T
  0.4206553563158915  0.6692096786891264  0.0336387983647868   T   T   T
  0.0874954147567768  0.9191670740934068  0.0336781991231212   T   T   T
  0.2539647512922750  0.9191037058126432  0.0336504668165186   T   T   T
  0.4205905583489244  0.9191284696379010  0.0336318846154632   T   T   T
  0.1616433030316256  0.5443398368042678  0.2179628352862938   T   T   T
  0.3284700213782922  0.5443915704579696  0.2179334438050959   T   T   T
  0.4959739995700584  0.5445014645428379  0.2179053064991238   T   T   T
  0.1615767482056271  0.7944157069662785  0.2179435137751298   T   T   T
  0.3285257405796335  0.7944307065770928  0.2179298923498265   T   T   T
  0.4948339442358001  0.7944426277543700  0.2179243091503617   T   T   T
  0.5874630380967250  0.1690432500906750  0.0336111879798344   T   T   T
  0.7540749210311689  0.1690276442513851  0.0337494964621095   T   T   T
  0.9206404045850085  0.1690182606207407  0.0336472780055956   T   T   T
  0.5873691796887286  0.4192010695351521  0.0336164991746076   T   T   T
  0.7541933146678501  0.4188816006125564  0.0335478906395573   T   T   T
  0.9205922593484097  0.4190695555658244  0.0336800165760946   T   T   T
  0.6615695631420018  0.0438524557490266  0.2180732431562734   T   T   T
  0.8279927199930651  0.0437843630621715  0.2181071859285268   T   T   T
  0.9951707633454239  0.0443637094811914  0.2179061556747577   T   T   T
  0.6512400588464736  0.2955960027888981  0.2179983637379403   T   T   T
  0.8402865708737777  0.2919150534070177  0.2187361495939879   T   T   T
  0.9943887247039592  0.2928396271382120  0.2179541498515304   T   T   T
  0.7631370438038242  0.2733912855021972  0.2960985603367537   T   T   T
  0.6947101848843013  0.1319482089998562  0.3005232270258716   T   T   T
  0.7672626661167299  0.3810915872588187  0.3309657630339048   T   T   T
  0.7419533847709407  0.2519192543342307  0.2504665323112447   T   T   T
  0.5873462170864905  0.6693288605455944  0.0336159803806691   T   T   T
  0.7541181431172230  0.6693090482996653  0.0336436409407202   T   T   T
  0.9208586727328191  0.6691832906029948  0.0336752023201374   T   T   T
  0.5875541769714936  0.9192161512285043  0.0336727105512340   T   T   T
  0.7541073973233052  0.9191150196085286  0.0336839132244674   T   T   T
  0.9206980701799885  0.9190472812268820  0.0336788765214265   T   T   T
  0.6616973299278140  0.5458383216350745  0.2176375278280428   T   T   T
  0.8298630187310998  0.5452461423027771  0.2180021724265808   T   T   T
  0.9956559777297502  0.5444869652261713  0.2180150848399846   T   T   T
  0.6614877160294129  0.7944738002109808  0.2179372426134513   T   T   T
  0.8286592839620036  0.7944567163367801  0.2179610539380503   T   T   T
  0.9951512230607058  0.7944665919199547  0.2179501360371592   T   T   T
  0.2495541617462609  0.1241005876726463  0.0593680916842131   T   T   T
  0.4162351159701057  0.1240430080388728  0.0593552394149037   T   T   T
  0.0828807914869312  0.3740878445702943  0.0593945003887987   T   T   T
  0.2495623351231866  0.3741024731097936  0.0593853722747025   T   T   T
  0.4162677507929408  0.3740885096011078  0.0593604737468707   T   T   T
  0.0828941830068643  0.1240595554999968  0.0593688983214131   T   T   T
  0.4993945501660785  0.0004498213606145  0.1392105565936162   T   T   T
  0.1660932668839883  0.0005548837618009  0.1392551388952157   T   T   T
  0.3327456050236307  0.0005334944595243  0.1392445511809798   T   T   T
  0.4995303211920930  0.2506659353451483  0.1392168065742343   T   T   T
  0.1660602487032497  0.2506464851373762  0.1392773763943227   T   T   T
  0.3328047805598118  0.2506255914272537  0.1392676228423552   T   T   T
  0.0828325404655300  0.1252569916373784  0.1655820819594324   T   T   T
  0.2495008149713026  0.1253583265078649  0.1656110200452607   T   T   T
  0.4161505591966411  0.1252841826942060  0.1655741249101400   T   T   T
  0.0826538161980498  0.3753845662660288  0.1656549402297747   T   T   T
  0.2494900243820082  0.3753738467060076  0.1656193032795117   T   T   T
  0.4163214234816327  0.3753860098725810  0.1656010889454567   T   T   T
  0.1658874829063749  0.4988548506098042  0.1922855555268598   T   T   T
  0.3329148610272543  0.4988858426157922  0.1922640486053836   T   T   T
  0.5001321984425814  0.4989047387707734  0.1921904395181849   T   T   T
  0.1660540081304370  0.2489971517085587  0.1922608002930727   T   T   T
  0.4995670338312089  0.2485667228255944  0.1920345021036567   T   T   T
  0.3327443311577604  0.2490148300382941  0.1922386578836268   T   T   T
  0.4994594098550009  0.0004157070163498  0.0860036405682488   T   T   T
  0.1660636664642383  0.0004206702821033  0.0860175786114945   T   T   T
  0.3327201789877895  0.0003828911837702  0.0860033346182161   T   T   T
  0.4995067542341243  0.2504879921186338  0.0859920563366863   T   T   T
  0.1660545314292546  0.2504632756957264  0.0860394159043108   T   T   T
  0.3327666207398616  0.2504419471038845  0.0860277157119902   T   T   T
  0.0827126784620519  0.1256368143661821  0.1123774389814682   T   T   T
  0.2494252455815348  0.1256361760652837  0.1123718600858359   T   T   T
  0.4161064064305304  0.1256055474633436  0.1123545702092319   T   T   T
  0.0826460174908107  0.3756604256714837  0.1124135999823413   T   T   T
  0.2494349642504985  0.3756527223301237  0.1123870330299106   T   T   T
  0.4161899186880494  0.3756720498420199  0.1123686253761307   T   T   T
  0.2495653267304077  0.6240496135372883  0.0593726016341520   T   T   T
  0.4162965970959657  0.6240960928339074  0.0593613607220792   T   T   T
  0.0828962037802468  0.8740139887819579  0.0593789526074436   T   T   T
  0.2495226487542924  0.8740218081965830  0.0593592877418298   T   T   T
  0.4162078911955797  0.8740332708697625  0.0593473014174662   T   T   T
  0.0828931434068810  0.6240064105475508  0.0593996834630456   T   T   T
  0.4996976775711632  0.5006129471951948  0.1392730479083882   T   T   T
  0.1659889494915227  0.5005784556606397  0.1392918400103257   T   T   T
  0.3328194053407958  0.5005869290814821  0.1392665475525119   T   T   T
  0.4995474950531257  0.7505664634439260  0.1392460430716412   T   T   T
  0.1660363480921076  0.7505148598831543  0.1392829056462700   T   T   T
  0.3327694020799170  0.7505425334698870  0.1392589031413256   T   T   T
  0.0825566967895064  0.6252008398701293  0.1656552961225760   T   T   T
  0.2494576545162128  0.6252577527549777  0.1656340072456533   T   T   T
  0.4162953841573923  0.6252640111458375  0.1655977897809266   T   T   T
  0.0827629322607449  0.8752775821413209  0.1656246132966588   T   T   T
  0.2494812587164465  0.8752835973009476  0.1656165749915196   T   T   T
  0.4161692887054464  0.8752909314262540  0.1656039889154741   T   T   T
  0.1660498818839000  0.9989297070623757  0.1922625453890554   T   T   T
  0.3327228057406677  0.9989653459471525  0.1922565239855017   T   T   T
  0.4994001783384156  0.9990050873814595  0.1921940330014934   T   T   T
  0.1659921142931656  0.7488943719864766  0.1922898722451413   T   T   T
  0.4995011873308049  0.7488305575560336  0.1922604676689879   T   T   T
  0.3327734893248601  0.7488994497114876  0.1922747964993642   T   T   T
  0.4995983408771693  0.5004755406325561  0.0860105840947944   T   T   T
  0.1660475386650848  0.5004151933878754  0.0860519551720694   T   T   T
  0.3328119934687801  0.5004358005850833  0.0860248783712631   T   T   T
  0.4995401866630203  0.7504557757825903  0.0860232658793911   T   T   T
  0.1660360985102767  0.7503595941735970  0.0860401000215153   T   T   T
  0.3327357097621310  0.7503654073864948  0.0860139195054276   T   T   T
  0.0826224321608346  0.6255601811264243  0.1124153023310441   T   T   T
  0.2494150595413495  0.6255864487153853  0.1123825695691576   T   T   T
  0.4161837240328145  0.6256205798499966  0.1123696403841042   T   T   T
  0.0827344149456309  0.8755869841021419  0.1123782777160768   T   T   T
  0.2494073211977885  0.8755631015937327  0.1123643122297252   T   T   T
  0.4160598211350084  0.8755560489237688  0.1123444937167904   T   T   T
  0.7495807597599038  0.1241199320223129  0.0594984336018486   T   T   T
  0.9161814451425443  0.1240611704885880  0.0593906993529019   T   T   T
  0.5830171756169007  0.3741155586280194  0.0593583918810580   T   T   T
  0.7496020385968437  0.3741139568488447  0.0593494112787347   T   T   T
  0.9161425085346593  0.3740515056144883  0.0594283066185549   T   T   T
  0.5829637896494396  0.1240677809233047  0.0593534308106080   T   T   T
  0.9994370604266071  0.0005313946508029  0.1392517408527178   T   T   T
  0.6663216683196397  0.0008262507633756  0.1393559788666722   T   T   T
  0.8325465645346461  0.0009341780378804  0.1393962825509398   T   T   T
  0.9992959753643793  0.2506981448592641  0.1392832085778120   T   T   T
  0.6660300222734240  0.2513638750703539  0.1395503406063568   T   T   T
  0.8325983214691914  0.2513199167116764  0.1395126560637407   T   T   T
  0.5827168683509408  0.1250632299686583  0.1654016254937881   T   T   T
  0.7492134724962051  0.1268157477929034  0.1661103202368912   T   T   T
  0.9161369186908253  0.1252850858471493  0.1654863674809055   T   T   T
  0.5830086721014383  0.3756238401681159  0.1656730880776122   T   T   T
  0.7491778695847507  0.3773844682748848  0.1669613245077617   T   T   T
  0.9156508268348285  0.3756250044435130  0.1657956437574630   T   T   T
  0.6689441929275169  0.4959093812962237  0.1924200686620011   T   T   T
  0.8294090693044119  0.4958258847759469  0.1926669693181525   T   T   T
  0.9986574216180155  0.4987998036659243  0.1923018081835308   T   T   T
  0.6642750428824895  0.2508831957227713  0.1927541175124443   T   T   T
  0.9994043436541329  0.2484317067055902  0.1920394191041381   T   T   T
  0.8334521830091794  0.2500385482109812  0.1924398423561299   T   T   T
  0.9994102572230062  0.0004380726569606  0.0860350922261122   T   T   T
  0.6661518236272039  0.0005317369317673  0.0860958053601081   T   T   T
  0.8327026663026765  0.0005143200528012  0.0861195559264566   T   T   T
  0.9993661191109339  0.2504811095743663  0.0860511531343374   T   T   T
  0.6661008825469085  0.2506246149874494  0.0861100531574172   T   T   T
  0.8326935776438456  0.2505728851325728  0.0861266181674055   T   T   T
  0.5827948701927187  0.1257717608443132  0.1123431761058273   T   T   T
  0.7493776609860812  0.1260361319368613  0.1125930732605026   T   T   T
  0.9160099280920285  0.1257989057829071  0.1123956989979465   T   T   T