C H O Si                                
   1.00000000000000     
    18.5749199999999988    0.0000000000000000    0.0000000000000000
     0.0000000000000000   17.5126199999999983    0.0000000000000000
     0.0000000000000000    0.0000000000000000   58.0000000000000000
   C    H    O    Si
   144   105    52   144
Selective dynamics
Direct
  0.4995002967256434  0.0654367944587291  0.0600944991207941   T   T   T
  0.1661748759247448  0.0654523090567707  0.0601167221110652   T   T   T
  0.3328129881602022  0.0654310041629080  0.0601074330938772   T   T   T
  0.4995409008035827  0.3154848428069101  0.0600695908921566   T   T   T
  0.1661621836658252  0.3154515698623521  0.0601347806514870   T   T   T
  0.3328329003647169  0.3154422409438439  0.0601256590639253   T   T   T
  0.0828287551412034  0.1881287366478964  0.1390105165342573   T   T   T
  0.2494937538219142  0.1881525220618150  0.1390201187019263   T   T   T
  0.4160996907517016  0.1880557536180568  0.1389781675870682   T   T   T
  0.0827811694278925  0.4381765471133074  0.1390315251202043   T   T   T
  0.2494885385829156  0.4381856605631039  0.1390274621569959   T   T   T
  0.4161541550733740  0.4382412345966743  0.1389868831087785   T   T   T
  0.1661766593528365  0.0631307848721885  0.1661533776321799   T   T   T
  0.3327238971369978  0.0631085516692083  0.1661479263007869   T   T   T
  0.4992547981437828  0.0628141193327644  0.1660192219697352   T   T   T
  0.1661081378970919  0.3132384066825792  0.1661782675239249   T   T   T
  0.3327451168476250  0.3132707673086773  0.1661585388204383   T   T   T
  0.4992283190731213  0.3131829908206738  0.1660061046854645   T   T   T
  0.0829765382613109  0.1900994458139200  0.1915332090227238   T   T   T
  0.2494642667265687  0.1902724412209567  0.1915528575507905   T   T   T
  0.4159302889388283  0.1901903390640371  0.1915145995556841   T   T   T
  0.0826503393119122  0.4402617945247457  0.1915669284928523   T   T   T
  0.2494837638815291  0.4402876169747836  0.1915552520933668   T   T   T
  0.4163448189203642  0.4403601248912939  0.1915274957487152   T   T   T
  0.0827285949060372  0.1883192787490363  0.0854713254518952   T   T   T
  0.2494015292919520  0.1883297871908196  0.0854796273370836   T   T   T
  0.4160882439778255  0.1883180171315183  0.0854482272088849   T   T   T
  0.0827392407279614  0.4383290825781154  0.0855037353150665   T   T   T
  0.2494453654442819  0.4383464444960936  0.0854915421750573   T   T   T
  0.4161389645017002  0.4383805445516108  0.0854515365241607   T   T   T
  0.1660123162287760  0.0631378492803170  0.1126225379983736   T   T   T
  0.3326265275883155  0.0631105814833380  0.1126066854701462   T   T   T
  0.4993143441254346  0.0631311542449340  0.1125792942204064   T   T   T
  0.1659728292567472  0.3131662671605960  0.1126468267347194   T   T   T
  0.3326823875938937  0.3131807493029929  0.1126298624266930   T   T   T
  0.4993226395774915  0.3131625019159323  0.1125564562510540   T   T   T
  0.4996059061664287  0.5655628551433973  0.0600801020916106   T   T   T
  0.1661696046670676  0.5654241655144566  0.0601405193362145   T   T   T
  0.3328978489616840  0.5655103760204836  0.0601162602114695   T   T   T
  0.4995353759273606  0.8155250950298749  0.0601051038690261   T   T   T
  0.1661208296414198  0.8153763016639576  0.0601375506712510   T   T   T
  0.3327985896809008  0.8154181171332331  0.0601139334208306   T   T   T
  0.0828347196755821  0.6881282194738138  0.1390474764157067   T   T   T
  0.2494936199771240  0.6881061148483423  0.1390420379681950   T   T   T
  0.4161329124065751  0.6882087526912338  0.1390061740171740   T   T   T
  0.0828652945062473  0.9380906558500313  0.1390122928746513   T   T   T
  0.2494761863151273  0.9380643545879097  0.1390110250511073   T   T   T
  0.4160742795516775  0.9379972760306049  0.1389743722196443   T   T   T
  0.1660439621283420  0.5631935746925704  0.1662032219884066   T   T   T
  0.3327656486928580  0.5632120754304425  0.1661687499165999   T   T   T
  0.4993415458026164  0.5634026984742561  0.1661009333994633   T   T   T
  0.1661245636129543  0.8131559645651643  0.1661824947139339   T   T   T
  0.3327713599083889  0.8131704296066308  0.1661646915705388   T   T   T
  0.4994659379742049  0.8132212426890606  0.1661608923592612   T   T   T
  0.0827899600817063  0.6902471269002955  0.1915669245709436   T   T   T
  0.2494654041592430  0.6902303011283533  0.1915739566673031   T   T   T
  0.4161416414907400  0.6902506860712609  0.1915416785290719   T   T   T
  0.0828252037404064  0.9402738370697513  0.1915405998898696   T   T   T
  0.2494792839027445  0.9402151723639117  0.1915617559519409   T   T   T
  0.4161317747842809  0.9402484830354200  0.1915472405171252   T   T   T
  0.0827168727578457  0.6883096190714961  0.0855081130125495   T   T   T
  0.2493829104169582  0.6882878544341328  0.0854831687967492   T   T   T
  0.4160975828597238  0.6883937335923263  0.0854646383401313   T   T   T
  0.0827703728962531  0.9383156731068233  0.0854811879301748   T   T   T
  0.2493963699382829  0.9382765201186197  0.0854707558172961   T   T   T
  0.4160521515926413  0.9383007211044102  0.0854467196241268   T   T   T
  0.1659687657241145  0.5631701351051326  0.1126557175587845   T   T   T
  0.3326641920582951  0.5632265289525102  0.1126250548903936   T   T   T
  0.4993171395611325  0.5632299240093421  0.1125907654943418   T   T   T
  0.1660074721270012  0.8131006419932193  0.1126408000322787   T   T   T
  0.3325977857457223  0.8131029055989422  0.1126145191799350   T   T   T
  0.4993114573182329  0.8132760032443582  0.1126137458646376   T   T   T
  0.9994976555949104  0.0654346662026711  0.0601108289808746   T   T   T
  0.6661760726346151  0.0653915844512865  0.0601595229102818   T   T   T
  0.8328220054846809  0.0653719832672440  0.0601776018046730   T   T   T
  0.9995018655569239  0.3154540781574171  0.0601215494021260   T   T   T
  0.6662046026924766  0.3153697131976310  0.0601029081804034   T   T   T
  0.8328521460371283  0.3152848457727667  0.0601392744011719   T   T   T
  0.5828194450556289  0.1881271877021224  0.1388841901652199   T   T   T
  0.7493627622780782  0.1885593879710200  0.1392647642402301   T   T   T
  0.9160618806091901  0.1882211193453596  0.1389655087494426   T   T   T
  0.5827711102875105  0.4382052419788656  0.1389610062493317   T   T   T
  0.7493733968038698  0.4373134989798316  0.1389610831634632   T   T   T
  0.9160635856674177  0.4381365765668674  0.1390786329541969   T   T   T
  0.6663847182942595  0.0634290500970320  0.1662706275716339   T   T   T
  0.8324432102972530  0.0637722066453863  0.1663422359036309   T   T   T
  0.9995343664259310  0.0630756550960321  0.1660982700703433   T   T   T
  0.6657041087938593  0.3135219149166548  0.1663517489706465   T   T   T
  0.8328166780214857  0.3134826431102702  0.1663232110345717   T   T   T
  0.9995158400485649  0.3132341560820846  0.1661616921505652   T   T   T
  0.5823414813175861  0.1892939738277709  0.1909583851522964   T   T   T
  0.7489106971804885  0.1925983381558883  0.1923042191338568   T   T   T
  0.9162956205994597  0.1898270572918373  0.1912238170564405   T   T   T
  0.5828290607653644  0.4404771576377711  0.1914100064742722   T   T   T
  0.7492638358124913  0.4389325543269758  0.1918614494679498   T   T   T
  0.9159255302891860  0.4402934522755865  0.1916341596386283   T   T   T
  0.5827739939143370  0.1883099504230372  0.0854071289753357   T   T   T
  0.7494325399849384  0.1883294526399920  0.0855934790545936   T   T   T
  0.9160741480134690  0.1883066273169347  0.0854654942429319   T   T   T
  0.5828441113838653  0.4383663337821099  0.0854230815376415   T   T   T
  0.7494643862420195  0.4382423262001143  0.0853735119560571   T   T   T
  0.9160466592525796  0.4383225138812749  0.0855131077393663   T   T   T
  0.6660594211563522  0.0633046029689921  0.1126871276774518   T   T   T
  0.8325995887207818  0.0633256800551000  0.1127141935277872   T   T   T
  0.9993197990599129  0.0631833673498478  0.1126130613529655   T   T   T
  0.6659554410235666  0.3131132427929036  0.1126596036206484   T   T   T
  0.8326044956449536  0.3131077659877995  0.1126752850377432   T   T   T
  0.9992780820067597  0.3131636868115806  0.1126348383886026   T   T   T
  0.9995036406574064  0.5654328821258110  0.0601399900420952   T   T   T
  0.6662773812100312  0.5655804832605510  0.0600615279023337   T   T   T
  0.8329110111911369  0.5655101376668360  0.0601092443705921   T   T   T
  0.9994804229208819  0.8154270080276391  0.0601472616078114   T   T   T
  0.6661998800054563  0.8154955832831458  0.0601420233759006   T   T   T
  0.8328316249943374  0.8154342453967004  0.0601634163785413   T   T   T
  0.5827103833038438  0.6882825428641890  0.1389803113006434   T   T   T
  0.7494912882598942  0.6880293045768849  0.1390631875909443   T   T   T
  0.9162665173982324  0.6882310441265843  0.1390355684867062   T   T   T
  0.5829529480133463  0.9382433103360556  0.1390385331798960   T   T   T
  0.7495417916958685  0.9381740001601738  0.1390537692580220   T   T   T
  0.9160672608798905  0.9382897190750472  0.1390741331160945   T   T   T
  0.6656035749489959  0.5632842239204313  0.1662360612171961   T   T   T
  0.8330020116936061  0.5631735550974745  0.1663836854958909   T   T   T
  0.9993572488275093  0.5632400226766952  0.1662069256597999   T   T   T
  0.6661463893972510  0.8131641536141060  0.1661878776508606   T   T   T
  0.8327629534599711  0.8131473324985116  0.1662037740196717   T   T   T
  0.9994457675025163  0.8132154580023043  0.1661951537944454   T   T   T
  0.5827267306119434  0.6903099494859767  0.1915233701746231   T   T   T
  0.7494210819160285  0.6901258690891044  0.1915995667346968   T   T   T
  0.9161618975458192  0.6902915935718492  0.1915500975776036   T   T   T
  0.5828081803150865  0.9402743597298595  0.1915559698748419   T   T   T
  0.7494674669916410  0.9402549801170526  0.1915759740808871   T   T   T
  0.9161043503176459  0.9403850670073197  0.1915484729253116   T   T   T
  0.5827788427633038  0.6883725308337035  0.0854512205616460   T   T   T
  0.7494354223153066  0.6883336578461833  0.0854865408872425   T   T   T
  0.9160781932275995  0.6883188395425794  0.0855105385663955   T   T   T
  0.5827889370037903  0.9383769021946238  0.0855059091684421   T   T   T
  0.7494434852066730  0.9383593661317003  0.0855246834878559   T   T   T
  0.9160835839674164  0.9383633219731412  0.0855214397484414   T   T   T
  0.6660079661836846  0.5630775100558806  0.1126117874981995   T   T   T
  0.8326174791272358  0.5630248620197504  0.1126953196227402   T   T   T
  0.9992820194235817  0.5631591962442443  0.1126635637706315   T   T   T
  0.6660366499207926  0.8131772689919593  0.1126546419712104   T   T   T
  0.8326834765672486  0.8131589252192551  0.1126703358908185   T   T   T
  0.9993601242799294  0.8132581890789385  0.1126605211577208   T   T   T
  0.0408004307528856  0.1792616387862308  0.0264968556536237   T   T   T
  0.2073815649222341  0.1792270686122833  0.0265091311907582   T   T   T
  0.3739783617126353  0.1791926241103483  0.0265014376252070   T   T   T
  0.0408291330971480  0.4292369663681626  0.0265070669037556   T   T   T
  0.2073884269987105  0.4291450603914856  0.0265055921642749   T   T   T
  0.3738608031327018  0.4291148521477133  0.0265061141824917   T   T   T
  0.1650229352143922  0.0291345775858775  0.0446141259186886   T   T   T
  0.3316122162104760  0.0291251146644674  0.0446035740808922   T   T   T
  0.4982827302483835  0.0291173068892666  0.0445932310773351   T   T   T
  0.1650026631850491  0.2791171653796827  0.0446354340351066   T   T   T
  0.3316312714915119  0.2791019609060552  0.0446291120287409   T   T   T
  0.4983293576017186  0.2791758896595334  0.0445671437118263   T   T   T
  0.4178206233092598  0.4039803862895108  0.2070153405425417   T   T   T
  0.4173416715913584  0.1538856221670471  0.2070111844885830   T   T   T
  0.0841467885151639  0.1537775752625568  0.2070250964196907   T   T   T
  0.2507460051898688  0.1539607231712874  0.2070514160862329   T   T   T
  0.0838993068123205  0.4038338469101119  0.2070475639424989   T   T   T
  0.2507542837546933  0.4039241279655233  0.2070423666270180   T   T   T
  0.0419360915816606  0.0543349896754647  0.2249749060422173   T   T   T
  0.2082680690611309  0.0544449898337886  0.2250528961009422   T   T   T
  0.3748538712885401  0.0546322725030586  0.2250217511124970   T   T   T
  0.0405090489707106  0.3038068877954001  0.2253669199631907   T   T   T
  0.2081968962659948  0.3045041481791291  0.2250618481314972   T   T   T
  0.3746895137182910  0.3049103039281857  0.2250884058203106   T   T   T
  0.0408242423761070  0.6792690408830671  0.0265419127444511   T   T   T
  0.2073356577999051  0.6791886229308589  0.0265152016249254   T   T   T
  0.3739891064126727  0.6792219007937728  0.0265063458885220   T   T   T
  0.0409348387199961  0.9291543706100178  0.0264722669541929   T   T   T
  0.2073608824580123  0.9290907213383621  0.0264743792345934   T   T   T
  0.3739303951585150  0.9290677996813071  0.0264774349533570   T   T   T
  0.1649654706081267  0.5291289029319327  0.0446346775539354   T   T   T
  0.3317185665520571  0.5291851209532783  0.0446177582365984   T   T   T
  0.4983951146807925  0.5292352640855504  0.0445799221971970   T   T   T
  0.1649291716351337  0.7790194291890207  0.0446438493137004   T   T   T
  0.3316307270755562  0.7790341884780526  0.0446240204834676   T   T   T
  0.4984805749779442  0.7791624855799243  0.0446129441668994   T   T   T
  0.4173959994573048  0.9038987296771437  0.2070361740303833   T   T   T
  0.4174787013119982  0.6538144503521438  0.2070160017454146   T   T   T
  0.0839597420757982  0.6539097036000657  0.2070598567288161   T   T   T
  0.2507291746155293  0.6538796333445466  0.2070655181287422   T   T   T
  0.0840224465482340  0.9039927691223036  0.2070459351838429   T   T   T
  0.2507379386470479  0.9039058936431837  0.2070601465065584   T   T   T
  0.0428327550775557  0.5538798950110067  0.2248876091939193   T   T   T
  0.2083738340866768  0.5539589924285268  0.2250902795971333   T   T   T
  0.3752233216356330  0.5541053380064349  0.2250382971045823   T   T   T
  0.0419398728801818  0.8042541909884979  0.2250176616173595   T   T   T
  0.2082042277311073  0.8042660697628017  0.2251094122980559   T   T   T
  0.3753813177739727  0.8040068898549773  0.2250085189695188   T   T   T
  0.5407966340467852  0.1791450717943392  0.0264714592069475   T   T   T
  0.7074061062293574  0.1792441539250916  0.0266646417654157   T   T   T
  0.8739519846957692  0.1792190637819212  0.0265422474838660   T   T   T
  0.5406492525368377  0.4291878158173952  0.0264893032396413   T   T   T
  0.7075639188887032  0.4289924784716985  0.0264008265924287   T   T   T
  0.8738358688926681  0.4290711103551640  0.0265925635288659   T   T   T
  0.6652481634306471  0.0290176474599650  0.0446688564125240   T   T   T
  0.8315437180322847  0.0290106041384216  0.0446857229497158   T   T   T
  0.9983548063528280  0.0291029175991653  0.0446135022781962   T   T   T
  0.6649190902484416  0.2788971952023276  0.0446334891343809   T   T   T
  0.8319027602809040  0.2788574096894665  0.0446596160350182   T   T   T
  0.9983183040124810  0.2791507904054121  0.0446164795459630   T   T   T
  0.9169168270420757  0.4036284453084448  0.2070456390693294   T   T   T
  0.9176380141801108  0.1535139406632649  0.2067231880473937   T   T   T
  0.5832550356637597  0.1535124362353807  0.2065709006319437   T   T   T
  0.7504000540750312  0.1558797946901362  0.2077107228384337   T   T   T
  0.5839847669435354  0.4038245691177102  0.2068194907582684   T   T   T
  0.7700680645920169  0.4643157773859155  0.2618370664178645   T   T   T
  0.5415176718735339  0.0555653224237304  0.2248273739695507   T   T   T
  0.7083714565868316  0.0553180364041820  0.2249324947518120   T   T   T
  0.8746042239635078  0.0553534294164817  0.2250596775487363   T   T   T
  0.5488697234745890  0.3014481598500854  0.2228592625365957   T   T   T
  0.6844644900457790  0.2829363082028361  0.2311921285665009   T   T   T
  0.8906299108046731  0.2961681569923620  0.2235458396032599   T   T   T
  0.7494771497135642  0.2702752851490882  0.2664625891745243   T   T   T
  0.7352509784454881  0.2277970215620994  0.3006722510551457   T   T   T
  0.7592137070907149  0.3121424403771665  0.3084946922905776   T   T   T
  0.6442664205533583  0.1359870693203826  0.2960269383771278   T   T   T
  0.7184055051281955  0.1079442827467773  0.2873143892050786   T   T   T
  0.8182656177864361  0.3861669766728208  0.3347474138342818   T   T   T
  0.7514481402172001  0.4324268126514386  0.3268849877812631   T   T   T
  0.7523209163730781  0.4384502640182462  0.2704581990709747   T   T   T
  0.7842710584114224  0.2677707179758672  0.2410543611496453   T   T   T
  0.5406225497832798  0.6793591045887178  0.0264820033007061   T   T   T
  0.7074173138411706  0.6793511833226091  0.0265210068327754   T   T   T
  0.8741934881613151  0.6793061533800649  0.0265428222285947   T   T   T
  0.5409591810478908  0.9292074418337544  0.0264936530226746   T   T   T
  0.7074684811003276  0.9291640065723134  0.0265518516405151   T   T   T
  0.8740155252392097  0.9291711540593353  0.0265557649543929   T   T   T
  0.6651206844142816  0.5292772733832199  0.0445566025746426   T   T   T
  0.8317219460780069  0.5291920534793464  0.0446073931132988   T   T   T
  0.9983063344143739  0.5291240493479373  0.0446359736322056   T   T   T
  0.6650898014133300  0.7791765910972043  0.0446399626260199   T   T   T
  0.8316403799989853  0.7791299725676344  0.0446576781839605   T   T   T
  0.9981937051654012  0.7790788856548891  0.0446509437594305   T   T   T
  0.9172991915304860  0.9041643608581296  0.2070670206970630   T   T   T
  0.9170921218346375  0.6537521821154608  0.2069972664384911   T   T   T
  0.5843797891273979  0.6535402860007427  0.2069193714699594   T   T   T
  0.7504450776569175  0.6532507748381885  0.2069855130592005   T   T   T
  0.5840288440415703  0.9039635556045598  0.2070551362189298   T   T   T
  0.7507598564444502  0.9039296949994612  0.2070712703554527   T   T   T
  0.5435639864717914  0.5538726419220950  0.2245174254179061   T   T   T
  0.7086171952298307  0.5498593322567968  0.2252269443717897   T   T   T
  0.8780764948206797  0.5545172715640869  0.2240227390816329   T   T   T
  0.5415800798963923  0.8042134754161193  0.2250444699875373   T   T   T
  0.7082324043080093  0.8042075014170750  0.2250438285893644   T   T   T
  0.8756392342553700  0.8039999838931082  0.2249563242049352   T   T   T
  0.0874192702947902  0.1690491307267419  0.0336412920966731   T   T   T
  0.2540333905271667  0.1690390039933110  0.0336360794289351   T   T   T
  0.4206524732261818  0.1690265585324163  0.0336210753098131   T   T   T
  0.0874504539040844  0.4191885788740572  0.0336707531583721   T   T   T
  0.2540111940417596  0.4190793643710359  0.0336687612855036   T   T   T
  0.4205724509990514  0.4191231986149897  0.0336321265117462   T   T   T
  0.1616317792822559  0.0444451740931692  0.2178873651338089   T   T   T
  0.3282112520509800  0.0445238169217235  0.2178794467234959   T   T   T
  0.4948242566348382  0.0445253647044809  0.2178337469049246   T   T   T
  0.1615669352962371  0.2945033012489962  0.2178928194373544   T   T   T
  0.3282354415493229  0.2944995274945565  0.2178816074326058   T   T   T
  0.4986481639151678  0.2934883205348877  0.2177130784407331   T   T   T
  0.0874608792403355  0.6690378304338235  0.0336674380223958   T   T   T
  0.2539827424251754  0.6690236217753192  0.0336469542983689   T   T   T
  0.4206675245961571  0.6691789905968554  0.0336226864773628   T   T   T
  0.0875050316830059  0.9191362107524060  0.0336751740357992   T   T   T
  0.2539660209542720  0.9190544116300169  0.0336553820543282   T   T   T
  0.4205913299359010  0.9191137156561270  0.0336221732033444   T   T   T
  0.1616760613864503  0.5444549260424362  0.2179085817841484   T   T   T
  0.3285201946294812  0.5444849480979462  0.2178743566969013   T   T   T
  0.4959442558606278  0.5445185973147527  0.2178826255834495   T   T   T
  0.1615956076861747  0.7945302100766947  0.2179026558933145   T   T   T
  0.3285794938707654  0.7945252797875726  0.2178806689674109   T   T   T
  0.4948481364034807  0.7945626212785977  0.2178926593301944   T   T   T
  0.5874312279273214  0.1690442560470821  0.0336161665160228   T   T   T
  0.7540945228803050  0.1689252434920645  0.0337549766821118   T   T   T
  0.9206268700380870  0.1690216655510425  0.0336516053070344   T   T   T
  0.5873451813697854  0.4192271518186348  0.0336086494422916   T   T   T
  0.7541803953657601  0.4189624476317102  0.0335659465150104   T   T   T
  0.9205811501525294  0.4190104322805995  0.0336830087266481   T   T   T
  0.6615977727501752  0.0439326005876901  0.2180557319279647   T   T   T
  0.8280263569689841  0.0438520147996409  0.2180871819813866   T   T   T
  0.9951917320288942  0.0444221313075158  0.2178619457516880   T   T   T
  0.6513475838428546  0.2956500920579121  0.2180224807983875   T   T   T
  0.8400322424052075  0.2919205557554128  0.2187294029778386   T   T   T
  0.9944515799085589  0.2929695074156902  0.2179581020295305   T   T   T
  0.7632095872002126  0.2734422615224880  0.2960773240505901   T   T   T
  0.6947097441698854  0.1316542520316045  0.3004931979186728   T   T   T
  0.7673380383434782  0.3811212554101906  0.3309589886317064   T   T   T
  0.7419439113500609  0.2520492488049749  0.2504307095179480   T   T   T
  0.5873503659980324  0.6693305869386210  0.0335848414671422   T   T   T
  0.7541471754333439  0.6693025459567904  0.0336136766675993   T   T   T
  0.9208967806926621  0.6691767022046256  0.0336518546615045   T   T   T
  0.5875734584705610  0.9191498203405593  0.0336624546702177   T   T   T
  0.7541401681302153  0.9190309587127681  0.0336747725491752   T   T   T
  0.9206792870824481  0.9189358400650676  0.0336785190651309   T   T   T
  0.6618305078052087  0.5456636487785232  0.2176368072982926   T   T   T
  0.8297561565376709  0.5451437244915501  0.2180248579857105   T   T   T
  0.9957001598098154  0.5445260720124270  0.2179814606503478   T   T   T
  0.6615088284181485  0.7945868650176924  0.2178997587682541   T   T   T
  0.8287279420449353  0.7945531719259478  0.2179026328987063   T   T   T
  0.9951608580702326  0.7945667308993030  0.2179141341829399   T   T   T
  0.2495534788193563  0.1240350250833724  0.0593653386896544   T   T   T
  0.4162238808852655  0.1240230715949621  0.0593515881283849   T   T   T
  0.0828538126943860  0.3740624541071447  0.0593943545872710   T   T   T
  0.2495526480216696  0.3740221635584928  0.0593898941859018   T   T   T
  0.4162551015520783  0.3740496265613867  0.0593593349177202   T   T   T
  0.0828702088804963  0.1240288736794383  0.0593657870910485   T   T   T
  0.4994359614972881  0.0004736362632973  0.1392119514413167   T   T   T
  0.1661641619214963  0.0005646931428051  0.1392642806097121   T   T   T
  0.3328124205792656  0.0005480351010796  0.1392553255040406   T   T   T
  0.4995669546097375  0.2506671060250478  0.1392259654056665   T   T   T
  0.1661266552603878  0.2506371377005140  0.1392957253167527   T   T   T
  0.3328853632662778  0.2506437404852600  0.1392823619471505   T   T   T
  0.0827897044702875  0.1252475529805968  0.1655870217790033   T   T   T
  0.2494525166912121  0.1253412633920456  0.1656239644820579   T   T   T
  0.4161136534979851  0.1252501374122947  0.1655830052098445   T   T   T
  0.0826091013800477  0.3753690712398464  0.1656454466162977   T   T   T
  0.2494290164929200  0.3753512166389916  0.1656332292692683   T   T   T
  0.4163039957319290  0.3753520505212727  0.1655984225527192   T   T   T
  0.1659321159839425  0.4987753740010919  0.1922694263547214   T   T   T
  0.3329521239891176  0.4988049247747797  0.1922411237759607   T   T   T
  0.5001115281503786  0.4988768473715458  0.1921774654771343   T   T   T
  0.1660948680598037  0.2489533954324593  0.1922538204155356   T   T   T
  0.4995490189748501  0.2484984464788909  0.1920117395231871   T   T   T
  0.3327908070254526  0.2489523994542864  0.1922308375102445   T   T   T
  0.4994707411807082  0.0004696650774061  0.0860124580811594   T   T   T
  0.1661230342097563  0.0004511220642170  0.0860250121937191   T   T   T
  0.3327800477611007  0.0004315016887095  0.0860135287031763   T   T   T
  0.4995274155390219  0.2505264880993475  0.0859962272562911   T   T   T
  0.1660732281597700  0.2504775615622090  0.0860493662001178   T   T   T
  0.3328150008735971  0.2504782977585889  0.0860425961407537   T   T   T
  0.0826488227562366  0.1256792596296495  0.1123649301479042   T   T   T
  0.2493498735422866  0.1256723248469753  0.1123692968593088   T   T   T
  0.4160258041971165  0.1256490319017178  0.1123415135818601   T   T   T
  0.0825537629195863  0.3756642734577434  0.1124078490895732   T   T   T
  0.2493498729363833  0.3756659838953707  0.1123913815943362   T   T   T
  0.4161386724808122  0.3757083301650592  0.1123639715863854   T   T   T
  0.2495539758031113  0.6239810703291816  0.0593728342250321   T   T   T
  0.4163214875362879  0.6240843009668118  0.0593507305450740   T   T   T
  0.0828559866437031  0.8739825351942823  0.0593813763595458   T   T   T
  0.2494952691940960  0.8739526487619688  0.0593639813709001   T   T   T
  0.4162037073990362  0.8739982683796010  0.0593400828683209   T   T   T
  0.0828561457386255  0.6239884531462706  0.0594009123724466   T   T   T
  0.4997447983410509  0.5006522441965996  0.1392752920415793   T   T   T
  0.1660625761737917  0.5005877032211845  0.1393082701079668   T   T   T
  0.3329062899312207  0.5006252665706420  0.1392759709256848   T   T   T
  0.4996117925614794  0.7505771118984457  0.1392583094108872   T   T   T
  0.1661190284360457  0.7505130094219215  0.1392937516025176   T   T   T
  0.3328536091695564  0.7505454350844970  0.1392729410504470   T   T   T
  0.0824930097530975  0.6251774242456589  0.1656598228564536   T   T   T
  0.2493969699838984  0.6252224082600129  0.1656521903439174   T   T   T
  0.4162526232496047  0.6252627547837493  0.1656082112123228   T   T   T
  0.0827199870708760  0.8752701875695891  0.1656304202234554   T   T   T
  0.2494285410885517  0.8752717188604833  0.1656295013947394   T   T   T
  0.4161516832982158  0.8752828765958193  0.1656125013698746   T   T   T
  0.1661012391994393  0.9988881823980258  0.1922501050280546   T   T   T
  0.3327663094100734  0.9988907078997368  0.1922501991506162   T   T   T
  0.4994352026150663  0.9989564331091092  0.1921914729578975   T   T   T
  0.1660269307201526  0.7488332307296205  0.1922766186852739   T   T   T
  0.4995292133417877  0.7488086039548431  0.1922530287152855   T   T   T
  0.3328122105976832  0.7488386549013640  0.1922569507200075   T   T   T
  0.4996196539432733  0.5005247559771866  0.0860121187535196   T   T   T
  0.1660984478214818  0.5004439036020252  0.0860612705286694   T   T   T
  0.3328659783702403  0.5004926805851065  0.0860347161562202   T   T   T
  0.4995406203902245  0.7504877992951574  0.0860288655699764   T   T   T
  0.1660715133029015  0.7503896086032195  0.0860502717716871   T   T   T
  0.3327683530066290  0.7504095438336266  0.0860268346311782   T   T   T
  0.0825431196448398  0.6255829028060653  0.1124142941638133   T   T   T
  0.2493252391232801  0.6256202715321030  0.1123897192259358   T   T   T
  0.4161131275509656  0.6256652115974550  0.1123644406766697   T   T   T
  0.0826837642105525  0.8756171929691753  0.1123729421366202   T   T   T
  0.2493262588874530  0.8755912259509765  0.1123605213514322   T   T   T
  0.4159810171164529  0.8755888960576401  0.1123302348311133   T   T   T
  0.7495695886746316  0.1240217520905199  0.0595073958224981   T   T   T
  0.9161681581151694  0.1240184430238359  0.0593875054384995   T   T   T
  0.5830022174475007  0.3740916186466967  0.0593460303173465   T   T   T
  0.7496093333487405  0.3740361798083072  0.0593497041775764   T   T   T
  0.9161303623321275  0.3740194478704097  0.0594328732412404   T   T   T
  0.5829290678310979  0.1240213681588856  0.0593493093454670   T   T   T
  0.9994962178988531  0.0005908283305289  0.1392559102887316   T   T   T
  0.6663843052074215  0.0008677271980189  0.1393565255768542   T   T   T
  0.8326175358607456  0.0009627518734084  0.1393975236026517   T   T   T
  0.9993513612933779  0.2506839969270152  0.1392987518959922   T   T   T
  0.6660423483966675  0.2513975277636372  0.1395643534467555   T   T   T
  0.8326303435963140  0.2513417395145646  0.1395253154448470   T   T   T
  0.5826918425358953  0.1250467666108714  0.1653904272006503   T   T   T
  0.7491926668308750  0.1268691365412622  0.1661298408875084   T   T   T
  0.9161061850825439  0.1253413336382967  0.1654990519869965   T   T   T
  0.5829446919758375  0.3756171012408349  0.1656724441138145   T   T   T
  0.7491994707603056  0.3773363465296011  0.1669902589499919   T   T   T
  0.9156613726238060  0.3756422548554615  0.1658123366583261   T   T   T
  0.6689983484580319  0.4958028443943204  0.1924174916203440   T   T   T
  0.8294453838484094  0.4957614467539686  0.1926707723307656   T   T   T
  0.9987324245211943  0.4987409843892229  0.1922947938943551   T   T   T
  0.6642708838069776  0.2509725497769216  0.1927748188095702   T   T   T
  0.9994336563530465  0.2484201678023777  0.1920585395429320   T   T   T
  0.8333864600568258  0.2500493560592748  0.1924332680568069   T   T   T
  0.9994452870603414  0.0004791181238233  0.0860361128264692   T   T   T
  0.6661795020398090  0.0005481477919494  0.0861037806463083   T   T   T
  0.8327555290826097  0.0005455967480657  0.0861224570292194   T   T   T
  0.9993711754197538  0.2505074708183581  0.0860504155110389   T   T   T
  0.6661478571676893  0.2506120824138096  0.0861095059906637   T   T   T
  0.8327411794718852  0.2505728809814817  0.0861305244050463   T   T   T
  0.5827199237420134  0.1258312215914393  0.1123329118979804   T   T   T
  0.7493171128464142  0.1260675091806258  0.1126103871355484   T   T   T
  0.9159473305368713  0.1258470123665718  0.1123875785206022   T   T   T