C H O Si                                
   1.00000000000000     
     9.2874599999999994    0.0000000000000000    0.0000000000000000
     0.0000000000000000   17.5126199999999983    0.0000000000000000
     0.0000000000000000    0.0000000000000000   58.0000000000000000
   C    H    O    Si
    72    57    28    72
Selective dynamics
Direct
  0.9929318857277942  0.0630359116351832  0.0604902942933334   T   T   T
  0.3263022072280514  0.0630971603550552  0.0605808573403564   T   T   T
  0.6595454355613771  0.0631109209850923  0.0605579071024328   T   T   T
  0.9927472641958546  0.3131058729608678  0.0604925322443323   T   T   T
  0.3260688470759588  0.3130615515294499  0.0605860874256723   T   T   T
  0.6594058828716931  0.3130842383620345  0.0605482915320006   T   T   T
  0.1601939873589100  0.1857425276706340  0.1393970593696590   T   T   T
  0.4934658251000689  0.1860092470677187  0.1396348972389218   T   T   T
  0.8268396832101594  0.1857111764006429  0.1393211375559154   T   T   T
  0.1600816511080405  0.4358206212494040  0.1394324907079304   T   T   T
  0.4934212110233382  0.4357384638755301  0.1394654107938346   T   T   T
  0.8268149165145708  0.4358319911143683  0.1394194708264087   T   T   T
  0.3276705912057090  0.0611037910851596  0.1666749549491250   T   T   T
  0.6599954610144393  0.0610577283323761  0.1666276567659224   T   T   T
  0.9941008819359779  0.0603915501908231  0.1664012778240545   T   T   T
  0.3269323346862893  0.3109099953847105  0.1667408611953275   T   T   T
  0.6608383520811382  0.3109599915623823  0.1666183062759541   T   T   T
  0.9938878599048790  0.3108395746549946  0.1664556276942327   T   T   T
  0.1611596750379149  0.1872437650669691  0.1917359624199675   T   T   T
  0.4944440441080561  0.1898002037209943  0.1927014581158596   T   T   T
  0.8283910722027634  0.1867026056882676  0.1914847229995721   T   T   T
  0.1602823377364663  0.4383053531197217  0.1919280115902826   T   T   T
  0.4938306495689020  0.4379064635388950  0.1919717123840123   T   T   T
  0.8273995705934653  0.4383914146526409  0.1918770060078151   T   T   T
  0.1595944584547364  0.1859396179298776  0.0858924585136188   T   T   T
  0.4929110758836699  0.1859315220190092  0.0860239746270910   T   T   T
  0.8262298973614547  0.1859191381529924  0.0858492546461299   T   T   T
  0.1596092082764065  0.4359177018002596  0.0859179197061868   T   T   T
  0.4929016691385508  0.4358987390993083  0.0859450710185968   T   T   T
  0.8262050668734825  0.4359212402792978  0.0859050352900791   T   T   T
  0.3264495513899284  0.0608371315488910  0.1130942317895715   T   T   T
  0.6596807429333237  0.0608262505835718  0.1130778937812592   T   T   T
  0.9931010465408967  0.0607360854486335  0.1129989499177687   T   T   T
  0.3263759079398173  0.3107804947233790  0.1131303528555636   T   T   T
  0.6598166748318935  0.3107946439385032  0.1130808131352820   T   T   T
  0.9931066867500885  0.3107852988532784  0.1130026658565714   T   T   T
  0.9929300864719766  0.5630285038000821  0.0605286892586051   T   T   T
  0.3262379270222853  0.5630437670547072  0.0605431994705446   T   T   T
  0.6596258274616363  0.5630490950894007  0.0605378876797120   T   T   T
  0.9927475614028879  0.8130865816727127  0.0605245247526913   T   T   T
  0.3260792513359717  0.8130674938022474  0.0605255726611063   T   T   T
  0.6594329097177638  0.8130882121858369  0.0605202032642709   T   T   T
  0.1600958599400968  0.6858364405638760  0.1394240720915058   T   T   T
  0.4933483285025702  0.6858342175507897  0.1394253999094978   T   T   T
  0.8266499459499654  0.6858282800547082  0.1394208099313481   T   T   T
  0.1604497146953070  0.9357999041741419  0.1394336749394956   T   T   T
  0.4933749032233518  0.9357568728691559  0.1394302928733007   T   T   T
  0.8265449429377137  0.9358384456577459  0.1394261202676844   T   T   T
  0.3269771123722395  0.5609400561812307  0.1665573535459152   T   T   T
  0.6601407452836979  0.5609469312571129  0.1665507623472518   T   T   T
  0.9936298196542231  0.5610831854232048  0.1665134188354411   T   T   T
  0.3270218522475125  0.8108868855256361  0.1665610516048110   T   T   T
  0.6603420792145247  0.8109165263887442  0.1665508014090092   T   T   T
  0.9936858624988443  0.8109347828913733  0.1665442476848394   T   T   T
  0.1606298324954906  0.6880719748725782  0.1919423374687792   T   T   T
  0.4939494584546743  0.6880976931402392  0.1919625603749307   T   T   T
  0.8271799929404123  0.6880774090456133  0.1919310252652916   T   T   T
  0.1608359907409694  0.9380290905662582  0.1919461396613537   T   T   T
  0.4940424280017790  0.9379864473878534  0.1919686252636564   T   T   T
  0.8272735271875236  0.9379905490915652  0.1919163332299670   T   T   T
  0.1595955160290440  0.6859270890464090  0.0859083602630864   T   T   T
  0.4929181669300302  0.6858911688774132  0.0859163686379238   T   T   T
  0.8262155391574141  0.6859306972278150  0.0859068497582158   T   T   T
  0.1596525704249303  0.9359317751363510  0.0859098272836437   T   T   T
  0.4928981317226069  0.9359067092923593  0.0859262037497151   T   T   T
  0.8261777349609221  0.9359435763379595  0.0859054135411819   T   T   T
  0.3263538781197707  0.5607797983482847  0.1130576053717871   T   T   T
  0.6597088275839625  0.5607657513782890  0.1130563029263092   T   T   T
  0.9930333809944714  0.5608062391330743  0.1130382579421021   T   T   T
  0.3264635035982641  0.8107653178258500  0.1130379202596000   T   T   T
  0.6597567902295852  0.8107676931805085  0.1130400059918974   T   T   T
  0.9930911730644849  0.8108469066554721  0.1130524196756369   T   T   T
  0.0768634071339631  0.1770906475496350  0.0267741828930531   T   T   T
  0.4093161053383384  0.1771374576861229  0.0269393100562234   T   T   T
  0.7426430679958985  0.1770587049869713  0.0268085005712092   T   T   T
  0.0766831805333689  0.4271587892429236  0.0267900485659584   T   T   T
  0.4089727880249341  0.4270397068805925  0.0268765475510701   T   T   T
  0.7420402974536880  0.4270574584433590  0.0268444516216525   T   T   T
  0.3241227142385957  0.0269167764662157  0.0450541530823217   T   T   T
  0.6566427365461291  0.0269140555840302  0.0450367657567983   T   T   T
  0.9905472036611043  0.0269258078718527  0.0449510853041921   T   T   T
  0.3235433208058286  0.2768183698900392  0.0450736158470775   T   T   T
  0.6567684613345994  0.2768863055448842  0.0450252364225891   T   T   T
  0.9902157219730754  0.2770067151052517  0.0449496963408417   T   T   T
  0.8292983410891897  0.4026195668283699  0.2074698688974841   T   T   T
  0.8308288097419781  0.1507316111597830  0.2070538501157254   T   T   T
  0.1623155611618830  0.1512770664258068  0.2073100642998217   T   T   T
  0.4972926789095171  0.1530929238747827  0.2081156192638644   T   T   T
  0.1623556198607163  0.4020948095452340  0.2074436526541986   T   T   T
  0.4944147231673216  0.4018199001105588  0.2075202745576540   T   T   T
  0.0774519218881672  0.0519422494513432  0.2256509315338613   T   T   T
  0.4117091502973285  0.0514841375823775  0.2257978552221533   T   T   T
  0.7449634160245491  0.0517752911001341  0.2257111837866925   T   T   T
  0.0760988785391928  0.3008049937375816  0.2252717185949385   T   T   T
  0.3768910730884071  0.3098078626467867  0.2290207424128589   T   T   T
  0.7816545490800333  0.2948805037698502  0.2232140547271709   T   T   T
  0.5456892893429414  0.3049845561043490  0.2742585280598041   T   T   T
  0.4920974919930256  0.2373173412041386  0.2935096419290548   T   T   T
  0.5717627601729411  0.3197060679541813  0.3032474848177774   T   T   T
  0.3144874569786517  0.1941859050640947  0.3097260128843943   T   T   T
  0.4223707717705233  0.1300896856806285  0.3023037056476204   T   T   T
  0.6509919720294409  0.3661046376448453  0.3334534571573181   T   T   T
  0.4849691764249408  0.3776534144374428  0.3307501829871553   T   T   T
  0.5156355627044058  0.3954569104391590  0.2523278266215407   T   T   T
  0.5842591589185688  0.3239999303094460  0.2390714562959938   T   T   T
  0.0764561637003647  0.6771442429593206  0.0268322307861294   T   T   T
  0.4095503227711129  0.6770936980631602  0.0268548739755485   T   T   T
  0.7427532591090030  0.6770866561480510  0.0268557549507556   T   T   T
  0.0761963268265203  0.9271158171581177  0.0268137742161736   T   T   T
  0.4090517339952916  0.9270580941643237  0.0268486368757582   T   T   T
  0.7424207087339469  0.9271153258352608  0.0268372665140201   T   T   T
  0.3237655292531137  0.5268634125933837  0.0450194435870496   T   T   T
  0.6571437655551321  0.5268678103558980  0.0450137767389577   T   T   T
  0.9904198619589533  0.5268775620543334  0.0449953117612857   T   T   T
  0.3235771200685664  0.7769052100223502  0.0449964993371125   T   T   T
  0.6567955103406999  0.7769299135653508  0.0449906985092623   T   T   T
  0.9901748372024702  0.7769304854249892  0.0449939861235207   T   T   T
  0.8297153080426803  0.9018935860901673  0.2074619991922470   T   T   T
  0.8296738735783925  0.6519395584918987  0.2074674118772104   T   T   T
  0.1629099022118819  0.6519200491533579  0.2074763299414501   T   T   T
  0.4964514476966216  0.6520028791848440  0.2075031790824309   T   T   T
  0.1630273434372506  0.9018841768072177  0.2074836943620963   T   T   T
  0.4965383186893562  0.9018161198348962  0.2074960595711569   T   T   T
  0.0768151788411148  0.5529121768051259  0.2256606015733305   T   T   T
  0.4109240599878332  0.5534730839439741  0.2254919763005640   T   T   T
  0.7441723727161781  0.5528440127454437  0.2255795858824153   T   T   T
  0.0776474633983489  0.8020882744150826  0.2256734225632069   T   T   T
  0.4104897057760388  0.8023342627004030  0.2257440879244501   T   T   T
  0.7454380319792552  0.8018867845458564  0.2256215723668002   T   T   T
  0.1694153899706158  0.1672748328542011  0.0342056037372137   T   T   T
  0.5021184514975745  0.1676506058895005  0.0343332293505996   T   T   T
  0.8354520905123178  0.1672836647861422  0.0341683340148828   T   T   T
  0.1691860705819639  0.4174250075653360  0.0342431996226197   T   T   T
  0.5017950766958472  0.4174650023727807  0.0342536089443689   T   T   T
  0.8348533333190189  0.4175011165774777  0.0342209441894419   T   T   T
  0.3190016882606366  0.0423219087048221  0.2183463615274241   T   T   T
  0.6522229190210683  0.0424201513475431  0.2182901805549108   T   T   T
  0.9850009534118737  0.0425276896241255  0.2181468630587779   T   T   T
  0.3006955443368894  0.2929732158604641  0.2183288892645903   T   T   T
  0.6797625075016336  0.2921899188208343  0.2183481367720745   T   T   T
  0.9827448949842584  0.2907304514979103  0.2179958740661877   T   T   T
  0.5702278026247340  0.2792308909510597  0.2898977314818268   T   T   T
  0.3810653596609547  0.1788674631870104  0.2975548952859288   T   T   T
  0.5755332709461537  0.3769319730767045  0.3222027204189629   T   T   T
  0.5094831059267136  0.3400073651949151  0.2507788829648597   T   T   T
  0.1691253189093034  0.6673724761092176  0.0342329116888138   T   T   T
  0.5023057823997668  0.6673750371758433  0.0342323619908301   T   T   T
  0.8355141152961442  0.6674091703550676  0.0342338301635344   T   T   T
  0.1688422504418916  0.9174728804608123  0.0342332740376701   T   T   T
  0.5018548038506163  0.9175025201237830  0.0342321795738963   T   T   T
  0.8351745322102988  0.9175234531165273  0.0342305475261943   T   T   T
  0.3183320288366415  0.5424143789039277  0.2182489092713792   T   T   T
  0.6515948045193855  0.5425057700976611  0.2182257194364327   T   T   T
  0.9844884471010815  0.5426627546236837  0.2182260196797896   T   T   T
  0.3181417025500898  0.7924939713451039  0.2182607522140734   T   T   T
  0.6525005644612609  0.7926452570324282  0.2182470068561752   T   T   T
  0.9850307779154047  0.7925111538457837  0.2182381700455487   T   T   T
  0.4930340635406493  0.1218128591967018  0.0598255572817304   T   T   T
  0.8263753075469115  0.1217156802004661  0.0596981474463891   T   T   T
  0.1595803866465044  0.3717544377412486  0.0597553926668732   T   T   T
  0.4928381871465307  0.3717535785512540  0.0597661210376783   T   T   T
  0.8261426697615256  0.3717897088687765  0.0597298749966400   T   T   T
  0.1597648536194212  0.1217056246644681  0.0597369359315900   T   T   T
  0.9934079707972228  0.4983792728749194  0.1396699149513465   T   T   T
  0.3267073694968172  0.4983026489447188  0.1396963780632477   T   T   T
  0.6600103730093667  0.4983090545060576  0.1396898352670392   T   T   T
  0.9935191485801349  0.2482131480737624  0.1395807025849348   T   T   T
  0.3266467853748972  0.2483539261720587  0.1398073927477627   T   T   T
  0.6602662406331927  0.2482674431202999  0.1396989176532751   T   T   T
  0.1605399771010955  0.1226603000264870  0.1659423874916901   T   T   T
  0.4937770761111824  0.1238426259919103  0.1664217595565555   T   T   T
  0.8274310896998309  0.1222865798024670  0.1657705224835123   T   T   T
  0.1603346879480549  0.3731741674659252  0.1660744409544412   T   T   T
  0.4935923148722540  0.3729411322181765  0.1660888161968151   T   T   T
  0.8273815221035179  0.3732267980371717  0.1660461027055851   T   T   T
  0.3268496094311700  0.4968801549340441  0.1927102644694545   T   T   T
  0.6604993820114580  0.4968810127264508  0.1927040497461645   T   T   T
  0.9937619140109324  0.4971270499373182  0.1926837614617393   T   T   T
  0.3254635470291294  0.2475787455803435  0.1931729653837798   T   T   T
  0.9944119671541606  0.2456224705551165  0.1922879789636075   T   T   T
  0.6637224566070270  0.2463910336224703  0.1925721552387135   T   T   T
  0.9929351571976872  0.4980699977130670  0.0864039459551176   T   T   T
  0.3262935516510914  0.4980840459884240  0.0864203557092959   T   T   T
  0.6595895250928842  0.4980818965025667  0.0864178866230259   T   T   T
  0.9929169418764191  0.2480756053549317  0.0863583946804950   T   T   T
  0.3262477804587630  0.2480781136369645  0.0864666145330622   T   T   T
  0.6596015983593390  0.2480816165128100  0.0864243846655226   T   T   T
  0.1597684402349353  0.1232691590685587  0.1127456644537951   T   T   T
  0.4930799962807804  0.1233384724026112  0.1128994538813337   T   T   T
  0.8264341869012808  0.1232362106637745  0.1126897627790718   T   T   T
  0.1597703700730886  0.3733026602735683  0.1127799313628888   T   T   T
  0.4930667947753685  0.3732605289427167  0.1128065301290173   T   T   T
  0.8264725866143582  0.3733083118693261  0.1127644606048229   T   T   T
  0.4930786827588082  0.6217244345710137  0.0597479064732592   T   T   T
  0.8264110628683687  0.6217358377034896  0.0597477122318681   T   T   T
  0.1595746190307801  0.8717569221405004  0.0597418222462697   T   T   T
  0.4928442613397532  0.8717769028494038  0.0597416073249424   T   T   T
  0.8261708957357629  0.8717860587941891  0.0597362335734741   T   T   T
  0.1597282768461829  0.6217187994279009  0.0597533434972908   T   T   T
  0.9935392282204528  0.9980516663579906  0.1395959707748108   T   T   T
  0.3271096455412828  0.9984030459839334  0.1397433489325220   T   T   T
  0.6597084955340647  0.9983369116174834  0.1397159246166396   T   T   T
  0.9933590794111707  0.7483147065395167  0.1396821607617985   T   T   T
  0.3267042270869510  0.7483261814990715  0.1396837068265222   T   T   T
  0.6599784277935529  0.7483231616748162  0.1396805102255168   T   T   T
  0.1602238266250983  0.6231499562985775  0.1660486109976057   T   T   T
  0.4935281071405265  0.6231597851866962  0.1660626754471783   T   T   T
  0.8268314118222452  0.6231351340928640  0.1660466498901609   T   T   T
  0.1603535593468855  0.8730294799333868  0.1660592751957216   T   T   T
  0.4936352637762029  0.8730268783104616  0.1660719867884025   T   T   T
  0.8269068637699972  0.8730187661236415  0.1660420894150748   T   T   T
  0.3273407029734008  0.9967018577032997  0.1928094882605527   T   T   T
  0.6605927857626368  0.9966787814635069  0.1927627937110281   T   T   T
  0.9939073167437485  0.9966131309376529  0.1926550165689538   T   T   T
  0.3271290582945378  0.7467799411467575  0.1927391520399938   T   T   T
  0.9937769724594198  0.7467869686202732  0.1927171333007005   T   T   T
  0.6605172812225690  0.7468263155722983  0.1927326604309896   T   T   T
  0.9929519644690461  0.9980448184116408  0.0863700339613817   T   T   T
  0.3263410468431551  0.9980840734470475  0.0864440364591477   T   T   T
  0.6595514756844578  0.9980998568682236  0.0864283738842513   T   T   T
  0.9929200164772612  0.7480974944753639  0.0864058570044745   T   T   T
  0.3262875499211009  0.7480687773280972  0.0864061569773185   T   T   T
  0.6595602358130027  0.7480844338867639  0.0864011394823021   T   T   T
  0.1597160972509141  0.6233077982212734  0.1127772920256720   T   T   T
  0.4930398087022033  0.6232916133859476  0.1127851024138356   T   T   T
  0.8263733134475391  0.6233030764637577  0.1127775036962776   T   T   T
  0.1599084429115568  0.8732875490691099  0.1127774162620915   T   T   T
  0.4931004396416994  0.8732545105356154  0.1127798279827112   T   T   T
  0.8263441535071652  0.8732967459227484  0.1127746006745722   T   T   T
 
  0.00000000E+00  0.00000000E+00  0.00000000E+00
  0.00000000E+00  0.00000000E+00  0.00000000E+00
  0.00000000E+00  0.00000000E+00  0.00000000E+00
  0.00000000E+00  0.00000000E+00  0.00000000E+00
  0.00000000E+00  0.00000000E+00  0.00000000E+00
  0.00000000E+00  0.00000000E+00  0.00000000E+00
  0.00000000E+00  0.00000000E+00  0.00000000E+00
  0.00000000E+00  0.00000000E+00  0.00000000E+00
  0.00000000E+00  0.00000000E+00  0.00000000E+00
  0.00000000E+00  0.00000000E+00  0.00000000E+00
  0.00000000E+00  0.00000000E+00  0.00000000E+00
  0.00000000E+00  0.00000000E+00  0.00000000E+00
  0.00000000E+00  0.00000000E+00  0.00000000E+00
  0.00000000E+00  0.00000000E+00  0.00000000E+00
  0.00000000E+00  0.00000000E+00  0.00000000E+00
  0.00000000E+00  0.00000000E+00  0.00000000E+00
  0.00000000E+00  0.00000000E+00  0.00000000E+00
  0.00000000E+00  0.00000000E+00  0.00000000E+00
  0.00000000E+00  0.00000000E+00  0.00000000E+00
  0.00000000E+00  0.00000000E+00  0.00000000E+00
  0.00000000E+00  0.00000000E+00  0.00000000E+00
  0.00000000E+00  0.00000000E+00  0.00000000E+00
  0.00000000E+00  0.00000000E+00  0.00000000E+00
  0.00000000E+00  0.00000000E+00  0.00000000E+00
  0.00000000E+00  0.00000000E+00  0.00000000E+00
  0.00000000E+00  0.00000000E+00  0.00000000E+00
  0.00000000E+00  0.00000000E+00  0.00000000E+00
  0.00000000E+00  0.00000000E+00  0.00000000E+00
  0.00000000E+00  0.00000000E+00  0.00000000E+00
  0.00000000E+00  0.00000000E+00  0.00000000E+00
  0.00000000E+00  0.00000000E+00  0.00000000E+00
  0.00000000E+00  0.00000000E+00  0.00000000E+00
  0.00000000E+00  0.00000000E+00  0.00000000E+00
  0.00000000E+00  0.00000000E+00  0.00000000E+00
  0.00000000E+00  0.00000000E+00  0.00000000E+00
  0.00000000E+00  0.00000000E+00  0.00000000E+00
  0.00000000E+00  0.00000000E+00  0.00000000E+00
  0.00000000E+00  0.00000000E+00  0.00000000E+00
  0.00000000E+00  0.00000000E+00  0.00000000E+00
  0.00000000E+00  0.00000000E+00  0.00000000E+00
  0.00000000E+00  0.00000000E+00  0.00000000E+00
  0.00000000E+00  0.00000000E+00  0.00000000E+00
  0.00000000E+00  0.00000000E+00  0.00000000E+00
  0.00000000E+00  0.00000000E+00  0.00000000E+00
  0.00000000E+00  0.00000000E+00  0.00000000E+00
  0.00000000E+00  0.00000000E+00  0.00000000E+00
  0.00000000E+00  0.00000000E+00  0.00000000E+00
  0.00000000E+00  0.00000000E+00  0.00000000E+00
  0.00000000E+00  0.00000000E+00  0.00000000E+00
  0.00000000E+00  0.00000000E+00  0.00000000E+00
  0.00000000E+00  0.00000000E+00  0.00000000E+00
  0.00000000E+00  0.00000000E+00  0.00000000E+00
  0.00000000E+00  0.00000000E+00  0.00000000E+00
  0.00000000E+00  0.00000000E+00  0.00000000E+00
  0.00000000E+00  0.00000000E+00  0.00000000E+00
  0.00000000E+00  0.00000000E+00  0.00000000E+00
  0.00000000E+00  0.00000000E+00  0.00000000E+00
  0.00000000E+00  0.00000000E+00  0.00000000E+00
  0.00000000E+00  0.00000000E+00  0.00000000E+00
  0.00000000E+00  0.00000000E+00  0.00000000E+00
  0.00000000E+00  0.00000000E+00  0.00000000E+00
  0.00000000E+00  0.00000000E+00  0.00000000E+00
  0.00000000E+00  0.00000000E+00  0.00000000E+00
  0.00000000E+00  0.00000000E+00  0.00000000E+00
  0.00000000E+00  0.00000000E+00  0.00000000E+00
  0.00000000E+00  0.00000000E+00  0.00000000E+00
  0.00000000E+00  0.00000000E+00  0.00000000E+00
  0.00000000E+00  0.00000000E+00  0.00000000E+00
  0.00000000E+00  0.00000000E+00  0.00000000E+00
  0.00000000E+00  0.00000000E+00  0.00000000E+00
  0.00000000E+00  0.00000000E+00  0.00000000E+00
  0.00000000E+00  0.00000000E+00  0.00000000E+00
  0.00000000E+00  0.00000000E+00  0.00000000E+00
  0.00000000E+00  0.00000000E+00  0.00000000E+00
  0.00000000E+00  0.00000000E+00  0.00000000E+00
  0.00000000E+00  0.00000000E+00  0.00000000E+00
  0.00000000E+00  0.00000000E+00  0.00000000E+00
  0.00000000E+00  0.00000000E+00  0.00000000E+00
  0.00000000E+00  0.00000000E+00  0.00000000E+00
  0.00000000E+00  0.00000000E+00  0.00000000E+00
  0.00000000E+00  0.00000000E+00  0.00000000E+00
  0.00000000E+00  0.00000000E+00  0.00000000E+00
  0.00000000E+00  0.00000000E+00  0.00000000E+00
  0.00000000E+00  0.00000000E+00  0.00000000E+00
  0.00000000E+00  0.00000000E+00  0.00000000E+00
  0.00000000E+00  0.00000000E+00  0.00000000E+00
  0.00000000E+00  0.00000000E+00  0.00000000E+00
  0.00000000E+00  0.00000000E+00  0.00000000E+00
  0.00000000E+00  0.00000000E+00  0.00000000E+00
  0.00000000E+00  0.00000000E+00  0.00000000E+00
  0.00000000E+00  0.00000000E+00  0.00000000E+00
  0.00000000E+00  0.00000000E+00  0.00000000E+00
  0.00000000E+00  0.00000000E+00  0.00000000E+00
  0.00000000E+00  0.00000000E+00  0.00000000E+00
  0.00000000E+00  0.00000000E+00  0.00000000E+00
  0.00000000E+00  0.00000000E+00  0.00000000E+00
  0.00000000E+00  0.00000000E+00  0.00000000E+00
  0.00000000E+00  0.00000000E+00  0.00000000E+00
  0.00000000E+00  0.00000000E+00  0.00000000E+00
  0.00000000E+00  0.00000000E+00  0.00000000E+00
  0.00000000E+00  0.00000000E+00  0.00000000E+00
  0.00000000E+00  0.00000000E+00  0.00000000E+00
  0.00000000E+00  0.00000000E+00  0.00000000E+00
  0.00000000E+00  0.00000000E+00  0.00000000E+00
  0.00000000E+00  0.00000000E+00  0.00000000E+00
  0.00000000E+00  0.00000000E+00  0.00000000E+00
  0.00000000E+00  0.00000000E+00  0.00000000E+00
  0.00000000E+00  0.00000000E+00  0.00000000E+00
  0.00000000E+00  0.00000000E+00  0.00000000E+00
  0.00000000E+00  0.00000000E+00  0.00000000E+00
  0.00000000E+00  0.00000000E+00  0.00000000E+00
  0.00000000E+00  0.00000000E+00  0.00000000E+00
  0.00000000E+00  0.00000000E+00  0.00000000E+00
  0.00000000E+00  0.00000000E+00  0.00000000E+00
  0.00000000E+00  0.00000000E+00  0.00000000E+00
  0.00000000E+00  0.00000000E+00  0.00000000E+00
  0.00000000E+00  0.00000000E+00  0.00000000E+00
  0.00000000E+00  0.00000000E+00  0.00000000E+00
  0.00000000E+00  0.00000000E+00  0.00000000E+00
  0.00000000E+00  0.00000000E+00  0.00000000E+00
  0.00000000E+00  0.00000000E+00  0.00000000E+00
  0.00000000E+00  0.00000000E+00  0.00000000E+00
  0.00000000E+00  0.00000000E+00  0.00000000E+00
  0.00000000E+00  0.00000000E+00  0.00000000E+00
  0.00000000E+00  0.00000000E+00  0.00000000E+00
  0.00000000E+00  0.00000000E+00  0.00000000E+00
  0.00000000E+00  0.00000000E+00  0.00000000E+00
  0.00000000E+00  0.00000000E+00  0.00000000E+00
  0.00000000E+00  0.00000000E+00  0.00000000E+00
  0.00000000E+00  0.00000000E+00  0.00000000E+00
  0.00000000E+00  0.00000000E+00  0.00000000E+00
  0.00000000E+00  0.00000000E+00  0.00000000E+00
  0.00000000E+00  0.00000000E+00  0.00000000E+00
  0.00000000E+00  0.00000000E+00  0.00000000E+00
  0.00000000E+00  0.00000000E+00  0.00000000E+00
  0.00000000E+00  0.00000000E+00  0.00000000E+00
  0.00000000E+00  0.00000000E+00  0.00000000E+00
  0.00000000E+00  0.00000000E+00  0.00000000E+00
  0.00000000E+00  0.00000000E+00  0.00000000E+00
  0.00000000E+00  0.00000000E+00  0.00000000E+00
  0.00000000E+00  0.00000000E+00  0.00000000E+00
  0.00000000E+00  0.00000000E+00  0.00000000E+00
  0.00000000E+00  0.00000000E+00  0.00000000E+00
  0.00000000E+00  0.00000000E+00  0.00000000E+00
  0.00000000E+00  0.00000000E+00  0.00000000E+00
  0.00000000E+00  0.00000000E+00  0.00000000E+00
  0.00000000E+00  0.00000000E+00  0.00000000E+00
  0.00000000E+00  0.00000000E+00  0.00000000E+00
  0.00000000E+00  0.00000000E+00  0.00000000E+00
  0.00000000E+00  0.00000000E+00  0.00000000E+00
  0.00000000E+00  0.00000000E+00  0.00000000E+00
  0.00000000E+00  0.00000000E+00  0.00000000E+00
  0.00000000E+00  0.00000000E+00  0.00000000E+00
  0.00000000E+00  0.00000000E+00  0.00000000E+00
  0.00000000E+00  0.00000000E+00  0.00000000E+00
  0.00000000E+00  0.00000000E+00  0.00000000E+00
  0.00000000E+00  0.00000000E+00  0.00000000E+00
  0.00000000E+00  0.00000000E+00  0.00000000E+00
  0.00000000E+00  0.00000000E+00  0.00000000E+00
  0.00000000E+00  0.00000000E+00  0.00000000E+00
  0.00000000E+00  0.00000000E+00  0.00000000E+00
  0.00000000E+00  0.00000000E+00  0.00000000E+00
  0.00000000E+00  0.00000000E+00  0.00000000E+00
  0.00000000E+00  0.00000000E+00  0.00000000E+00
  0.00000000E+00  0.00000000E+00  0.00000000E+00
  0.00000000E+00  0.00000000E+00  0.00000000E+00
  0.00000000E+00  0.00000000E+00  0.00000000E+00
  0.00000000E+00  0.00000000E+00  0.00000000E+00
  0.00000000E+00  0.00000000E+00  0.00000000E+00
  0.00000000E+00  0.00000000E+00  0.00000000E+00
  0.00000000E+00  0.00000000E+00  0.00000000E+00
  0.00000000E+00  0.00000000E+00  0.00000000E+00
  0.00000000E+00  0.00000000E+00  0.00000000E+00
  0.00000000E+00  0.00000000E+00  0.00000000E+00
  0.00000000E+00  0.00000000E+00  0.00000000E+00
  0.00000000E+00  0.00000000E+00  0.00000000E+00
  0.00000000E+00  0.00000000E+00  0.00000000E+00
  0.00000000E+00  0.00000000E+00  0.00000000E+00
  0.00000000E+00  0.00000000E+00  0.00000000E+00
  0.00000000E+00  0.00000000E+00  0.00000000E+00
  0.00000000E+00  0.00000000E+00  0.00000000E+00
  0.00000000E+00  0.00000000E+00  0.00000000E+00
  0.00000000E+00  0.00000000E+00  0.00000000E+00
  0.00000000E+00  0.00000000E+00  0.00000000E+00
  0.00000000E+00  0.00000000E+00  0.00000000E+00
  0.00000000E+00  0.00000000E+00  0.00000000E+00
  0.00000000E+00  0.00000000E+00  0.00000000E+00
  0.00000000E+00  0.00000000E+00  0.00000000E+00
  0.00000000E+00  0.00000000E+00  0.00000000E+00
  0.00000000E+00  0.00000000E+00  0.00000000E+00
  0.00000000E+00  0.00000000E+00  0.00000000E+00
  0.00000000E+00  0.00000000E+00  0.00000000E+00
  0.00000000E+00  0.00000000E+00  0.00000000E+00
  0.00000000E+00  0.00000000E+00  0.00000000E+00
  0.00000000E+00  0.00000000E+00  0.00000000E+00
  0.00000000E+00  0.00000000E+00  0.00000000E+00
  0.00000000E+00  0.00000000E+00  0.00000000E+00
  0.00000000E+00  0.00000000E+00  0.00000000E+00
  0.00000000E+00  0.00000000E+00  0.00000000E+00
  0.00000000E+00  0.00000000E+00  0.00000000E+00
  0.00000000E+00  0.00000000E+00  0.00000000E+00
  0.00000000E+00  0.00000000E+00  0.00000000E+00
  0.00000000E+00  0.00000000E+00  0.00000000E+00
  0.00000000E+00  0.00000000E+00  0.00000000E+00
  0.00000000E+00  0.00000000E+00  0.00000000E+00
  0.00000000E+00  0.00000000E+00  0.00000000E+00
  0.00000000E+00  0.00000000E+00  0.00000000E+00
  0.00000000E+00  0.00000000E+00  0.00000000E+00
  0.00000000E+00  0.00000000E+00  0.00000000E+00
  0.00000000E+00  0.00000000E+00  0.00000000E+00
  0.00000000E+00  0.00000000E+00  0.00000000E+00
  0.00000000E+00  0.00000000E+00  0.00000000E+00
  0.00000000E+00  0.00000000E+00  0.00000000E+00
  0.00000000E+00  0.00000000E+00  0.00000000E+00
  0.00000000E+00  0.00000000E+00  0.00000000E+00
  0.00000000E+00  0.00000000E+00  0.00000000E+00
  0.00000000E+00  0.00000000E+00  0.00000000E+00
  0.00000000E+00  0.00000000E+00  0.00000000E+00
  0.00000000E+00  0.00000000E+00  0.00000000E+00
  0.00000000E+00  0.00000000E+00  0.00000000E+00
  0.00000000E+00  0.00000000E+00  0.00000000E+00
  0.00000000E+00  0.00000000E+00  0.00000000E+00
  0.00000000E+00  0.00000000E+00  0.00000000E+00
  0.00000000E+00  0.00000000E+00  0.00000000E+00
  0.00000000E+00  0.00000000E+00  0.00000000E+00
  0.00000000E+00  0.00000000E+00  0.00000000E+00
  0.00000000E+00  0.00000000E+00  0.00000000E+00
  0.00000000E+00  0.00000000E+00  0.00000000E+00
  0.00000000E+00  0.00000000E+00  0.00000000E+00
