C H O Si                                
   1.00000000000000     
     9.2874599999999994    0.0000000000000000    0.0000000000000000
     0.0000000000000000   17.5126199999999983    0.0000000000000000
     0.0000000000000000    0.0000000000000000   58.0000000000000000
   C    H    O    Si
    72    57    28    72
Selective dynamics
Direct
  0.9928709641296839  0.0630449112020579  0.0604992825057820   T   T   T
  0.3262302860559420  0.0630939067595686  0.0605931492803391   T   T   T
  0.6594183037311637  0.0631002446439702  0.0605715426376076   T   T   T
  0.9926430828498318  0.3131058711977674  0.0605062014805101   T   T   T
  0.3260063527045252  0.3130477445800883  0.0606018632466080   T   T   T
  0.6592769092427725  0.3130589700196243  0.0605637819907914   T   T   T
  0.1601630685968839  0.1857174245486516  0.1393971681368787   T   T   T
  0.4934474065829960  0.1859328312229799  0.1396383112835529   T   T   T
  0.8268984851693352  0.1856886991832286  0.1393162547271274   T   T   T
  0.1600623960213585  0.4357973155773886  0.1394305989004741   T   T   T
  0.4934363730599438  0.4357121898415297  0.1394807558393845   T   T   T
  0.8268057938501807  0.4358026392131825  0.1394172962203153   T   T   T
  0.3276501548457501  0.0610690780560231  0.1666880914134916   T   T   T
  0.6599130232303819  0.0610217106191850  0.1666319081202425   T   T   T
  0.9939905016785980  0.0604393981839067  0.1664063651517529   T   T   T
  0.3269598558759850  0.3109104582943490  0.1667357190981917   T   T   T
  0.6607677707945302  0.3109422905707773  0.1666320482857978   T   T   T
  0.9937773682710042  0.3108042974172848  0.1664626275047415   T   T   T
  0.1609350198753949  0.1872486777799913  0.1917346546209034   T   T   T
  0.4943850746709162  0.1898163370691073  0.1926932827320035   T   T   T
  0.8284223733921597  0.1867078349827582  0.1914769673708116   T   T   T
  0.1601501120576556  0.4382762505361245  0.1919131089779831   T   T   T
  0.4937550367218180  0.4379178385741166  0.1919642332549671   T   T   T
  0.8273713001734558  0.4383816474942458  0.1918719187602841   T   T   T
  0.1595778943914418  0.1858605878852651  0.0859063304954608   T   T   T
  0.4929038600870936  0.1859125411357342  0.0860232553335632   T   T   T
  0.8262834362515025  0.1858688067591166  0.0858679886042868   T   T   T
  0.1595918723816789  0.4358729181542944  0.0859315027002366   T   T   T
  0.4928989824659014  0.4358476812074470  0.0859508398315568   T   T   T
  0.8262352313236371  0.4358709609758080  0.0859207513677661   T   T   T
  0.3264066754603986  0.0608471869012287  0.1130816486981437   T   T   T
  0.6596433527880138  0.0608426885954335  0.1130659783470113   T   T   T
  0.9930511949957845  0.0608258253303649  0.1129835269293380   T   T   T
  0.3263422721574311  0.3107711635214269  0.1131019854607752   T   T   T
  0.6597548396129592  0.3108212362416815  0.1130612442855288   T   T   T
  0.9930608109910516  0.3108312311380166  0.1129903287382005   T   T   T
  0.9928628814902535  0.5630400223584006  0.0605349285629422   T   T   T
  0.3262073394746294  0.5630453529176395  0.0605556895579800   T   T   T
  0.6595289052852991  0.5630425440406464  0.0605520646663489   T   T   T
  0.9926294007438434  0.8130956242831372  0.0605360238849884   T   T   T
  0.3260098224907215  0.8130510546390082  0.0605422106037693   T   T   T
  0.6592774269529929  0.8130775781349356  0.0605355702324658   T   T   T
  0.1600938015403687  0.6858271888993592  0.1394216870564824   T   T   T
  0.4933369141155151  0.6858071244095839  0.1394268127542571   T   T   T
  0.8266516104474467  0.6858084249081603  0.1394245504036027   T   T   T
  0.1603920338645715  0.9358277028591619  0.1394311192642708   T   T   T
  0.4934008178974294  0.9357430158840493  0.1394335484493404   T   T   T
  0.8265335123830334  0.9358302686195971  0.1394276381365811   T   T   T
  0.3269118276339368  0.5609305107032283  0.1665575837729850   T   T   T
  0.6600313420980454  0.5609034761628467  0.1665495438489158   T   T   T
  0.9935179772597654  0.5610531839535726  0.1665085476442545   T   T   T
  0.3269378968548236  0.8108434295677344  0.1665639998508930   T   T   T
  0.6602248742528204  0.8108519773317197  0.1665515459087724   T   T   T
  0.9936081528498146  0.8108807842226179  0.1665457170344638   T   T   T
  0.1604800604877058  0.6880752041261712  0.1919394009636076   T   T   T
  0.4938652358666201  0.6881148122797374  0.1919568873479987   T   T   T
  0.8271208988996789  0.6880654573319249  0.1919247620014983   T   T   T
  0.1606718693694639  0.9380139898550519  0.1919389909000851   T   T   T
  0.4939304612240347  0.9380041790597505  0.1919601366433794   T   T   T
  0.8272171201718461  0.9379786622099440  0.1919096047872157   T   T   T
  0.1595705333714293  0.6858613386239877  0.0859222669513348   T   T   T
  0.4929327282169623  0.6858413919572779  0.0859250124389964   T   T   T
  0.8262414903226903  0.6858604640657867  0.0859220776710121   T   T   T
  0.1596356158597076  0.9358534512998050  0.0859224130418409   T   T   T
  0.4929037013975174  0.9358705694165942  0.0859309408446448   T   T   T
  0.8261995569895162  0.9358779691019454  0.0859201069905221   T   T   T
  0.3263242217371232  0.5608105301506439  0.1130470554645544   T   T   T
  0.6596273390033781  0.5608185181872155  0.1130431469912896   T   T   T
  0.9929851711809293  0.5608391376781986  0.1130244823259540   T   T   T
  0.3264012449954627  0.8108049060356780  0.1130310030346544   T   T   T
  0.6597136373128387  0.8108057944102115  0.1130258135506005   T   T   T
  0.9930923744714862  0.8108380008838222  0.1130419481662822   T   T   T
  0.0768126134811125  0.1770584936908281  0.0267971336417474   T   T   T
  0.4092624272132751  0.1771040625593748  0.0269629372701405   T   T   T
  0.7425758185347818  0.1770252708285705  0.0268310637760060   T   T   T
  0.0765986867851061  0.4271351691310208  0.0268099146844331   T   T   T
  0.4088890994780526  0.4270169644583902  0.0268954357441115   T   T   T
  0.7419545597648863  0.4270427157076943  0.0268596251875610   T   T   T
  0.3241396394400675  0.0269178048508405  0.0450525955160940   T   T   T
  0.6566364725412235  0.0269112255350527  0.0450349612363551   T   T   T
  0.9905510935868652  0.0269209872280298  0.0449472212015520   T   T   T
  0.3235279619608428  0.2768252892168209  0.0450721967356391   T   T   T
  0.6567500148967059  0.2768942432951430  0.0450218569544379   T   T   T
  0.9901954426639615  0.2770174775103353  0.0449464527554120   T   T   T
  0.8292935419131289  0.4026250507525979  0.2074760564121917   T   T   T
  0.8308245864426463  0.1507390734328224  0.2070580085896132   T   T   T
  0.1623209104699091  0.1512753715509669  0.2073151089934980   T   T   T
  0.4973385206832865  0.1531121066340251  0.2081221971105841   T   T   T
  0.1623735717365247  0.4021122404520033  0.2074526766155559   T   T   T
  0.4944284615913283  0.4018262441774939  0.2075273474868846   T   T   T
  0.0774841984973591  0.0519782570709327  0.2256586796201892   T   T   T
  0.4117746077036772  0.0515209888715421  0.2258078256087426   T   T   T
  0.7450145296613749  0.0518118316006094  0.2257208497612720   T   T   T
  0.0761057960339555  0.3008132327579776  0.2252785777358423   T   T   T
  0.3768973233824708  0.3098547295924491  0.2290353758614287   T   T   T
  0.7816696128034955  0.2948509243786496  0.2231935327805138   T   T   T
  0.5458543492674376  0.3049351836368770  0.2742716597540756   T   T   T
  0.4923507850163050  0.2373831942048220  0.2935042952642040   T   T   T
  0.5718036654897718  0.3196252648700341  0.3032236470665515   T   T   T
  0.3145991772681295  0.1942211863833183  0.3097278430030089   T   T   T
  0.4223545588048337  0.1301585878700181  0.3023015123872159   T   T   T
  0.6509334250475547  0.3660931885747830  0.3334596792665535   T   T   T
  0.4849415431846655  0.3775837311284108  0.3307487961631711   T   T   T
  0.5158236068093400  0.3954748324899982  0.2523160969161058   T   T   T
  0.5843900611110669  0.3239543805155006  0.2390477340120339   T   T   T
  0.0763986597956943  0.6771137802874012  0.0268547162459321   T   T   T
  0.4094769953682015  0.6770623876457761  0.0268777359055118   T   T   T
  0.7426934706770809  0.6770549335367660  0.0268783866568837   T   T   T
  0.0761121922790704  0.9270921473407759  0.0268328480258408   T   T   T
  0.4089671255522785  0.9270333599206501  0.0268686184263300   T   T   T
  0.7423374993833978  0.9270914666605649  0.0268561110661328   T   T   T
  0.3237676639413369  0.5268631132382876  0.0450175673893009   T   T   T
  0.6571452415944581  0.5268678392130098  0.0450124527984158   T   T   T
  0.9904218518749097  0.5268753384698156  0.0449936777664975   T   T   T
  0.3235591335242725  0.7769139372076217  0.0449951965589714   T   T   T
  0.6567780418749306  0.7769342956659409  0.0449887664771378   T   T   T
  0.9901623642002031  0.7769365838650953  0.0449918671897607   T   T   T
  0.8297252592202209  0.9019035060958677  0.2074688400726689   T   T   T
  0.8296907586076533  0.6519399353802662  0.2074713530759217   T   T   T
  0.1629228825985462  0.6519207962759840  0.2074812297248163   T   T   T
  0.4964661164981974  0.6520092017733242  0.2075072082928295   T   T   T
  0.1630690461235131  0.9018984499399318  0.2074899670817794   T   T   T
  0.4965613987180740  0.9018370045630636  0.2074995909691087   T   T   T
  0.0768350464240427  0.5529576515004418  0.2256697760906254   T   T   T
  0.4109830342008601  0.5535159689289834  0.2255014626426378   T   T   T
  0.7442150104219998  0.5528853893842650  0.2255906448962072   T   T   T
  0.0776933118614073  0.8021215301512490  0.2256836649376403   T   T   T
  0.4105194274704113  0.8023792870302534  0.2257584409933433   T   T   T
  0.7454999485746766  0.8019173338339024  0.2256315853264385   T   T   T
  0.1695503728208223  0.1672910429507053  0.0341906086477790   T   T   T
  0.5022678566987897  0.1677121645768305  0.0343140498067850   T   T   T
  0.8356285653475667  0.1673498825185076  0.0341477223888190   T   T   T
  0.1693175777113060  0.4174837180486898  0.0342236844916939   T   T   T
  0.5019290523030431  0.4175432967336904  0.0342291379121490   T   T   T
  0.8349620237939722  0.4175840688022910  0.0341950520053073   T   T   T
  0.3191699863917657  0.0423170301587840  0.2183457155953373   T   T   T
  0.6524285968229582  0.0424078207719816  0.2182827065500007   T   T   T
  0.9852046355163941  0.0424700899072975  0.2181217559074820   T   T   T
  0.3009847291645322  0.2929512592671475  0.2183197412447987   T   T   T
  0.6796504025219392  0.2922832955965315  0.2183834667396279   T   T   T
  0.9830513958054675  0.2906932416835978  0.2179319942387928   T   T   T
  0.5700866190938381  0.2792971065206362  0.2898978280721777   T   T   T
  0.3811164396756915  0.1789423759634080  0.2975396915794967   T   T   T
  0.5755285684309519  0.3770035178340502  0.3222110390094979   T   T   T
  0.5095098759480440  0.3399914790419274  0.2507934971620269   T   T   T
  0.1692649134947004  0.6674187927538040  0.0342181811044258   T   T   T
  0.5024644868198341  0.6674373967230639  0.0342105579704353   T   T   T
  0.8356701556087744  0.6674868648722493  0.0342130460800028   T   T   T
  0.1689812260902059  0.9175437883153236  0.0342103293094322   T   T   T
  0.5019911277700089  0.9175689492623543  0.0342085376207731   T   T   T
  0.8353138119168493  0.9176115000305203  0.0342074253861692   T   T   T
  0.3184946991337771  0.5424402271678163  0.2182423025707270   T   T   T
  0.6517639766734229  0.5425187787470076  0.2182123975410108   T   T   T
  0.9846900341200727  0.5426182441319239  0.2182075905216478   T   T   T
  0.3183615904855643  0.7924765697907377  0.2182394850935865   T   T   T
  0.6527169181893531  0.7926749593793900  0.2182369462796371   T   T   T
  0.9852227202754287  0.7925012161952593  0.2182224966912258   T   T   T
  0.4929486596851917  0.1218142635936843  0.0598109061988068   T   T   T
  0.8262901663194701  0.1217288992055592  0.0596829118516006   T   T   T
  0.1595454737584668  0.3717520356829881  0.0597434904081149   T   T   T
  0.4927628941934487  0.3717589025509073  0.0597503713194036   T   T   T
  0.8260509430537909  0.3717813126686987  0.0597158027691331   T   T   T
  0.1596843802642403  0.1217164520615766  0.0597263533058723   T   T   T
  0.9934804721950697  0.4984004678393120  0.1396702931447605   T   T   T
  0.3267666494417371  0.4983452768959603  0.1396926188416284   T   T   T
  0.6601011451186222  0.4983397711138760  0.1396869414398633   T   T   T
  0.9935707714760991  0.2482425414325696  0.1395854034523829   T   T   T
  0.3266601404228274  0.2483911465801700  0.1398075458922655   T   T   T
  0.6603634823762019  0.2482883246904666  0.1396862117104742   T   T   T
  0.1605352427844820  0.1226633383791329  0.1659347668111744   T   T   T
  0.4937530293732256  0.1238419514866808  0.1664204516811472   T   T   T
  0.8274921059802277  0.1222546063997742  0.1657625098263759   T   T   T
  0.1602954104681678  0.3731892483435573  0.1660595800802301   T   T   T
  0.4935827332862142  0.3729388882645819  0.1660819948761553   T   T   T
  0.8273723389299651  0.3732508583912819  0.1660407109333301   T   T   T
  0.3268540059236187  0.4968223730152588  0.1927109191804883   T   T   T
  0.6605380271336011  0.4968241010162171  0.1927010905531304   T   T   T
  0.9937886616701233  0.4970682221828845  0.1926782568965071   T   T   T
  0.3253988925792430  0.2475644931375459  0.1931781112375469   T   T   T
  0.9944659280092059  0.2455348345573642  0.1922876786895347   T   T   T
  0.6637877848104770  0.2463619970073905  0.1925830169626181   T   T   T
  0.9929966961714045  0.4980547188256262  0.0864190113178334   T   T   T
  0.3263210390729898  0.4980454113434382  0.0864381066049594   T   T   T
  0.6596338410684307  0.4980478056347831  0.0864345218856179   T   T   T
  0.9929781269418658  0.2480498627774961  0.0863828817756794   T   T   T
  0.3262722341449433  0.2480460749543630  0.0864817379519115   T   T   T
  0.6596545296891625  0.2480355081942392  0.0864394961167058   T   T   T
  0.1596776544602997  0.1233219520775729  0.1127495296097533   T   T   T
  0.4929630046367511  0.1233701004498923  0.1129066243982503   T   T   T
  0.8263595495510905  0.1232819784524084  0.1126973046969808   T   T   T
  0.1596850486790654  0.3733347096815088  0.1127840367730391   T   T   T
  0.4929667486297949  0.3733081384887144  0.1128069747509487   T   T   T
  0.8264021054894616  0.3733390085199652  0.1127684368814897   T   T   T
  0.4929949849013767  0.6217161761650045  0.0597389788411946   T   T   T
  0.8263090507700664  0.6217345452093442  0.0597354893121390   T   T   T
  0.1595195695749463  0.8717448706879426  0.0597274921183814   T   T   T
  0.4927757631954001  0.8717779433983428  0.0597301098615324   T   T   T
  0.8260712833922101  0.8717842222819648  0.0597215319476925   T   T   T
  0.1596690855700238  0.6217228676765558  0.0597378480149749   T   T   T
  0.9936019979032439  0.9980927054524170  0.1395941231235545   T   T   T
  0.3271802996822262  0.9984183560224016  0.1397371881057230   T   T   T
  0.6597454192045203  0.9983866444403688  0.1397194655408356   T   T   T
  0.9934494329119760  0.7483222902367720  0.1396816182593272   T   T   T
  0.3267860867221877  0.7483464205502466  0.1396811307919155   T   T   T
  0.6600733858075553  0.7483292237981088  0.1396787332924148   T   T   T
  0.1602272500690659  0.6231706901874872  0.1660432060145662   T   T   T
  0.4934943991725437  0.6231665272235442  0.1660564446940259   T   T   T
  0.8267900831080305  0.6231415073937547  0.1660417824431363   T   T   T
  0.1603653002906668  0.8730504704931383  0.1660508688788550   T   T   T
  0.4935992408210524  0.8730393084946058  0.1660641540841181   T   T   T
  0.8268853686404810  0.8730223803415558  0.1660380586303719   T   T   T
  0.3273092671972982  0.9966673882589785  0.1928097569096497   T   T   T
  0.6606184962224374  0.9966431758323173  0.1927635974983750   T   T   T
  0.9939203770794792  0.9965411706900112  0.1926452774436543   T   T   T
  0.3271341102459198  0.7467437058827938  0.1927397002149377   T   T   T
  0.9937834833349345  0.7467278294646117  0.1927157073463955   T   T   T
  0.6605328360119239  0.7467933895065282  0.1927388111537831   T   T   T
  0.9930197060308459  0.9980198519848468  0.0863811768540517   T   T   T
  0.3263720291801747  0.9980468988615231  0.0864557949335947   T   T   T
  0.6595731614045149  0.9980450296381846  0.0864449203013867   T   T   T
  0.9929535950740316  0.7480603734881485  0.0864210974413539   T   T   T
  0.3263277797340500  0.7480255696821844  0.0864201234750596   T   T   T
  0.6596237821548343  0.7480399758162705  0.0864160072553305   T   T   T
  0.1596038897524054  0.6233507640207765  0.1127817838207249   T   T   T
  0.4929240924594950  0.6233339358794731  0.1127864895741949   T   T   T
  0.8262577098196666  0.6233466654967973  0.1127801124843195   T   T   T
  0.1598298724230282  0.8733277540832718  0.1127810520133366   T   T   T
  0.4930162190152807  0.8732967347858149  0.1127792838765208   T   T   T
  0.8262842500095972  0.8733287375408592  0.1127767015254189   T   T   T
 
  0.00000000E+00  0.00000000E+00  0.00000000E+00
  0.00000000E+00  0.00000000E+00  0.00000000E+00
  0.00000000E+00  0.00000000E+00  0.00000000E+00
  0.00000000E+00  0.00000000E+00  0.00000000E+00
  0.00000000E+00  0.00000000E+00  0.00000000E+00
  0.00000000E+00  0.00000000E+00  0.00000000E+00
  0.00000000E+00  0.00000000E+00  0.00000000E+00
  0.00000000E+00  0.00000000E+00  0.00000000E+00
  0.00000000E+00  0.00000000E+00  0.00000000E+00
  0.00000000E+00  0.00000000E+00  0.00000000E+00
  0.00000000E+00  0.00000000E+00  0.00000000E+00
  0.00000000E+00  0.00000000E+00  0.00000000E+00
  0.00000000E+00  0.00000000E+00  0.00000000E+00
  0.00000000E+00  0.00000000E+00  0.00000000E+00
  0.00000000E+00  0.00000000E+00  0.00000000E+00
  0.00000000E+00  0.00000000E+00  0.00000000E+00
  0.00000000E+00  0.00000000E+00  0.00000000E+00
  0.00000000E+00  0.00000000E+00  0.00000000E+00
  0.00000000E+00  0.00000000E+00  0.00000000E+00
  0.00000000E+00  0.00000000E+00  0.00000000E+00
  0.00000000E+00  0.00000000E+00  0.00000000E+00
  0.00000000E+00  0.00000000E+00  0.00000000E+00
  0.00000000E+00  0.00000000E+00  0.00000000E+00
  0.00000000E+00  0.00000000E+00  0.00000000E+00
  0.00000000E+00  0.00000000E+00  0.00000000E+00
  0.00000000E+00  0.00000000E+00  0.00000000E+00
  0.00000000E+00  0.00000000E+00  0.00000000E+00
  0.00000000E+00  0.00000000E+00  0.00000000E+00
  0.00000000E+00  0.00000000E+00  0.00000000E+00
  0.00000000E+00  0.00000000E+00  0.00000000E+00
  0.00000000E+00  0.00000000E+00  0.00000000E+00
  0.00000000E+00  0.00000000E+00  0.00000000E+00
  0.00000000E+00  0.00000000E+00  0.00000000E+00
  0.00000000E+00  0.00000000E+00  0.00000000E+00
  0.00000000E+00  0.00000000E+00  0.00000000E+00
  0.00000000E+00  0.00000000E+00  0.00000000E+00
  0.00000000E+00  0.00000000E+00  0.00000000E+00
  0.00000000E+00  0.00000000E+00  0.00000000E+00
  0.00000000E+00  0.00000000E+00  0.00000000E+00
  0.00000000E+00  0.00000000E+00  0.00000000E+00
  0.00000000E+00  0.00000000E+00  0.00000000E+00
  0.00000000E+00  0.00000000E+00  0.00000000E+00
  0.00000000E+00  0.00000000E+00  0.00000000E+00
  0.00000000E+00  0.00000000E+00  0.00000000E+00
  0.00000000E+00  0.00000000E+00  0.00000000E+00
  0.00000000E+00  0.00000000E+00  0.00000000E+00
  0.00000000E+00  0.00000000E+00  0.00000000E+00
  0.00000000E+00  0.00000000E+00  0.00000000E+00
  0.00000000E+00  0.00000000E+00  0.00000000E+00
  0.00000000E+00  0.00000000E+00  0.00000000E+00
  0.00000000E+00  0.00000000E+00  0.00000000E+00
  0.00000000E+00  0.00000000E+00  0.00000000E+00
  0.00000000E+00  0.00000000E+00  0.00000000E+00
  0.00000000E+00  0.00000000E+00  0.00000000E+00
  0.00000000E+00  0.00000000E+00  0.00000000E+00
  0.00000000E+00  0.00000000E+00  0.00000000E+00
  0.00000000E+00  0.00000000E+00  0.00000000E+00
  0.00000000E+00  0.00000000E+00  0.00000000E+00
  0.00000000E+00  0.00000000E+00  0.00000000E+00
  0.00000000E+00  0.00000000E+00  0.00000000E+00
  0.00000000E+00  0.00000000E+00  0.00000000E+00
  0.00000000E+00  0.00000000E+00  0.00000000E+00
  0.00000000E+00  0.00000000E+00  0.00000000E+00
  0.00000000E+00  0.00000000E+00  0.00000000E+00
  0.00000000E+00  0.00000000E+00  0.00000000E+00
  0.00000000E+00  0.00000000E+00  0.00000000E+00
  0.00000000E+00  0.00000000E+00  0.00000000E+00
  0.00000000E+00  0.00000000E+00  0.00000000E+00
  0.00000000E+00  0.00000000E+00  0.00000000E+00
  0.00000000E+00  0.00000000E+00  0.00000000E+00
  0.00000000E+00  0.00000000E+00  0.00000000E+00
  0.00000000E+00  0.00000000E+00  0.00000000E+00
  0.00000000E+00  0.00000000E+00  0.00000000E+00
  0.00000000E+00  0.00000000E+00  0.00000000E+00
  0.00000000E+00  0.00000000E+00  0.00000000E+00
  0.00000000E+00  0.00000000E+00  0.00000000E+00
  0.00000000E+00  0.00000000E+00  0.00000000E+00
  0.00000000E+00  0.00000000E+00  0.00000000E+00
  0.00000000E+00  0.00000000E+00  0.00000000E+00
  0.00000000E+00  0.00000000E+00  0.00000000E+00
  0.00000000E+00  0.00000000E+00  0.00000000E+00
  0.00000000E+00  0.00000000E+00  0.00000000E+00
  0.00000000E+00  0.00000000E+00  0.00000000E+00
  0.00000000E+00  0.00000000E+00  0.00000000E+00
  0.00000000E+00  0.00000000E+00  0.00000000E+00
  0.00000000E+00  0.00000000E+00  0.00000000E+00
  0.00000000E+00  0.00000000E+00  0.00000000E+00
  0.00000000E+00  0.00000000E+00  0.00000000E+00
  0.00000000E+00  0.00000000E+00  0.00000000E+00
  0.00000000E+00  0.00000000E+00  0.00000000E+00
  0.00000000E+00  0.00000000E+00  0.00000000E+00
  0.00000000E+00  0.00000000E+00  0.00000000E+00
  0.00000000E+00  0.00000000E+00  0.00000000E+00
  0.00000000E+00  0.00000000E+00  0.00000000E+00
  0.00000000E+00  0.00000000E+00  0.00000000E+00
  0.00000000E+00  0.00000000E+00  0.00000000E+00
  0.00000000E+00  0.00000000E+00  0.00000000E+00
  0.00000000E+00  0.00000000E+00  0.00000000E+00
  0.00000000E+00  0.00000000E+00  0.00000000E+00
  0.00000000E+00  0.00000000E+00  0.00000000E+00
  0.00000000E+00  0.00000000E+00  0.00000000E+00
  0.00000000E+00  0.00000000E+00  0.00000000E+00
  0.00000000E+00  0.00000000E+00  0.00000000E+00
  0.00000000E+00  0.00000000E+00  0.00000000E+00
  0.00000000E+00  0.00000000E+00  0.00000000E+00
  0.00000000E+00  0.00000000E+00  0.00000000E+00
  0.00000000E+00  0.00000000E+00  0.00000000E+00
  0.00000000E+00  0.00000000E+00  0.00000000E+00
  0.00000000E+00  0.00000000E+00  0.00000000E+00
  0.00000000E+00  0.00000000E+00  0.00000000E+00
  0.00000000E+00  0.00000000E+00  0.00000000E+00
  0.00000000E+00  0.00000000E+00  0.00000000E+00
  0.00000000E+00  0.00000000E+00  0.00000000E+00
  0.00000000E+00  0.00000000E+00  0.00000000E+00
  0.00000000E+00  0.00000000E+00  0.00000000E+00
  0.00000000E+00  0.00000000E+00  0.00000000E+00
  0.00000000E+00  0.00000000E+00  0.00000000E+00
  0.00000000E+00  0.00000000E+00  0.00000000E+00
  0.00000000E+00  0.00000000E+00  0.00000000E+00
  0.00000000E+00  0.00000000E+00  0.00000000E+00
  0.00000000E+00  0.00000000E+00  0.00000000E+00
  0.00000000E+00  0.00000000E+00  0.00000000E+00
  0.00000000E+00  0.00000000E+00  0.00000000E+00
  0.00000000E+00  0.00000000E+00  0.00000000E+00
  0.00000000E+00  0.00000000E+00  0.00000000E+00
  0.00000000E+00  0.00000000E+00  0.00000000E+00
  0.00000000E+00  0.00000000E+00  0.00000000E+00
  0.00000000E+00  0.00000000E+00  0.00000000E+00
  0.00000000E+00  0.00000000E+00  0.00000000E+00
  0.00000000E+00  0.00000000E+00  0.00000000E+00
  0.00000000E+00  0.00000000E+00  0.00000000E+00
  0.00000000E+00  0.00000000E+00  0.00000000E+00
  0.00000000E+00  0.00000000E+00  0.00000000E+00
  0.00000000E+00  0.00000000E+00  0.00000000E+00
  0.00000000E+00  0.00000000E+00  0.00000000E+00
  0.00000000E+00  0.00000000E+00  0.00000000E+00
  0.00000000E+00  0.00000000E+00  0.00000000E+00
  0.00000000E+00  0.00000000E+00  0.00000000E+00
  0.00000000E+00  0.00000000E+00  0.00000000E+00
  0.00000000E+00  0.00000000E+00  0.00000000E+00
  0.00000000E+00  0.00000000E+00  0.00000000E+00
  0.00000000E+00  0.00000000E+00  0.00000000E+00
  0.00000000E+00  0.00000000E+00  0.00000000E+00
  0.00000000E+00  0.00000000E+00  0.00000000E+00
  0.00000000E+00  0.00000000E+00  0.00000000E+00
  0.00000000E+00  0.00000000E+00  0.00000000E+00
  0.00000000E+00  0.00000000E+00  0.00000000E+00
  0.00000000E+00  0.00000000E+00  0.00000000E+00
  0.00000000E+00  0.00000000E+00  0.00000000E+00
  0.00000000E+00  0.00000000E+00  0.00000000E+00
  0.00000000E+00  0.00000000E+00  0.00000000E+00
  0.00000000E+00  0.00000000E+00  0.00000000E+00
  0.00000000E+00  0.00000000E+00  0.00000000E+00
  0.00000000E+00  0.00000000E+00  0.00000000E+00
  0.00000000E+00  0.00000000E+00  0.00000000E+00
  0.00000000E+00  0.00000000E+00  0.00000000E+00
  0.00000000E+00  0.00000000E+00  0.00000000E+00
  0.00000000E+00  0.00000000E+00  0.00000000E+00
  0.00000000E+00  0.00000000E+00  0.00000000E+00
  0.00000000E+00  0.00000000E+00  0.00000000E+00
  0.00000000E+00  0.00000000E+00  0.00000000E+00
  0.00000000E+00  0.00000000E+00  0.00000000E+00
  0.00000000E+00  0.00000000E+00  0.00000000E+00
  0.00000000E+00  0.00000000E+00  0.00000000E+00
  0.00000000E+00  0.00000000E+00  0.00000000E+00
  0.00000000E+00  0.00000000E+00  0.00000000E+00
  0.00000000E+00  0.00000000E+00  0.00000000E+00
  0.00000000E+00  0.00000000E+00  0.00000000E+00
  0.00000000E+00  0.00000000E+00  0.00000000E+00
  0.00000000E+00  0.00000000E+00  0.00000000E+00
  0.00000000E+00  0.00000000E+00  0.00000000E+00
  0.00000000E+00  0.00000000E+00  0.00000000E+00
  0.00000000E+00  0.00000000E+00  0.00000000E+00
  0.00000000E+00  0.00000000E+00  0.00000000E+00
  0.00000000E+00  0.00000000E+00  0.00000000E+00
  0.00000000E+00  0.00000000E+00  0.00000000E+00
  0.00000000E+00  0.00000000E+00  0.00000000E+00
  0.00000000E+00  0.00000000E+00  0.00000000E+00
  0.00000000E+00  0.00000000E+00  0.00000000E+00
  0.00000000E+00  0.00000000E+00  0.00000000E+00
  0.00000000E+00  0.00000000E+00  0.00000000E+00
  0.00000000E+00  0.00000000E+00  0.00000000E+00
  0.00000000E+00  0.00000000E+00  0.00000000E+00
  0.00000000E+00  0.00000000E+00  0.00000000E+00
  0.00000000E+00  0.00000000E+00  0.00000000E+00
  0.00000000E+00  0.00000000E+00  0.00000000E+00
  0.00000000E+00  0.00000000E+00  0.00000000E+00
  0.00000000E+00  0.00000000E+00  0.00000000E+00
  0.00000000E+00  0.00000000E+00  0.00000000E+00
  0.00000000E+00  0.00000000E+00  0.00000000E+00
  0.00000000E+00  0.00000000E+00  0.00000000E+00
  0.00000000E+00  0.00000000E+00  0.00000000E+00
  0.00000000E+00  0.00000000E+00  0.00000000E+00
  0.00000000E+00  0.00000000E+00  0.00000000E+00
  0.00000000E+00  0.00000000E+00  0.00000000E+00
  0.00000000E+00  0.00000000E+00  0.00000000E+00
  0.00000000E+00  0.00000000E+00  0.00000000E+00
  0.00000000E+00  0.00000000E+00  0.00000000E+00
  0.00000000E+00  0.00000000E+00  0.00000000E+00
  0.00000000E+00  0.00000000E+00  0.00000000E+00
  0.00000000E+00  0.00000000E+00  0.00000000E+00
  0.00000000E+00  0.00000000E+00  0.00000000E+00
  0.00000000E+00  0.00000000E+00  0.00000000E+00
  0.00000000E+00  0.00000000E+00  0.00000000E+00
  0.00000000E+00  0.00000000E+00  0.00000000E+00
  0.00000000E+00  0.00000000E+00  0.00000000E+00
  0.00000000E+00  0.00000000E+00  0.00000000E+00
  0.00000000E+00  0.00000000E+00  0.00000000E+00
  0.00000000E+00  0.00000000E+00  0.00000000E+00
  0.00000000E+00  0.00000000E+00  0.00000000E+00
  0.00000000E+00  0.00000000E+00  0.00000000E+00
  0.00000000E+00  0.00000000E+00  0.00000000E+00
  0.00000000E+00  0.00000000E+00  0.00000000E+00
  0.00000000E+00  0.00000000E+00  0.00000000E+00
  0.00000000E+00  0.00000000E+00  0.00000000E+00
  0.00000000E+00  0.00000000E+00  0.00000000E+00
  0.00000000E+00  0.00000000E+00  0.00000000E+00
  0.00000000E+00  0.00000000E+00  0.00000000E+00
  0.00000000E+00  0.00000000E+00  0.00000000E+00
  0.00000000E+00  0.00000000E+00  0.00000000E+00
  0.00000000E+00  0.00000000E+00  0.00000000E+00
  0.00000000E+00  0.00000000E+00  0.00000000E+00
  0.00000000E+00  0.00000000E+00  0.00000000E+00
  0.00000000E+00  0.00000000E+00  0.00000000E+00
  0.00000000E+00  0.00000000E+00  0.00000000E+00
  0.00000000E+00  0.00000000E+00  0.00000000E+00
  0.00000000E+00  0.00000000E+00  0.00000000E+00
  0.00000000E+00  0.00000000E+00  0.00000000E+00
  0.00000000E+00  0.00000000E+00  0.00000000E+00
