C H O Si                                
   1.00000000000000     
     9.2874599999999994    0.0000000000000000    0.0000000000000000
     0.0000000000000000   17.5126199999999983    0.0000000000000000
     0.0000000000000000    0.0000000000000000   55.0000000000000000
   C    H    O    Si
    72    57    28    72
Selective dynamics
Direct
  0.9930794375690699  0.0632353628014031  0.0637997800498756   T   T   T
  0.3264783666963021  0.0633055858849750  0.0639006525333671   T   T   T
  0.6596531959590212  0.0632848045819026  0.0638781457956237   T   T   T
  0.9927204130536356  0.3132403798357071  0.0637714558373749   T   T   T
  0.3261084323309960  0.3131833020529747  0.0638871116217718   T   T   T
  0.6593487212747426  0.3131957265629166  0.0638573115722321   T   T   T
  0.1598338949649258  0.1860226928534179  0.1470095181932408   T   T   T
  0.4932199506410248  0.1862499232730434  0.1472866565682890   T   T   T
  0.8266109371016689  0.1859764830388747  0.1469290345125901   T   T   T
  0.1599232486854022  0.4361124722406469  0.1470774301830721   T   T   T
  0.4931315625144373  0.4359427448003060  0.1471195424432983   T   T   T
  0.8266275259410324  0.4360960633729811  0.1470446810625174   T   T   T
  0.3273048082273692  0.0615468814504022  0.1758044012763747   T   T   T
  0.6594864620427914  0.0615501289993562  0.1757198996078860   T   T   T
  0.9936690739117412  0.0606892719987150  0.1755157157503593   T   T   T
  0.3263809454820114  0.3111364441923207  0.1758571145369726   T   T   T
  0.6603636481980240  0.3112016316083207  0.1757829211853103   T   T   T
  0.9934632518827470  0.3110882751581560  0.1755524470779203   T   T   T
  0.1598075085157931  0.1873712138408492  0.2022097792893401   T   T   T
  0.4933467806474423  0.1902364392096806  0.2033854217394089   T   T   T
  0.8274770464627281  0.1868667137795389  0.2019556860170935   T   T   T
  0.1595389453299521  0.4385047130078251  0.2024055547845817   T   T   T
  0.4930820619277126  0.4378067832513997  0.2024139485365639   T   T   T
  0.8271447561569650  0.4384530369201698  0.2023255824183822   T   T   T
  0.1597133077771520  0.1861672942289417  0.0906047225693876   T   T   T
  0.4930261493036437  0.1862033146076795  0.0907456307489057   T   T   T
  0.8263864821324304  0.1861610812171942  0.0905629059849025   T   T   T
  0.1597647822684589  0.4360986569333398  0.0906188418946562   T   T   T
  0.4930811887949828  0.4361092117065301  0.0906588560258358   T   T   T
  0.8263917750594610  0.4361363495538984  0.0906118072893651   T   T   T
  0.3266596668912310  0.0610869417367310  0.1192834375529706   T   T   T
  0.6598531827706803  0.0611157553781351  0.1192426017999539   T   T   T
  0.9933248156173841  0.0609624616566919  0.1191790605071468   T   T   T
  0.3263678411126075  0.3110402931520563  0.1193041430447085   T   T   T
  0.6597616523567104  0.3110936453548860  0.1192819594824203   T   T   T
  0.9931319565418912  0.3110897949060908  0.1191563803931088   T   T   T
  0.9931159612088645  0.5632175382491593  0.0638055205075454   T   T   T
  0.3264584098355582  0.5631649995123500  0.0638578277126692   T   T   T
  0.6597188082436731  0.5632249519431454  0.0638615489588850   T   T   T
  0.9926909201647985  0.8133228662513550  0.0638406698226133   T   T   T
  0.3260920756524997  0.8132579917146161  0.0638718834139584   T   T   T
  0.6593452567246613  0.8132518593435649  0.0638272623370713   T   T   T
  0.1601094582773245  0.6862150697754112  0.1470829735166303   T   T   T
  0.4932863667401550  0.6860965007358845  0.1471200328427650   T   T   T
  0.8265515173131176  0.6860824881710516  0.1470824750153339   T   T   T
  0.1603165027453493  0.9360598468105621  0.1470969279348627   T   T   T
  0.4932115590544122  0.9360022738281462  0.1470883923333877   T   T   T
  0.8264117040881411  0.9360908704751842  0.1470843682361139   T   T   T
  0.3269013455893126  0.5612782551066037  0.1757187759379337   T   T   T
  0.6598461716162489  0.5611824739264726  0.1757792136393822   T   T   T
  0.9933791440976595  0.5614659544073956  0.1756071313419266   T   T   T
  0.3268444441688260  0.8112538495567277  0.1757439786565807   T   T   T
  0.6601866665030551  0.8113128270258012  0.1757317144414557   T   T   T
  0.9934899228579015  0.8112551710410483  0.1757132182093244   T   T   T
  0.1603338358504015  0.6881825225767461  0.2024897791849958   T   T   T
  0.4938416509766808  0.6884490738030790  0.2025841473772984   T   T   T
  0.8268480596942452  0.6882094718340820  0.2024489103778811   T   T   T
  0.1603104713745966  0.9384139894729064  0.2024769290608214   T   T   T
  0.4936936822635798  0.9384583263237879  0.2024876481434627   T   T   T
  0.8267707127978206  0.9384050599354483  0.2024367459505567   T   T   T
  0.1598193409664173  0.6861089155835127  0.0906434117373690   T   T   T
  0.4931042168425282  0.6861138690475177  0.0906386702938264   T   T   T
  0.8264982804154393  0.6861458505833574  0.0905958305901855   T   T   T
  0.1597431243890624  0.9361389708617436  0.0906518627611450   T   T   T
  0.4930569181521441  0.9361170752508974  0.0906450663198968   T   T   T
  0.8262546058273325  0.9361280599651908  0.0906134751069894   T   T   T
  0.3266890142034075  0.5610920047477896  0.1192653028024160   T   T   T
  0.6600028712851005  0.5610393911534148  0.1192565720232471   T   T   T
  0.9934366089513522  0.5611113630916775  0.1192078858396473   T   T   T
  0.3266061915421227  0.8110243375691029  0.1192515527517581   T   T   T
  0.6597908274326747  0.8110086377488724  0.1192268303653747   T   T   T
  0.9932337407277536  0.8111347225886115  0.1192383335077710   T   T   T
  0.0743380365983094  0.1749771635929286  0.0284092763398788   T   T   T
  0.4070004621490399  0.1750684064519336  0.0285844545715933   T   T   T
  0.7401524371641023  0.1749862363540014  0.0284551178611370   T   T   T
  0.0741341520467186  0.4250059440610612  0.0284161947981024   T   T   T
  0.4067121690270333  0.4249015107132714  0.0284958292842129   T   T   T
  0.7398055891876585  0.4249527279285693  0.0284710458132211   T   T   T
  0.3242833593493682  0.0271517407136403  0.0474883418170862   T   T   T
  0.6566209961802780  0.0271827749831340  0.0474574675078459   T   T   T
  0.9905078219014040  0.0271286596359103  0.0473772645628910   T   T   T
  0.3235477053343465  0.2769339200421774  0.0474970148650159   T   T   T
  0.6566687229184125  0.2769547886323885  0.0474639347009869   T   T   T
  0.9901734893080104  0.2771322509878836  0.0473495343724014   T   T   T
  0.8306110356047783  0.4026932911148685  0.2187806233648516   T   T   T
  0.8301763553218789  0.1507550363785458  0.2183671166877209   T   T   T
  0.1613682522809895  0.1514896211835773  0.2186776537503796   T   T   T
  0.4960135561010319  0.1529961597960465  0.2195462208867306   T   T   T
  0.1616945965674816  0.4022925517205893  0.2187883809114320   T   T   T
  0.4928951357024092  0.4011846047907585  0.2187187641767230   T   T   T
  0.0793050502048268  0.0504865615758513  0.2376708169149310   T   T   T
  0.4139745290808749  0.0494469830899602  0.2378293491601999   T   T   T
  0.7475463839505851  0.0496085270856817  0.2377075692839102   T   T   T
  0.0764887348671395  0.2993964976482752  0.2372632524983699   T   T   T
  0.3756902376233476  0.3063693050996310  0.2415119868540647   T   T   T
  0.7853375415466237  0.2938087366909340  0.2350786521365471   T   T   T
  0.5525527572328441  0.3080223005998124  0.2879623860496678   T   T   T
  0.4997612278080104  0.2393854807024541  0.3087580693795351   T   T   T
  0.5772673470733580  0.3195372674715529  0.3191881329353269   T   T   T
  0.3152021405313693  0.1955255118736133  0.3269764542846417   T   T   T
  0.4148929263385501  0.1278412705694322  0.3189100323133580   T   T   T
  0.6490169927817461  0.3678993596878202  0.3532699202900854   T   T   T
  0.4826030503375107  0.3754085824643462  0.3494395811484707   T   T   T
  0.5233617035775068  0.3958035288343094  0.2640227825046849   T   T   T
  0.5926124426900802  0.3213525971045509  0.2507528227656156   T   T   T
  0.0742708734505611  0.6750166775259154  0.0284177117182153   T   T   T
  0.4070206226722534  0.6750733358074066  0.0285001475406036   T   T   T
  0.7402562540369755  0.6749662952619241  0.0284556047310345   T   T   T
  0.0739709181521198  0.9250432650604905  0.0284298553752413   T   T   T
  0.4066221371519451  0.9249689650243206  0.0284769565415138   T   T   T
  0.7399060405218830  0.9249727296114899  0.0284641798540109   T   T   T
  0.3238724604415948  0.5270670316582202  0.0474316565491188   T   T   T
  0.6569990999318990  0.5270563972479223  0.0474556977439267   T   T   T
  0.9905613399894611  0.5271152937623389  0.0473796870337784   T   T   T
  0.3235123316026917  0.7771794780237302  0.0474480758048439   T   T   T
  0.6566648770702788  0.7772666745413352  0.0473809552622453   T   T   T
  0.9901239022337696  0.7772064120115366  0.0474237624915697   T   T   T
  0.8285496408397610  0.9022773778753627  0.2188468947308993   T   T   T
  0.8303807268977010  0.6520913555994231  0.2188531262253501   T   T   T
  0.1637328387950557  0.6521287677849112  0.2189228856964469   T   T   T
  0.4978902287192986  0.6522847984632073  0.2189827016068121   T   T   T
  0.1627667757425454  0.9022359853259018  0.2188817103212976   T   T   T
  0.4967860412678822  0.9022363030842937  0.2188755762664731   T   T   T
  0.0777825199017524  0.5517013770117027  0.2375936994960026   T   T   T
  0.4135950384798530  0.5545591476617384  0.2368456827023764   T   T   T
  0.7455788897536518  0.5518920312819900  0.2374165484862140   T   T   T
  0.0792493429067288  0.7998093165769818  0.2378013747156272   T   T   T
  0.4110104522049026  0.8006140027149534  0.2379270244194533   T   T   T
  0.7491425594065857  0.7993615261021260  0.2376555758517478   T   T   T
  0.1681355245963002  0.1679924169245393  0.0361650011097483   T   T   T
  0.5009639698913581  0.1682590498175204  0.0363060911930848   T   T   T
  0.8342054263068479  0.1679315957138400  0.0361214112067242   T   T   T
  0.1679249637967631  0.4179358520346831  0.0361666661318813   T   T   T
  0.5006765980084529  0.4178857711829637  0.0361981090657316   T   T   T
  0.8338220152369763  0.4179170991888721  0.0361516013497001   T   T   T
  0.3195245720286435  0.0427803053644489  0.2302774551505978   T   T   T
  0.6528712581137898  0.0431711452147930  0.2301912873418482   T   T   T
  0.9851101120945118  0.0428811125627688  0.2301197947399816   T   T   T
  0.2980660211783020  0.2934020806033223  0.2302026379950091   T   T   T
  0.6817895543959340  0.2917643915683883  0.2305974485063192   T   T   T
  0.9816552104517386  0.2906757618672545  0.2299093083385912   T   T   T
  0.5753289026072451  0.2810071943555000  0.3049607579141567   T   T   T
  0.3818471646830935  0.1787961889190105  0.3140985527236997   T   T   T
  0.5755842190086381  0.3773714621832850  0.3407709087980454   T   T   T
  0.5223298531244784  0.3400836617806048  0.2643784617928299   T   T   T
  0.1680684519227039  0.6680042548613008  0.0361750161049201   T   T   T
  0.5010110738430905  0.6679656932512610  0.0361879119059853   T   T   T
  0.8342442358401908  0.6678906821127155  0.0361427210685710   T   T   T
  0.1677492874870514  0.9180297051934102  0.0361916478251872   T   T   T
  0.5005961152661818  0.9180814574407699  0.0361898485677656   T   T   T
  0.8338647417260540  0.9180543599915889  0.0361750275482381   T   T   T
  0.3187941632902029  0.5412790039762516  0.2303814743223680   T   T   T
  0.6507918589360384  0.5398782870463076  0.2306540435056810   T   T   T
  0.9837829108476537  0.5427237263395742  0.2301402156897895   T   T   T
  0.3172871836970693  0.7925386799256120  0.2302787804159495   T   T   T
  0.6540778035750038  0.7928214593079638  0.2302730394772378   T   T   T
  0.9848610533827230  0.7924088242900142  0.2302519261124268   T   T   T
  0.4932032575251560  0.1219702084149447  0.0631628245809506   T   T   T
  0.8264941569162715  0.1218744174550021  0.0630151175560774   T   T   T
  0.1595498289870950  0.3718387904674768  0.0630512435611913   T   T   T
  0.4928022920831431  0.3718595654405042  0.0630924314447792   T   T   T
  0.8260816503387677  0.3718618061623274  0.0630399012408532   T   T   T
  0.1599047071926964  0.1218870036156739  0.0630527492050534   T   T   T
  0.9933040054983157  0.4986666171413271  0.1472637433687160   T   T   T
  0.3265506120207265  0.4985964112673345  0.1473142500028558   T   T   T
  0.6598512573225260  0.4984822268645306  0.1473111891491664   T   T   T
  0.9932236916567783  0.2484183455936233  0.1471281618223906   T   T   T
  0.3262990399920926  0.2485134610213198  0.1473725860245453   T   T   T
  0.6600362919825918  0.2483918466333049  0.1472657372608738   T   T   T
  0.1599567002599117  0.1228917424333035  0.1749144390940468   T   T   T
  0.4933005925765104  0.1241846455596191  0.1754573676900336   T   T   T
  0.8270863501585763  0.1225006366450117  0.1747272070324328   T   T   T
  0.1598568685767209  0.3734262362320326  0.1750663421471453   T   T   T
  0.4930342944277332  0.3730115368122874  0.1750394410720966   T   T   T
  0.8271333132073795  0.3734258321393241  0.1750185069846434   T   T   T
  0.3261630725915439  0.4968642351655610  0.2030978270615452   T   T   T
  0.6598806899353169  0.4965277448872752  0.2031334944523115   T   T   T
  0.9931567709128781  0.4973951132462132  0.2030521472369270   T   T   T
  0.3239217340267656  0.2476282193793106  0.2035498662884835   T   T   T
  0.9933649350226977  0.2457071789929821  0.2026419628201553   T   T   T
  0.6629254090964590  0.2463094277278760  0.2029352788952970   T   T   T
  0.9931835035751796  0.4982695377025722  0.0911238235328102   T   T   T
  0.3264426284816280  0.4982292380880836  0.0911688839064731   T   T   T
  0.6597567145703795  0.4982433573893867  0.0911546149567258   T   T   T
  0.9930141051789548  0.2482647153340073  0.0910614481916088   T   T   T
  0.3263220584953082  0.2482671475429168  0.0911955303875758   T   T   T
  0.6596821768145775  0.2482736518257267  0.0911626885275833   T   T   T
  0.1599500578558565  0.1234744830496140  0.1188962345323839   T   T   T
  0.4932089745487468  0.1235449193559432  0.1190625814650070   T   T   T
  0.8266866421141603  0.1234246146433892  0.1188381760672701   T   T   T
  0.1597813627307972  0.3735341214635188  0.1189396272249838   T   T   T
  0.4929646986283275  0.3734749949091845  0.1189646814440549   T   T   T
  0.8264477676832237  0.3735344862767618  0.1189216336107957   T   T   T
  0.4932065895049665  0.6218470036419127  0.0630767178377859   T   T   T
  0.8265325397614489  0.6218563937844482  0.0630389390281037   T   T   T
  0.1595227404798185  0.8719176674812836  0.0630812622730396   T   T   T
  0.4927993928939411  0.8719223584932513  0.0630701342584213   T   T   T
  0.8260210372950775  0.8719091377508842  0.0630496789509429   T   T   T
  0.1599533601717442  0.6218723084940079  0.0630657850048289   T   T   T
  0.9933650702395753  0.9982140333980146  0.1472005959100579   T   T   T
  0.3269917536437368  0.9986122989076575  0.1473467800653544   T   T   T
  0.6595221608382504  0.9985608637161675  0.1472929281199015   T   T   T
  0.9932290101788052  0.7486446901864925  0.1473058610230469   T   T   T
  0.3267127554175321  0.7486331120793701  0.1473267461160555   T   T   T
  0.6599734526043302  0.7486359879161922  0.1473351067908454   T   T   T
  0.1600779089051061  0.6234733401830931  0.1750840152246397   T   T   T
  0.4933700063704096  0.6235508884054946  0.1751609783583566   T   T   T
  0.8265867111536255  0.6234535559039962  0.1750994996697565   T   T   T
  0.1601302013082214  0.8733938421660995  0.1751441615472742   T   T   T
  0.4934724822016449  0.8734036095302008  0.1751542101621454   T   T   T
  0.8266950270866688  0.8733751609490336  0.1751206156351817   T   T   T
  0.3267898108562614  0.9970038023915719  0.2032474677296192   T   T   T
  0.6601674706951099  0.9971326702301618  0.2031800867002121   T   T   T
  0.9934102826195477  0.9968651953518751  0.2031388676368684   T   T   T
  0.3265849879187284  0.7470147045264852  0.2032505104391681   T   T   T
  0.9935054077319586  0.7468712884092515  0.2032051782502853   T   T   T
  0.6604381239863174  0.7471797313638271  0.2032372622514501   T   T   T
  0.9930433219007416  0.9981940434810109  0.0911045836503873   T   T   T
  0.3264753709522709  0.9982454519834842  0.0911864502748524   T   T   T
  0.6596507554653699  0.9982436691667116  0.0911629751271801   T   T   T
  0.9931505769245670  0.7482973388978916  0.0911305818241234   T   T   T
  0.3264485513967647  0.7482501460018198  0.0911581238243418   T   T   T
  0.6597137740153904  0.7482443544810085  0.0911233171330828   T   T   T
  0.1600736789318370  0.6235780266347922  0.1189676897725506   T   T   T
  0.4933792465717404  0.6236106874543367  0.1189812101711722   T   T   T
  0.8267303365947531  0.6235664711589850  0.1189405033054772   T   T   T
  0.1600339953605956  0.8735120073060392  0.1189717379441509   T   T   T
  0.4931375052814269  0.8734891968102620  0.1189585673413113   T   T   T
  0.8263754434967384  0.8735254051660625  0.1189506571957864   T   T   T
 
  0.00000000E+00  0.00000000E+00  0.00000000E+00
  0.00000000E+00  0.00000000E+00  0.00000000E+00
  0.00000000E+00  0.00000000E+00  0.00000000E+00
  0.00000000E+00  0.00000000E+00  0.00000000E+00
  0.00000000E+00  0.00000000E+00  0.00000000E+00
  0.00000000E+00  0.00000000E+00  0.00000000E+00
  0.00000000E+00  0.00000000E+00  0.00000000E+00
  0.00000000E+00  0.00000000E+00  0.00000000E+00
  0.00000000E+00  0.00000000E+00  0.00000000E+00
  0.00000000E+00  0.00000000E+00  0.00000000E+00
  0.00000000E+00  0.00000000E+00  0.00000000E+00
  0.00000000E+00  0.00000000E+00  0.00000000E+00
  0.00000000E+00  0.00000000E+00  0.00000000E+00
  0.00000000E+00  0.00000000E+00  0.00000000E+00
  0.00000000E+00  0.00000000E+00  0.00000000E+00
  0.00000000E+00  0.00000000E+00  0.00000000E+00
  0.00000000E+00  0.00000000E+00  0.00000000E+00
  0.00000000E+00  0.00000000E+00  0.00000000E+00
  0.00000000E+00  0.00000000E+00  0.00000000E+00
  0.00000000E+00  0.00000000E+00  0.00000000E+00
  0.00000000E+00  0.00000000E+00  0.00000000E+00
  0.00000000E+00  0.00000000E+00  0.00000000E+00
  0.00000000E+00  0.00000000E+00  0.00000000E+00
  0.00000000E+00  0.00000000E+00  0.00000000E+00
  0.00000000E+00  0.00000000E+00  0.00000000E+00
  0.00000000E+00  0.00000000E+00  0.00000000E+00
  0.00000000E+00  0.00000000E+00  0.00000000E+00
  0.00000000E+00  0.00000000E+00  0.00000000E+00
  0.00000000E+00  0.00000000E+00  0.00000000E+00
  0.00000000E+00  0.00000000E+00  0.00000000E+00
  0.00000000E+00  0.00000000E+00  0.00000000E+00
  0.00000000E+00  0.00000000E+00  0.00000000E+00
  0.00000000E+00  0.00000000E+00  0.00000000E+00
  0.00000000E+00  0.00000000E+00  0.00000000E+00
  0.00000000E+00  0.00000000E+00  0.00000000E+00
  0.00000000E+00  0.00000000E+00  0.00000000E+00
  0.00000000E+00  0.00000000E+00  0.00000000E+00
  0.00000000E+00  0.00000000E+00  0.00000000E+00
  0.00000000E+00  0.00000000E+00  0.00000000E+00
  0.00000000E+00  0.00000000E+00  0.00000000E+00
  0.00000000E+00  0.00000000E+00  0.00000000E+00
  0.00000000E+00  0.00000000E+00  0.00000000E+00
  0.00000000E+00  0.00000000E+00  0.00000000E+00
  0.00000000E+00  0.00000000E+00  0.00000000E+00
  0.00000000E+00  0.00000000E+00  0.00000000E+00
  0.00000000E+00  0.00000000E+00  0.00000000E+00
  0.00000000E+00  0.00000000E+00  0.00000000E+00
  0.00000000E+00  0.00000000E+00  0.00000000E+00
  0.00000000E+00  0.00000000E+00  0.00000000E+00
  0.00000000E+00  0.00000000E+00  0.00000000E+00
  0.00000000E+00  0.00000000E+00  0.00000000E+00
  0.00000000E+00  0.00000000E+00  0.00000000E+00
  0.00000000E+00  0.00000000E+00  0.00000000E+00
  0.00000000E+00  0.00000000E+00  0.00000000E+00
  0.00000000E+00  0.00000000E+00  0.00000000E+00
  0.00000000E+00  0.00000000E+00  0.00000000E+00
  0.00000000E+00  0.00000000E+00  0.00000000E+00
  0.00000000E+00  0.00000000E+00  0.00000000E+00
  0.00000000E+00  0.00000000E+00  0.00000000E+00
  0.00000000E+00  0.00000000E+00  0.00000000E+00
  0.00000000E+00  0.00000000E+00  0.00000000E+00
  0.00000000E+00  0.00000000E+00  0.00000000E+00
  0.00000000E+00  0.00000000E+00  0.00000000E+00
  0.00000000E+00  0.00000000E+00  0.00000000E+00
  0.00000000E+00  0.00000000E+00  0.00000000E+00
  0.00000000E+00  0.00000000E+00  0.00000000E+00
  0.00000000E+00  0.00000000E+00  0.00000000E+00
  0.00000000E+00  0.00000000E+00  0.00000000E+00
  0.00000000E+00  0.00000000E+00  0.00000000E+00
  0.00000000E+00  0.00000000E+00  0.00000000E+00
  0.00000000E+00  0.00000000E+00  0.00000000E+00
  0.00000000E+00  0.00000000E+00  0.00000000E+00
  0.00000000E+00  0.00000000E+00  0.00000000E+00
  0.00000000E+00  0.00000000E+00  0.00000000E+00
  0.00000000E+00  0.00000000E+00  0.00000000E+00
  0.00000000E+00  0.00000000E+00  0.00000000E+00
  0.00000000E+00  0.00000000E+00  0.00000000E+00
  0.00000000E+00  0.00000000E+00  0.00000000E+00
  0.00000000E+00  0.00000000E+00  0.00000000E+00
  0.00000000E+00  0.00000000E+00  0.00000000E+00
  0.00000000E+00  0.00000000E+00  0.00000000E+00
  0.00000000E+00  0.00000000E+00  0.00000000E+00
  0.00000000E+00  0.00000000E+00  0.00000000E+00
  0.00000000E+00  0.00000000E+00  0.00000000E+00
  0.00000000E+00  0.00000000E+00  0.00000000E+00
  0.00000000E+00  0.00000000E+00  0.00000000E+00
  0.00000000E+00  0.00000000E+00  0.00000000E+00
  0.00000000E+00  0.00000000E+00  0.00000000E+00
  0.00000000E+00  0.00000000E+00  0.00000000E+00
  0.00000000E+00  0.00000000E+00  0.00000000E+00
  0.00000000E+00  0.00000000E+00  0.00000000E+00
  0.00000000E+00  0.00000000E+00  0.00000000E+00
  0.00000000E+00  0.00000000E+00  0.00000000E+00
  0.00000000E+00  0.00000000E+00  0.00000000E+00
  0.00000000E+00  0.00000000E+00  0.00000000E+00
  0.00000000E+00  0.00000000E+00  0.00000000E+00
  0.00000000E+00  0.00000000E+00  0.00000000E+00
  0.00000000E+00  0.00000000E+00  0.00000000E+00
  0.00000000E+00  0.00000000E+00  0.00000000E+00
  0.00000000E+00  0.00000000E+00  0.00000000E+00
  0.00000000E+00  0.00000000E+00  0.00000000E+00
  0.00000000E+00  0.00000000E+00  0.00000000E+00
  0.00000000E+00  0.00000000E+00  0.00000000E+00
  0.00000000E+00  0.00000000E+00  0.00000000E+00
  0.00000000E+00  0.00000000E+00  0.00000000E+00
  0.00000000E+00  0.00000000E+00  0.00000000E+00
  0.00000000E+00  0.00000000E+00  0.00000000E+00
  0.00000000E+00  0.00000000E+00  0.00000000E+00
  0.00000000E+00  0.00000000E+00  0.00000000E+00
  0.00000000E+00  0.00000000E+00  0.00000000E+00
  0.00000000E+00  0.00000000E+00  0.00000000E+00
  0.00000000E+00  0.00000000E+00  0.00000000E+00
  0.00000000E+00  0.00000000E+00  0.00000000E+00
  0.00000000E+00  0.00000000E+00  0.00000000E+00
  0.00000000E+00  0.00000000E+00  0.00000000E+00
  0.00000000E+00  0.00000000E+00  0.00000000E+00
  0.00000000E+00  0.00000000E+00  0.00000000E+00
  0.00000000E+00  0.00000000E+00  0.00000000E+00
  0.00000000E+00  0.00000000E+00  0.00000000E+00
  0.00000000E+00  0.00000000E+00  0.00000000E+00
  0.00000000E+00  0.00000000E+00  0.00000000E+00
  0.00000000E+00  0.00000000E+00  0.00000000E+00
  0.00000000E+00  0.00000000E+00  0.00000000E+00
  0.00000000E+00  0.00000000E+00  0.00000000E+00
  0.00000000E+00  0.00000000E+00  0.00000000E+00
  0.00000000E+00  0.00000000E+00  0.00000000E+00
  0.00000000E+00  0.00000000E+00  0.00000000E+00
  0.00000000E+00  0.00000000E+00  0.00000000E+00
  0.00000000E+00  0.00000000E+00  0.00000000E+00
  0.00000000E+00  0.00000000E+00  0.00000000E+00
  0.00000000E+00  0.00000000E+00  0.00000000E+00
  0.00000000E+00  0.00000000E+00  0.00000000E+00
  0.00000000E+00  0.00000000E+00  0.00000000E+00
  0.00000000E+00  0.00000000E+00  0.00000000E+00
  0.00000000E+00  0.00000000E+00  0.00000000E+00
  0.00000000E+00  0.00000000E+00  0.00000000E+00
  0.00000000E+00  0.00000000E+00  0.00000000E+00
  0.00000000E+00  0.00000000E+00  0.00000000E+00
  0.00000000E+00  0.00000000E+00  0.00000000E+00
  0.00000000E+00  0.00000000E+00  0.00000000E+00
  0.00000000E+00  0.00000000E+00  0.00000000E+00
  0.00000000E+00  0.00000000E+00  0.00000000E+00
  0.00000000E+00  0.00000000E+00  0.00000000E+00
  0.00000000E+00  0.00000000E+00  0.00000000E+00
  0.00000000E+00  0.00000000E+00  0.00000000E+00
  0.00000000E+00  0.00000000E+00  0.00000000E+00
  0.00000000E+00  0.00000000E+00  0.00000000E+00
  0.00000000E+00  0.00000000E+00  0.00000000E+00
  0.00000000E+00  0.00000000E+00  0.00000000E+00
  0.00000000E+00  0.00000000E+00  0.00000000E+00
  0.00000000E+00  0.00000000E+00  0.00000000E+00
  0.00000000E+00  0.00000000E+00  0.00000000E+00
  0.00000000E+00  0.00000000E+00  0.00000000E+00
  0.00000000E+00  0.00000000E+00  0.00000000E+00
  0.00000000E+00  0.00000000E+00  0.00000000E+00
  0.00000000E+00  0.00000000E+00  0.00000000E+00
  0.00000000E+00  0.00000000E+00  0.00000000E+00
  0.00000000E+00  0.00000000E+00  0.00000000E+00
  0.00000000E+00  0.00000000E+00  0.00000000E+00
  0.00000000E+00  0.00000000E+00  0.00000000E+00
  0.00000000E+00  0.00000000E+00  0.00000000E+00
  0.00000000E+00  0.00000000E+00  0.00000000E+00
  0.00000000E+00  0.00000000E+00  0.00000000E+00
  0.00000000E+00  0.00000000E+00  0.00000000E+00
  0.00000000E+00  0.00000000E+00  0.00000000E+00
  0.00000000E+00  0.00000000E+00  0.00000000E+00
  0.00000000E+00  0.00000000E+00  0.00000000E+00
  0.00000000E+00  0.00000000E+00  0.00000000E+00
  0.00000000E+00  0.00000000E+00  0.00000000E+00
  0.00000000E+00  0.00000000E+00  0.00000000E+00
  0.00000000E+00  0.00000000E+00  0.00000000E+00
  0.00000000E+00  0.00000000E+00  0.00000000E+00
  0.00000000E+00  0.00000000E+00  0.00000000E+00
  0.00000000E+00  0.00000000E+00  0.00000000E+00
  0.00000000E+00  0.00000000E+00  0.00000000E+00
  0.00000000E+00  0.00000000E+00  0.00000000E+00
  0.00000000E+00  0.00000000E+00  0.00000000E+00
  0.00000000E+00  0.00000000E+00  0.00000000E+00
  0.00000000E+00  0.00000000E+00  0.00000000E+00
  0.00000000E+00  0.00000000E+00  0.00000000E+00
  0.00000000E+00  0.00000000E+00  0.00000000E+00
  0.00000000E+00  0.00000000E+00  0.00000000E+00
  0.00000000E+00  0.00000000E+00  0.00000000E+00
  0.00000000E+00  0.00000000E+00  0.00000000E+00
  0.00000000E+00  0.00000000E+00  0.00000000E+00
  0.00000000E+00  0.00000000E+00  0.00000000E+00
  0.00000000E+00  0.00000000E+00  0.00000000E+00
  0.00000000E+00  0.00000000E+00  0.00000000E+00
  0.00000000E+00  0.00000000E+00  0.00000000E+00
  0.00000000E+00  0.00000000E+00  0.00000000E+00
  0.00000000E+00  0.00000000E+00  0.00000000E+00
  0.00000000E+00  0.00000000E+00  0.00000000E+00
  0.00000000E+00  0.00000000E+00  0.00000000E+00
  0.00000000E+00  0.00000000E+00  0.00000000E+00
  0.00000000E+00  0.00000000E+00  0.00000000E+00
  0.00000000E+00  0.00000000E+00  0.00000000E+00
  0.00000000E+00  0.00000000E+00  0.00000000E+00
  0.00000000E+00  0.00000000E+00  0.00000000E+00
  0.00000000E+00  0.00000000E+00  0.00000000E+00
  0.00000000E+00  0.00000000E+00  0.00000000E+00
  0.00000000E+00  0.00000000E+00  0.00000000E+00
  0.00000000E+00  0.00000000E+00  0.00000000E+00
  0.00000000E+00  0.00000000E+00  0.00000000E+00
  0.00000000E+00  0.00000000E+00  0.00000000E+00
  0.00000000E+00  0.00000000E+00  0.00000000E+00
  0.00000000E+00  0.00000000E+00  0.00000000E+00
  0.00000000E+00  0.00000000E+00  0.00000000E+00
  0.00000000E+00  0.00000000E+00  0.00000000E+00
  0.00000000E+00  0.00000000E+00  0.00000000E+00
  0.00000000E+00  0.00000000E+00  0.00000000E+00
  0.00000000E+00  0.00000000E+00  0.00000000E+00
  0.00000000E+00  0.00000000E+00  0.00000000E+00
  0.00000000E+00  0.00000000E+00  0.00000000E+00
  0.00000000E+00  0.00000000E+00  0.00000000E+00
  0.00000000E+00  0.00000000E+00  0.00000000E+00
  0.00000000E+00  0.00000000E+00  0.00000000E+00
  0.00000000E+00  0.00000000E+00  0.00000000E+00
  0.00000000E+00  0.00000000E+00  0.00000000E+00
  0.00000000E+00  0.00000000E+00  0.00000000E+00
  0.00000000E+00  0.00000000E+00  0.00000000E+00
  0.00000000E+00  0.00000000E+00  0.00000000E+00
  0.00000000E+00  0.00000000E+00  0.00000000E+00
  0.00000000E+00  0.00000000E+00  0.00000000E+00
  0.00000000E+00  0.00000000E+00  0.00000000E+00
  0.00000000E+00  0.00000000E+00  0.00000000E+00
  0.00000000E+00  0.00000000E+00  0.00000000E+00
  0.00000000E+00  0.00000000E+00  0.00000000E+00
  0.00000000E+00  0.00000000E+00  0.00000000E+00
  0.00000000E+00  0.00000000E+00  0.00000000E+00
