C H O Si
1.0
  9.287460000000   0.000000000000   0.000000000000
  0.000000000000  17.512620000000   0.000000000000
  0.000000000000   0.000000000000  55.000000000000
C H O Si
 72  57  28  72
Selective dynamics
Direct
  0.993005626483   0.063281987179   0.063770451452  T T T
  0.326438838121   0.063271185325   0.063878495060  T T T
  0.659482251987   0.063281614631   0.063871864154  T T T
  0.992983706331   0.313331955755   0.063768537034  T T T
  0.326373794795   0.313225109790   0.063891914555  T T T
  0.659571768523   0.313241324131   0.063877469453  T T T
  0.159690831202   0.185729757185   0.147003022191  T T T
  0.493062444437   0.186049071851   0.147359755789  T T T
  0.826363223304   0.185684649509   0.146971168639  T T T
  0.159980713156   0.435885954548   0.147085922380  T T T
  0.493034366066   0.435678261349   0.147143337275  T T T
  0.826177415753   0.435877020125   0.147072680894  T T T
  0.326887101394   0.061312226034   0.175805476088  T T T
  0.658896749293   0.061183315156   0.175845171656  T T T
  0.993145945725   0.060756100091   0.175437150393  T T T
  0.326027419249   0.310998306065   0.175856496843  T T T
  0.660036474455   0.311072259923   0.175796162688  T T T
  0.993107854393   0.310978397258   0.175527377974  T T T
  0.159260459582   0.187429106570   0.202193084203  T T T
  0.492864403424   0.190196048528   0.203402667668  T T T
  0.827007833818   0.186983242627   0.202033913613  T T T
  0.158882000741   0.438560871690   0.202431058664  T T T
  0.492477616408   0.437864349722   0.202479435370  T T T
  0.826433139984   0.438455569766   0.202337629521  T T T
  0.159584010566   0.185985134570   0.090618075699  T T T
  0.492918455186   0.186067994242   0.090804537443  T T T
  0.826220780781   0.185977415519   0.090599437279  T T T
  0.159728242992   0.436020034268   0.090648961416  T T T
  0.492908616068   0.435964979456   0.090703962263  T T T
  0.826116851117   0.436022221334   0.090637969977  T T T
  0.326400611008   0.060903036371   0.119294463827  T T T
  0.659380710772   0.060870337136   0.119305081576  T T T
  0.992871958708   0.060701686273   0.119143748573  T T T
  0.326194117562   0.310814339881   0.119323235930  T T T
  0.659580959781   0.310847209442   0.119297605245  T T T
  0.992874591451   0.310897401806   0.119164256197  T T T
  0.993005626483   0.563281987179   0.063770451452  T T T
  0.326438838121   0.563271185325   0.063878495060  T T T
  0.659482251987   0.563281614631   0.063871864154  T T T
  0.992983706331   0.813331955755   0.063768537034  T T T
  0.326373794795   0.813225109790   0.063891914555  T T T
  0.659571768523   0.813241324131   0.063877469453  T T T
  0.159690831202   0.685729757185   0.147003022191  T T T
  0.493062444437   0.686049071851   0.147359755789  T T T
  0.826363223304   0.685684649509   0.146971168639  T T T
  0.159980713156   0.935885954548   0.147085922380  T T T
  0.493034366066   0.935678261349   0.147143337275  T T T
  0.826177415753   0.935877020125   0.147072680894  T T T
  0.326887101394   0.561312226034   0.175805476088  T T T
  0.658896749293   0.561183315156   0.175845171656  T T T
  0.993145945725   0.560756100091   0.175437150393  T T T
  0.326027419249   0.810998306065   0.175856496843  T T T
  0.660036474455   0.811072259923   0.175796162688  T T T
  0.993107854393   0.810978397258   0.175527377974  T T T
  0.159260459582   0.687429106570   0.202193084203  T T T
  0.492864403424   0.690196048528   0.203402667668  T T T
  0.827007833818   0.686983242627   0.202033913613  T T T
  0.158882000741   0.938560871690   0.202431058664  T T T
  0.492477616408   0.937864349722   0.202479435370  T T T
  0.826433139984   0.938455569766   0.202337629521  T T T
  0.159584010566   0.685985134570   0.090618075699  T T T
  0.492918455186   0.686067994242   0.090804537443  T T T
  0.826220780781   0.685977415519   0.090599437279  T T T
  0.159728242992   0.936020034268   0.090648961416  T T T
  0.492908616068   0.935964979456   0.090703962263  T T T
  0.826116851117   0.936022221334   0.090637969977  T T T
  0.326400611008   0.560903036371   0.119294463827  T T T
  0.659380710772   0.560870337136   0.119305081576  T T T
  0.992871958708   0.560701686273   0.119143748573  T T T
  0.326194117562   0.810814339881   0.119323235930  T T T
  0.659580959781   0.810847209442   0.119297605245  T T T
  0.992874591451   0.810897401806   0.119164256197  T T T
  0.074280910130   0.175708488410   0.028505803437  T T T
  0.406527043720   0.175973721669   0.028757709293  T T T
  0.739470951978   0.175626725076   0.028613208996  T T T
  0.074462132500   0.425839289518   0.028535083430  T T T
  0.406394549854   0.425572952244   0.028676909367  T T T
  0.739357282723   0.425739763023   0.028652362391  T T T
  0.323951005183   0.027266304167   0.047447115422  T T T
  0.656242904992   0.027243838902   0.047450004988  T T T
  0.990148300843   0.027304345152   0.047338774529  T T T
  0.323550627154   0.277193177093   0.047470721336  T T T
  0.656604745110   0.277177811555   0.047462575756  T T T
  0.990117235042   0.277368008757   0.047328948464  T T T
  0.829822071334   0.402931516866   0.218831668482  T T T
  0.830737957525   0.151393975591   0.218545226467  T T T
  0.161232390214   0.151769421380   0.218693511274  T T T
  0.496319177266   0.153324714443   0.219631419298  T T T
  0.161149861645   0.402505732924   0.218830359394  T T T
  0.492724110426   0.401404736187   0.218814270460  T T T
  0.077594422926   0.052455628949   0.237399596323  T T T
  0.414144537416   0.053911187762   0.236918953608  T T T
  0.747196395572   0.051916758577   0.237201900877  T T T
  0.077454790003   0.300040873944   0.237056410404  T T T
  0.374958472340   0.306447130347   0.241519432241  T T T
  0.783636061363   0.294787629284   0.235139365321  T T T
  0.554647639630   0.307176330166   0.288826089866  T T T
  0.500716391650   0.239162217364   0.309354731049  T T T
  0.578245452197   0.319782029497   0.319872431509  T T T
  0.314044727365   0.194958905808   0.326309321137  T T T
  0.416217585207   0.128002804477   0.318361502781  T T T
  0.649640695623   0.367730386440   0.353702134955  T T T
  0.483553025622   0.377670930507   0.349717475529  T T T
  0.520321354070   0.394850043007   0.264660523806  T T T
  0.590958620929   0.321352143820   0.251246682137  T T T
  0.074280910130   0.675708488410   0.028505803437  T T T
  0.406527043720   0.675973721669   0.028757709293  T T T
  0.739470951978   0.675626725076   0.028613208996  T T T
  0.074462132500   0.925839289518   0.028535083430  T T T
  0.406394549854   0.925572952244   0.028676909367  T T T
  0.739357282723   0.925739763023   0.028652362391  T T T
  0.323951005183   0.527266304167   0.047447115422  T T T
  0.656242904992   0.527243838902   0.047450004988  T T T
  0.990148300843   0.527304345152   0.047338774529  T T T
  0.323550627154   0.777193177093   0.047470721336  T T T
  0.656604745110   0.777177811555   0.047462575756  T T T
  0.990117235042   0.777368008757   0.047328948464  T T T
  0.829822071334   0.902931516866   0.218831668482  T T T
  0.830737957525   0.651393975591   0.218545226467  T T T
  0.161232390214   0.651769421380   0.218693511274  T T T
  0.496319177266   0.653324714443   0.219631419298  T T T
  0.161149861645   0.902505732924   0.218830359394  T T T
  0.492724110426   0.901404736187   0.218814270460  T T T
  0.077594422926   0.552455628949   0.237399596323  T T T
  0.414144537416   0.553911187762   0.236918953608  T T T
  0.747196395572   0.551916758577   0.237201900877  T T T
  0.077454790003   0.800040873944   0.237056410404  T T T
  0.414144448536   0.800040199582   0.236909090909  T T T
  0.783636061363   0.794787629284   0.235139365321  T T T
  0.168064756476   0.168411058187   0.036232974363  T T T
  0.500602893402   0.168653279567   0.036395564010  T T T
  0.833669855149   0.168374324740   0.036212944885  T T T
  0.168219841645   0.418426399057   0.036259500424  T T T
  0.500536018065   0.418455238770   0.036313365185  T T T
  0.833541725611   0.418472168751   0.036256381543  T T T
  0.318932596619   0.041804733148   0.230375743136  T T T
  0.651582912622   0.040799597119   0.230575441762  T T T
  0.983495505495   0.043312368633   0.229985050249  T T T
  0.297527075906   0.293753377217   0.230143702932  T T T
  0.680357388847   0.292103342157   0.230613198826  T T T
  0.982154453861   0.291270240367   0.229857771214  T T T
  0.577375739257   0.280685561329   0.305757298432  T T T
  0.382781650873   0.179123132561   0.313624045389  T T T
  0.577044987938   0.378238253904   0.341108858008  T T T
  0.520842084153   0.339118786931   0.264898803716  T T T
  0.168064756476   0.668411058187   0.036232974363  T T T
  0.500602893402   0.668653279567   0.036395564010  T T T
  0.833669855149   0.668374324740   0.036212944885  T T T
  0.168219841645   0.918426399057   0.036259500424  T T T
  0.500536018065   0.918455238770   0.036313365185  T T T
  0.833541725611   0.918472168751   0.036256381543  T T T
  0.318932596619   0.541804733148   0.230375743136  T T T
  0.651582912622   0.540799597119   0.230575441762  T T T
  0.983495505495   0.543312368633   0.229985050249  T T T
  0.318924657549   0.791269381737   0.230000000000  T T T
  0.680357388847   0.792103342157   0.230613198826  T T T
  0.982154453861   0.791270240367   0.229857771214  T T T
  0.493032448494   0.122016179116   0.063188178099  T T T
  0.826297560990   0.121875584348   0.063024818431  T T T
  0.159907532760   0.371907354569   0.063076615230  T T T
  0.493045115714   0.371892217286   0.063119794150  T T T
  0.826251553727   0.371923572823   0.063062155774  T T T
  0.159873694466   0.121883909050   0.063047711171  T T T
  0.993107142934   0.498100858780   0.147137572486  T T T
  0.326703986274   0.498374245029   0.147307687102  T T T
  0.659291519635   0.498287926170   0.147319367916  T T T
  0.993063778723   0.248168458412   0.147112088497  T T T
  0.326066916563   0.248283388197   0.147366389121  T T T
  0.659944935233   0.248192713238   0.147276037655  T T T
  0.159515968751   0.122799094390   0.174901532485  T T T
  0.492844423750   0.123967704023   0.175485326166  T T T
  0.826560610443   0.122431204999   0.174785445116  T T T
  0.159494564932   0.373315173517   0.175074805863  T T T
  0.492670487453   0.372870527781   0.175069350074  T T T
  0.826734961182   0.373265514445   0.175022459506  T T T
  0.325486624520   0.496837531228   0.203146424929  T T T
  0.659296452774   0.496522588570   0.203155938819  T T T
  0.992481337598   0.497268822721   0.202971303086  T T T
  0.323398559579   0.247665615763   0.203524763801  T T T
  0.992924173593   0.245930551232   0.202638139925  T T T
  0.662417728976   0.246440272794   0.202951345223  T T T
  0.992930912242   0.498056599662   0.091046179748  T T T
  0.326398981018   0.498156556299   0.091168965137  T T T
  0.659418223468   0.498149057016   0.091167063923  T T T
  0.992912128076   0.248115840205   0.091048696351  T T T
  0.326198693351   0.248142037976   0.091200573114  T T T
  0.659608589884   0.248123587541   0.091172308192  T T T
  0.159491542065   0.123226331607   0.118885884550  T T T
  0.492878558316   0.123441943282   0.119114878899  T T T
  0.826226123557   0.123187911801   0.118853009552  T T T
  0.159652460989   0.373343237681   0.118943900587  T T T
  0.492806663700   0.373249569287   0.118975445118  T T T
  0.826130599698   0.373358651470   0.118923776703  T T T
  0.493032448494   0.622016179116   0.063188178099  T T T
  0.826297560990   0.621875584348   0.063024818431  T T T
  0.159907532760   0.871907354569   0.063076615230  T T T
  0.493045115714   0.871892217286   0.063119794150  T T T
  0.826251553727   0.871923572823   0.063062155774  T T T
  0.159873694466   0.621883909050   0.063047711171  T T T
  0.993107142934   0.998100858780   0.147137572486  T T T
  0.326703986274   0.998374245029   0.147307687102  T T T
  0.659291519635   0.998287926170   0.147319367916  T T T
  0.993063778723   0.748168458412   0.147112088497  T T T
  0.326066916563   0.748283388197   0.147366389121  T T T
  0.659944935233   0.748192713238   0.147276037655  T T T
  0.159515968751   0.622799094390   0.174901532485  T T T
  0.492844423750   0.623967704023   0.175485326166  T T T
  0.826560610443   0.622431204999   0.174785445116  T T T
  0.159494564932   0.873315173517   0.175074805863  T T T
  0.492670487453   0.872870527781   0.175069350074  T T T
  0.826734961182   0.873265514445   0.175022459506  T T T
  0.325486624520   0.996837531228   0.203146424929  T T T
  0.659296452774   0.996522588570   0.203155938819  T T T
  0.992481337598   0.997268822721   0.202971303086  T T T
  0.323398559579   0.747665615763   0.203524763801  T T T
  0.992924173593   0.745930551232   0.202638139925  T T T
  0.662417728976   0.746440272794   0.202951345223  T T T
  0.992930912242   0.998056599662   0.091046179748  T T T
  0.326398981018   0.998156556299   0.091168965137  T T T
  0.659418223468   0.998149057016   0.091167063923  T T T
  0.992912128076   0.748115840205   0.091048696351  T T T
  0.326198693351   0.748142037976   0.091200573114  T T T
  0.659608589884   0.748123587541   0.091172308192  T T T
  0.159491542065   0.623226331607   0.118885884550  T T T
  0.492878558316   0.623441943282   0.119114878899  T T T
  0.826226123557   0.623187911801   0.118853009552  T T T
  0.159652460989   0.873343237681   0.118943900587  T T T
  0.492806663700   0.873249569287   0.118975445118  T T T
  0.826130599698   0.873358651470   0.118923776703  T T T
