C H O Si                                
   1.00000000000000     
     9.2874599999999994    0.0000000000000000    0.0000000000000000
     0.0000000000000000    8.7563099999999991    0.0000000000000000
     0.0000000000000000    0.0000000000000000   58.0000000000000000
   C    H    O    Si
    36    33    16    36
Selective dynamics
Direct
  0.9956722068266429  0.1298251075559173  0.0595700612164930   T   T   T
  0.3291287439994162  0.1298573816961686  0.0596315431779357   T   T   T
  0.6623540935125674  0.1299746154075690  0.0596388172449474   T   T   T
  0.9956563190103624  0.6300832513898835  0.0595802892955513   T   T   T
  0.3290728017912468  0.6296592619908856  0.0596239856677440   T   T   T
  0.6625213949464307  0.6295685863048265  0.0596478487195251   T   T   T
  0.1623640166486829  0.3750013496499826  0.1384926444134505   T   T   T
  0.4954918275488842  0.3753131881611226  0.1387544086835973   T   T   T
  0.8289201520713246  0.3749628580890453  0.1384860468257931   T   T   T
  0.1624642587400423  0.8753270288677779  0.1385363256082654   T   T   T
  0.4955652443334070  0.8755545094198767  0.1381927459817874   T   T   T
  0.8288608247984092  0.8752185035676506  0.1385816434852500   T   T   T
  0.3296712781952537  0.1261860297528741  0.1656754622109439   T   T   T
  0.6623135507146767  0.1258939631429491  0.1656910860552221   T   T   T
  0.9960035221861824  0.1250003135619322  0.1655597966316765   T   T   T
  0.3285204044000754  0.6256335099653522  0.1656444606930459   T   T   T
  0.6631511215967598  0.6253637365906503  0.1656917172736188   T   T   T
  0.9959603973420974  0.6254733614349146  0.1656227456458733   T   T   T
  0.1636102270981540  0.3789472763407833  0.1908950136859371   T   T   T
  0.4962466139657516  0.3833029606536164  0.1917328322700827   T   T   T
  0.8305142482044119  0.3786017545978815  0.1908455162851493   T   T   T
  0.1622275585808443  0.8799909690458638  0.1911350644970752   T   T   T
  0.4963564145509583  0.8923522145824614  0.1881286796821793   T   T   T
  0.8309354567491638  0.8796924634882101  0.1911528504435343   T   T   T
  0.1622015934547257  0.3752854576083737  0.0849899591649978   T   T   T
  0.4954781098085841  0.3752719606361141  0.0851229514814787   T   T   T
  0.8289619582191718  0.3752836001944961  0.0849920942557190   T   T   T
  0.1622844063194498  0.8753294107769654  0.0850247798120448   T   T   T
  0.4955001215409383  0.8752866670163650  0.0849278561279112   T   T   T
  0.8288596657110615  0.8753589159727173  0.0850410291643313   T   T   T
  0.3287957631570230  0.1251637514934038  0.1121460934035684   T   T   T
  0.6622576817868457  0.1251610876722400  0.1121586457277740   T   T   T
  0.9953856734085874  0.1249928405874281  0.1121139791101553   T   T   T
  0.3287399849423399  0.6248294524000875  0.1121341004339072   T   T   T
  0.6623594684229493  0.6248434542819740  0.1121476011481715   T   T   T
  0.9954010140488277  0.6250770477666706  0.1121280999610954   T   T   T
  0.0839038248817857  0.3573243850191577  0.0251629246651417   T   T   T
  0.4157256165252398  0.3574004200318106  0.0253887064905384   T   T   T
  0.7487121644210414  0.3569544192906333  0.0252996071829388   T   T   T
  0.0841881303598778  0.8576448568824367  0.0251781243652269   T   T   T
  0.4166735348107516  0.8569743235216302  0.0252074220918953   T   T   T
  0.7479484367725613  0.8568623856770717  0.0253993249206387   T   T   T
  0.3270451117076995  0.0576924455091569  0.0440685605342515   T   T   T
  0.6597306117189530  0.0577752247185927  0.0440837731202678   T   T   T
  0.9932636329025647  0.0578076939710970  0.0440000228212251   T   T   T
  0.3265521925958248  0.5575228547233000  0.0440632178777755   T   T   T
  0.6602587831539057  0.5574073513809354  0.0440897963913617   T   T   T
  0.9932771499246353  0.5580381239809071  0.0440093529286731   T   T   T
  0.8338038405904541  0.8086981453886990  0.2067996787136822   T   T   T
  0.8331301794850675  0.3070184708683844  0.2064593838557630   T   T   T
  0.1650185177647839  0.3078757884598617  0.2065611881712720   T   T   T
  0.4984425240638711  0.3106123701193734  0.2072314657046372   T   T   T
  0.1651155400338024  0.8080446294701757  0.2066873322353385   T   T   T
  0.5395361604037574  0.9260184413313002  0.2603655562895024   T   T   T
  0.0766974878093702  0.1070435045162764  0.2255534398632522   T   T   T
  0.4144304627800311  0.1054485808967741  0.2253138952664792   T   T   T
  0.7403998844183172  0.1045885783934695  0.2262184583124072   T   T   T
  0.0815180028541648  0.6080612609284084  0.2243057760468085   T   T   T
  0.3692645159907939  0.5731117173721092  0.2302945176682674   T   T   T
  0.7734939096736154  0.6003573012043044  0.2232405782163197   T   T   T
  0.4898761878383853  0.5426486470491677  0.2659904272849603   T   T   T
  0.4702665794898670  0.4565840120678037  0.3003538988670601   T   T   T
  0.5188024652804704  0.6259871682960488  0.3077792215916006   T   T   T
  0.2901258274097815  0.2726492011751553  0.2959603433859965   T   T   T
  0.4393153518157071  0.2155915958286329  0.2878471485534300   T   T   T
  0.6385929567581701  0.7701016639943725  0.3348960957609234   T   T   T
  0.5030099172972670  0.8624814602202675  0.3279215301150086   T   T   T
  0.5021396083858810  0.8747778453138751  0.2688538384661021   T   T   T
  0.5640966280390863  0.5389454795947680  0.2411245297129355   T   T   T
  0.1737528605747148  0.3407221380007662  0.0335304685166618   T   T   T
  0.5060301172035799  0.3417276019647965  0.0336793493753205   T   T   T
  0.8391939864085256  0.3410084777556338  0.0335374533087788   T   T   T
  0.1738764099905977  0.8409628893624356  0.0335724801432668   T   T   T
  0.5068619580543163  0.8400130458515437  0.0334690710614965   T   T   T
  0.8385391194279072  0.8418420104811577  0.0336444600986073   T   T   T
  0.3222787641846744  0.0883958259010936  0.2176025166993533   T   T   T
  0.6517570653252078  0.0887236926954183  0.2174765116254354   T   T   T
  0.9870398201122135  0.0925952601918080  0.2170343521199448   T   T   T
  0.3132428050895966  0.6058260306540981  0.2160865931610840   T   T   T
  0.6747104449674950  0.5934459429947357  0.2172248673911061   T   T   T
  0.9878327896475813  0.5879791207426899  0.2171233966110727   T   T   T
  0.5210727724987299  0.5497427807359323  0.2951235642687638   T   T   T
  0.3905118683672678  0.2647637997208590  0.3007409808729311   T   T   T
  0.5370789091184573  0.7591427634407283  0.3309526473821571   T   T   T
  0.4764478116349918  0.5092828916196195  0.2496828312815021   T   T   T
  0.4957397168599829  0.2475995423930307  0.0587629170611112   T   T   T
  0.8290669153989120  0.2474528457885134  0.0586659455046478   T   T   T
  0.1625465793518117  0.7474768903634436  0.0586845415833804   T   T   T
  0.4958692806009531  0.7470495734781044  0.0586237524096319   T   T   T
  0.8289396437913361  0.7475779887742114  0.0587205250845609   T   T   T
  0.1624729325630233  0.2473687090402177  0.0586561890338918   T   T   T
  0.9956871063415109  0.0004167331352084  0.1387518483521765   T   T   T
  0.3289530644291202  0.0007460368339683  0.1388286255199354   T   T   T
  0.6623384000017158  0.0006736121470239  0.1388328646673353   T   T   T
  0.9956970764456622  0.5007507304485096  0.1387740497842314   T   T   T
  0.3287085474098768  0.5004700884405897  0.1388368884138806   T   T   T
  0.6624520939707798  0.5003096712472149  0.1388152376812555   T   T   T
  0.1618214828207699  0.2501684880379350  0.1652039041153331   T   T   T
  0.4957375025885262  0.2517921264417335  0.1656944155121986   T   T   T
  0.8302411699106548  0.2497536385905999  0.1651593430339734   T   T   T
  0.1624430073664145  0.7507112933524919  0.1652078994915265   T   T   T
  0.4956003300560702  0.7476694277382303  0.1649215436967380   T   T   T
  0.8293370175799133  0.7503178915310148  0.1652409025004704   T   T   T
  0.3272989785328864  0.9979101195902794  0.1923157025887151   T   T   T
  0.6655477398965963  0.9975056897181642  0.1923443146769732   T   T   T
  0.9965607776998773  0.9985362829625279  0.1919743856084529   T   T   T
  0.3280635615626186  0.5012457547571652  0.1923240585439276   T   T   T
  0.9969475383601952  0.4960726028390387  0.1917469468744946   T   T   T
  0.6650616760588797  0.4980977581073984  0.1920306639580468   T   T   T
  0.9955526531114892  0.0000882152747961  0.0853918680301178   T   T   T
  0.3289113366042331  0.0000746806857281  0.0854157049951639   T   T   T
  0.6621895856922879  0.0001230885705826  0.0854207253233289   T   T   T
  0.9955562516307200  0.5001610081806146  0.0853774403451866   T   T   T
  0.3288142238494738  0.4998424170394120  0.0854320678544604   T   T   T
  0.6623592634473549  0.4998147461567501  0.0854460316924122   T   T   T
  0.1619979378600374  0.2505586959518426  0.1118080071338556   T   T   T
  0.4954452757086161  0.2505505147506006  0.1119839085128851   T   T   T
  0.8289011312848801  0.2505486042809041  0.1118004670311783   T   T   T
  0.1622832100317792  0.7507087061309563  0.1118420496968513   T   T   T
  0.4953805861870673  0.7498517355120103  0.1116379240616482   T   T   T
  0.8286796485623368  0.7507121699388754  0.1118625610719124   T   T   T
 
  0.00000000E+00  0.00000000E+00  0.00000000E+00
  0.00000000E+00  0.00000000E+00  0.00000000E+00
  0.00000000E+00  0.00000000E+00  0.00000000E+00
  0.00000000E+00  0.00000000E+00  0.00000000E+00
  0.00000000E+00  0.00000000E+00  0.00000000E+00
  0.00000000E+00  0.00000000E+00  0.00000000E+00
  0.00000000E+00  0.00000000E+00  0.00000000E+00
  0.00000000E+00  0.00000000E+00  0.00000000E+00
  0.00000000E+00  0.00000000E+00  0.00000000E+00
  0.00000000E+00  0.00000000E+00  0.00000000E+00
  0.00000000E+00  0.00000000E+00  0.00000000E+00
  0.00000000E+00  0.00000000E+00  0.00000000E+00
  0.00000000E+00  0.00000000E+00  0.00000000E+00
  0.00000000E+00  0.00000000E+00  0.00000000E+00
  0.00000000E+00  0.00000000E+00  0.00000000E+00
  0.00000000E+00  0.00000000E+00  0.00000000E+00
  0.00000000E+00  0.00000000E+00  0.00000000E+00
  0.00000000E+00  0.00000000E+00  0.00000000E+00
  0.00000000E+00  0.00000000E+00  0.00000000E+00
  0.00000000E+00  0.00000000E+00  0.00000000E+00
  0.00000000E+00  0.00000000E+00  0.00000000E+00
  0.00000000E+00  0.00000000E+00  0.00000000E+00
  0.00000000E+00  0.00000000E+00  0.00000000E+00
  0.00000000E+00  0.00000000E+00  0.00000000E+00
  0.00000000E+00  0.00000000E+00  0.00000000E+00
  0.00000000E+00  0.00000000E+00  0.00000000E+00
  0.00000000E+00  0.00000000E+00  0.00000000E+00
  0.00000000E+00  0.00000000E+00  0.00000000E+00
  0.00000000E+00  0.00000000E+00  0.00000000E+00
  0.00000000E+00  0.00000000E+00  0.00000000E+00
  0.00000000E+00  0.00000000E+00  0.00000000E+00
  0.00000000E+00  0.00000000E+00  0.00000000E+00
  0.00000000E+00  0.00000000E+00  0.00000000E+00
  0.00000000E+00  0.00000000E+00  0.00000000E+00
  0.00000000E+00  0.00000000E+00  0.00000000E+00
  0.00000000E+00  0.00000000E+00  0.00000000E+00
  0.00000000E+00  0.00000000E+00  0.00000000E+00
  0.00000000E+00  0.00000000E+00  0.00000000E+00
  0.00000000E+00  0.00000000E+00  0.00000000E+00
  0.00000000E+00  0.00000000E+00  0.00000000E+00
  0.00000000E+00  0.00000000E+00  0.00000000E+00
  0.00000000E+00  0.00000000E+00  0.00000000E+00
  0.00000000E+00  0.00000000E+00  0.00000000E+00
  0.00000000E+00  0.00000000E+00  0.00000000E+00
  0.00000000E+00  0.00000000E+00  0.00000000E+00
  0.00000000E+00  0.00000000E+00  0.00000000E+00
  0.00000000E+00  0.00000000E+00  0.00000000E+00
  0.00000000E+00  0.00000000E+00  0.00000000E+00
  0.00000000E+00  0.00000000E+00  0.00000000E+00
  0.00000000E+00  0.00000000E+00  0.00000000E+00
  0.00000000E+00  0.00000000E+00  0.00000000E+00
  0.00000000E+00  0.00000000E+00  0.00000000E+00
  0.00000000E+00  0.00000000E+00  0.00000000E+00
  0.00000000E+00  0.00000000E+00  0.00000000E+00
  0.00000000E+00  0.00000000E+00  0.00000000E+00
  0.00000000E+00  0.00000000E+00  0.00000000E+00
  0.00000000E+00  0.00000000E+00  0.00000000E+00
  0.00000000E+00  0.00000000E+00  0.00000000E+00
  0.00000000E+00  0.00000000E+00  0.00000000E+00
  0.00000000E+00  0.00000000E+00  0.00000000E+00
  0.00000000E+00  0.00000000E+00  0.00000000E+00
  0.00000000E+00  0.00000000E+00  0.00000000E+00
  0.00000000E+00  0.00000000E+00  0.00000000E+00
  0.00000000E+00  0.00000000E+00  0.00000000E+00
  0.00000000E+00  0.00000000E+00  0.00000000E+00
  0.00000000E+00  0.00000000E+00  0.00000000E+00
  0.00000000E+00  0.00000000E+00  0.00000000E+00
  0.00000000E+00  0.00000000E+00  0.00000000E+00
  0.00000000E+00  0.00000000E+00  0.00000000E+00
  0.00000000E+00  0.00000000E+00  0.00000000E+00
  0.00000000E+00  0.00000000E+00  0.00000000E+00
  0.00000000E+00  0.00000000E+00  0.00000000E+00
  0.00000000E+00  0.00000000E+00  0.00000000E+00
  0.00000000E+00  0.00000000E+00  0.00000000E+00
  0.00000000E+00  0.00000000E+00  0.00000000E+00
  0.00000000E+00  0.00000000E+00  0.00000000E+00
  0.00000000E+00  0.00000000E+00  0.00000000E+00
  0.00000000E+00  0.00000000E+00  0.00000000E+00
  0.00000000E+00  0.00000000E+00  0.00000000E+00
  0.00000000E+00  0.00000000E+00  0.00000000E+00
  0.00000000E+00  0.00000000E+00  0.00000000E+00
  0.00000000E+00  0.00000000E+00  0.00000000E+00
  0.00000000E+00  0.00000000E+00  0.00000000E+00
  0.00000000E+00  0.00000000E+00  0.00000000E+00
  0.00000000E+00  0.00000000E+00  0.00000000E+00
  0.00000000E+00  0.00000000E+00  0.00000000E+00
  0.00000000E+00  0.00000000E+00  0.00000000E+00
  0.00000000E+00  0.00000000E+00  0.00000000E+00
  0.00000000E+00  0.00000000E+00  0.00000000E+00
  0.00000000E+00  0.00000000E+00  0.00000000E+00
  0.00000000E+00  0.00000000E+00  0.00000000E+00
  0.00000000E+00  0.00000000E+00  0.00000000E+00
  0.00000000E+00  0.00000000E+00  0.00000000E+00
  0.00000000E+00  0.00000000E+00  0.00000000E+00
  0.00000000E+00  0.00000000E+00  0.00000000E+00
  0.00000000E+00  0.00000000E+00  0.00000000E+00
  0.00000000E+00  0.00000000E+00  0.00000000E+00
  0.00000000E+00  0.00000000E+00  0.00000000E+00
  0.00000000E+00  0.00000000E+00  0.00000000E+00
  0.00000000E+00  0.00000000E+00  0.00000000E+00
  0.00000000E+00  0.00000000E+00  0.00000000E+00
  0.00000000E+00  0.00000000E+00  0.00000000E+00
  0.00000000E+00  0.00000000E+00  0.00000000E+00
  0.00000000E+00  0.00000000E+00  0.00000000E+00
  0.00000000E+00  0.00000000E+00  0.00000000E+00
  0.00000000E+00  0.00000000E+00  0.00000000E+00
  0.00000000E+00  0.00000000E+00  0.00000000E+00
  0.00000000E+00  0.00000000E+00  0.00000000E+00
  0.00000000E+00  0.00000000E+00  0.00000000E+00
  0.00000000E+00  0.00000000E+00  0.00000000E+00
  0.00000000E+00  0.00000000E+00  0.00000000E+00
  0.00000000E+00  0.00000000E+00  0.00000000E+00
  0.00000000E+00  0.00000000E+00  0.00000000E+00
  0.00000000E+00  0.00000000E+00  0.00000000E+00
  0.00000000E+00  0.00000000E+00  0.00000000E+00
  0.00000000E+00  0.00000000E+00  0.00000000E+00
  0.00000000E+00  0.00000000E+00  0.00000000E+00
  0.00000000E+00  0.00000000E+00  0.00000000E+00
  0.00000000E+00  0.00000000E+00  0.00000000E+00
  0.00000000E+00  0.00000000E+00  0.00000000E+00
  0.00000000E+00  0.00000000E+00  0.00000000E+00
