C H O Si                                
   1.00000000000000     
     9.2874599999999994    0.0000000000000000    0.0000000000000000
     0.0000000000000000    8.7563099999999991    0.0000000000000000
     0.0000000000000000    0.0000000000000000   58.0000000000000000
   C    H    O    Si
    36    33    16    36
Selective dynamics
Direct
  0.9956499670725453  0.1298605028275720  0.0595719338056764   T   T   T
  0.3291235160142543  0.1298578171062775  0.0596318852227977   T   T   T
  0.6622380877466798  0.1299719963759485  0.0596415754027855   T   T   T
  0.9956540959677183  0.6301082663298674  0.0595831613233347   T   T   T
  0.3290766741312279  0.6296138889468655  0.0596294982441842   T   T   T
  0.6624049632820399  0.6295807440455344  0.0596460298342578   T   T   T
  0.1623150866716140  0.3749966974982860  0.1385129793687246   T   T   T
  0.4955665056969014  0.3752466163077188  0.1387413766878828   T   T   T
  0.8289662810330112  0.3749541133949055  0.1385072041363379   T   T   T
  0.1624155989071837  0.8752941389318861  0.1385588759978128   T   T   T
  0.4956231262847235  0.8756007230892701  0.1381935247423957   T   T   T
  0.8288840522458873  0.8751345827139618  0.1385975737511848   T   T   T
  0.3293387222255822  0.1262593669480871  0.1656762143835155   T   T   T
  0.6620216612811760  0.1259956547222015  0.1657107292671501   T   T   T
  0.9958435017749778  0.1249228177803129  0.1655565927445863   T   T   T
  0.3283143014800816  0.6256640324067717  0.1656493236051501   T   T   T
  0.6628166677667007  0.6253762983404850  0.1657108914506467   T   T   T
  0.9958211654509636  0.6255863472389279  0.1656221035759153   T   T   T
  0.1635658923083059  0.3790929833878421  0.1908881218631639   T   T   T
  0.4961921661156557  0.3832177787880168  0.1917150087510170   T   T   T
  0.8303488433811604  0.3786363396100412  0.1908328110718069   T   T   T
  0.1621237314434832  0.8801186645440765  0.1911317893238920   T   T   T
  0.4963891151907534  0.8924736095638203  0.1881285842890405   T   T   T
  0.8310802114413210  0.8796887602152308  0.1911434817716136   T   T   T
  0.1621038784980064  0.3752783025057380  0.0849812513233844   T   T   T
  0.4955029878722740  0.3751734890362662  0.0851475986473123   T   T   T
  0.8289300459429916  0.3752830124902615  0.0849918766196649   T   T   T
  0.1622559452891338  0.8753222117895386  0.0850254291181186   T   T   T
  0.4954370747720056  0.8752589350805058  0.0849226067103902   T   T   T
  0.8287534247247981  0.8753458956037800  0.0850527094236682   T   T   T
  0.3286453073686842  0.1251765459526138  0.1121511642984650   T   T   T
  0.6619947229604383  0.1251495433974066  0.1121662970558303   T   T   T
  0.9953661197444140  0.1249676187171169  0.1121284617320085   T   T   T
  0.3286418175427445  0.6247709177393683  0.1121428028205293   T   T   T
  0.6620312318045353  0.6248283325208390  0.1121638169750351   T   T   T
  0.9953700504201891  0.6251466586099695  0.1121144914735714   T   T   T
  0.0839846797228991  0.3573192007206581  0.0251755909961808   T   T   T
  0.4157742733717926  0.3574287157892781  0.0253942336269276   T   T   T
  0.7487793460766404  0.3569451142772709  0.0253154904379543   T   T   T
  0.0842403265152115  0.8576695161979261  0.0251842446804740   T   T   T
  0.4167469217138333  0.8569624083623438  0.0252208673942366   T   T   T
  0.7480414542639257  0.8568722872580158  0.0254110417692270   T   T   T
  0.3270991854963782  0.0577138547887762  0.0440763461776724   T   T   T
  0.6597572441196980  0.0577854281620610  0.0440910211598948   T   T   T
  0.9933088731827895  0.0578609228479174  0.0439965101436088   T   T   T
  0.3266114555155813  0.5575627370305675  0.0440648769282280   T   T   T
  0.6602710489187636  0.5574013917771015  0.0440901130613827   T   T   T
  0.9933290470613544  0.5580625099966262  0.0440124270449668   T   T   T
  0.8338313546598042  0.8087224337910935  0.2067952540648065   T   T   T
  0.8332166332632965  0.3070436469964132  0.2064614007100596   T   T   T
  0.1650314439944381  0.3078750058278044  0.2065563114466792   T   T   T
  0.4985019242373080  0.3105927953188942  0.2072343171378243   T   T   T
  0.1652106682112376  0.8080438059204731  0.2066757013946527   T   T   T
  0.5394722731991651  0.9260692931908450  0.2603549799368098   T   T   T
  0.0767953292769684  0.1071495767865477  0.2255367531440555   T   T   T
  0.4145085856578931  0.1055453438147139  0.2253310601668322   T   T   T
  0.7405370677752339  0.1046957856347856  0.2261948871594744   T   T   T
  0.0816671407894044  0.6080721610092678  0.2242915154349127   T   T   T
  0.3693194351902501  0.5730884205885023  0.2302920669027806   T   T   T
  0.7735339719590026  0.6003074361711846  0.2232529087885569   T   T   T
  0.4899524199713419  0.5425896315704979  0.2659725269142882   T   T   T
  0.4702531200293871  0.4566994187871369  0.3003511978567825   T   T   T
  0.5188503383040081  0.6260227135803997  0.3077827693870229   T   T   T
  0.2901155835266968  0.2726776586498222  0.2959258961773239   T   T   T
  0.4393793694073869  0.2157279269221285  0.2878045875568593   T   T   T
  0.6387239525851962  0.7700836019395157  0.3348958419163212   T   T   T
  0.5030453718045942  0.8626331043310879  0.3279367039806075   T   T   T
  0.5021193314693337  0.8747651405045453  0.2688393402903121   T   T   T
  0.5641747666683806  0.5388660009016623  0.2411149470289710   T   T   T
  0.1738294160549439  0.3407274560511706  0.0335481272416584   T   T   T
  0.5060675120774698  0.3418246251050684  0.0336912347636744   T   T   T
  0.8392501975053871  0.3410468844769833  0.0335558422071095   T   T   T
  0.1739103846195034  0.8409981622576009  0.0335882106753620   T   T   T
  0.5069789098058758  0.8400327384860329  0.0334801837913342   T   T   T
  0.8385501046490551  0.8419520336413858  0.0336769668118636   T   T   T
  0.3223751194327314  0.0884919097612678  0.2176161311310199   T   T   T
  0.6519775919034577  0.0884630460458438  0.2174568897608395   T   T   T
  0.9872484114247873  0.0924185231627891  0.2170102394822645   T   T   T
  0.3129358523269690  0.6057095065891717  0.2161185855167332   T   T   T
  0.6748773704046444  0.5933743448634249  0.2172130562729609   T   T   T
  0.9881502561387671  0.5877612565464089  0.2170795268722252   T   T   T
  0.5210703124134638  0.5498245220333596  0.2951180496590791   T   T   T
  0.3904562161877850  0.2644209903460989  0.3007407894082244   T   T   T
  0.5371187715391399  0.7592519833105899  0.3309761030786985   T   T   T
  0.4764678460550228  0.5091930631464138  0.2496637484024929   T   T   T
  0.4957482490290972  0.2476162554628546  0.0587692931156743   T   T   T
  0.8290728407537225  0.2474849587145656  0.0586715776886824   T   T   T
  0.1625879751605960  0.7474564121175875  0.0587088485124981   T   T   T
  0.4958560276163032  0.7470162468771572  0.0586503072424840   T   T   T
  0.8289759771803552  0.7476231921685311  0.0587279854722437   T   T   T
  0.1624837903987522  0.2473419495925103  0.0586767811190145   T   T   T
  0.9957151621579650  0.0003690224827000  0.1387663076083398   T   T   T
  0.3289179636636362  0.0007521500390110  0.1388113880049251   T   T   T
  0.6624040604749929  0.0006816464084371  0.1388197622359859   T   T   T
  0.9957444886535256  0.5007717003258559  0.1387680551237363   T   T   T
  0.3287154403688133  0.5005425470809017  0.1388323695105542   T   T   T
  0.6624092034600303  0.5003453688846227  0.1388150470272800   T   T   T
  0.1617373672872972  0.2501375330065496  0.1652324121771320   T   T   T
  0.4956838541004114  0.2518247800463637  0.1657008897378561   T   T   T
  0.8301825463768280  0.2496828776567837  0.1651691625658213   T   T   T
  0.1622575057636354  0.7506208246378969  0.1652317010338706   T   T   T
  0.4955688428669668  0.7476444221856937  0.1649373414647866   T   T   T
  0.8293955685198963  0.7501872063842784  0.1652491470846414   T   T   T
  0.3272956382451819  0.9979935877979602  0.1923228441963718   T   T   T
  0.6658944985491548  0.9974055586634817  0.1923253824790431   T   T   T
  0.9966423191392273  0.9986149738894590  0.1919598684274196   T   T   T
  0.3281555673030404  0.5012937593043164  0.1923246434650987   T   T   T
  0.9970305465236511  0.4961839498295409  0.1917284035619131   T   T   T
  0.6650668160431330  0.4980427420240950  0.1920296213567247   T   T   T
  0.9956015762809701  0.0000946582518712  0.0853784998150751   T   T   T
  0.3289347478437532  0.0000343304987188  0.0853861228712248   T   T   T
  0.6621852096490681  0.0000248786620589  0.0853945024700427   T   T   T
  0.9955848369247973  0.5001203942502876  0.0853580679154250   T   T   T
  0.3288900335898140  0.4998492914629773  0.0854168536080402   T   T   T
  0.6623184161051593  0.4998049666834193  0.0854267809616954   T   T   T
  0.1618461484175082  0.2505796086874463  0.1117893264665663   T   T   T
  0.4953318737075871  0.2505643190285969  0.1119722525246504   T   T   T
  0.8289194649986465  0.2504680518636354  0.1117823071796382   T   T   T
  0.1622069873220545  0.7506245521116547  0.1118286675797289   T   T   T
  0.4953705824807589  0.7498359906324181  0.1116184140062480   T   T   T
  0.8286077234752620  0.7506655916629730  0.1118475500054113   T   T   T
 
  0.00000000E+00  0.00000000E+00  0.00000000E+00
  0.00000000E+00  0.00000000E+00  0.00000000E+00
  0.00000000E+00  0.00000000E+00  0.00000000E+00
  0.00000000E+00  0.00000000E+00  0.00000000E+00
  0.00000000E+00  0.00000000E+00  0.00000000E+00
  0.00000000E+00  0.00000000E+00  0.00000000E+00
  0.00000000E+00  0.00000000E+00  0.00000000E+00
  0.00000000E+00  0.00000000E+00  0.00000000E+00
  0.00000000E+00  0.00000000E+00  0.00000000E+00
  0.00000000E+00  0.00000000E+00  0.00000000E+00
  0.00000000E+00  0.00000000E+00  0.00000000E+00
  0.00000000E+00  0.00000000E+00  0.00000000E+00
  0.00000000E+00  0.00000000E+00  0.00000000E+00
  0.00000000E+00  0.00000000E+00  0.00000000E+00
  0.00000000E+00  0.00000000E+00  0.00000000E+00
  0.00000000E+00  0.00000000E+00  0.00000000E+00
  0.00000000E+00  0.00000000E+00  0.00000000E+00
  0.00000000E+00  0.00000000E+00  0.00000000E+00
  0.00000000E+00  0.00000000E+00  0.00000000E+00
  0.00000000E+00  0.00000000E+00  0.00000000E+00
  0.00000000E+00  0.00000000E+00  0.00000000E+00
  0.00000000E+00  0.00000000E+00  0.00000000E+00
  0.00000000E+00  0.00000000E+00  0.00000000E+00
  0.00000000E+00  0.00000000E+00  0.00000000E+00
  0.00000000E+00  0.00000000E+00  0.00000000E+00
  0.00000000E+00  0.00000000E+00  0.00000000E+00
  0.00000000E+00  0.00000000E+00  0.00000000E+00
  0.00000000E+00  0.00000000E+00  0.00000000E+00
  0.00000000E+00  0.00000000E+00  0.00000000E+00
  0.00000000E+00  0.00000000E+00  0.00000000E+00
  0.00000000E+00  0.00000000E+00  0.00000000E+00
  0.00000000E+00  0.00000000E+00  0.00000000E+00
  0.00000000E+00  0.00000000E+00  0.00000000E+00
  0.00000000E+00  0.00000000E+00  0.00000000E+00
  0.00000000E+00  0.00000000E+00  0.00000000E+00
  0.00000000E+00  0.00000000E+00  0.00000000E+00
  0.00000000E+00  0.00000000E+00  0.00000000E+00
  0.00000000E+00  0.00000000E+00  0.00000000E+00
  0.00000000E+00  0.00000000E+00  0.00000000E+00
  0.00000000E+00  0.00000000E+00  0.00000000E+00
  0.00000000E+00  0.00000000E+00  0.00000000E+00
  0.00000000E+00  0.00000000E+00  0.00000000E+00
  0.00000000E+00  0.00000000E+00  0.00000000E+00
  0.00000000E+00  0.00000000E+00  0.00000000E+00
  0.00000000E+00  0.00000000E+00  0.00000000E+00
  0.00000000E+00  0.00000000E+00  0.00000000E+00
  0.00000000E+00  0.00000000E+00  0.00000000E+00
  0.00000000E+00  0.00000000E+00  0.00000000E+00
  0.00000000E+00  0.00000000E+00  0.00000000E+00
  0.00000000E+00  0.00000000E+00  0.00000000E+00
  0.00000000E+00  0.00000000E+00  0.00000000E+00
  0.00000000E+00  0.00000000E+00  0.00000000E+00
  0.00000000E+00  0.00000000E+00  0.00000000E+00
  0.00000000E+00  0.00000000E+00  0.00000000E+00
  0.00000000E+00  0.00000000E+00  0.00000000E+00
  0.00000000E+00  0.00000000E+00  0.00000000E+00
  0.00000000E+00  0.00000000E+00  0.00000000E+00
  0.00000000E+00  0.00000000E+00  0.00000000E+00
  0.00000000E+00  0.00000000E+00  0.00000000E+00
  0.00000000E+00  0.00000000E+00  0.00000000E+00
  0.00000000E+00  0.00000000E+00  0.00000000E+00
  0.00000000E+00  0.00000000E+00  0.00000000E+00
  0.00000000E+00  0.00000000E+00  0.00000000E+00
  0.00000000E+00  0.00000000E+00  0.00000000E+00
  0.00000000E+00  0.00000000E+00  0.00000000E+00
  0.00000000E+00  0.00000000E+00  0.00000000E+00
  0.00000000E+00  0.00000000E+00  0.00000000E+00
  0.00000000E+00  0.00000000E+00  0.00000000E+00
  0.00000000E+00  0.00000000E+00  0.00000000E+00
  0.00000000E+00  0.00000000E+00  0.00000000E+00
  0.00000000E+00  0.00000000E+00  0.00000000E+00
  0.00000000E+00  0.00000000E+00  0.00000000E+00
  0.00000000E+00  0.00000000E+00  0.00000000E+00
  0.00000000E+00  0.00000000E+00  0.00000000E+00
  0.00000000E+00  0.00000000E+00  0.00000000E+00
  0.00000000E+00  0.00000000E+00  0.00000000E+00
  0.00000000E+00  0.00000000E+00  0.00000000E+00
  0.00000000E+00  0.00000000E+00  0.00000000E+00
  0.00000000E+00  0.00000000E+00  0.00000000E+00
  0.00000000E+00  0.00000000E+00  0.00000000E+00
  0.00000000E+00  0.00000000E+00  0.00000000E+00
  0.00000000E+00  0.00000000E+00  0.00000000E+00
  0.00000000E+00  0.00000000E+00  0.00000000E+00
  0.00000000E+00  0.00000000E+00  0.00000000E+00
  0.00000000E+00  0.00000000E+00  0.00000000E+00
  0.00000000E+00  0.00000000E+00  0.00000000E+00
  0.00000000E+00  0.00000000E+00  0.00000000E+00
  0.00000000E+00  0.00000000E+00  0.00000000E+00
  0.00000000E+00  0.00000000E+00  0.00000000E+00
  0.00000000E+00  0.00000000E+00  0.00000000E+00
  0.00000000E+00  0.00000000E+00  0.00000000E+00
  0.00000000E+00  0.00000000E+00  0.00000000E+00
  0.00000000E+00  0.00000000E+00  0.00000000E+00
  0.00000000E+00  0.00000000E+00  0.00000000E+00
  0.00000000E+00  0.00000000E+00  0.00000000E+00
  0.00000000E+00  0.00000000E+00  0.00000000E+00
  0.00000000E+00  0.00000000E+00  0.00000000E+00
  0.00000000E+00  0.00000000E+00  0.00000000E+00
  0.00000000E+00  0.00000000E+00  0.00000000E+00
  0.00000000E+00  0.00000000E+00  0.00000000E+00
  0.00000000E+00  0.00000000E+00  0.00000000E+00
  0.00000000E+00  0.00000000E+00  0.00000000E+00
  0.00000000E+00  0.00000000E+00  0.00000000E+00
  0.00000000E+00  0.00000000E+00  0.00000000E+00
  0.00000000E+00  0.00000000E+00  0.00000000E+00
  0.00000000E+00  0.00000000E+00  0.00000000E+00
  0.00000000E+00  0.00000000E+00  0.00000000E+00
  0.00000000E+00  0.00000000E+00  0.00000000E+00
  0.00000000E+00  0.00000000E+00  0.00000000E+00
  0.00000000E+00  0.00000000E+00  0.00000000E+00
  0.00000000E+00  0.00000000E+00  0.00000000E+00
  0.00000000E+00  0.00000000E+00  0.00000000E+00
  0.00000000E+00  0.00000000E+00  0.00000000E+00
  0.00000000E+00  0.00000000E+00  0.00000000E+00
  0.00000000E+00  0.00000000E+00  0.00000000E+00
  0.00000000E+00  0.00000000E+00  0.00000000E+00
  0.00000000E+00  0.00000000E+00  0.00000000E+00
  0.00000000E+00  0.00000000E+00  0.00000000E+00
  0.00000000E+00  0.00000000E+00  0.00000000E+00
  0.00000000E+00  0.00000000E+00  0.00000000E+00
  0.00000000E+00  0.00000000E+00  0.00000000E+00
