C H O Si                                
   1.00000000000000     
    18.5749199999999988    0.0000000000000000    0.0000000000000000
     0.0000000000000000   17.5126199999999983    0.0000000000000000
     0.0000000000000000    0.0000000000000000   58.0000000000000000
   C    H    O    Si
   144   105    52   144
Selective dynamics
Direct
  0.4963159754682064  0.0630198157482233  0.0605132506275824   T   T   T
  0.1629492180641153  0.0629706881807218  0.0604864509871598   T   T   T
  0.3296500264232677  0.0629993066564253  0.0604930073277061   T   T   T
  0.4962225368176781  0.3130227547691120  0.0605112657192043   T   T   T
  0.1628623966450007  0.3130414064448876  0.0604939098395150   T   T   T
  0.3295622727289586  0.3130342218875404  0.0604984955085016   T   T   T
  0.0800932539080165  0.1855580219793753  0.1394016533172388   T   T   T
  0.2467035504598190  0.1855929776716754  0.1394204094176495   T   T   T
  0.4133487097601503  0.1856003060450827  0.1394323206871353   T   T   T
  0.0800521909937072  0.4356185621323121  0.1394355503892121   T   T   T
  0.2466844360309593  0.4356209837372562  0.1394337844930964   T   T   T
  0.4133296015944708  0.4356292312248347  0.1394523486899911   T   T   T
  0.1636265728873514  0.0606423749763786  0.1665326444476094   T   T   T
  0.3302214169131336  0.0606881628296856  0.1665439820117372   T   T   T
  0.4968482712604485  0.0606303627413015  0.1665400026040080   T   T   T
  0.1635485832301957  0.3106917343897009  0.1665494019707803   T   T   T
  0.3302064593557061  0.3107158679179896  0.1665564659825001   T   T   T
  0.4968200955997240  0.3107347742909660  0.1665760534646333   T   T   T
  0.0807574421449233  0.1877933531780528  0.1919326990923156   T   T   T
  0.2471340571886853  0.1879251966244021  0.1919653372022032   T   T   T
  0.4136424937587906  0.1878180116641607  0.1919424072773622   T   T   T
  0.0803233187860062  0.4379222270631207  0.1919768402960576   T   T   T
  0.2469778750583344  0.4379392764774127  0.1919615005718995   T   T   T
  0.4136366228625222  0.4380133661236222  0.1919685621733099   T   T   T
  0.0797546262448074  0.1857459350265226  0.0858731578706322   T   T   T
  0.2464030827932976  0.1857180317970328  0.0859009713459703   T   T   T
  0.4130594288256349  0.1857556763107593  0.0859014867237426   T   T   T
  0.0797433872535192  0.4357704869851888  0.0858997469375030   T   T   T
  0.2463962158843628  0.4357411585165413  0.0859154326741089   T   T   T
  0.4130553195099260  0.4357506901358007  0.0859199855016824   T   T   T
  0.1632100561758843  0.0605524976128840  0.1130038473327554   T   T   T
  0.3298786136934587  0.0605911074940119  0.1130205500949244   T   T   T
  0.4965461640295377  0.0606173441325159  0.1130426955138457   T   T   T
  0.1631745410815724  0.3105966699649047  0.1130162795356648   T   T   T
  0.3298401180130954  0.3105982329458538  0.1130278194190410   T   T   T
  0.4964852926150458  0.3106082330095321  0.1130478842953238   T   T   T
  0.4963112093056727  0.5629784955040528  0.0605196708679093   T   T   T
  0.1629317967693755  0.5630278777254154  0.0605049137072566   T   T   T
  0.3296597063691438  0.5630131466862544  0.0605118838453878   T   T   T
  0.4962587184646639  0.8130371205286039  0.0605208351726717   T   T   T
  0.1628611044705621  0.8129777096274853  0.0604824539065854   T   T   T
  0.3295823758494815  0.8130015922906926  0.0604911745402404   T   T   T
  0.0800338997907758  0.6856478904895593  0.1394334634404124   T   T   T
  0.2466793127643785  0.6856184100382102  0.1394373819919124   T   T   T
  0.4133372213976015  0.6856627162550794  0.1394383187167635   T   T   T
  0.0801199913702885  0.9354623298974788  0.1393961689234109   T   T   T
  0.2467131367198788  0.9355646557653293  0.1394148025282935   T   T   T
  0.4133542308845585  0.9355835647018600  0.1394306447023302   T   T   T
  0.1634857534455516  0.5607473813659196  0.1665725007035614   T   T   T
  0.3301632477917523  0.5607816028122475  0.1665740101678564   T   T   T
  0.4967721558813212  0.5608611498259333  0.1665510981105067   T   T   T
  0.1635207297196022  0.8107112260740779  0.1665542247403435   T   T   T
  0.3301975473854265  0.8107378719148856  0.1665558148675715   T   T   T
  0.4968760286272639  0.8107860927811894  0.1665789024339432   T   T   T
  0.0803872882163458  0.6880351104461877  0.1919660887057501   T   T   T
  0.2470267983659708  0.6880441469880537  0.1919929606739965   T   T   T
  0.4136694101591556  0.6880223133982991  0.1919670039670685   T   T   T
  0.0804711030537336  0.9379399696240237  0.1919403079994561   T   T   T
  0.2470649177985491  0.9379341553906771  0.1919526317458616   T   T   T
  0.4137041028041214  0.9379697421192297  0.1919559819802001   T   T   T
  0.0797286908773285  0.6857658414102302  0.0859004918886493   T   T   T
  0.2464186747627019  0.6857105186617709  0.0859073005512240   T   T   T
  0.4130943729016429  0.6857721647777912  0.0859127329439635   T   T   T
  0.0797445771782764  0.9356921957450351  0.0858737672228752   T   T   T
  0.2464124488159396  0.9356893776496860  0.0858919260384235   T   T   T
  0.4130685320868515  0.9357479213299950  0.0859061122122126   T   T   T
  0.1631900353152901  0.5606162189051288  0.1130296496999697   T   T   T
  0.3298787851405044  0.5606195270428067  0.1130370121135103   T   T   T
  0.4965391754990748  0.5606137577192585  0.1130461255211052   T   T   T
  0.1632018368555131  0.8105502859864111  0.1130082478415651   T   T   T
  0.3298543968869262  0.8105901044138087  0.1130214667401002   T   T   T
  0.4965552241227933  0.8106582364122782  0.1130547102959765   T   T   T
  0.9962770465733948  0.0629874049905492  0.0604616563417497   T   T   T
  0.6629663180083473  0.0630728183770383  0.0605838636246941   T   T   T
  0.8295855715345538  0.0630710106037709  0.0605418863857837   T   T   T
  0.9961990400614871  0.3130552480472374  0.0604706246931422   T   T   T
  0.6628664294526698  0.3129852739807709  0.0605907770938112   T   T   T
  0.8295455949186000  0.3130159696762834  0.0605328833713171   T   T   T
  0.5800169832204179  0.1856268406577642  0.1394687436994755   T   T   T
  0.7466946730182042  0.1858451075047513  0.1396667523049795   T   T   T
  0.9134264528331058  0.1855227569948062  0.1393215744785019   T   T   T
  0.5800026324590400  0.4356269219824434  0.1394825547132550   T   T   T
  0.7466984370907999  0.4355398159936066  0.1394946172663769   T   T   T
  0.9133980094143074  0.4356474974764400  0.1394357112733157   T   T   T
  0.6637663238893950  0.0611176201845600  0.1667273836264468   T   T   T
  0.8300207577625816  0.0609529127635388  0.1666344420123700   T   T   T
  0.9971436848642220  0.0603417688916320  0.1664198362053304   T   T   T
  0.6634410436913641  0.3107746471582317  0.1667880063440611   T   T   T
  0.8304441657379150  0.3107910213130423  0.1666232164159694   T   T   T
  0.9969955351017586  0.3106920532314338  0.1664911421759496   T   T   T
  0.5802778205463623  0.1875222470173933  0.1918777675061025   T   T   T
  0.7472734295312605  0.1897491440533293  0.1927369118847080   T   T   T
  0.9144239747771162  0.1866224760941941  0.1914778266773368   T   T   T
  0.5802125872368068  0.4383622021677896  0.1919784633099813   T   T   T
  0.7470043805507963  0.4378474330987514  0.1919963413513249   T   T   T
  0.9137765114449852  0.4383624331502363  0.1919072539142893   T   T   T
  0.5797389289530190  0.1857724219733889  0.0859416813970706   T   T   T
  0.7464023678046346  0.1858033462920027  0.0860395590855233   T   T   T
  0.9130723721756219  0.1857586184922634  0.0858485518011114   T   T   T
  0.5797490583731033  0.4357325240043380  0.0859482477740702   T   T   T
  0.7463842490982234  0.4357115040499336  0.0859621891768451   T   T   T
  0.9130463682033453  0.4357564533635557  0.0859130366417387   T   T   T
  0.6632096561232712  0.0607019385340212  0.1131178732408025   T   T   T
  0.8298344680398101  0.0606744656772737  0.1130729989543546   T   T   T
  0.9965527973024677  0.0605458179227219  0.1129817123756769   T   T   T
  0.6631471446535194  0.3106060374067509  0.1131508411574179   T   T   T
  0.8298761178935234  0.3106332701663609  0.1130692839653061   T   T   T
  0.9965370219479586  0.3106231346927111  0.1129966166266100   T   T   T
  0.9962677166911417  0.5630066740282730  0.0605049224030788   T   T   T
  0.6629456970140878  0.5629854560456184  0.0605376820957258   T   T   T
  0.8296075318407560  0.5629913697166671  0.0605295901422228   T   T   T
  0.9961539913362920  0.8129984522885009  0.0604957497827957   T   T   T
  0.6628666133725303  0.8130484566560048  0.0605350117507392   T   T   T
  0.8295148791493390  0.8130308588101101  0.0605199291843061   T   T   T
  0.5800284025690339  0.6856443475538047  0.1394628660747174   T   T   T
  0.7466604586872438  0.6856735794660818  0.1394559423080664   T   T   T
  0.9133201299241600  0.6856244961640453  0.1394438411016146   T   T   T
  0.5801495072127937  0.9357609238372946  0.1395075079032021   T   T   T
  0.7466395338617647  0.9356412027375023  0.1394777209934787   T   T   T
  0.9132607642497133  0.9357062586988983  0.1394500651519615   T   T   T
  0.6635249289772255  0.5608140537713791  0.1665753024741935   T   T   T
  0.8301028511764340  0.5607889468220345  0.1665683886779318   T   T   T
  0.9969040086508678  0.5608330154567898  0.1665353356629782   T   T   T
  0.6635114285597623  0.8107663677830623  0.1666021772239004   T   T   T
  0.8302031828330516  0.8107790749210900  0.1665749892203037   T   T   T
  0.9968382584208978  0.8107507694487867  0.1665495173246518   T   T   T
  0.5803701278791097  0.6880162294400464  0.1919957437746117   T   T   T
  0.7470486547320457  0.6880681405203143  0.1919962204648480   T   T   T
  0.9137024765952818  0.6879826988002036  0.1919630390444255   T   T   T
  0.5804501228871941  0.9381058238609168  0.1920184219143661   T   T   T
  0.7471168131816888  0.9380225218892927  0.1920145134540856   T   T   T
  0.9137631222792544  0.9380331120811605  0.1919543549214767   T   T   T
  0.5797671576042029  0.6857540676974169  0.0859321739495183   T   T   T
  0.7463846123054516  0.6857417316053753  0.0859407650262064   T   T   T
  0.9130228430288559  0.6857472383694670  0.0859182535982522   T   T   T
  0.5797678238939181  0.9358076060057551  0.0859530035956315   T   T   T
  0.7463772992180366  0.9357701097008436  0.0859522267390165   T   T   T
  0.9130096326567209  0.9357743390569720  0.0859141303775227   T   T   T
  0.6631967225101396  0.5605969303668318  0.1130613382966362   T   T   T
  0.8298536658936362  0.5606000626321552  0.1130523310481355   T   T   T
  0.9965315324216647  0.5606301206042461  0.1130278493506753   T   T   T
  0.6631549973301148  0.8106418797989250  0.1130626386014359   T   T   T
  0.8298196072029730  0.8106251671490088  0.1130463276717614   T   T   T
  0.9964714339641089  0.8106199372169783  0.1130313570293177   T   T   T
  0.0388562068604054  0.1762086120840470  0.0263114245972441   T   T   T
  0.2052752139378596  0.1762210263438327  0.0263885973299145   T   T   T
  0.3719766913268212  0.1761683104612729  0.0263714845230857   T   T   T
  0.0386978518737890  0.4262668317387364  0.0263220042066412   T   T   T
  0.2051360153255241  0.4261962905357530  0.0263788347323099   T   T   T
  0.3717897976753909  0.4261642874343095  0.0263815613982184   T   T   T
  0.1618847756355784  0.0268537145437047  0.0449333675581244   T   T   T
  0.3285227982914338  0.0268713855340188  0.0449435284220398   T   T   T
  0.4952471770696223  0.0269106504848920  0.0449606597987300   T   T   T
  0.1617407731448796  0.2769507572606333  0.0449366645627375   T   T   T
  0.3284016161507712  0.2769354271365667  0.0449439880681295   T   T   T
  0.4950940749498591  0.2769341355679276  0.0449524900849672   T   T   T
  0.4148078515684034  0.4019722583899115  0.2075394512020692   T   T   T
  0.4147172532069203  0.1516939850208668  0.2074926321909651   T   T   T
  0.0816590987420629  0.1516712431881619  0.2074819967182459   T   T   T
  0.2482251506835775  0.1518202331776758  0.2075212677321066   T   T   T
  0.0814697634254993  0.4018254282978410  0.2075409096542660   T   T   T
  0.2480802544156812  0.4018810512202363  0.2075259983533663   T   T   T
  0.0382256444248992  0.0509896158078559  0.2260923230806793   T   T   T
  0.2048301355335612  0.0510396989730077  0.2261185945282654   T   T   T
  0.3715761629519457  0.0510777392030930  0.2260927582358843   T   T   T
  0.0331742438870673  0.3007637318299159  0.2269171734405223   T   T   T
  0.2046324740223654  0.3011249625979098  0.2261698203333274   T   T   T
  0.3719645752292838  0.3009080574859453  0.2260831109679618   T   T   T
  0.0387184678446536  0.6762380748187220  0.0263591438560931   T   T   T
  0.2053317924759546  0.6761932646347062  0.0263805005445375   T   T   T
  0.3720048905492096  0.6761650891473163  0.0263854519842615   T   T   T
  0.0385861047161131  0.9261796457929654  0.0263343292580961   T   T   T
  0.2051512391882144  0.9261390697677676  0.0263638282639516   T   T   T
  0.3718794334526334  0.9261599559701830  0.0263663379160452   T   T   T
  0.1618314996234511  0.5268820762361043  0.0449593721865274   T   T   T
  0.3285591263665733  0.5268732325453259  0.0449647243550416   T   T   T
  0.4952121284708066  0.5268622665811621  0.0449676771859950   T   T   T
  0.1617519725127027  0.7768451877809134  0.0449346474723280   T   T   T
  0.3284518053637922  0.7768791678082519  0.0449396557449976   T   T   T
  0.4951728025691886  0.7769382899518289  0.0449664752866677   T   T   T
  0.4147836999790188  0.9019000423851392  0.2075186184292967   T   T   T
  0.4148124801124252  0.6518981425226215  0.2075197038837218   T   T   T
  0.0815180765523769  0.6519123381559435  0.2075187933362979   T   T   T
  0.2481975324282253  0.6519636772399032  0.2075529164153225   T   T   T
  0.0815409366087558  0.9018685387544049  0.2075015591517798   T   T   T
  0.2481949073192582  0.9018690091176912  0.2075146695830073   T   T   T
  0.0378278762783830  0.5518809356085174  0.2261065698072530   T   T   T
  0.2046879317834162  0.5517788074833178  0.2260369139796189   T   T   T
  0.3712224570781371  0.5515833093358641  0.2260820369723990   T   T   T
  0.0379843552808651  0.8012308416220145  0.2261386397129815   T   T   T
  0.2043853849163751  0.8014227053598403  0.2261957859338751   T   T   T
  0.3718850368372243  0.8010671220326685  0.2260804872241027   T   T   T
  0.5389688282296082  0.1761965740344135  0.0263589982782018   T   T   T
  0.7052227550362443  0.1762869255939182  0.0264968529545521   T   T   T
  0.8718157296427455  0.1761803470936525  0.0263524127226593   T   T   T
  0.5388547255214750  0.4261827219785085  0.0263648852361671   T   T   T
  0.7050630194724918  0.4261300319425559  0.0264343450161224   T   T   T
  0.8716100025906115  0.4261679480328037  0.0263857627726927   T   T   T
  0.6619630767204744  0.0269068895817377  0.0450418652397770   T   T   T
  0.8282660779228189  0.0269083595361940  0.0449996638779306   T   T   T
  0.9951773045196991  0.0269002485382527  0.0449066827193867   T   T   T
  0.6617358319030526  0.2767808852510215  0.0450567731996012   T   T   T
  0.8283362802685238  0.2768797782559731  0.0449828042293412   T   T   T
  0.9950490637776398  0.2769886784790878  0.0449083360513262   T   T   T
  0.9146531263534811  0.4026630599855013  0.2075224549252217   T   T   T
  0.9154900766932615  0.1507166527519859  0.2070737022693409   T   T   T
  0.5810103081203888  0.1514633603740839  0.2074461717634241   T   T   T
  0.7486511206262797  0.1530702548119085  0.2081672890983990   T   T   T
  0.5812082480801448  0.4022523590968711  0.2075226145893781   T   T   T
  0.7471723497674309  0.4018466328238284  0.2075732689811924   T   T   T
  0.5377898024031237  0.0512775807576731  0.2261750781585189   T   T   T
  0.7051521850065950  0.0505749271378104  0.2262852523336347   T   T   T
  0.8717568233586748  0.0509112353524463  0.2261775213650732   T   T   T
  0.5409807235614248  0.3008355345045152  0.2250710248989423   T   T   T
  0.6887777870373970  0.3095700172521079  0.2292911660310835   T   T   T
  0.8912205176082435  0.2945458968145316  0.2232043758802734   T   T   T
  0.7729791235574328  0.3051826306188647  0.2742142349306492   T   T   T
  0.7464270772661125  0.2375256807638792  0.2934135175931497   T   T   T
  0.7861438324849208  0.3198424566368638  0.3031936520968552   T   T   T
  0.6576587856789682  0.1950396815421106  0.3097999831360947   T   T   T
  0.7107837825929413  0.1302688610024886  0.3022778477899441   T   T   T
  0.8252632086210739  0.3661443479151616  0.3335000867151406   T   T   T
  0.7420780885770139  0.3765485356433302  0.3307569046541411   T   T   T
  0.7578652810114577  0.3955313389947622  0.2521240800416379   T   T   T
  0.7924456629464920  0.3240724210831185  0.2390387339987175   T   T   T
  0.5388314118233892  0.6762185958039214  0.0263801572243264   T   T   T
  0.7052945459849773  0.6762159018551234  0.0264133021601688   T   T   T
  0.8718504200291742  0.6761900992812730  0.0264026489901133   T   T   T
  0.5387007164300635  0.9262173459960900  0.0263805988493044   T   T   T
  0.7050890038934818  0.9261871964237423  0.0264139189688267   T   T   T
  0.8717223864032186  0.9262281036337607  0.0263878408882624   T   T   T
  0.6618529371445148  0.5268499181771170  0.0449897966138820   T   T   T
  0.8284554035336581  0.5268605122188273  0.0449807573753171   T   T   T
  0.9951275812750947  0.5268913288577328  0.0449539470496069   T   T   T
  0.6617298559551109  0.7769360010291088  0.0449821489785380   T   T   T
  0.8283013237901853  0.7769203668340264  0.0449660814985099   T   T   T
  0.9949517108440965  0.7768774949493084  0.0449445588400535   T   T   T
  0.9148964573431051  0.9019990881672936  0.2075243577657774   T   T   T
  0.9148943685768306  0.6519412926214084  0.2075306505023289   T   T   T
  0.5814733732943954  0.6519041774192574  0.2075492927757098   T   T   T
  0.7483123219237676  0.6520577040276615  0.2075668170435744   T   T   T
  0.5814723616392296  0.9020136830577321  0.2075765791760112   T   T   T
  0.7482849866365859  0.9019412928471623  0.2075718973834516   T   T   T
  0.5374155072693650  0.5519650182593291  0.2261275633908175   T   T   T
  0.7048339457392609  0.5531832461928434  0.2258491527529619   T   T   T
  0.8711108160234914  0.5521520892872922  0.2260458044032856   T   T   T
  0.5380479332608826  0.8012180090295354  0.2261483059986870   T   T   T
  0.7044294853047575  0.8014324420229142  0.2262150599270532   T   T   T
  0.8719581879136256  0.8010572668993550  0.2260766843618132   T   T   T
  0.0844530292405185  0.1681936719117697  0.0343443123261466   T   T   T
  0.2509709103088362  0.1682296344552966  0.0343646308007362   T   T   T
  0.4176400998273846  0.1682360898118541  0.0343686192341837   T   T   T
  0.0842809904442641  0.4183087812486363  0.0343632573113957   T   T   T
  0.2508165841557279  0.4183395946439205  0.0343759968335230   T   T   T
  0.4174580163307634  0.4183512549379236  0.0343871793451720   T   T   T
  0.1592358962216057  0.0432251700500019  0.2180759563650322   T   T   T
  0.3258970472393597  0.0431514080966080  0.2181053976229291   T   T   T
  0.4922736614048215  0.0431816301106437  0.2181112874321864   T   T   T
  0.1591771253028279  0.2933364426758626  0.2180511792464712   T   T   T
  0.3262954124070661  0.2932801848047514  0.2180785598171503   T   T   T
  0.4934102271207382  0.2926448741933934  0.2181550975485045   T   T   T
  0.0843421994885924  0.6682326198468854  0.0343705396791252   T   T   T
  0.2510056083419693  0.6682068246885691  0.0343710830173221   T   T   T
  0.4176664252119690  0.6682345775214417  0.0343867005831668   T   T   T
  0.0842218692989980  0.9181407952239622  0.0343358106785852   T   T   T
  0.2508370059232894  0.9182362978377577  0.0343529173850597   T   T   T
  0.4175345458637334  0.9182693607269762  0.0343746422326286   T   T   T
  0.1590124468567188  0.5431442799116467  0.2181094460430439   T   T   T
  0.3255860212180034  0.5431398848140880  0.2181171807312241   T   T   T
  0.4919297420423540  0.5434408616501476  0.2180860960272510   T   T   T
  0.1589489398238011  0.7934604534074149  0.2180786401070363   T   T   T
  0.3261469197985277  0.7934721143388428  0.2180882812660335   T   T   T
  0.4924420907885702  0.7933421747416498  0.2181133612160180   T   T   T
  0.5845372128194082  0.1682220170658502  0.0344102825154917   T   T   T
  0.7509103056095781  0.1684844136942537  0.0344972499449774   T   T   T
  0.9175295726030465  0.1681018281927495  0.0343064751973748   T   T   T
  0.5844279511376556  0.4182183022079856  0.0344171201617987   T   T   T
  0.7507649542247121  0.4182465085924170  0.0344167143702299   T   T   T
  0.9173006487591737  0.4183683225086552  0.0343777240420494   T   T   T
  0.6595145454011662  0.0432180732860340  0.2182275108468374   T   T   T
  0.8261212435493032  0.0433914329492939  0.2181322215901087   T   T   T
  0.9926916616155874  0.0435399108026960  0.2179784297076207   T   T   T
  0.6510255220451752  0.2940064296964691  0.2182442449470029   T   T   T
  0.8402675110720053  0.2926369441449171  0.2181976943008297   T   T   T
  0.9897235229128566  0.2918989264915056  0.2178437317517967   T   T   T
  0.7854204585263236  0.2794929227585354  0.2897907720418413   T   T   T
  0.6907475153024530  0.1793882318522183  0.2976010385433505   T   T   T
  0.7874489458809001  0.3763090320274436  0.3222389699706058   T   T   T
  0.7545298181035009  0.3400793133761132  0.2505489503943479   T   T   T
  0.5844437326879161  0.6682322420968758  0.0344076591250704   T   T   T
  0.7509695779607803  0.6682237001829882  0.0344022972577536   T   T   T
  0.9175308011003330  0.6682650875105105  0.0343910828972333   T   T   T
  0.5843084177979938  0.9183568478632672  0.0344208802659735   T   T   T
  0.7507844954232867  0.9183408648767837  0.0344071619419541   T   T   T
  0.9173943654785457  0.9183309919470246  0.0343840019937073   T   T   T
  0.6590953018251844  0.5431189106282985  0.2181287045184997   T   T   T
  0.8255398083764469  0.5431409534380239  0.2180992957053692   T   T   T
  0.9923048253523664  0.5433241992985665  0.2180893875117728   T   T   T
  0.6589704387971403  0.7933484826033897  0.2181236357764619   T   T   T
  0.8262162605385805  0.7934305238709154  0.2180992365981609   T   T   T
  0.9924069908355438  0.7933438836634515  0.2180879644095073   T   T   T
  0.2463312038107617  0.1217515351555510  0.0596081745937831   T   T   T
  0.4130023771496353  0.1217715932162932  0.0596131473875753   T   T   T
  0.0795697620568168  0.3718218680052373  0.0596030016232672   T   T   T
  0.2462330688835652  0.3718184343020865  0.0596145652360913   T   T   T
  0.4129114372782846  0.3718083681615858  0.0596230979697014   T   T   T
  0.0796749509638964  0.1217436619859655  0.0595860272167401   T   T   T
  0.4966382630656646  0.4984394084863335  0.1397307257186422   T   T   T
  0.1633650151507911  0.4984472337139728  0.1397184036496609   T   T   T
  0.3299961905928931  0.4984395591050919  0.1397271658013943   T   T   T
  0.4966580838493081  0.2484293242727766  0.1397329858992421   T   T   T
  0.1633976118279802  0.2484060451722017  0.1396981917289988   T   T   T
  0.3300189746023756  0.2484089686558798  0.1397142523976985   T   T   T
  0.0803378527496159  0.1228792022356661  0.1660596612792599   T   T   T
  0.2469042561685100  0.1230677059258984  0.1661257270819985   T   T   T
  0.4135150378525167  0.1230056829239722  0.1661173467890463   T   T   T
  0.0802803053555418  0.3731094370324733  0.1661298194417742   T   T   T
  0.2468490327646821  0.3730745916918357  0.1661367066395249   T   T   T
  0.4134733708490788  0.3730860316716592  0.1661587352735540   T   T   T
  0.1636303804970779  0.4967207940623088  0.1928488222450442   T   T   T
  0.3302369527516735  0.4967368360297466  0.1928506158137585   T   T   T
  0.4968072523977307  0.4969608546591550  0.1928396705487415   T   T   T
  0.1638887341128731  0.2467866643609560  0.1928422469667330   T   T   T
  0.4969099180043030  0.2465023145127742  0.1928288583044829   T   T   T
  0.3304088584142342  0.2466905562801121  0.1928294729484638   T   T   T
  0.4964131385366804  0.4981235766998338  0.0863529922876361   T   T   T
  0.1630938424698002  0.4981486300479538  0.0863352165616647   T   T   T
  0.3297512623516750  0.4981386594454871  0.0863439222921132   T   T   T
  0.4963935411090157  0.2481474660195218  0.0863420667273055   T   T   T
  0.1630944364503641  0.2481352677233107  0.0863146449874521   T   T   T
  0.3297350890462152  0.2481440189762613  0.0863271667146940   T   T   T
  0.0799016913900064  0.1233558524621360  0.1127018250063823   T   T   T
  0.2465453270487391  0.1233902901551967  0.1127350824013040   T   T   T
  0.4131958719471936  0.1234214055656632  0.1127415834152429   T   T   T
  0.0798721083671788  0.3734384630029039  0.1127328080305930   T   T   T
  0.2465110886411200  0.3734167551841598  0.1127485353669940   T   T   T
  0.4131628475776431  0.3734277991095266  0.1127605184300362   T   T   T
  0.2463336511976102  0.6217544786554994  0.0596176685276881   T   T   T
  0.4130169676152439  0.6217681903768351  0.0596298604166098   T   T   T
  0.0795567366967063  0.8717300853379982  0.0595878172880922   T   T   T
  0.2462466429241638  0.8717550581522996  0.0595965423808429   T   T   T
  0.4129288812905507  0.8717794111083151  0.0596167799452146   T   T   T
  0.0796372124454081  0.6217766736333576  0.0596145767625181   T   T   T
  0.4966619623718687  0.9983968476198829  0.1397208521409232   T   T   T
  0.1633975964866227  0.9983316937651467  0.1396821557118900   T   T   T
  0.3300138010280945  0.9983758498733142  0.1397026762633024   T   T   T
  0.4966753303400919  0.7484621989229032  0.1397345103247308   T   T   T
  0.1633616370087378  0.7484334112086134  0.1397086190930333   T   T   T
  0.3299947727225689  0.7484400128997234  0.1397138768530882   T   T   T
  0.0801786621683567  0.6231689695999484  0.1661321942801361   T   T   T
  0.2468033630656841  0.6231321599735582  0.1661570013152771   T   T   T
  0.4134349329226630  0.6231685972808305  0.1661390967539162   T   T   T
  0.0801770328253181  0.8730428616593262  0.1661211092066580   T   T   T
  0.2468343986581755  0.8730760949011750  0.1661290160755877   T   T   T
  0.4134830016418726  0.8730943213192291  0.1661424558525048   T   T   T
  0.1637235684001043  0.9966949122463452  0.1928251652061940   T   T   T
  0.3303367706942466  0.9967197038061166  0.1928337128489443   T   T   T
  0.4969590158914451  0.9967602847526811  0.1928464476002828   T   T   T
  0.1636502748665686  0.7468176866479913  0.1928567585478952   T   T   T
  0.4969585614539054  0.7467978265679682  0.1928687937817940   T   T   T
  0.3303403466861082  0.7468278097322256  0.1928566961920040   T   T   T
  0.4964221933048037  0.9981483431290480  0.0863434405103382   T   T   T
  0.1630963513674972  0.9980722094736354  0.0863075977760134   T   T   T
  0.3297553208285350  0.9981086367930470  0.0863221950292812   T   T   T
  0.4964478964928216  0.7481655323477412  0.0863506887922111   T   T   T
  0.1630967114818664  0.7481045470651989  0.0863157638331225   T   T   T
  0.3297538443494952  0.7481299527480715  0.0863255868123237   T   T   T
  0.0798625045432511  0.6234470705146256  0.1127416669966856   T   T   T
  0.2465320169902048  0.6234302183502194  0.1127514989281501   T   T   T
  0.4131982499799817  0.6234478548171720  0.1127544384546326   T   T   T
  0.0798674369234604  0.8733365316942920  0.1127160936455452   T   T   T
  0.2465108263310386  0.8733795184747862  0.1127314018002111   T   T   T
  0.4131668321648143  0.8734144559855810  0.1127465309063067   T   T   T
  0.7463024718620975  0.1218536180540411  0.0597138179883355   T   T   T
  0.9129809579650930  0.1217550035296470  0.0595702599030097   T   T   T
  0.5796005846514274  0.3717613605411976  0.0596607529906511   T   T   T
  0.7462193542009533  0.3717660559130982  0.0596631192096994   T   T   T
  0.9128745935687561  0.3718211996103329  0.0596105720173529   T   T   T
  0.5796764483173883  0.1217968716268970  0.0596566702021933   T   T   T
  0.9967318831131474  0.4984713496198343  0.1397045849888507   T   T   T
  0.6633106997496910  0.4984023597469165  0.1397497330748834   T   T   T
  0.8299913241198346  0.4984091290065079  0.1397343930902270   T   T   T
  0.9967629834793332  0.2483387844333392  0.1396223361428560   T   T   T
  0.6632500215256254  0.2484885136717264  0.1398845484972255   T   T   T
  0.8301128128890161  0.2483858108330667  0.1397273139675818   T   T   T
  0.5801286070690834  0.1229942096630070  0.1661398639999429   T   T   T
  0.7468823021645027  0.1239405882811706  0.1665259065709184   T   T   T
  0.9137966200508053  0.1223457386819712  0.1658378297141438   T   T   T
  0.5800523859153046  0.3731990111599517  0.1662131693541020   T   T   T
  0.7467689861564700  0.3729281582229384  0.1661803116423264   T   T   T
  0.9137053330425511  0.3732656156590409  0.1661317744637048   T   T   T
  0.6635098884722519  0.4969183101670326  0.1928350061385667   T   T   T
  0.8303406907196800  0.4968715801372938  0.1928231865851881   T   T   T
  0.9970741186363786  0.4969832455941521  0.1928238169892162   T   T   T
  0.6627207696864783  0.2475836604697739  0.1933441860524983   T   T   T
  0.9972983443716676  0.2458429212287878  0.1924810418053979   T   T   T
  0.8320028766227279  0.2463004751204446  0.1926678238210837   T   T   T
  0.9964102996605886  0.4981351594918404  0.0863310313981375   T   T   T
  0.6630754983223704  0.4981238180924628  0.0863705822669327   T   T   T
  0.8297223060655471  0.4981268449853569  0.0863594365200002   T   T   T
  0.9964189519261691  0.2481313002548434  0.0862882518675331   T   T   T
  0.6630585230729461  0.2481529610161395  0.0864262067231708   T   T   T
  0.8297398513857828  0.2481361507788449  0.0863599773171408   T   T   T
  0.5798446327160425  0.1234702244746545  0.1127817393966420   T   T   T
  0.7465084901599494  0.1235063820404578  0.1128961658330066   T   T   T
  0.9132253550528249  0.1233722553336958  0.1126623264499903   T   T   T