C H O Si                                
   1.00000000000000     
    18.5749199999999988    0.0000000000000000    0.0000000000000000
     0.0000000000000000   17.5126199999999983    0.0000000000000000
     0.0000000000000000    0.0000000000000000   58.0000000000000000
   C    H    O    Si
   144   105    52   144
Selective dynamics
Direct
  0.4962896692869975  0.0629746865914579  0.0605232172805515   T   T   T
  0.1629409929099539  0.0629020759667100  0.0604969451915991   T   T   T
  0.3296106459058111  0.0629302552326163  0.0605053964123400   T   T   T
  0.4961843975801879  0.3129835825716517  0.0605175398686412   T   T   T
  0.1628280605649149  0.3129936226527542  0.0605029445904797   T   T   T
  0.3294981957009903  0.3129883148917398  0.0605089230400875   T   T   T
  0.0800612922577442  0.1855136613378308  0.1393970664356158   T   T   T
  0.2466886489742292  0.1855499355950343  0.1394198637335301   T   T   T
  0.4133454290922817  0.1855522677960538  0.1394239782988470   T   T   T
  0.0800102272585916  0.4355748218689029  0.1394295303256912   T   T   T
  0.2466719431123706  0.4355517692890378  0.1394365386920261   T   T   T
  0.4133105779007267  0.4355606813617957  0.1394509919815550   T   T   T
  0.1636011572028602  0.0606314010160982  0.1665241920091654   T   T   T
  0.3301653997035752  0.0606751187081098  0.1665355891069011   T   T   T
  0.4968244298147116  0.0606335739442426  0.1665385074843289   T   T   T
  0.1635269031372527  0.3106826368895564  0.1665454424920164   T   T   T
  0.3301446798375480  0.3107083211657738  0.1665589515880542   T   T   T
  0.4967769438959931  0.3107243993099003  0.1665789513791635   T   T   T
  0.0807220775765931  0.1877459860080819  0.1919274935628321   T   T   T
  0.2470874721816097  0.1879186720271634  0.1919688374729183   T   T   T
  0.4135820401806137  0.1877844194430979  0.1919397508788010   T   T   T
  0.0802568594521446  0.4379185423315707  0.1919784043795530   T   T   T
  0.2469331873937630  0.4379405697408484  0.1919635245937914   T   T   T
  0.4135997153069988  0.4380005873770650  0.1919726118235482   T   T   T
  0.0797528003416554  0.1857424806935281  0.0858875928750692   T   T   T
  0.2464194053235994  0.1857386302235372  0.0859065676302768   T   T   T
  0.4130804303781675  0.1857497454174261  0.0859095453896477   T   T   T
  0.0797336007912455  0.4357676151504139  0.0859106427602477   T   T   T
  0.2463992264804336  0.4357547075818400  0.0859211058361606   T   T   T
  0.4130716593971379  0.4357434219822179  0.0859307532631298   T   T   T
  0.1632119946305167  0.0605846632411968  0.1130010741256267   T   T   T
  0.3298584445824809  0.0606084874716970  0.1130168534439180   T   T   T
  0.4965108304864737  0.0606580733249223  0.1130367107708008   T   T   T
  0.1631494914394178  0.3106321520063050  0.1130199958377741   T   T   T
  0.3298139835564092  0.3106346928645540  0.1130320013118713   T   T   T
  0.4964600305315517  0.3106362472659781  0.1130445572678814   T   T   T
  0.4962892651132100  0.5629417553652605  0.0605271561515947   T   T   T
  0.1629219735824501  0.5629557038014520  0.0605192954815136   T   T   T
  0.3296111795829387  0.5629481648165205  0.0605239909864488   T   T   T
  0.4962192821415828  0.8130068032967910  0.0605294196168463   T   T   T
  0.1628347979341198  0.8129235191348554  0.0604932395506582   T   T   T
  0.3295223858397711  0.8129443133387184  0.0605003907337440   T   T   T
  0.0800199314441398  0.6856082889670236  0.1394198873011538   T   T   T
  0.2466767946445733  0.6855644090226894  0.1394390664756719   T   T   T
  0.4133266289309324  0.6856272271376702  0.1394284291598556   T   T   T
  0.0800750481523829  0.9354314566017302  0.1393921924933546   T   T   T
  0.2466784061150736  0.9355167188897080  0.1394122177725979   T   T   T
  0.4133266077634988  0.9355329697688308  0.1394255729075401   T   T   T
  0.1634603282717563  0.5607262211098502  0.1665621863903051   T   T   T
  0.3301050290819074  0.5607402452007189  0.1665663486602159   T   T   T
  0.4967317954733753  0.5608211052177469  0.1665508350676155   T   T   T
  0.1634877878297191  0.8106997977600146  0.1665543813387250   T   T   T
  0.3301410974546274  0.8107119216687764  0.1665546018566454   T   T   T
  0.4968216447231623  0.8107437301587872  0.1665843985683569   T   T   T
  0.0803158438569291  0.6880132255553506  0.1919693671857143   T   T   T
  0.2469752479660355  0.6880362923816532  0.1919970734914845   T   T   T
  0.4136284820073469  0.6880043319839548  0.1919717753673565   T   T   T
  0.0803789367167535  0.9379293313919285  0.1919414366847386   T   T   T
  0.2470076348508883  0.9379478288015233  0.1919571241300075   T   T   T
  0.4136509280697782  0.9379591659922603  0.1919600942598575   T   T   T
  0.0797313937785364  0.6857502589832285  0.0859097398320518   T   T   T
  0.2464440535020441  0.6857325270170269  0.0859113178063153   T   T   T
  0.4131280744615266  0.6857616046886457  0.0859220660663320   T   T   T
  0.0797250528558617  0.9357045571654499  0.0858928407633797   T   T   T
  0.2464099624793167  0.9357230637821602  0.0859051622639567   T   T   T
  0.4130932103813910  0.9357395663951092  0.0859163280601973   T   T   T
  0.1631756273259916  0.5606624635273617  0.1130296962054505   T   T   T
  0.3298414561720998  0.5606596291080762  0.1130361511163188   T   T   T
  0.4964971419890740  0.5606589318931039  0.1130448407396888   T   T   T
  0.1631698337751109  0.8105936651289035  0.1130099855524532   T   T   T
  0.3298026714454626  0.8106323371404147  0.1130199536465295   T   T   T
  0.4965122814441881  0.8107061524599246  0.1130542026899189   T   T   T
  0.9962882193442749  0.0629340706147628  0.0604783699266983   T   T   T
  0.6629595687111446  0.0630174053774075  0.0605951976957747   T   T   T
  0.8295593521248076  0.0630091234483909  0.0605527448936999   T   T   T
  0.9961655523915904  0.3130040937664431  0.0604828440592455   T   T   T
  0.6628751933096642  0.3129439412578857  0.0605943300843978   T   T   T
  0.8294969061028928  0.3129736322721918  0.0605360088469756   T   T   T
  0.5799896442646512  0.1855702768825016  0.1394652409589887   T   T   T
  0.7466820097919318  0.1857482670502460  0.1396648222971813   T   T   T
  0.9134226613974787  0.1855323001545832  0.1393123583828120   T   T   T
  0.5799697873421055  0.4355651233468478  0.1394819377211478   T   T   T
  0.7466569277666135  0.4355139922808177  0.1395078679551905   T   T   T
  0.9133735934844154  0.4355958826546412  0.1394303191076095   T   T   T
  0.6637790851713616  0.0611249176495207  0.1667231249292163   T   T   T
  0.8299987221849273  0.0609313974905659  0.1666297060803522   T   T   T
  0.9970931514138895  0.0603935114629576  0.1664257695267093   T   T   T
  0.6634266054766121  0.3107486422201111  0.1667847399793642   T   T   T
  0.8304069683417605  0.3107813338776058  0.1666173425574095   T   T   T
  0.9969349858158182  0.3106851515821966  0.1664975621144629   T   T   T
  0.5802137047328054  0.1874925857902603  0.1918751530689785   T   T   T
  0.7472407344662585  0.1897392820802825  0.1927314071796384   T   T   T
  0.9144087385349047  0.1866400930700909  0.1914863620849049   T   T   T
  0.5801895824448133  0.4383398505390801  0.1919771263313041   T   T   T
  0.7469314119094327  0.4378551017976720  0.1920018502332516   T   T   T
  0.9137712695763986  0.4383362056671861  0.1919096232903154   T   T   T
  0.5797462128426236  0.1857728853424196  0.0859511116422101   T   T   T
  0.7463809679424068  0.1857721186803668  0.0860328991043893   T   T   T
  0.9130989073020427  0.1857453837429328  0.0858637974541417   T   T   T
  0.5797329434302687  0.4357415846336497  0.0859537781460134   T   T   T
  0.7463780369068003  0.4357307023231545  0.0859681485142006   T   T   T
  0.9130530922582325  0.4357523168997626  0.0859235962672631   T   T   T
  0.6632078325721538  0.0607070011954087  0.1131010667799747   T   T   T
  0.8298001819618331  0.0607071613891169  0.1130717278460292   T   T   T
  0.9965690551983513  0.0605839246487197  0.1129758538850004   T   T   T
  0.6630859351509233  0.3105841738389616  0.1131398518279204   T   T   T
  0.8298138748466258  0.3106590192277713  0.1130694381975110   T   T   T
  0.9965201456589081  0.3106650403686463  0.1129949636094065   T   T   T
  0.9962553508670068  0.5629563231898798  0.0605174052631433   T   T   T
  0.6629300465854957  0.5629360048190031  0.0605455492606995   T   T   T
  0.8295631065548811  0.5629436628190622  0.0605374415018270   T   T   T
  0.9961252233743716  0.8129543888565374  0.0605037112285869   T   T   T
  0.6628514032677340  0.8129965561579861  0.0605438372052521   T   T   T
  0.8294632101834410  0.8129822098248146  0.0605263098374229   T   T   T
  0.5800027520163706  0.6855962936311366  0.1394540429529247   T   T   T
  0.7466506109380165  0.6856200518844762  0.1394551622481660   T   T   T
  0.9133164384253931  0.6855762627820760  0.1394385794687232   T   T   T
  0.5801087343863366  0.9357339616567603  0.1395136199763536   T   T   T
  0.7466287217887797  0.9355660225474492  0.1394875118173022   T   T   T
  0.9132363639449531  0.9356474441188590  0.1394487590729760   T   T   T
  0.6634952032940161  0.5607870827680770  0.1665682932391328   T   T   T
  0.8300610361878884  0.5607629619012218  0.1665615512420068   T   T   T
  0.9968673565581067  0.5608174470730125  0.1665300938324994   T   T   T
  0.6634763167499330  0.8107462079835025  0.1666074257732446   T   T   T
  0.8301406040686813  0.8107412832353172  0.1665769632618816   T   T   T
  0.9967921388185149  0.8107288812294543  0.1665540657319116   T   T   T
  0.5803017804730598  0.6879820384999212  0.1919933204642822   T   T   T
  0.7470037592558054  0.6880703710633224  0.1920007970458202   T   T   T
  0.9136519232865576  0.6879697143011717  0.1919666173656872   T   T   T
  0.5803705987153126  0.9380695936370611  0.1920123426794435   T   T   T
  0.7470412162473989  0.9380355625477795  0.1920133422963794   T   T   T
  0.9137215395153475  0.9380298765036491  0.1919573673094129   T   T   T
  0.5797833156975416  0.6857396055977625  0.0859387562824507   T   T   T
  0.7464008931675019  0.6857524795451998  0.0859420725504683   T   T   T
  0.9130481966645477  0.6857436523674471  0.0859214693434296   T   T   T
  0.5797591736955576  0.9357900438786855  0.0859551206712327   T   T   T
  0.7463779142606575  0.9357720794191393  0.0859603488513644   T   T   T
  0.9130099671970132  0.9357727249518512  0.0859186088558638   T   T   T
  0.6631703729685606  0.5606221866910750  0.1130678468639566   T   T   T
  0.8298153533360372  0.5606267226024796  0.1130568389332801   T   T   T
  0.9965120446351099  0.5606641636550789  0.1130246200451961   T   T   T
  0.6631271337372870  0.8106676980808075  0.1130635243751367   T   T   T
  0.8297875033833098  0.8106421994442661  0.1130487777063735   T   T   T
  0.9964343780362666  0.8106579255785901  0.1130275912244206   T   T   T
  0.0388162825648437  0.1762005350781471  0.0263227715767534   T   T   T
  0.2052360523471243  0.1762156579432020  0.0263996959281210   T   T   T
  0.3719398764857337  0.1761616286285843  0.0263819821434788   T   T   T
  0.0386571430457775  0.4262667100349804  0.0263302103789315   T   T   T
  0.2050917353368852  0.4261971454589211  0.0263861187201677   T   T   T
  0.3717469911613122  0.4261650615563842  0.0263891484091011   T   T   T
  0.1618983807554686  0.0268575207239797  0.0449340782671329   T   T   T
  0.3285323495663209  0.0268773213811140  0.0449437577548838   T   T   T
  0.4952572791459092  0.0269202373683469  0.0449624107266456   T   T   T
  0.1617470597835854  0.2769614568564372  0.0449363480764907   T   T   T
  0.3284048849945526  0.2769477844084327  0.0449439367576053   T   T   T
  0.4950960152147156  0.2769464637627900  0.0449512763975075   T   T   T
  0.4148070037339325  0.4019892389486221  0.2075384419305212   T   T   T
  0.4147224407388123  0.1516998487483046  0.2074917510899205   T   T   T
  0.0816558278843752  0.1516790877808209  0.2074815623346656   T   T   T
  0.2482256815612002  0.1518292541161792  0.2075194528953023   T   T   T
  0.0814703904802573  0.4018467509172265  0.2075385106801944   T   T   T
  0.2480803221184895  0.4019013758777416  0.2075246624949282   T   T   T
  0.0382243454059359  0.0510184219023587  0.2260960698458665   T   T   T
  0.2048444881666631  0.0510628752475338  0.2261219622130704   T   T   T
  0.3715951410234327  0.0510999970106985  0.2260959323028479   T   T   T
  0.0332007828639085  0.3007731957667364  0.2268990526572570   T   T   T
  0.2046317557609017  0.3011498999968035  0.2261766579656810   T   T   T
  0.3719871112548065  0.3009334641732018  0.2260836119657073   T   T   T
  0.0386799856095621  0.6762326301808493  0.0263697243353467   T   T   T
  0.2052931479994571  0.6761878401380139  0.0263915123352031   T   T   T
  0.3719680835493555  0.6761596177127778  0.0263958275489267   T   T   T
  0.0385367981432552  0.9261791757962168  0.0263424848588529   T   T   T
  0.2051040372842709  0.9261387088986124  0.0263724992410241   T   T   T
  0.3718374356381238  0.9261610992163882  0.0263743920564981   T   T   T
  0.1618427739051961  0.5268905268454525  0.0449607940032603   T   T   T
  0.3285702146370504  0.5268835753845209  0.0449671215361739   T   T   T
  0.4952231644232716  0.5268721591300803  0.0449710561466105   T   T   T
  0.1617573909192654  0.7768506881171248  0.0449339659166716   T   T   T
  0.3284562065613840  0.7768884146029877  0.0449392909078930   T   T   T
  0.4951767985389827  0.7769479680830937  0.0449648864787325   T   T   T
  0.4147874807051073  0.9019152386065378  0.2075180260168477   T   T   T
  0.4148177664221324  0.6519094310339277  0.2075180770433608   T   T   T
  0.0815204760802255  0.6519203693755031  0.2075175162283812   T   T   T
  0.2482022525157884  0.6519735580499864  0.2075528937824253   T   T   T
  0.0815424449547449  0.9018859465264728  0.2075017907001704   T   T   T
  0.2481989477644984  0.9018848317715877  0.2075140759790449   T   T   T
  0.0378356367841979  0.5519128149279403  0.2261077990202921   T   T   T
  0.2047051763666245  0.5518138497371081  0.2260357400298508   T   T   T
  0.3712309785931485  0.5516076927692889  0.2260826607742673   T   T   T
  0.0380022153992307  0.8012523110905417  0.2261427732860773   T   T   T
  0.2043984644089098  0.8014476936496946  0.2261993937430429   T   T   T
  0.3719161450482210  0.8010938722231620  0.2260876573138616   T   T   T
  0.5389365930308829  0.1761873044002982  0.0263702991947837   T   T   T
  0.7051819795614025  0.1762792539275909  0.0265066422111675   T   T   T
  0.8717720621364144  0.1761753701740602  0.0263622870373167   T   T   T
  0.5388186591829238  0.4261791721421240  0.0263752632358370   T   T   T
  0.7050257813820069  0.4261296143775983  0.0264417759622067   T   T   T
  0.8715609333647678  0.4261726900282508  0.0263910026735683   T   T   T
  0.6619768727465082  0.0269131930041798  0.0450455180367202   T   T   T
  0.8282757967469305  0.0269156929381887  0.0450032586933385   T   T   T
  0.9951835240564781  0.0269104214626879  0.0449079069302674   T   T   T
  0.6617370687775571  0.2767875011247466  0.0450567654811092   T   T   T
  0.8283397367905172  0.2768901494068854  0.0449834710338690   T   T   T
  0.9950520357244939  0.2770056968637153  0.0449092356848944   T   T   T
  0.9146484399225404  0.4026754985467293  0.2075215226978345   T   T   T
  0.9154874333149239  0.1507225161199999  0.2070746051404977   T   T   T
  0.5810072851942621  0.1514733219239214  0.2074432293136668   T   T   T
  0.7486548759241252  0.1530947367653777  0.2081681866981551   T   T   T
  0.5812035065831747  0.4022702785279135  0.2075210620318353   T   T   T
  0.7471679397371266  0.4018594883303955  0.2075706589056274   T   T   T
  0.5378038463964188  0.0512985200293358  0.2261738308054282   T   T   T
  0.7051785059164726  0.0506028632328730  0.2262920589142537   T   T   T
  0.8717771850518045  0.0509337924434597  0.2261807216729154   T   T   T
  0.5409929712390379  0.3008468625423180  0.2250830502384448   T   T   T
  0.6887763764366496  0.3095769797558802  0.2292961024375638   T   T   T
  0.8912766724662836  0.2945053870151653  0.2232008575361267   T   T   T
  0.7730601277007315  0.3051623078604571  0.2742241500730493   T   T   T
  0.7465218672527757  0.2375980316364666  0.2934044642113535   T   T   T
  0.7861670788746017  0.3198240118178360  0.3031775914340606   T   T   T
  0.6576847250822916  0.1951061664445708  0.3098021498879965   T   T   T
  0.7107828823494609  0.1302792822482586  0.3022705281047728   T   T   T
  0.8252675653622861  0.3661539373678299  0.3335104906227094   T   T   T
  0.7420364656277006  0.3765022563567211  0.3307540247111364   T   T   T
  0.7579943844562823  0.3955172109498776  0.2521059270407559   T   T   T
  0.7924827317579738  0.3240458890540319  0.2390311368878598   T   T   T
  0.5388034339982228  0.6762107088730689  0.0263918747687845   T   T   T
  0.7052653939052181  0.6762096734272629  0.0264239735582545   T   T   T
  0.8718180990456700  0.6761853601705966  0.0264130604778448   T   T   T
  0.5386638338736706  0.9262142456797691  0.0263897565371844   T   T   T
  0.7050425100546694  0.9261856240220542  0.0264211246471629   T   T   T
  0.8716796233914640  0.9262293059533486  0.0263950581094711   T   T   T
  0.6618656617290183  0.5268581725281291  0.0449930345637730   T   T   T
  0.8284657676988278  0.5268675821633092  0.0449838005816428   T   T   T
  0.9951364262228235  0.5269037798561756  0.0449564012976498   T   T   T
  0.6617342233953967  0.7769467269360181  0.0449838116401349   T   T   T
  0.8283043500061589  0.7769313701020015  0.0449670226360522   T   T   T
  0.9949553679154794  0.7768887468097757  0.0449446327182579   T   T   T
  0.9148922501217404  0.9020166159073060  0.2075236849176062   T   T   T
  0.9148964473918052  0.6519525510382730  0.2075291291440546   T   T   T
  0.5814765499148421  0.6519167871061077  0.2075484823380226   T   T   T
  0.7483143023441003  0.6520739873477963  0.2075655839948330   T   T   T
  0.5814722165424531  0.9020304275878656  0.2075754195269217   T   T   T
  0.7482882167293300  0.9019605478814181  0.2075699462164322   T   T   T
  0.5374211257148747  0.5519875826997800  0.2261242161113258   T   T   T
  0.7048476025117930  0.5532212020767380  0.2258468417117481   T   T   T
  0.8711157146190194  0.5521740439060608  0.2260445641448778   T   T   T
  0.5380697592930677  0.8012395785329994  0.2261515432946013   T   T   T
  0.7044409998993186  0.8014584195543978  0.2262178265422471   T   T   T
  0.8719797977639773  0.8010828945933780  0.2260824235679733   T   T   T
  0.0844881363094171  0.1682614278103128  0.0343339870856093   T   T   T
  0.2509893740513774  0.1682991322723108  0.0343607361081779   T   T   T
  0.4176685245234796  0.1682927083589726  0.0343590616306560   T   T   T
  0.0842942711429470  0.4183695593192534  0.0343564672598711   T   T   T
  0.2508195059088827  0.4184158659106157  0.0343740178489449   T   T   T
  0.4174691774651040  0.4184176761755783  0.0343788253963739   T   T   T
  0.1593192019182418  0.0432025376170688  0.2180547712990993   T   T   T
  0.3259733115113160  0.0431338941715255  0.2180884305761183   T   T   T
  0.4923477770165728  0.0431660998640837  0.2180885327817542   T   T   T
  0.1592388197741883  0.2933397627312703  0.2180300897416592   T   T   T
  0.3264026142797466  0.2932602980193743  0.2180504867073555   T   T   T
  0.4934427271907129  0.2926849972043807  0.2181473774073677   T   T   T
  0.0843693856163354  0.6683043512075991  0.0343629826214647   T   T   T
  0.2510228453220255  0.6682758802935609  0.0343679753962360   T   T   T
  0.4176932271508960  0.6682885483539271  0.0343789275030841   T   T   T
  0.0842492833202196  0.9182162717599396  0.0343217712022426   T   T   T
  0.2508524363783576  0.9183089463601287  0.0343454603535842   T   T   T
  0.4175507443876597  0.9183272171006305  0.0343660746908767   T   T   T
  0.1590738925991226  0.5431351961211028  0.2180923811087933   T   T   T
  0.3256406957532924  0.5431323952598052  0.2180996577219300   T   T   T
  0.4919899152202586  0.5434364948538664  0.2180596958077746   T   T   T
  0.1590091879356013  0.7934763321005205  0.2180608122504910   T   T   T
  0.3262401078403253  0.7934816006652413  0.2180649324933680   T   T   T
  0.4925080038595778  0.7933711825487078  0.2180940772850792   T   T   T
  0.5845655674256514  0.1682831199997256  0.0344063280746210   T   T   T
  0.7509375520340343  0.1685708971837860  0.0344915329356260   T   T   T
  0.9175651556412349  0.1681669740212245  0.0342909230171432   T   T   T
  0.5844459039063706  0.4182775969664559  0.0344131708639603   T   T   T
  0.7507708870023896  0.4183105909994921  0.0344145949831161   T   T   T
  0.9173164628432292  0.4184484289000898  0.0343649515416178   T   T   T
  0.6595921137625170  0.0432056624145248  0.2182137214133675   T   T   T
  0.8262090794996034  0.0433742491492204  0.2181114196861776   T   T   T
  0.9927901440397862  0.0435379841059554  0.2179415961579801   T   T   T
  0.6511053860259810  0.2940140131660739  0.2182316641697490   T   T   T
  0.8402559130206452  0.2927019470552814  0.2182048667992043   T   T   T
  0.9897621375418161  0.2918980919198593  0.2178218668556424   T   T   T
  0.7853742676995081  0.2795395546119401  0.2897729603294418   T   T   T
  0.6907718534328838  0.1794429835927617  0.2975969524557925   T   T   T
  0.7874283078914533  0.3763096775604932  0.3222469469723860   T   T   T
  0.7545841889199553  0.3400863798422824  0.2505360349405023   T   T   T
  0.5844677585928532  0.6682882507908375  0.0344070722031293   T   T   T
  0.7509748120271891  0.6682754521681760  0.0344052273334093   T   T   T
  0.9175492592618832  0.6683237079943865  0.0343864054827251   T   T   T
  0.5843253046402654  0.9184177484853231  0.0344166579791761   T   T   T
  0.7507978773872278  0.9184128503901782  0.0344004104416478   T   T   T
  0.9174088256695203  0.9184002037283260  0.0343758149278560   T   T   T
  0.6591572566467850  0.5431075172389318  0.2181113908812196   T   T   T
  0.8255954788322212  0.5431281857034445  0.2180790127462395   T   T   T
  0.9923609458290101  0.5433187789795102  0.2180701973706876   T   T   T
  0.6590397194952019  0.7933572630511394  0.2181025205145156   T   T   T
  0.8263145648634440  0.7934315128275514  0.2180728355120136   T   T   T
  0.9924804921346334  0.7933611273815617  0.2180656663189912   T   T   T
  0.2462930422845317  0.1217429495880166  0.0596160856243396   T   T   T
  0.4129660004169630  0.1217641527443005  0.0596175792984755   T   T   T
  0.0795547110323067  0.3718132759994242  0.0596074368049716   T   T   T
  0.2462106154593231  0.3717975701491162  0.0596210793816130   T   T   T
  0.4128743483105217  0.3717999667999061  0.0596246044387315   T   T   T
  0.0796459763336269  0.1217432979214418  0.0595923993066844   T   T   T
  0.4966732182310563  0.4984598831869910  0.1397464347186675   T   T   T
  0.1634036874395663  0.4984439804244241  0.1397249734125373   T   T   T
  0.3300368954522299  0.4984467933986180  0.1397348133525327   T   T   T
  0.4966898651416932  0.2484339445755483  0.1397409844784027   T   T   T
  0.1634193712101305  0.2483959661125823  0.1397070742552615   T   T   T
  0.3300550793581168  0.2484039426595568  0.1397197728533567   T   T   T
  0.0803516669392964  0.1228824404040497  0.1660517842086499   T   T   T
  0.2469129154021132  0.1230844212609466  0.1661281666472571   T   T   T
  0.4135095458180412  0.1230052956030306  0.1661149149367889   T   T   T
  0.0802970159039378  0.3731088712711715  0.1661302035462242   T   T   T
  0.2468567656847755  0.3730867746591894  0.1661393978454027   T   T   T
  0.4134832664877280  0.3731049690562439  0.1661547809277431   T   T   T
  0.1636580187531103  0.4967152443001712  0.1928480737824725   T   T   T
  0.3302884635861710  0.4967249639263346  0.1928471857212982   T   T   T
  0.4968454629145624  0.4969479734324244  0.1928342229848318   T   T   T
  0.1639114808676678  0.2467550796005194  0.1928397605929355   T   T   T
  0.4969411995824423  0.2464779334232442  0.1928223053350453   T   T   T
  0.3304506074000940  0.2466889633264894  0.1928261148064451   T   T   T
  0.4964540753014006  0.4980970222384393  0.0863461155094068   T   T   T
  0.1631144377615168  0.4981093175865809  0.0863346039920171   T   T   T
  0.3297843199677478  0.4981025322120415  0.0863429180931311   T   T   T
  0.4964196482864639  0.2481130396457780  0.0863443957990027   T   T   T
  0.1631017698346117  0.2480893952224390  0.0863187059750250   T   T   T
  0.3297664469568668  0.2480981082979387  0.0863303397445049   T   T   T
  0.0798923770149197  0.1233849721924532  0.1126977724676004   T   T   T
  0.2465448223278872  0.1234122529558125  0.1127285606530556   T   T   T
  0.4131895951473916  0.1234416415675844  0.1127338307832352   T   T   T
  0.0798610565725206  0.3734613372554730  0.1127264894400622   T   T   T
  0.2464961593938612  0.3734480818300324  0.1127414141685425   T   T   T
  0.4131293820389428  0.3734562522207019  0.1127558662388047   T   T   T
  0.2462988039691815  0.6217453498449913  0.0596246662335721   T   T   T
  0.4129843598599572  0.6217529355415802  0.0596343250398289   T   T   T
  0.0795327441445095  0.8717187632845868  0.0595940647006951   T   T   T
  0.2462094735604078  0.8717439224351419  0.0596051582822723   T   T   T
  0.4128946769845423  0.8717710507131773  0.0596212500263834   T   T   T
  0.0796162468107005  0.6217696024884884  0.0596203534587801   T   T   T
  0.4967051611116098  0.9984048463510382  0.1397300409877123   T   T   T
  0.1634381774962994  0.9983391743561124  0.1396929223229965   T   T   T
  0.3300591901465744  0.9983941471794749  0.1397110493306125   T   T   T
  0.4967087706465087  0.7484644066540747  0.1397437196123563   T   T   T
  0.1633897370150675  0.7484224433028549  0.1397191922253398   T   T   T
  0.3300291012370519  0.7484347770829367  0.1397236540459499   T   T   T
  0.0801907888893095  0.6231857216945355  0.1661306823347051   T   T   T
  0.2468076390218309  0.6231545636715904  0.1661566042497152   T   T   T
  0.4134434835513204  0.6231850407594213  0.1661377218219659   T   T   T
  0.0801962212396520  0.8730510153711427  0.1661186777407561   T   T   T
  0.2468422660933895  0.8730804403925305  0.1661283545248507   T   T   T
  0.4134948531629015  0.8730938273395140  0.1661389977803456   T   T   T
  0.1637570436353870  0.9966830275559178  0.1928252284195285   T   T   T
  0.3303797116329248  0.9967140203184515  0.1928337079489276   T   T   T
  0.4970099014984071  0.9967328796021367  0.1928440159132792   T   T   T
  0.1636710331721732  0.7468144582113500  0.1928532293550265   T   T   T
  0.4969888211585821  0.7467873085758323  0.1928625391334409   T   T   T
  0.3303755207567818  0.7468103716629657  0.1928530343703272   T   T   T
  0.4964470777625338  0.9981223636579625  0.0863449266864960   T   T   T
  0.1631299273005178  0.9980284373526230  0.0863091026044238   T   T   T
  0.3297857723136158  0.9980787783266045  0.0863263881615902   T   T   T
  0.4964690843888393  0.7481324768191545  0.0863522313503882   T   T   T
  0.1631069377738401  0.7480608111338796  0.0863197475901159   T   T   T
  0.3297789804788152  0.7480858261179734  0.0863291791357826   T   T   T
  0.0798624439842794  0.6234730997321513  0.1127351240030555   T   T   T
  0.2465348330477575  0.6234532903148244  0.1127415840677130   T   T   T
  0.4131968091227415  0.6234737491388395  0.1127447363801901   T   T   T
  0.0798670736032462  0.8733611094077505  0.1127087924071739   T   T   T
  0.2465129306089995  0.8734148804216122  0.1127223423095758   T   T   T
  0.4131549776121076  0.8734436737250250  0.1127404833416069   T   T   T
  0.7462770358750475  0.1218653098687547  0.0597269285666832   T   T   T
  0.9129462281339066  0.1217538417651261  0.0595737605101853   T   T   T
  0.5795855008619810  0.3717547555281657  0.0596649799071958   T   T   T
  0.7462004658724336  0.3717583303891772  0.0596692534981060   T   T   T
  0.9128417453124853  0.3718063376135871  0.0596132922995368   T   T   T
  0.5796594008568993  0.1217851614441227  0.0596638854883925   T   T   T
  0.9967597232599433  0.4984743701797390  0.1397159711693164   T   T   T
  0.6633578844959211  0.4984080928649264  0.1397559659526741   T   T   T
  0.8300365007985698  0.4984073500529792  0.1397416896079464   T   T   T
  0.9967989796846953  0.2483221067309562  0.1396357270927402   T   T   T
  0.6632560647923819  0.2485104197902331  0.1398976099588481   T   T   T
  0.8301427893198424  0.2483852964606278  0.1397336346590095   T   T   T
  0.5801339932477486  0.1230239552438240  0.1661354630277394   T   T   T
  0.7469058807560011  0.1239540765552512  0.1665302669636232   T   T   T
  0.9138327766826562  0.1223179057739187  0.1658363718316540   T   T   T
  0.5800647197602964  0.3732125861523967  0.1662103727152036   T   T   T
  0.7467890219897425  0.3729364006446674  0.1661859827281157   T   T   T
  0.9137433698148842  0.3732786388911908  0.1661351941431568   T   T   T
  0.6635569018457773  0.4968981698141159  0.1928328342889029   T   T   T
  0.8303861785830426  0.4968424853269793  0.1928220020597421   T   T   T
  0.9971159196285139  0.4969480687904931  0.1928197459447466   T   T   T
  0.6627125984688236  0.2476058522089351  0.1933555344144991   T   T   T
  0.9973585712840755  0.2458166476875599  0.1924723018245465   T   T   T
  0.8320592906102391  0.2462723916645996  0.1926636776043377   T   T   T
  0.9964449847573866  0.4981126502804727  0.0863342857919804   T   T   T
  0.6631026601847196  0.4980888298027344  0.0863616473690191   T   T   T
  0.8297587856430488  0.4980843584867475  0.0863517082979177   T   T   T
  0.9964498615500448  0.2480933918268723  0.0862910836660822   T   T   T
  0.6630693814848884  0.2481078214935762  0.0864291844169254   T   T   T
  0.8297778750420729  0.2481078895015982  0.0863602921086926   T   T   T
  0.5798487342534323  0.1235133047809299  0.1127695504012243   T   T   T
  0.7464919329542342  0.1235309400674346  0.1128934118779087   T   T   T
  0.9132246445983715  0.1233923886944371  0.1126557016060154   T   T   T