C H O Si                                
   1.00000000000000     
    18.5749199999999988    0.0000000000000000    0.0000000000000000
     0.0000000000000000   17.5126199999999983    0.0000000000000000
     0.0000000000000000    0.0000000000000000   58.0000000000000000
   C    H    O    Si
   144   105    52   144
Selective dynamics
Direct
  0.4993999497010259  0.0653651865294012  0.0601405664081472   T   T   T
  0.1661079618441345  0.0654021416085283  0.0601481046079682   T   T   T
  0.3326893735268996  0.0654045742886453  0.0601540014770639   T   T   T
  0.4994065021914647  0.3153790651303135  0.0601390909682515   T   T   T
  0.1661107870106850  0.3154016182547867  0.0601528645171459   T   T   T
  0.3326974918952216  0.3153824177038430  0.0601636101996895   T   T   T
  0.0828774188248215  0.1880755397339524  0.1389977411027851   T   T   T
  0.2495248316641719  0.1881096526085778  0.1390237288407561   T   T   T
  0.4161953589585999  0.1881044441097859  0.1390180486260904   T   T   T
  0.0828656734050493  0.4381166507041065  0.1390269173203603   T   T   T
  0.2495190718042640  0.4381377145558677  0.1390325221296971   T   T   T
  0.4161615115938936  0.4381580240046967  0.1390251269026864   T   T   T
  0.1664003448066620  0.0631615685035970  0.1661337149298575   T   T   T
  0.3329041972526974  0.0631899965234482  0.1661459735550296   T   T   T
  0.4995368582660962  0.0630587940961826  0.1660899730034242   T   T   T
  0.1663562339853732  0.3131906715068703  0.1661289806311817   T   T   T
  0.3329029976581211  0.3131938531424315  0.1661407227733987   T   T   T
  0.4995005899203492  0.3132157595149257  0.1660946923471562   T   T   T
  0.0831799072333162  0.1901105215804063  0.1914599028528949   T   T   T
  0.2496741726969832  0.1902853559701022  0.1915220704631301   T   T   T
  0.4162295630866328  0.1901902271257562  0.1915201980511140   T   T   T
  0.0830814381015888  0.4402464003438944  0.1915209897316819   T   T   T
  0.2496419702617262  0.4402303286636024  0.1915317563762304   T   T   T
  0.4162092959711745  0.4402889859488844  0.1915149275381291   T   T   T
  0.0827898504862009  0.1882436721076097  0.0854899958698566   T   T   T
  0.2494403812870217  0.1882876985967731  0.0855126646758134   T   T   T
  0.4161267607166363  0.1882577052625074  0.0855113495748048   T   T   T
  0.0827747036521679  0.4382857580915085  0.0854906788667190   T   T   T
  0.2494351004704559  0.4383198825658388  0.0855017693913628   T   T   T
  0.4161254019796405  0.4382911990094504  0.0855018850333507   T   T   T
  0.1661972929131519  0.0630788192508621  0.1126329923663974   T   T   T
  0.3327906021381696  0.0630830344919956  0.1126395515178640   T   T   T
  0.4994762052154574  0.0630691384142842  0.1126455450365629   T   T   T
  0.1661974181289426  0.3131483453555520  0.1126320813062171   T   T   T
  0.3327903184333930  0.3131303114634285  0.1126412390624346   T   T   T
  0.4994709434623251  0.3131362241688491  0.1126335487651698   T   T   T
  0.4994197168123322  0.5654513505519738  0.0601458620950138   T   T   T
  0.1661008572353428  0.5654727375580635  0.0601635294844229   T   T   T
  0.3327053991288458  0.5654592022622761  0.0601632619335249   T   T   T
  0.4994382640906703  0.8154129822631856  0.0601614973067856   T   T   T
  0.1661074843724446  0.8153593699369408  0.0601617063852808   T   T   T
  0.3327054965541222  0.8153798826443969  0.0601600100912275   T   T   T
  0.0828584933966337  0.6881512603590355  0.1390449385603726   T   T   T
  0.2495060322132716  0.6881572614865036  0.1390507471470692   T   T   T
  0.4161661862660453  0.6882129776485409  0.1390203704456207   T   T   T
  0.0828750010819555  0.9380204491989637  0.1390266086597901   T   T   T
  0.2495352914849104  0.9380748180572260  0.1390338762449076   T   T   T
  0.4161933181961436  0.9380713629971009  0.1390302542720036   T   T   T
  0.1663389074148114  0.5632272186415848  0.1661678589313401   T   T   T
  0.3328403756699309  0.5632399875286325  0.1661647895577974   T   T   T
  0.4993843821309565  0.5633585302599680  0.1661167490830903   T   T   T
  0.1663055993691372  0.8132187219208293  0.1661746270862693   T   T   T
  0.3328893386405632  0.8132225693139497  0.1661790772868207   T   T   T
  0.4995911910204598  0.8132570657363277  0.1661624810700884   T   T   T
  0.0829687575007898  0.6902763016109462  0.1915415990706693   T   T   T
  0.2496154677675300  0.6903348434519483  0.1915780756615928   T   T   T
  0.4162686844286656  0.6902704448203919  0.1915220689478589   T   T   T
  0.0829815293122099  0.9403094442322258  0.1915428784647895   T   T   T
  0.2496449288017849  0.9402962574242075  0.1915449498749557   T   T   T
  0.4163276181724054  0.9403483452959270  0.1915499491871666   T   T   T
  0.0827559292462848  0.6882894464311160  0.0855277032275740   T   T   T
  0.2494460001278803  0.6882953489047191  0.0855246849763320   T   T   T
  0.4161531198783390  0.6883226100899207  0.0855206353434469   T   T   T
  0.0827693768247537  0.9382278654779669  0.0854949683796340   T   T   T
  0.2494298769578191  0.9382629255189293  0.0855008203846045   T   T   T
  0.4161157518895138  0.9382625475874894  0.0855007580896207   T   T   T
  0.1661920020907067  0.5631522106566083  0.1126545409604615   T   T   T
  0.3327953266332625  0.5631391458053017  0.1126527272388535   T   T   T
  0.4994637195380356  0.5631777918030730  0.1126424507243671   T   T   T
  0.1661914623326124  0.8131322472932229  0.1126522930172817   T   T   T
  0.3327811629794167  0.8131261981829345  0.1126493490152540   T   T   T
  0.4995229439229784  0.8132100821406206  0.1126728447349556   T   T   T
  0.9994153236840589  0.0653640947977497  0.0601383907567808   T   T   T
  0.6661225979718576  0.0654091475239355  0.0602007358737117   T   T   T
  0.8326707892412849  0.0654056963981984  0.0601966160296815   T   T   T
  0.9994216344303983  0.3153965705295373  0.0601349310233390   T   T   T
  0.6660925081975074  0.3153189717854571  0.0601525780338114   T   T   T
  0.8327130495056168  0.3153345906724822  0.0601685137413314   T   T   T
  0.5827885398184085  0.1880314118045561  0.1389894007828356   T   T   T
  0.7494480687479286  0.1883712214755602  0.1392308132299018   T   T   T
  0.9162525635495715  0.1881290276229526  0.1389763138743357   T   T   T
  0.5827360219156482  0.4382288013560540  0.1389997009707054   T   T   T
  0.7495050799343468  0.4380657743496947  0.1388067035355008   T   T   T
  0.9162562379663808  0.4381337897796382  0.1390555840713867   T   T   T
  0.6665090570451788  0.0634752281999818  0.1662624235280916   T   T   T
  0.8326859262799158  0.0636450556257717  0.1662709670548746   T   T   T
  0.9996999588603553  0.0630777905743495  0.1660758135936700   T   T   T
  0.6658451458579605  0.3134407064799264  0.1660912631723255   T   T   T
  0.8330693518885828  0.3132374034890377  0.1662049470130146   T   T   T
  0.9996871739106427  0.3132346250597197  0.1660969427972875   T   T   T
  0.5829008344663913  0.1897545699220533  0.1912574575700139   T   T   T
  0.7493351019584990  0.1923718367725255  0.1921861885666622   T   T   T
  0.9166330114473714  0.1897373900935538  0.1912727414531560   T   T   T
  0.5823364714314294  0.4404765624395872  0.1914973375235457   T   T   T
  0.7495777678502796  0.4448370866945034  0.1893495355364830   T   T   T
  0.9168176216907620  0.4402571394096826  0.1915983710261571   T   T   T
  0.5827388139390226  0.1882069758463792  0.0854919394628114   T   T   T
  0.7494182999036726  0.1882956361193836  0.0856098139714746   T   T   T
  0.9161586445841564  0.1882427147428591  0.0854901638754637   T   T   T
  0.5827637164104402  0.4382750668541796  0.0854838557940997   T   T   T
  0.7493997151061972  0.4382781826535258  0.0854297756540282   T   T   T
  0.9161183211468578  0.4382794798815011  0.0855107534980214   T   T   T
  0.6662192573680367  0.0631763700236335  0.1127058177419467   T   T   T
  0.8327693605284783  0.0631869724870343  0.1127059317285604   T   T   T
  0.9994998231122671  0.0630830107195283  0.1126365695290237   T   T   T
  0.6661131498614042  0.3130777444232969  0.1126297443750550   T   T   T
  0.8328249628284078  0.3130858635909921  0.1126586521212129   T   T   T
  0.9995113410586939  0.3131525760827675  0.1126290530185612   T   T   T
  0.9994003951273520  0.5654417866736513  0.0601583044088109   T   T   T
  0.6661102062324941  0.5654767070450173  0.0601582277927247   T   T   T
  0.8326971110867423  0.5654528524894420  0.0601694271566349   T   T   T
  0.9993937271860320  0.8154141734068441  0.0601635268864169   T   T   T
  0.6661267241047627  0.8153887361735773  0.0601894892217213   T   T   T
  0.8326795140147725  0.8153890039754232  0.0601889703943389   T   T   T
  0.5827920711665547  0.6881955401740063  0.1390309729283501   T   T   T
  0.7495172112546862  0.6880366600826097  0.1390944379212920   T   T   T
  0.9162430534110443  0.6881660067489022  0.1390374680584171   T   T   T
  0.5829552440016499  0.9382186105707609  0.1390924879455812   T   T   T
  0.7495291359221946  0.9381481174442569  0.1390918946391214   T   T   T
  0.9160888589218662  0.9382467901371604  0.1390874377971091   T   T   T
  0.6660089707178780  0.5634434209519610  0.1661467621509217   T   T   T
  0.8330998865961041  0.5632760802337983  0.1661705891974474   T   T   T
  0.9997211811022439  0.5632798722892187  0.1661396110695913   T   T   T
  0.6663215668959259  0.8131660958060324  0.1661988479765150   T   T   T
  0.8328984246809216  0.8131592353915530  0.1662098825705097   T   T   T
  0.9995691961902270  0.8132538316259771  0.1661677457630052   T   T   T
  0.5828782418894205  0.6902615068978599  0.1915592135381692   T   T   T
  0.7496285502369319  0.6902086025194241  0.1916275107969101   T   T   T
  0.9163734460245521  0.6902276970992002  0.1915576819027694   T   T   T
  0.5829917793565759  0.9403264681028681  0.1915710706012163   T   T   T
  0.7496557715448429  0.9403288819287484  0.1915811803861873   T   T   T
  0.9162911133642352  0.9404467376174213  0.1915630016726309   T   T   T
  0.5827878809247524  0.6882945004314611  0.0855242670689702   T   T   T
  0.7494428442832839  0.6882939974225668  0.0855572066153380   T   T   T
  0.9161336535959822  0.6883000414271632  0.0855375062293798   T   T   T
  0.5827960629478729  0.9382880397373907  0.0855325177576290   T   T   T
  0.7494293880531457  0.9383058795909338  0.0855469786634352   T   T   T
  0.9160807761996151  0.9382990301399788  0.0855400812116472   T   T   T
  0.6661871456235163  0.5631144066249132  0.1126523183428311   T   T   T
  0.8328075808125096  0.5630850721153378  0.1126659711258010   T   T   T
  0.9994960439633263  0.5631354601162191  0.1126619653273491   T   T   T
  0.6662056308929619  0.8131520082571693  0.1126866330662593   T   T   T
  0.8327832788648025  0.8131237334690866  0.1126897316722423   T   T   T
  0.9994615789799820  0.8131919627524131  0.1126766060209523   T   T   T
  0.0406193112035896  0.1780280016488512  0.0263047409994141   T   T   T
  0.2070737672157628  0.1781063345285015  0.0263706991367863   T   T   T
  0.3736819045715022  0.1780064739912535  0.0263576305511187   T   T   T
  0.0406877422433483  0.4280561503107755  0.0262891093653112   T   T   T
  0.2072134057887338  0.4279120821030413  0.0263139915198794   T   T   T
  0.3736325733618573  0.4279257509746325  0.0263503815939972   T   T   T
  0.1650816262898991  0.0292186103290683  0.0446109665727388   T   T   T
  0.3316446437168911  0.0292120321154812  0.0446176463553615   T   T   T
  0.4983120393613576  0.0291857900143521  0.0446004370474276   T   T   T
  0.1650395687975018  0.2791937223688912  0.0446214229086660   T   T   T
  0.3316736299106583  0.2791625926677926  0.0446340137179232   T   T   T
  0.4983273088515872  0.2791894069772957  0.0446000531854862   T   T   T
  0.4174621368500225  0.4041619005552847  0.2070600661729765   T   T   T
  0.4173167334487480  0.1539787813042821  0.2070444329746254   T   T   T
  0.0841699390176144  0.1539235014566061  0.2069930603786916   T   T   T
  0.2507564982804163  0.1541412046145128  0.2070599469453497   T   T   T
  0.0841190491991149  0.4041013535358353  0.2070657282871659   T   T   T
  0.2507360520697292  0.4040695932741559  0.2070658920188111   T   T   T
  0.0420033033629756  0.0533953222016167  0.2252580364166509   T   T   T
  0.2084638221247647  0.0537783864034028  0.2252499893561137   T   T   T
  0.3749663902947343  0.0535507224616089  0.2253270777895637   T   T   T
  0.0411181696853094  0.3029362717541216  0.2253788968326116   T   T   T
  0.2079493159667317  0.3036988972477255  0.2253134048228327   T   T   T
  0.3752259025135838  0.3036052124281106  0.2252677264825723   T   T   T
  0.0405635336841087  0.6781228655501832  0.0263425570009350   T   T   T
  0.2071150165556961  0.6781256712417905  0.0263708903721024   T   T   T
  0.3736924541164590  0.6780802048819372  0.0263644042580282   T   T   T
  0.0407115024749931  0.9280455358331857  0.0262964011234056   T   T   T
  0.2071664481078044  0.9279810195077545  0.0263381319409947   T   T   T
  0.3736828151087497  0.9279553859858507  0.0263504180209168   T   T   T
  0.1650356875523126  0.5292542982941727  0.0446297039864175   T   T   T
  0.3317036684812547  0.5292522826723544  0.0446288378015668   T   T   T
  0.4983751093570440  0.5292797807937654  0.0446037276322627   T   T   T
  0.1650329757043869  0.7791140182911120  0.0446358972366725   T   T   T
  0.3316754722624589  0.7791253570231174  0.0446355995772050   T   T   T
  0.4984224887765392  0.7791809221393308  0.0446310660002545   T   T   T
  0.4173001063415042  0.9041696964741155  0.2070840273418467   T   T   T
  0.4173176454060595  0.6539973345269061  0.2070359776536006   T   T   T
  0.0839981926354809  0.6540548188895489  0.2070679604401625   T   T   T
  0.2506047600336825  0.6540727636706021  0.2070956747426763   T   T   T
  0.0840174158652228  0.9041373448687706  0.2070812554725857   T   T   T
  0.2507128176444339  0.9041523305814377  0.2070869979310791   T   T   T
  0.0422282603224063  0.5530239156406602  0.2253630239357623   T   T   T
  0.2085820280488971  0.5521798270386552  0.2254655894206334   T   T   T
  0.3752197534690203  0.5526478701901402  0.2253934730377618   T   T   T
  0.0418342736340820  0.8029889155181760  0.2253564123880744   T   T   T
  0.2079376484212125  0.8032948570507503  0.2254594487847706   T   T   T
  0.3758666748881940  0.8025629449270386  0.2252721311545903   T   T   T
  0.5406632446897637  0.1779997245867114  0.0263087269318535   T   T   T
  0.7071330676883472  0.1780819550852688  0.0264318806016532   T   T   T
  0.8736738148172871  0.1779827588091230  0.0263507161276927   T   T   T
  0.5406968491714262  0.4280506612081206  0.0262927531752329   T   T   T
  0.7072465551803869  0.4278786084636446  0.0262658764827294   T   T   T
  0.8736343198482012  0.4279187464017524  0.0263483905899863   T   T   T
  0.6651558184196787  0.0291745923990780  0.0446781409845872   T   T   T
  0.8315390827398704  0.0291612992399324  0.0446748103766409   T   T   T
  0.9983704610002788  0.0291923310121352  0.0445931553927027   T   T   T
  0.6649252456572446  0.2790830318553890  0.0446228800039207   T   T   T
  0.8317695193142237  0.2790608852676342  0.0446483259294736   T   T   T
  0.9983536981535779  0.2792223860615886  0.0445933131921707   T   T   T
  0.9179796504552541  0.4042884586818565  0.2071449490648508   T   T   T
  0.9178498146995845  0.1536852883530447  0.2068354269030809   T   T   T
  0.5839561028654848  0.1540093390935862  0.2068918219877487   T   T   T
  0.7503854112011615  0.1557936453874907  0.2076335394970250   T   T   T
  0.5835393712998868  0.4042195925414263  0.2069889167005596   T   T   T
  0.7705859638948607  0.4631258638400568  0.2610246706069608   T   T   T
  0.5420375711953332  0.0539641498412181  0.2251520705576623   T   T   T
  0.7085707592875172  0.0546757643582114  0.2251443340535745   T   T   T
  0.8748354375569131  0.0538466006279907  0.2253746521485314   T   T   T
  0.5459578697216240  0.3041676482901607  0.2235971328104536   T   T   T
  0.6845497756584110  0.2852674318779995  0.2306262892696550   T   T   T
  0.8888795863479956  0.2996551389669394  0.2234683693135402   T   T   T
  0.7456664653640738  0.2699030241422788  0.2661973444754481   T   T   T
  0.7343983198958167  0.2282497270385251  0.3006382399561779   T   T   T
  0.7581483327203352  0.3131962714126127  0.3081607481573025   T   T   T
  0.6446123431874422  0.1356677709840276  0.2953709288224067   T   T   T
  0.7191333077312720  0.1101946153598343  0.2863340309328493   T   T   T
  0.8193408770156749  0.3859963571546997  0.3348647802690901   T   T   T
  0.7525567091592340  0.4335774732741375  0.3276987892089851   T   T   T
  0.7512002800980381  0.4361522323743572  0.2689539467174525   T   T   T
  0.7822646119603734  0.2676210945585978  0.2411999328688405   T   T   T
  0.5405677628636690  0.6781298457644703  0.0263398920585615   T   T   T
  0.7071502899901004  0.6781423222284315  0.0263822802330845   T   T   T
  0.8737188981694705  0.6780909828647942  0.0263670946850605   T   T   T
  0.5407551063575541  0.9280469085951396  0.0263146530141114   T   T   T
  0.7071817245061049  0.9279839501319211  0.0263571375598008   T   T   T
  0.8736649576800717  0.9279712259975061  0.0263648804867049   T   T   T
  0.6650718989069891  0.5292859856438832  0.0446185917458682   T   T   T
  0.8316691914735259  0.5292703189741388  0.0446299511991418   T   T   T
  0.9983486981181089  0.5292649673897507  0.0446136033348175   T   T   T
  0.6650561840071697  0.7791695980477653  0.0446617927637228   T   T   T
  0.8316283357957072  0.7791572198287854  0.0446618521054439   T   T   T
  0.9982723356684797  0.7791694229919817  0.0446370036332518   T   T   T
  0.9173072969772591  0.9043103114727663  0.2071068280596925   T   T   T
  0.9174069020318043  0.6539124575717929  0.2070637383712974   T   T   T
  0.5838371349416488  0.6539907141677047  0.2070758925031737   T   T   T
  0.7505207839299987  0.6539787209424885  0.2071497110328739   T   T   T
  0.5839631656261682  0.9041448004747791  0.2071063970390924   T   T   T
  0.7507623261003524  0.9041595163288453  0.2071176673559496   T   T   T
  0.5414930096203938  0.5526397529187975  0.2254369295090239   T   T   T
  0.7089291780755376  0.5508477901066464  0.2255361712589224   T   T   T
  0.8750454975894404  0.5518900141749244  0.2257654212994512   T   T   T
  0.5417468479809114  0.8029306929149752  0.2253570033194319   T   T   T
  0.7079676903205712  0.8032554423904557  0.2254530512566592   T   T   T
  0.8759434579571078  0.8025904186654371  0.2252642327717423   T   T   T
  0.0870479701389030  0.1696233264680560  0.0337992484128551   T   T   T
  0.2535798177508346  0.1696849387006190  0.0338203831209776   T   T   T
  0.4201909018073187  0.1696542154019967  0.0338129615251999   T   T   T
  0.0870977269628188  0.4195724023943196  0.0337871578596748   T   T   T
  0.2536702822007777  0.4195781102828958  0.0337996318384494   T   T   T
  0.4201543072304130  0.4196186030480961  0.0338002461627692   T   T   T
  0.1619749711347760  0.0446059884376312  0.2178713921269612   T   T   T
  0.3285530941303978  0.0445983677794118  0.2178828270715032   T   T   T
  0.4954365484839982  0.0445376756781811  0.2178761187534340   T   T   T
  0.1616396025058132  0.2944645457134208  0.2178382583053426   T   T   T
  0.3287828391129259  0.2945328141675290  0.2178655924435347   T   T   T
  0.4971119300389810  0.2939128264321959  0.2178454011512176   T   T   T
  0.0870088388756676  0.6697141231120231  0.0338297770558159   T   T   T
  0.2536057281896111  0.6697003567438283  0.0338277574211685   T   T   T
  0.4202008260725091  0.6697131735527017  0.0338175893804877   T   T   T
  0.0871074468286867  0.9195040695521384  0.0337933013097344   T   T   T
  0.2536440961791707  0.9195486119502797  0.0338016461844018   T   T   T
  0.4201958316274436  0.9195775688367094  0.0337994948496549   T   T   T
  0.1621572807677252  0.5444821106364619  0.2178960546349643   T   T   T
  0.3287353813795822  0.5444733998093921  0.2179040989214379   T   T   T
  0.4951319332467507  0.5448833282637318  0.2178399389537619   T   T   T
  0.1616776243809853  0.7945492509938009  0.2179039679805259   T   T   T
  0.3291495448348131  0.7945342101480152  0.2179138717824783   T   T   T
  0.4952586122501146  0.7944775935212616  0.2179006341705615   T   T   T
  0.5870880799168757  0.1695276267607645  0.0337987299343261   T   T   T
  0.7536069033978078  0.1697811603744370  0.0339122289124434   T   T   T
  0.9201791243300141  0.1695713499188535  0.0337997280318559   T   T   T
  0.5871069971280597  0.4195367190701325  0.0337845586185134   T   T   T
  0.7537027269701001  0.4193698786274201  0.0337339521503490   T   T   T
  0.9201422518995060  0.4196275902763180  0.0338108980472646   T   T   T
  0.6619701381677265  0.0444375021681264  0.2179693311838545   T   T   T
  0.8284445057514354  0.0446066011341548  0.2179476111738566   T   T   T
  0.9954878206128202  0.0447225626825246  0.2178425308847920   T   T   T
  0.6561428382517075  0.3023674326569764  0.2166941529094331   T   T   T
  0.8388402080462896  0.2953739757233682  0.2180609371566320   T   T   T
  0.9950202074987105  0.2938842200865766  0.2177350447922684   T   T   T
  0.7601761518001354  0.2748237721696781  0.2956108351356663   T   T   T
  0.6951896520561299  0.1323330688231246  0.2997316729065949   T   T   T
  0.7684980886478933  0.3815931520795107  0.3308618268506089   T   T   T
  0.7390532069722485  0.2520048936057113  0.2500428436172631   T   T   T
  0.5870202244272047  0.6697567670784231  0.0338271793384751   T   T   T
  0.7536291915553250  0.6697910334863459  0.0338559310663269   T   T   T
  0.9202125900834484  0.6697341996180730  0.0338323648237272   T   T   T
  0.5871515392965070  0.9195560834996714  0.0338189791330922   T   T   T
  0.7536476601532387  0.9195596187559992  0.0338296601504403   T   T   T
  0.9201581264322770  0.9196001560464913  0.0338270814815966   T   T   T
  0.6622058588998521  0.5439542858411680  0.2180826017111375   T   T   T
  0.8288244632554572  0.5443004258292881  0.2180616649155872   T   T   T
  0.9957580652674595  0.5446427696754759  0.2178925653369217   T   T   T
  0.6616923937053999  0.7944951551934222  0.2179120601120619   T   T   T
  0.8292104666415003  0.7944962864725489  0.2179216324479385   T   T   T
  0.9953514744653406  0.7944745905391163  0.2179012003743195   T   T   T
  0.2494458949309911  0.1240893520789520  0.0593743356014969   T   T   T
  0.4160866048600401  0.1240475104384715  0.0593692202397477   T   T   T
  0.0828133085960588  0.3740497953383234  0.0593536883930892   T   T   T
  0.2494552593321574  0.3740676631347883  0.0593681969029917   T   T   T
  0.4160804194731363  0.3740492968218904  0.0593643884744309   T   T   T
  0.0828006455155796  0.1240338445740533  0.0593553192956597   T   T   T
  0.4995173017416720  0.0005324390395794  0.1392827255332516   T   T   T
  0.1662233960478686  0.0005499079468849  0.1392750212155470   T   T   T
  0.3328657537068155  0.0005706075065106  0.1392900658737497   T   T   T
  0.4995219726391165  0.2505902725963227  0.1392598746861393   T   T   T
  0.1662256369769489  0.2506007902462764  0.1392604978866226   T   T   T
  0.3328677294797588  0.2505925356756049  0.1392781005758520   T   T   T
  0.0830179082701653  0.1251952185999376  0.1655793183451616   T   T   T
  0.2496282625715842  0.1253394616471333  0.1656294656744449   T   T   T
  0.4162586819890838  0.1252805294743546  0.1656279808115164   T   T   T
  0.0830222474491842  0.3753587833443568  0.1656250012432538   T   T   T
  0.2496185453249325  0.3753394139642733  0.1656323149073956   T   T   T
  0.4162168426690922  0.3753238867244877  0.1656321920441616   T   T   T
  0.1663441514510310  0.4989628214429140  0.1923210053176356   T   T   T
  0.3328743545953449  0.4989831328548018  0.1923232885862093   T   T   T
  0.4992955408902944  0.4992389165924584  0.1922796543012536   T   T   T
  0.1663344752112539  0.2489549746297424  0.1922776946415390   T   T   T
  0.4996611747932512  0.2486255459087687  0.1922204986651269   T   T   T
  0.3329641450124823  0.2489715739864957  0.1922997067085985   T   T   T
  0.4994416231564875  0.0003887671107161  0.0860167110764842   T   T   T
  0.1661080191108065  0.0003763706890437  0.0860033249153799   T   T   T
  0.3327427626572498  0.0003865996288132  0.0860123860509696   T   T   T
  0.4994512724350263  0.2503963038892340  0.0860104248257582   T   T   T
  0.1661231101317900  0.2504053174746855  0.0860127046064126   T   T   T
  0.3327692743246319  0.2503903687176653  0.0860247017765178   T   T   T
  0.0828356232531553  0.1255615504063037  0.1123573163838168   T   T   T
  0.2494995132261922  0.1256017698020551  0.1123774697407777   T   T   T
  0.4161478543095026  0.1255880306504939  0.1123798023024008   T   T   T
  0.0828463617171189  0.3756513412005457  0.1123693775733529   T   T   T
  0.2495036902307059  0.3756538398932035  0.1123771895486580   T   T   T
  0.4161413185487607  0.3756453219863241  0.1123789904654236   T   T   T
  0.2494497128354340  0.6241189944815406  0.0593828373033143   T   T   T
  0.4160999319701960  0.6241142444835042  0.0593761424963589   T   T   T
  0.0828084254785862  0.8739968130706678  0.0593610369311298   T   T   T
  0.2494504480857128  0.8740318188999944  0.0593675850236983   T   T   T
  0.4160909149285140  0.8740340748513831  0.0593658420301479   T   T   T
  0.0827858362495671  0.6241064429270393  0.0593818767228956   T   T   T
  0.4994509522840313  0.5006877343838912  0.1392680153011000   T   T   T
  0.1662268856758647  0.5006441510116391  0.1392937982351332   T   T   T
  0.3328398494966165  0.5006307660075163  0.1392952548276406   T   T   T
  0.4994839233792362  0.7506991945834538  0.1392925186079185   T   T   T
  0.1662009098183130  0.7506635748113833  0.1393014712820828   T   T   T
  0.3328207375673729  0.7506626985347870  0.1393004099981454   T   T   T
  0.0829938924457505  0.6253954225849845  0.1656479739639022   T   T   T
  0.2495744558125022  0.6254171851743956  0.1656683413721954   T   T   T
  0.4161081713271495  0.6254402074753258  0.1656259474219648   T   T   T
  0.0829277570605057  0.8753452981044932  0.1656602558419482   T   T   T
  0.2495892055866248  0.8753521646403073  0.1656565416182094   T   T   T
  0.4162283063624259  0.8753701510827252  0.1656629264091663   T   T   T
  0.1662822006569656  0.9989935017791433  0.1923147707086627   T   T   T
  0.3329233152358855  0.9990266232597500  0.1923187419719283   T   T   T
  0.4996193345048605  0.9990324079992027  0.1922975818654186   T   T   T
  0.1662301514210053  0.7489984851723261  0.1923429590330196   T   T   T
  0.4995372031449184  0.7489768464042912  0.1923218235348789   T   T   T
  0.3329261949014793  0.7490032044309337  0.1923391944392104   T   T   T
  0.4994457828853644  0.5004381131317412  0.0860085464109935   T   T   T
  0.1661065227925534  0.5004472282406315  0.0860191663275253   T   T   T
  0.3327552187607559  0.5004349227457324  0.0860205556531171   T   T   T
  0.4994913018075562  0.7504622655284465  0.0860389475365018   T   T   T
  0.1661229890699337  0.7504087878866031  0.0860342456364220   T   T   T
  0.3327693245806546  0.7504154493754898  0.0860311717542817   T   T   T
  0.0828201131645624  0.6256547053988643  0.1123980350872520   T   T   T
  0.2495003095771271  0.6256581367077512  0.1123948225681458   T   T   T
  0.4161351093062644  0.6256688706004372  0.1123830996087432   T   T   T
  0.0828356963362142  0.8756093745811838  0.1123821068235551   T   T   T
  0.2494941630344739  0.8756254491188550  0.1123790403237479   T   T   T
  0.4161245361303806  0.8756329254288927  0.1123838147533382   T   T   T
  0.7494363518260952  0.1241047095692861  0.0594529017714784   T   T   T
  0.9160848376479385  0.1240162501247806  0.0593613417799519   T   T   T
  0.5828064222613720  0.3740204126971780  0.0593549147110106   T   T   T
  0.7494380549675895  0.3739752294737969  0.0593185900118758   T   T   T
  0.9160737083449010  0.3740388210472331  0.0593693487425425   T   T   T
  0.5827883845937679  0.1240065819979354  0.0593671619127951   T   T   T
  0.9995710010492614  0.0005013822785692  0.1392647256249960   T   T   T
  0.6663644397974716  0.0007998881644098  0.1393844011397395   T   T   T
  0.8326885353844379  0.0008323483440168  0.1393884585772593   T   T   T
  0.9995687214498614  0.2505867555483777  0.1392271923310695   T   T   T
  0.6659769972116426  0.2506966131249256  0.1393142752632377   T   T   T
  0.8328833502396812  0.2506049778977838  0.1393176675859171   T   T   T
  0.5828905291275258  0.1251486412841789  0.1655906423460860   T   T   T
  0.7494378363011298  0.1264046063232491  0.1660644757272145   T   T   T
  0.9163504036025539  0.1251099564225488  0.1655303128015854   T   T   T
  0.5826756493915884  0.3756010476311827  0.1656023902820654   T   T   T
  0.7494078418835979  0.3747105577689085  0.1655788310998175   T   T   T
  0.9163194722344549  0.3754720125411620  0.1656612228300898   T   T   T
  0.6655105220250866  0.4986895136215738  0.1925065519039114   T   T   T
  0.8335575095387370  0.4986731723991634  0.1925783515390005   T   T   T
  0.9999025826845517  0.4991623839453921  0.1923171023409874   T   T   T
  0.6649563245047835  0.2509973627443786  0.1925816681377329   T   T   T
  0.9998149630174553  0.2484941406195833  0.1920797267580043   T   T   T
  0.8338707497703645  0.2494399927661008  0.1924007666492092   T   T   T
  0.9994446284396845  0.0003741085149104  0.0860082310527141   T   T   T
  0.6661289030665286  0.0004532856866761  0.0860770976014375   T   T   T
  0.8327138270259328  0.0004482032004723  0.0860754199428281   T   T   T
  0.9994703823903307  0.2503955766115681  0.0859983606694374   T   T   T
  0.6660639732036178  0.2503624833139153  0.0860306704640764   T   T   T
  0.8327869555108384  0.2503513180582663  0.0860417094628744   T   T   T
  0.5827867317050747  0.1255966410053744  0.1123775005641224   T   T   T
  0.7494757332929026  0.1257329240642599  0.1125181567353341   T   T   T
  0.9161608901115096  0.1255964180970607  0.1123582063211441   T   T   T