C H O Si                                
   1.00000000000000     
    18.5749199999999988    0.0000000000000000    0.0000000000000000
     0.0000000000000000   17.5126199999999983    0.0000000000000000
     0.0000000000000000    0.0000000000000000   58.0000000000000000
   C    H    O    Si
   144   105    52   144
Selective dynamics
Direct
  0.4993717253821699  0.0654082388955732  0.0601454612317691   T   T   T
  0.1660646540411015  0.0654065597643092  0.0601542999887891   T   T   T
  0.3326903670222470  0.0654144666898607  0.0601585904012603   T   T   T
  0.4993804599215036  0.3154185011036017  0.0601425435184543   T   T   T
  0.1660581018119457  0.3154012948349193  0.0601569299010459   T   T   T
  0.3327111726162982  0.3153793964748961  0.0601673295417938   T   T   T
  0.0829312345667587  0.1881153826295636  0.1389833385983540   T   T   T
  0.2495738671134066  0.1881414278365983  0.1390091088708486   T   T   T
  0.4162106884458987  0.1881072053256228  0.1390126502331245   T   T   T
  0.0829533736218395  0.4381617116857697  0.1390169707832180   T   T   T
  0.2495748387849981  0.4381374753190052  0.1390258051463246   T   T   T
  0.4162136340462089  0.4381607214901960  0.1390184427994652   T   T   T
  0.1662685325844410  0.0630993221845729  0.1661342347435122   T   T   T
  0.3328880510467728  0.0631626302251161  0.1661583032026447   T   T   T
  0.4994769124106676  0.0630324737086779  0.1661134615163757   T   T   T
  0.1662392907353682  0.3131648051912538  0.1661383573636319   T   T   T
  0.3328524691653778  0.3131621121553543  0.1661547626909296   T   T   T
  0.4994080876849809  0.3131794971251379  0.1661131445241708   T   T   T
  0.0832186406047914  0.1901628165030440  0.1914428954025094   T   T   T
  0.2496831148128881  0.1903453659211562  0.1915204029130240   T   T   T
  0.4162057086973314  0.1902205891082398  0.1915123945824776   T   T   T
  0.0830789897432846  0.4403003743608963  0.1915065842024936   T   T   T
  0.2496439546083898  0.4402709177152682  0.1915262492731259   T   T   T
  0.4162142412084399  0.4403294483107083  0.1915118268160613   T   T   T
  0.0827992326323312  0.1882850554751093  0.0855397545088722   T   T   T
  0.2494827287655929  0.1882581131308680  0.0855591150352225   T   T   T
  0.4161397200049453  0.1882571002833051  0.0855461721242532   T   T   T
  0.0827750034247953  0.4383327649134446  0.0855316489345402   T   T   T
  0.2494419076302548  0.4383159164308820  0.0855421648156643   T   T   T
  0.4161056389781727  0.4383219104077998  0.0855352840016616   T   T   T
  0.1661401504706845  0.0630579918303863  0.1126420817219679   T   T   T
  0.3327782176293351  0.0630650253438338  0.1126535244279757   T   T   T
  0.4994353844605145  0.0630392901661256  0.1126396804378361   T   T   T
  0.1661323011627147  0.3131714199721811  0.1126409929209412   T   T   T
  0.3327747838002661  0.3131714434851898  0.1126467706119979   T   T   T
  0.4994235785222541  0.3131664880098614  0.1126270541822751   T   T   T
  0.4994006119743454  0.5654964907622574  0.0601514342144426   T   T   T
  0.1660537083404486  0.5654736140048700  0.0601705404254485   T   T   T
  0.3327269504742678  0.5654669327334810  0.0601686009004452   T   T   T
  0.4994119398787344  0.8154402211123785  0.0601643213136013   T   T   T
  0.1660604721201090  0.8153524792860380  0.0601682969907017   T   T   T
  0.3327225644618512  0.8153640528187298  0.0601651242471679   T   T   T
  0.0829140678822766  0.6881922781923746  0.1390317639020996   T   T   T
  0.2495665568758103  0.6881574243284025  0.1390418073446181   T   T   T
  0.4161832972417592  0.6882069869313994  0.1390182152763083   T   T   T
  0.0829130976440870  0.9380884471322603  0.1390172777524183   T   T   T
  0.2495773780674517  0.9381041485767028  0.1390318053884347   T   T   T
  0.4162261594490655  0.9380674435879213  0.1390260528594307   T   T   T
  0.1662136483086217  0.5632107044279263  0.1661804384216935   T   T   T
  0.3327981148789368  0.5632284228446010  0.1661791212157809   T   T   T
  0.4992886851504136  0.5633534905211062  0.1661270393986811   T   T   T
  0.1661973950489604  0.8131945511279611  0.1661879122389431   T   T   T
  0.3328634975414117  0.8131927498660964  0.1661894858797394   T   T   T
  0.4995281815965374  0.8132238036723611  0.1661868627246741   T   T   T
  0.0829811416880552  0.6903027597477693  0.1915256965618132   T   T   T
  0.2496097840215975  0.6903411918375658  0.1915651591294586   T   T   T
  0.4162718006558609  0.6903033527040228  0.1915170937385364   T   T   T
  0.0829994904597517  0.9403642708513889  0.1915276692527323   T   T   T
  0.2496582316676041  0.9403416193690191  0.1915374342218637   T   T   T
  0.4163115846774890  0.9403778589859358  0.1915410233485274   T   T   T
  0.0828070596317317  0.6883206977119374  0.0855694190693815   T   T   T
  0.2494969061396697  0.6882886377968331  0.0855729610707909   T   T   T
  0.4161650332991538  0.6883408809229719  0.0855594704757589   T   T   T
  0.0827667035177968  0.9382493921672784  0.0855363636095487   T   T   T
  0.2494416358885338  0.9382468829918099  0.0855415534533987   T   T   T
  0.4160963742211988  0.9382652744868691  0.0855371352443846   T   T   T
  0.1661155037709729  0.5631239901511460  0.1126602964334368   T   T   T
  0.3327757300718352  0.5631275065178837  0.1126584904733896   T   T   T
  0.4994315144314268  0.5631542708185419  0.1126391507957010   T   T   T
  0.1661236594079012  0.8131404754311188  0.1126573621611793   T   T   T
  0.3327706143151592  0.8131521209866792  0.1126521887111778   T   T   T
  0.4994777187209710  0.8132576891932564  0.1126612715380027   T   T   T
  0.9993959758169233  0.0654143664126536  0.0601390678088051   T   T   T
  0.6660557391110069  0.0654157851453878  0.0602054587822566   T   T   T
  0.8326815783067000  0.0654046653539950  0.0602037435999317   T   T   T
  0.9993931361279170  0.3154285521232259  0.0601355676357327   T   T   T
  0.6660320088040337  0.3153348202180650  0.0601625773564546   T   T   T
  0.8327347677460391  0.3153160234554310  0.0601742462382185   T   T   T
  0.5828266439009735  0.1880561388168109  0.1389819047793588   T   T   T
  0.7495068214258177  0.1883280296745844  0.1392026549444099   T   T   T
  0.9162699843451195  0.1881419789685239  0.1389696118188813   T   T   T
  0.5828195523773402  0.4382333201852585  0.1389889044342084   T   T   T
  0.7495479250171082  0.4380616632312337  0.1388244087063801   T   T   T
  0.9162581845605834  0.4381396021035464  0.1390396235561652   T   T   T
  0.6664577042901564  0.0634783936714575  0.1662956524329841   T   T   T
  0.8326097062459498  0.0636908767233008  0.1663075221863967   T   T   T
  0.9996873153215324  0.0630351873700359  0.1660957265962534   T   T   T
  0.6657497454216105  0.3133634345962185  0.1660933912295096   T   T   T
  0.8330780453994193  0.3132017645881910  0.1662246407397381   T   T   T
  0.9996515425596439  0.3131893158021422  0.1660999388847567   T   T   T
  0.5828662053816015  0.1898344349634051  0.1912567795433660   T   T   T
  0.7491918219957830  0.1923550349745175  0.1921789406422657   T   T   T
  0.9166881293524054  0.1898396168307803  0.1912669715196512   T   T   T
  0.5823442798601300  0.4405224362203687  0.1914800193053704   T   T   T
  0.7496474470650960  0.4449254726647596  0.1893786445359951   T   T   T
  0.9168458832520056  0.4402880907420034  0.1915838556023298   T   T   T
  0.5827705886235620  0.1882356802464630  0.0855418055115611   T   T   T
  0.7494996339417033  0.1882699672021845  0.0856490513540054   T   T   T
  0.9161621375632316  0.1882595831764383  0.0855373914275380   T   T   T
  0.5827669707072983  0.4383109094634555  0.0855255790375019   T   T   T
  0.7494475046734236  0.4382388463380372  0.0854671416866456   T   T   T
  0.9161015901927048  0.4382937276744500  0.0855453782714578   T   T   T
  0.6661318454466305  0.0631673102614485  0.1127238475029294   T   T   T
  0.8327433207408431  0.0631950143731455  0.1127238804695855   T   T   T
  0.9994588289311108  0.0630523745801674  0.1126279564426263   T   T   T
  0.6660432713365574  0.3130878079824893  0.1126347949370085   T   T   T
  0.8328113440663006  0.3130881819145827  0.1126592542352099   T   T   T
  0.9994751448759620  0.3131814808052339  0.1126161457632281   T   T   T
  0.9993776366567245  0.5654791022495889  0.0601631854435526   T   T   T
  0.6660627939892843  0.5654810876915047  0.0601635402629832   T   T   T
  0.8327118685223601  0.5654628668383487  0.0601718057923335   T   T   T
  0.9993403979109572  0.8154222530691754  0.0601703518644312   T   T   T
  0.6660612526485670  0.8153850887362166  0.0601938367913046   T   T   T
  0.8326815799720787  0.8153739974154659  0.0601964377373263   T   T   T
  0.5828656488541180  0.6882001849665828  0.1390152489392286   T   T   T
  0.7495544513327820  0.6880651667173754  0.1390778586371498   T   T   T
  0.9162601144716873  0.6881817216728673  0.1390284607393563   T   T   T
  0.5830278861724351  0.9382555763562332  0.1390753763821124   T   T   T
  0.7495922508258006  0.9381464435513639  0.1390746658390263   T   T   T
  0.9161447319211816  0.9382209011966758  0.1390800857795339   T   T   T
  0.6659043583696020  0.5633872285044103  0.1661525409363704   T   T   T
  0.8331095448132796  0.5632942870815060  0.1661899315550018   T   T   T
  0.9996758682938678  0.5632504809590181  0.1661600643559809   T   T   T
  0.6662194643254130  0.8131497170764402  0.1662138260602308   T   T   T
  0.8328627048409197  0.8131480303739993  0.1662206230121821   T   T   T
  0.9995135738863633  0.8132347063075237  0.1661942283621834   T   T   T
  0.5828952896390173  0.6903050866432522  0.1915445331090338   T   T   T
  0.7496135200815993  0.6901819017828852  0.1916095160038495   T   T   T
  0.9163616569897944  0.6902452753061963  0.1915437128597393   T   T   T
  0.5829993440730472  0.9403478377718733  0.1915490161644673   T   T   T
  0.7496706180451554  0.9403484465310293  0.1915654655956368   T   T   T
  0.9163039473162093  0.9404651475020114  0.1915481218265325   T   T   T
  0.5828308970787085  0.6883189799168441  0.0855686699374163   T   T   T
  0.7495073321217192  0.6882641251109078  0.0856028973794970   T   T   T
  0.9161578060831765  0.6883016389990821  0.0855761970873202   T   T   T
  0.5828193154157982  0.9383103923111679  0.0855618251871243   T   T   T
  0.7494535608142382  0.9382891954098065  0.0855835047846842   T   T   T
  0.9160822161955080  0.9382909605490406  0.0855648118211804   T   T   T
  0.6661176204593972  0.5630738329487964  0.1126640415685551   T   T   T
  0.8327914193642191  0.5630530132192514  0.1126757647523548   T   T   T
  0.9994596196983480  0.5631027805471480  0.1126551942415270   T   T   T
  0.6661338609433303  0.8131662602590529  0.1126927991175218   T   T   T
  0.8327563168235212  0.8131541696201353  0.1126964901266900   T   T   T
  0.9993986962895540  0.8132362149037921  0.1126708226257402   T   T   T
  0.0405589795664563  0.1779461766043678  0.0263069138112483   T   T   T
  0.2070015820376391  0.1780263523583877  0.0263780579211573   T   T   T
  0.3736094955084922  0.1779187578143507  0.0263652178929627   T   T   T
  0.0406247023816976  0.4279754371725908  0.0262895870913123   T   T   T
  0.2071609383095028  0.4278216691199162  0.0263141616827372   T   T   T
  0.3735727501050040  0.4278398230238416  0.0263535755396860   T   T   T
  0.1651327592527818  0.0292608837925609  0.0446154173011508   T   T   T
  0.3316906366219610  0.0292572410919550  0.0446228792529712   T   T   T
  0.4983492184136130  0.0292442478959016  0.0446094272002368   T   T   T
  0.1650823847558660  0.2792242952047707  0.0446246095532810   T   T   T
  0.3317272558150562  0.2791862176663604  0.0446381469532184   T   T   T
  0.4983678696608566  0.2792425170058586  0.0446082982108069   T   T   T
  0.4174353678488421  0.4042098042448085  0.2070495643132048   T   T   T
  0.4172815667574639  0.1540044673229741  0.2070302545110243   T   T   T
  0.0841499720849581  0.1539632059639215  0.2069671942184637   T   T   T
  0.2507272855535110  0.1541750761895167  0.2070475319949245   T   T   T
  0.0840805022555071  0.4041780756061054  0.2070446760403054   T   T   T
  0.2506973254278935  0.4041141578194615  0.2070562216165199   T   T   T
  0.0420552532487883  0.0533445878396651  0.2252496194880975   T   T   T
  0.2085330486064681  0.0537684130453825  0.2252467942382233   T   T   T
  0.3750053815846115  0.0535076098374698  0.2253247314965942   T   T   T
  0.0413313650806672  0.3028625963451539  0.2253320453056470   T   T   T
  0.2079952097438078  0.3036573509478440  0.2252978330251501   T   T   T
  0.3752983231049284  0.3035460467141251  0.2252412926095360   T   T   T
  0.0404912624583990  0.6780412892286226  0.0263449174083972   T   T   T
  0.2070451458136026  0.6780460392516120  0.0263765153892978   T   T   T
  0.3736239284590348  0.6779997654074823  0.0263700121134035   T   T   T
  0.0406585398309906  0.9279687727077293  0.0262961232843930   T   T   T
  0.2071024940072022  0.9278961474113538  0.0263416942591427   T   T   T
  0.3736100412497658  0.9278706304793840  0.0263552801449774   T   T   T
  0.1650820113847649  0.5292921056732540  0.0446356633922048   T   T   T
  0.3317518101342660  0.5292881829351477  0.0446345741005809   T   T   T
  0.4984165424352789  0.5293408177095758  0.0446154542024144   T   T   T
  0.1650779222642239  0.7791512963833710  0.0446403733409231   T   T   T
  0.3317255958841779  0.7791589128026437  0.0446400926699785   T   T   T
  0.4984611679332393  0.7792307935748619  0.0446387733931420   T   T   T
  0.4172673586283683  0.9042253654961040  0.2070709454837022   T   T   T
  0.4172882807302002  0.6540234330918484  0.2070228741287208   T   T   T
  0.0839602836861412  0.6541048093065372  0.2070481403844911   T   T   T
  0.2505730317077606  0.6541145687630937  0.2070854550368460   T   T   T
  0.0839855512139379  0.9042151264264995  0.2070596709046385   T   T   T
  0.2506817763622108  0.9042078489215447  0.2070751077847316   T   T   T
  0.0422532772181328  0.5529660599908929  0.2253578047146335   T   T   T
  0.2086341032172422  0.5520644410992452  0.2254753935918506   T   T   T
  0.3752643840882673  0.5525741164317041  0.2254003421362450   T   T   T
  0.0418743180582195  0.8029107760230935  0.2253517288607318   T   T   T
  0.2079711068559733  0.8032309855081667  0.2254547756630182   T   T   T
  0.3759431547634708  0.8024503443089671  0.2252535012590599   T   T   T
  0.5406010140674892  0.1779190921978572  0.0263111017159177   T   T   T
  0.7070700372897534  0.1779998802803351  0.0264346461716872   T   T   T
  0.8736138846245914  0.1778982016597010  0.0263566423202097   T   T   T
  0.5406410799596280  0.4279727111007446  0.0262928253792755   T   T   T
  0.7071984812134243  0.4277905158511965  0.0262686157750397   T   T   T
  0.8735705389709518  0.4278335064404142  0.0263501323176684   T   T   T
  0.6651994520449308  0.0292122473624388  0.0446809840252185   T   T   T
  0.8315890855664999  0.0292065910316144  0.0446796161862414   T   T   T
  0.9984134878146743  0.0292505921085942  0.0446026059242295   T   T   T
  0.6649694852203786  0.2791331064951820  0.0446340511258878   T   T   T
  0.8318165937991560  0.2790952052945439  0.0446505839540570   T   T   T
  0.9983955253988166  0.2792715987918044  0.0445996898857692   T   T   T
  0.9179619708888879  0.4043403478694327  0.2071296674300998   T   T   T
  0.9178611517949252  0.1537369669199395  0.2068173541709631   T   T   T
  0.5839188816239065  0.1540363099896164  0.2068755273335414   T   T   T
  0.7504175834008883  0.1558401547335629  0.2076345221483586   T   T   T
  0.5835162894173125  0.4042922092506506  0.2069673958817010   T   T   T
  0.7705722557563649  0.4631167450956363  0.2609978436638249   T   T   T
  0.5421159411655144  0.0539228271903174  0.2251451675106900   T   T   T
  0.7086254368229594  0.0547286874652886  0.2251264852827619   T   T   T
  0.8748949921236215  0.0537860257680636  0.2253650490689821   T   T   T
  0.5459010876544017  0.3041378118974502  0.2235894576764197   T   T   T
  0.6845004731349651  0.2852250954490620  0.2306010680619662   T   T   T
  0.8889504587240411  0.2996332121655780  0.2234551553250968   T   T   T
  0.7456037101046697  0.2698420195546219  0.2661480954981526   T   T   T
  0.7344211264292442  0.2282144297441228  0.3006525097381114   T   T   T
  0.7580870839628082  0.3132812778862424  0.3081519688494561   T   T   T
  0.6445728447043881  0.1356736267012640  0.2953270693523923   T   T   T
  0.7192334504671639  0.1103707979875302  0.2862670269286794   T   T   T
  0.8193841730389390  0.3860581403917214  0.3348643764571633   T   T   T
  0.7526759086221314  0.4336895157514453  0.3277449196264721   T   T   T
  0.7511745315496930  0.4361060910852944  0.2689125321819075   T   T   T
  0.7822090318522527  0.2675476042483420  0.2411987346003364   T   T   T
  0.5404941725499375  0.6780489083865852  0.0263434309549502   T   T   T
  0.7070847227550168  0.6780584583435431  0.0263870587697873   T   T   T
  0.8736493168112057  0.6780092695839292  0.0263700481056059   T   T   T
  0.5406939855510696  0.9279691392960017  0.0263131854902082   T   T   T
  0.7071130340975020  0.9279015148284150  0.0263569062535197   T   T   T
  0.8736015886950792  0.9278873383933695  0.0263660128019977   T   T   T
  0.6651138291361804  0.5293245291918911  0.0446229805921984   T   T   T
  0.8317195727430687  0.5293037120650361  0.0446338028499646   T   T   T
  0.9983925501058203  0.5293246171503632  0.0446223433383689   T   T   T
  0.6651006600876187  0.7792029350569177  0.0446631881926990   T   T   T
  0.8316799059107022  0.7791982533413577  0.0446650922823773   T   T   T
  0.9983207832651602  0.7792234439226223  0.0446434380038451   T   T   T
  0.9172727426026904  0.9043618066840455  0.2070920704637161   T   T   T
  0.9173700437434434  0.6539505428700155  0.2070482874511723   T   T   T
  0.5838089536390778  0.6540432487029069  0.2070546439106221   T   T   T
  0.7504782341419629  0.6540139552646216  0.2071402886560362   T   T   T
  0.5839235852814403  0.9042112370165278  0.2070855662770110   T   T   T
  0.7507299434857549  0.9042193008003800  0.2071018691306764   T   T   T
  0.5415690988852231  0.5525727045132975  0.2254292876116886   T   T   T
  0.7089335408070405  0.5506911431815734  0.2255540925608531   T   T   T
  0.8751326303992738  0.5518551836138130  0.2257430323253371   T   T   T
  0.5417950960831988  0.8028516933641838  0.2253514637313936   T   T   T
  0.7079886823663850  0.8031918868068639  0.2254451722967272   T   T   T
  0.8760235989762202  0.8024753127320313  0.2252410249511476   T   T   T
  0.0870178852352837  0.1696178907156741  0.0338028006617287   T   T   T
  0.2535869729497150  0.1697249272012283  0.0338151657474764   T   T   T
  0.4202113342200324  0.1696803957754212  0.0337979956479903   T   T   T
  0.0870836552180736  0.4195527964135942  0.0337800402950045   T   T   T
  0.2536582120034463  0.4195770367682376  0.0337999948807159   T   T   T
  0.4201528257487804  0.4196274724548812  0.0337892518378047   T   T   T
  0.1620541592212998  0.0445782153163742  0.2178529010170747   T   T   T
  0.3286265852680925  0.0445766132055027  0.2178574190935432   T   T   T
  0.4955094175791853  0.0445304122651721  0.2178629637554814   T   T   T
  0.1616839465666320  0.2944533480467608  0.2178130391591194   T   T   T
  0.3288465833100180  0.2944934530146512  0.2178377867995211   T   T   T
  0.4970881515042798  0.2938497673543674  0.2178213477347342   T   T   T
  0.0869969662943332  0.6697297408580062  0.0338258861594013   T   T   T
  0.2536085083885329  0.6697356825175391  0.0338247057124240   T   T   T
  0.4202040304860006  0.6697228127200054  0.0338072429290342   T   T   T
  0.0870841339331514  0.9194982270590197  0.0337887529414778   T   T   T
  0.2536547241386035  0.9195770799294862  0.0337943432492958   T   T   T
  0.4202123290077922  0.9196112891517211  0.0337797921083030   T   T   T
  0.1622410204756609  0.5444911036251509  0.2178673163350155   T   T   T
  0.3288172865893768  0.5444598826107048  0.2178752032366560   T   T   T
  0.4952096865898432  0.5448872941325101  0.2178227890691140   T   T   T
  0.1617113795391899  0.7945306599430557  0.2178833801083735   T   T   T
  0.3291875834703371  0.7945628226960777  0.2179018078801523   T   T   T
  0.4953307372222019  0.7944525025150897  0.2178731947392242   T   T   T
  0.5870560007861284  0.1695214905289941  0.0337994308230403   T   T   T
  0.7536134752237368  0.1698241819582542  0.0339078645588080   T   T   T
  0.9201981901794610  0.1696044915487234  0.0337893886050214   T   T   T
  0.5870766627484393  0.4195188542102225  0.0337801673139855   T   T   T
  0.7537000559448442  0.4193800805751851  0.0337373981777481   T   T   T
  0.9201559787309254  0.4196453343504294  0.0337933110028354   T   T   T
  0.6620455156825941  0.0444424583956351  0.2179363199524659   T   T   T
  0.8285030352308581  0.0446051213734664  0.2179239405399980   T   T   T
  0.9955300960000445  0.0446937866753002  0.2178294475224860   T   T   T
  0.6560486462380518  0.3023684851969164  0.2166891825190357   T   T   T
  0.8389232057196155  0.2953227422803847  0.2180377075768465   T   T   T
  0.9951243156701467  0.2939325772735968  0.2177347660343567   T   T   T
  0.7601196275068342  0.2748376825006984  0.2956194179435040   T   T   T
  0.6951872496495267  0.1322175171858679  0.2996787138263245   T   T   T
  0.7685779460128639  0.3816336845559367  0.3308582767761848   T   T   T
  0.7388864615153652  0.2520370916600395  0.2499947791645942   T   T   T
  0.5870021359194221  0.6697748044190180  0.0338240356381724   T   T   T
  0.7536280852493000  0.6698391267882391  0.0338573517493453   T   T   T
  0.9202195062593364  0.6697557468871833  0.0338210592646655   T   T   T
  0.5871236902972816  0.9195353348108334  0.0338112853693341   T   T   T
  0.7536660832666854  0.9195715191822772  0.0338124216048684   T   T   T
  0.9201777655006432  0.9196154725945850  0.0338068155795577   T   T   T
  0.6622213659665156  0.5439912540620208  0.2180669758403102   T   T   T
  0.8289107517225003  0.5443148972302093  0.2180397327760026   T   T   T
  0.9957907300299176  0.5446149331322667  0.2178803095545963   T   T   T
  0.6617510909081099  0.7944938052940016  0.2178820002832061   T   T   T
  0.8292212659558272  0.7945661404262526  0.2179111216904444   T   T   T
  0.9954102418296930  0.7944465316105062  0.2178725045044542   T   T   T
  0.2493996673783930  0.1240594119068123  0.0593833443057946   T   T   T
  0.4160530901339576  0.1240375201183125  0.0593733804156414   T   T   T
  0.0827505246409224  0.3740193776671417  0.0593620398488169   T   T   T
  0.2494140639906631  0.3740109909550907  0.0593768355203968   T   T   T
  0.4160571514160646  0.3740261141554352  0.0593653747231751   T   T   T
  0.0827488914140595  0.1240118681997585  0.0593656674617536   T   T   T
  0.4995385204748279  0.0005457702234811  0.1392845912282451   T   T   T
  0.1662568752535162  0.0005353086280725  0.1392725556453332   T   T   T
  0.3329058729280191  0.0005769467930721  0.1392871758468629   T   T   T
  0.4995531695987193  0.2506192103252281  0.1392669611779368   T   T   T
  0.1662590549434248  0.2506233425856202  0.1392636251678351   T   T   T
  0.3329113043784906  0.2506196545970372  0.1392799863378860   T   T   T
  0.0829711971660325  0.1252186314358944  0.1655708427308685   T   T   T
  0.2495851545654508  0.1253530740333279  0.1656438418890922   T   T   T
  0.4162351590695660  0.1252913765410077  0.1656320799319155   T   T   T
  0.0829713119746434  0.3753635161238654  0.1656333960164485   T   T   T
  0.2495706336502706  0.3753193906636957  0.1656481536357613   T   T   T
  0.4161743187811462  0.3753316782369049  0.1656459320374630   T   T   T
  0.1663573962623033  0.4989213845642758  0.1923033165192513   T   T   T
  0.3329182146517011  0.4989442428238910  0.1923095473647610   T   T   T
  0.4993171468329040  0.4992223298823403  0.1922694579336532   T   T   T
  0.1663741349161642  0.2489165483147731  0.1922586556586819   T   T   T
  0.4996698046573910  0.2485965356797398  0.1922139573629784   T   T   T
  0.3330180125841909  0.2489351557300792  0.1922821581690952   T   T   T
  0.4994877812108502  0.0004061628790159  0.0860201506628149   T   T   T
  0.1661649502611035  0.0003924053897668  0.0860170376207988   T   T   T
  0.3328180458184284  0.0004097291892923  0.0860260954135410   T   T   T
  0.4994933160265138  0.2504410691418114  0.0860254034054776   T   T   T
  0.1661836904320305  0.2504369933531748  0.0860319745420981   T   T   T
  0.3328436580326199  0.2504317793041136  0.0860422787325548   T   T   T
  0.0828097994703677  0.1255632116489080  0.1123519908134493   T   T   T
  0.2494753864154724  0.1255669034336803  0.1123791261843371   T   T   T
  0.4161308853024662  0.1255718595936312  0.1123805104708781   T   T   T
  0.0828173249049948  0.3756801723295346  0.1123599490219827   T   T   T
  0.2494714182652854  0.3756692169880485  0.1123708960192073   T   T   T
  0.4161163512718462  0.3756716517295491  0.1123694796078275   T   T   T
  0.2494088772518427  0.6240835967608933  0.0593936426861390   T   T   T
  0.4160720400680136  0.6241042255792191  0.0593811717544530   T   T   T
  0.0827437748410938  0.8739590149660786  0.0593682311664467   T   T   T
  0.2494111690409122  0.8739675147057225  0.0593717440776401   T   T   T
  0.4160672740406424  0.8739992778173613  0.0593614629095665   T   T   T
  0.0827352252219300  0.6240903256763402  0.0593921267417958   T   T   T
  0.4995023206984244  0.5006796680134635  0.1392704301549126   T   T   T
  0.1662514551718360  0.5006420715186394  0.1392958369767134   T   T   T
  0.3328822698205934  0.5006334510561645  0.1392959139001230   T   T   T
  0.4995168845568239  0.7507116104524835  0.1392934520400596   T   T   T
  0.1662383368630632  0.7506527266087266  0.1393002750811362   T   T   T
  0.3328757268883800  0.7506745096534851  0.1392946992230447   T   T   T
  0.0829400759681324  0.6254127628130185  0.1656521338770175   T   T   T
  0.2495035097502337  0.6254186774280402  0.1656768506897860   T   T   T
  0.4160519124503874  0.6254579081811031  0.1656310296024849   T   T   T
  0.0828591968924981  0.8753708626757081  0.1656666893503623   T   T   T
  0.2495255005336077  0.8753605065273383  0.1656750392189004   T   T   T
  0.4161773735176943  0.8753896667904937  0.1656775371465857   T   T   T
  0.1663080511198022  0.9989731593704730  0.1923020295676141   T   T   T
  0.3329635702447434  0.9989916985378652  0.1923038397339382   T   T   T
  0.4996380010441299  0.9989959797020771  0.1922836292477026   T   T   T
  0.1662634528883348  0.7489688819599882  0.1923262808544342   T   T   T
  0.4995716708024882  0.7489429552347598  0.1923055848859563   T   T   T
  0.3329667895803569  0.7489590459856353  0.1923347654113755   T   T   T
  0.4994902370435039  0.5004604528008403  0.0860191134256841   T   T   T
  0.1661615653450554  0.5004630143384032  0.0860317620701973   T   T   T
  0.3328254542472086  0.5004637489354734  0.0860329096319647   T   T   T
  0.4995326959645417  0.7504994688169435  0.0860508847812721   T   T   T
  0.1661858739533571  0.7504361674271739  0.0860494236781079   T   T   T
  0.3328449858614743  0.7504483715568553  0.0860473979902569   T   T   T
  0.0827994672189608  0.6256335643502954  0.1123968974506888   T   T   T
  0.2494683280034023  0.6256214204938875  0.1124032854758427   T   T   T
  0.4161206751364757  0.6256630926817478  0.1123806164462144   T   T   T
  0.0828051398980164  0.8756369426211291  0.1123761574363921   T   T   T
  0.2494629491054430  0.8756368690950286  0.1123803992697601   T   T   T
  0.4161029289741279  0.8756575809998474  0.1123793969111434   T   T   T
  0.7493946309254401  0.1240614139216215  0.0594666693104421   T   T   T
  0.9160520220577979  0.1240088913310625  0.0593648380940294   T   T   T
  0.5827457899061640  0.3739904271211232  0.0593619892884367   T   T   T
  0.7494034605765082  0.3739018866133737  0.0593212771507697   T   T   T
  0.9160497538423226  0.3740092729734175  0.0593674683036812   T   T   T
  0.5827312592739452  0.1240068044136480  0.0593795762479570   T   T   T
  0.9995905489314864  0.0005091616669716  0.1392623866628495   T   T   T
  0.6663992006170928  0.0008248849293888  0.1393820722597283   T   T   T
  0.8327244955236828  0.0008462941564423  0.1393875476658180   T   T   T
  0.9996011218851636  0.2505939594756121  0.1392219615326574   T   T   T
  0.6660467744817959  0.2506716854324821  0.1393127454489187   T   T   T
  0.8329329260114273  0.2506248911264690  0.1393149926686247   T   T   T
  0.5828440122996684  0.1251841954411826  0.1655989634212917   T   T   T
  0.7493827878965579  0.1264746635626026  0.1660729349461927   T   T   T
  0.9163657309845800  0.1251031846200429  0.1655195527911945   T   T   T
  0.5826012559072455  0.3756064856341817  0.1656073942209075   T   T   T
  0.7493742611399583  0.3746802318979509  0.1655891339571112   T   T   T
  0.9163003473352272  0.3754870328410104  0.1656677391794595   T   T   T
  0.6655325647806243  0.4987301114247855  0.1924902603270735   T   T   T
  0.8336324718311109  0.4987301008103714  0.1925544125391755   T   T   T
  0.9999115172385554  0.4991199306477148  0.1923083207973041   T   T   T
  0.6649427257877237  0.2510355050260584  0.1925927497663544   T   T   T
  0.9998667769009761  0.2484789533550638  0.1920823336527071   T   T   T
  0.8338319919349847  0.2494098337366333  0.1924034579296041   T   T   T
  0.9994898763069417  0.0003936990461336  0.0860102758387393   T   T   T
  0.6661813906320260  0.0004638593572611  0.0860814698718737   T   T   T
  0.8327935518089655  0.0004557313838837  0.0860808833114126   T   T   T
  0.9995165334349697  0.2504341983715766  0.0860069907809533   T   T   T
  0.6661258400857590  0.2503922312046497  0.0860476640196726   T   T   T
  0.8328663113553628  0.2503833029213621  0.0860588836193730   T   T   T
  0.5827608126917788  0.1255995536212688  0.1123818803544959   T   T   T
  0.7494348410820645  0.1257073438945125  0.1125403457704173   T   T   T
  0.9161397958968757  0.1256076606062753  0.1123578382542108   T   T   T