C H O Si                                
   1.00000000000000     
     9.2874599999999994    0.0000000000000000    0.0000000000000000
     0.0000000000000000    8.7563099999999991    0.0000000000000000
     0.0000000000000000    0.0000000000000000   58.0000000000000000
   C    H    O    Si
    36    31    16    36
Selective dynamics
Direct
  0.9960129079949454  0.1302369009314432  0.0596095254294156   T   T   T
  0.3294893685568638  0.1303462254639314  0.0596932429132337   T   T   T
  0.6626979644650390  0.1303421398729583  0.0597134919141240   T   T   T
  0.9960282965354423  0.6305017316290389  0.0596250722873037   T   T   T
  0.3294179525407728  0.6301187749668529  0.0596649657858990   T   T   T
  0.6627851615969078  0.6301049891406549  0.0596890961769958   T   T   T
  0.1626096467192255  0.3757533421375285  0.1384484959277543   T   T   T
  0.4959179167133243  0.3759567276073739  0.1387548112986678   T   T   T
  0.8294086332087005  0.3757969863710429  0.1384497167766412   T   T   T
  0.1628696592250947  0.8760258850440579  0.1385110803805674   T   T   T
  0.4959774540550015  0.8755146533393372  0.1383236299608299   T   T   T
  0.8291616142422455  0.8759270215310551  0.1385610937957011   T   T   T
  0.3294096049059902  0.1267309642609007  0.1657237874120341   T   T   T
  0.6626250916954888  0.1267622553528085  0.1657635811568241   T   T   T
  0.9959604391403616  0.1255778690313107  0.1655214505272653   T   T   T
  0.3286639933683233  0.6261343191997426  0.1656319713606180   T   T   T
  0.6631158209942072  0.6258824672219134  0.1657113011800959   T   T   T
  0.9959620963794933  0.6260822859288524  0.1655945336667486   T   T   T
  0.1630830388731965  0.3789524813626102  0.1907531026524296   T   T   T
  0.4957814931500195  0.3840344872594059  0.1917270013527386   T   T   T
  0.8301477469304572  0.3789255252513755  0.1907735954557097   T   T   T
  0.1619370650218528  0.8804942020737201  0.1910154604621894   T   T   T
  0.4960734572166245  0.8892353912998345  0.1888511031068205   T   T   T
  0.8302514177119562  0.8803483266265602  0.1910818525420339   T   T   T
  0.1626468242708867  0.3759666320595514  0.0849859598462146   T   T   T
  0.4959467902351236  0.3759980935162659  0.0851410108892097   T   T   T
  0.8294245478471680  0.3760079174401270  0.0849924570898963   T   T   T
  0.1627694525683765  0.8760554912169809  0.0850194061180929   T   T   T
  0.4959418196280012  0.8759224046387146  0.0849617861275007   T   T   T
  0.8292826715572019  0.8761041452899434  0.0850344163827330   T   T   T
  0.3293885279913695  0.1257963277633749  0.1122045912286254   T   T   T
  0.6626593492932003  0.1257490045104603  0.1122219123305257   T   T   T
  0.9958830675154644  0.1256762301693612  0.1121221435238695   T   T   T
  0.3292537762063930  0.6255308324742899  0.1121580664551800   T   T   T
  0.6627546139562952  0.6255607680356903  0.1121818023088750   T   T   T
  0.9959111597402810  0.6259578050212085  0.1121306988510327   T   T   T
  0.0798348603250858  0.3575593059537212  0.0258115364279163   T   T   T
  0.4122641973038270  0.3578678332167442  0.0260355646727746   T   T   T
  0.7448693142310674  0.3571350485006519  0.0259456442011512   T   T   T
  0.0801040086496201  0.8580371325267677  0.0258350825601568   T   T   T
  0.4125920115432180  0.8570456514669758  0.0258391358056542   T   T   T
  0.7443310464329898  0.8572358799316575  0.0260197583784603   T   T   T
  0.3278955794087821  0.0580327356167132  0.0441525223653443   T   T   T
  0.6604280516215937  0.0580411847561919  0.0441744527805596   T   T   T
  0.9940188291230001  0.0579542429424862  0.0440668733726994   T   T   T
  0.3272652849521478  0.5578450624563445  0.0441254087593634   T   T   T
  0.6609998720700077  0.5577919680316370  0.0441501109879923   T   T   T
  0.9940430220504481  0.5582925771648348  0.0440735030040145   T   T   T
  0.8326743341303313  0.8085765592253864  0.2066432222886618   T   T   T
  0.8325095432069176  0.3066490219182185  0.2063175820172134   T   T   T
  0.1647739673243720  0.3074950588104173  0.2063850581050914   T   T   T
  0.4979250994057338  0.3110124487306081  0.2071889966332563   T   T   T
  0.1642186330331938  0.8081186099990276  0.2065168070663148   T   T   T
  0.0803741816966266  0.1083584276570519  0.2247171156950074   T   T   T
  0.4158796548779407  0.1055170265620191  0.2246581229403901   T   T   T
  0.7451477817907630  0.1065353720988540  0.2252696701894550   T   T   T
  0.0853717916090346  0.6082751880817128  0.2234489967596645   T   T   T
  0.3675642501855023  0.5705104439174491  0.2301063396622069   T   T   T
  0.7760553079222205  0.5997180187810898  0.2228318412664905   T   T   T
  0.4924848215496027  0.5414477334266152  0.2657273041772825   T   T   T
  0.4691656703288274  0.4571810708026760  0.3004968620786030   T   T   T
  0.5176389366524319  0.6262348771355164  0.3080849585466439   T   T   T
  0.2894363320155051  0.2730215911176401  0.2956141239223911   T   T   T
  0.4394862832340252  0.2183059958730240  0.2875267414620453   T   T   T
  0.6394442507495413  0.7696932041957538  0.3348786823540166   T   T   T
  0.5035318921444158  0.8625418269560257  0.3281675578273422   T   T   T
  0.5645573756650251  0.5366796663303433  0.2406340052077027   T   T   T
  0.1723317972762999  0.3386237526354989  0.0332887721364159   T   T   T
  0.5051525295491004  0.3392688323906228  0.0334456135174293   T   T   T
  0.8379125569693855  0.3387481680178794  0.0332997068930894   T   T   T
  0.1725881771161113  0.8388252143349533  0.0333227786749717   T   T   T
  0.5053939333319377  0.8383036592583224  0.0332609043136998   T   T   T
  0.8375118544012707  0.8390808262251923  0.0333434351658113   T   T   T
  0.3217651602296101  0.0874072789268467  0.2176173652975137   T   T   T
  0.6531780830293670  0.0878497117395227  0.2175954938884672   T   T   T
  0.9875907638327561  0.0893494804750503  0.2173183682754427   T   T   T
  0.3094618962326408  0.6034966084849458  0.2162752588233161   T   T   T
  0.6758764176067444  0.5908665509142708  0.2174979058643345   T   T   T
  0.9891111760177083  0.5865014657200902  0.2172308931359410   T   T   T
  0.5202364471322269  0.5504404682451494  0.2953800207364807   T   T   T
  0.3896532561523927  0.2654238690644704  0.3005037638505215   T   T   T
  0.5375309172866807  0.7591084155087700  0.3311485703533137   T   T   T
  0.4785263378926530  0.5056562782144596  0.2495986761233766   T   T   T
  0.4961631914777556  0.2478060654025711  0.0589663591497143   T   T   T
  0.8294299501123987  0.2476394199348704  0.0588515957113671   T   T   T
  0.1629262556359095  0.7477278508115646  0.0588626903169995   T   T   T
  0.4961851019972556  0.7474645332455552  0.0588327381167630   T   T   T
  0.8293209137102551  0.7477574705451957  0.0588808626855339   T   T   T
  0.1628236790778601  0.2476001698051746  0.0588432409264854   T   T   T
  0.9960303779904933  0.0005427246785246  0.1387418783373491   T   T   T
  0.3297024292915580  0.0008744054950611  0.1388616615055653   T   T   T
  0.6623300573956072  0.0008816142444203  0.1388894301945811   T   T   T
  0.9960383353217708  0.5008500574991359  0.1387356043383008   T   T   T
  0.3290960788879786  0.5007224569477557  0.1388398653511871   T   T   T
  0.6627633839838012  0.5006017512107661  0.1388329009883620   T   T   T
  0.1622608568884232  0.2500219305861435  0.1650455537400006   T   T   T
  0.4957416969984010  0.2518324165666215  0.1656099320405318   T   T   T
  0.8297601855428312  0.2498837375093075  0.1650157168176349   T   T   T
  0.1624669637259615  0.7507717956269957  0.1651182823034816   T   T   T
  0.4956765362794542  0.7488673941634332  0.1651041927772070   T   T   T
  0.8293256506564148  0.7505802598048987  0.1651742529260076   T   T   T
  0.3281143435417917  0.9970926794309491  0.1920410906332606   T   T   T
  0.6638477399499081  0.9971470503632673  0.1920986210831899   T   T   T
  0.9960906851848250  0.9983476875083284  0.1917610860417014   T   T   T
  0.3272069277700140  0.5012834741308367  0.1921185055039416   T   T   T
  0.9965819642426226  0.4961121727827731  0.1915415396210918   T   T   T
  0.6648125515890797  0.4983763158985539  0.1918948855528058   T   T   T
  0.9960210844709820  0.0002969840077540  0.0855076888091872   T   T   T
  0.3294027694313186  0.0003431460521881  0.0855595382793766   T   T   T
  0.6626116158228754  0.0003169713974245  0.0855771644448708   T   T   T
  0.9960241285350122  0.5004199433581604  0.0855033641579723   T   T   T
  0.3292972236911282  0.5001990515384307  0.0855522188346569   T   T   T
  0.6627634641009976  0.5001789239282317  0.0855642431820129   T   T   T
  0.1625382218842617  0.2506619415956308  0.1118588307240600   T   T   T
  0.4958966455638532  0.2507405790888271  0.1120463951753479   T   T   T
  0.8292375581391767  0.2506556699697740  0.1118603643819256   T   T   T
  0.1627206761576687  0.7508078048365476  0.1118941669431095   T   T   T
  0.4958633015015721  0.7502898840068823  0.1117892590633645   T   T   T
  0.8290920127144545  0.7508281845233000  0.1119184100942476   T   T   T
 
  0.00000000E+00  0.00000000E+00  0.00000000E+00
  0.00000000E+00  0.00000000E+00  0.00000000E+00
  0.00000000E+00  0.00000000E+00  0.00000000E+00
  0.00000000E+00  0.00000000E+00  0.00000000E+00
  0.00000000E+00  0.00000000E+00  0.00000000E+00
  0.00000000E+00  0.00000000E+00  0.00000000E+00
  0.00000000E+00  0.00000000E+00  0.00000000E+00
  0.00000000E+00  0.00000000E+00  0.00000000E+00
  0.00000000E+00  0.00000000E+00  0.00000000E+00
  0.00000000E+00  0.00000000E+00  0.00000000E+00
  0.00000000E+00  0.00000000E+00  0.00000000E+00
  0.00000000E+00  0.00000000E+00  0.00000000E+00
  0.00000000E+00  0.00000000E+00  0.00000000E+00
  0.00000000E+00  0.00000000E+00  0.00000000E+00
  0.00000000E+00  0.00000000E+00  0.00000000E+00
  0.00000000E+00  0.00000000E+00  0.00000000E+00
  0.00000000E+00  0.00000000E+00  0.00000000E+00
  0.00000000E+00  0.00000000E+00  0.00000000E+00
  0.00000000E+00  0.00000000E+00  0.00000000E+00
  0.00000000E+00  0.00000000E+00  0.00000000E+00
  0.00000000E+00  0.00000000E+00  0.00000000E+00
  0.00000000E+00  0.00000000E+00  0.00000000E+00
  0.00000000E+00  0.00000000E+00  0.00000000E+00
  0.00000000E+00  0.00000000E+00  0.00000000E+00
  0.00000000E+00  0.00000000E+00  0.00000000E+00
  0.00000000E+00  0.00000000E+00  0.00000000E+00
  0.00000000E+00  0.00000000E+00  0.00000000E+00
  0.00000000E+00  0.00000000E+00  0.00000000E+00
  0.00000000E+00  0.00000000E+00  0.00000000E+00
  0.00000000E+00  0.00000000E+00  0.00000000E+00
  0.00000000E+00  0.00000000E+00  0.00000000E+00
  0.00000000E+00  0.00000000E+00  0.00000000E+00
  0.00000000E+00  0.00000000E+00  0.00000000E+00
  0.00000000E+00  0.00000000E+00  0.00000000E+00
  0.00000000E+00  0.00000000E+00  0.00000000E+00
  0.00000000E+00  0.00000000E+00  0.00000000E+00
  0.00000000E+00  0.00000000E+00  0.00000000E+00
  0.00000000E+00  0.00000000E+00  0.00000000E+00
  0.00000000E+00  0.00000000E+00  0.00000000E+00
  0.00000000E+00  0.00000000E+00  0.00000000E+00
  0.00000000E+00  0.00000000E+00  0.00000000E+00
  0.00000000E+00  0.00000000E+00  0.00000000E+00
  0.00000000E+00  0.00000000E+00  0.00000000E+00
  0.00000000E+00  0.00000000E+00  0.00000000E+00
  0.00000000E+00  0.00000000E+00  0.00000000E+00
  0.00000000E+00  0.00000000E+00  0.00000000E+00
  0.00000000E+00  0.00000000E+00  0.00000000E+00
  0.00000000E+00  0.00000000E+00  0.00000000E+00
  0.00000000E+00  0.00000000E+00  0.00000000E+00
  0.00000000E+00  0.00000000E+00  0.00000000E+00
  0.00000000E+00  0.00000000E+00  0.00000000E+00
  0.00000000E+00  0.00000000E+00  0.00000000E+00
  0.00000000E+00  0.00000000E+00  0.00000000E+00
  0.00000000E+00  0.00000000E+00  0.00000000E+00
  0.00000000E+00  0.00000000E+00  0.00000000E+00
  0.00000000E+00  0.00000000E+00  0.00000000E+00
  0.00000000E+00  0.00000000E+00  0.00000000E+00
  0.00000000E+00  0.00000000E+00  0.00000000E+00
  0.00000000E+00  0.00000000E+00  0.00000000E+00
  0.00000000E+00  0.00000000E+00  0.00000000E+00
  0.00000000E+00  0.00000000E+00  0.00000000E+00
  0.00000000E+00  0.00000000E+00  0.00000000E+00
  0.00000000E+00  0.00000000E+00  0.00000000E+00
  0.00000000E+00  0.00000000E+00  0.00000000E+00
  0.00000000E+00  0.00000000E+00  0.00000000E+00
  0.00000000E+00  0.00000000E+00  0.00000000E+00
  0.00000000E+00  0.00000000E+00  0.00000000E+00
  0.00000000E+00  0.00000000E+00  0.00000000E+00
  0.00000000E+00  0.00000000E+00  0.00000000E+00
  0.00000000E+00  0.00000000E+00  0.00000000E+00
  0.00000000E+00  0.00000000E+00  0.00000000E+00
  0.00000000E+00  0.00000000E+00  0.00000000E+00
  0.00000000E+00  0.00000000E+00  0.00000000E+00
  0.00000000E+00  0.00000000E+00  0.00000000E+00
  0.00000000E+00  0.00000000E+00  0.00000000E+00
  0.00000000E+00  0.00000000E+00  0.00000000E+00
  0.00000000E+00  0.00000000E+00  0.00000000E+00
  0.00000000E+00  0.00000000E+00  0.00000000E+00
  0.00000000E+00  0.00000000E+00  0.00000000E+00
  0.00000000E+00  0.00000000E+00  0.00000000E+00
  0.00000000E+00  0.00000000E+00  0.00000000E+00
  0.00000000E+00  0.00000000E+00  0.00000000E+00
  0.00000000E+00  0.00000000E+00  0.00000000E+00
  0.00000000E+00  0.00000000E+00  0.00000000E+00
  0.00000000E+00  0.00000000E+00  0.00000000E+00
  0.00000000E+00  0.00000000E+00  0.00000000E+00
  0.00000000E+00  0.00000000E+00  0.00000000E+00
  0.00000000E+00  0.00000000E+00  0.00000000E+00
  0.00000000E+00  0.00000000E+00  0.00000000E+00
  0.00000000E+00  0.00000000E+00  0.00000000E+00
  0.00000000E+00  0.00000000E+00  0.00000000E+00
  0.00000000E+00  0.00000000E+00  0.00000000E+00
  0.00000000E+00  0.00000000E+00  0.00000000E+00
  0.00000000E+00  0.00000000E+00  0.00000000E+00
  0.00000000E+00  0.00000000E+00  0.00000000E+00
  0.00000000E+00  0.00000000E+00  0.00000000E+00
  0.00000000E+00  0.00000000E+00  0.00000000E+00
  0.00000000E+00  0.00000000E+00  0.00000000E+00
  0.00000000E+00  0.00000000E+00  0.00000000E+00
  0.00000000E+00  0.00000000E+00  0.00000000E+00
  0.00000000E+00  0.00000000E+00  0.00000000E+00
  0.00000000E+00  0.00000000E+00  0.00000000E+00
  0.00000000E+00  0.00000000E+00  0.00000000E+00
  0.00000000E+00  0.00000000E+00  0.00000000E+00
  0.00000000E+00  0.00000000E+00  0.00000000E+00
  0.00000000E+00  0.00000000E+00  0.00000000E+00
  0.00000000E+00  0.00000000E+00  0.00000000E+00
  0.00000000E+00  0.00000000E+00  0.00000000E+00
  0.00000000E+00  0.00000000E+00  0.00000000E+00
  0.00000000E+00  0.00000000E+00  0.00000000E+00
  0.00000000E+00  0.00000000E+00  0.00000000E+00
  0.00000000E+00  0.00000000E+00  0.00000000E+00
  0.00000000E+00  0.00000000E+00  0.00000000E+00
  0.00000000E+00  0.00000000E+00  0.00000000E+00
  0.00000000E+00  0.00000000E+00  0.00000000E+00
  0.00000000E+00  0.00000000E+00  0.00000000E+00
  0.00000000E+00  0.00000000E+00  0.00000000E+00
  0.00000000E+00  0.00000000E+00  0.00000000E+00
  0.00000000E+00  0.00000000E+00  0.00000000E+00
