C H O Si                                
   1.00000000000000     
     9.2874599999999994    0.0000000000000000    0.0000000000000000
     0.0000000000000000    8.7563099999999991    0.0000000000000000
     0.0000000000000000    0.0000000000000000   58.0000000000000000
   C    H    O    Si
    36    31    16    36
Selective dynamics
Direct
  0.9960129079949450  0.1302369009314454  0.0596095254294123   T   T   T
  0.3294893685568644  0.1303462254639321  0.0596932429132347   T   T   T
  0.6626979644650380  0.1303421398729596  0.0597134919141223   T   T   T
  0.9960282965354406  0.6305017316290394  0.0596250722873019   T   T   T
  0.3294179525407749  0.6301187749668524  0.0596649657859002   T   T   T
  0.6627851615969051  0.6301049891406552  0.0596890961769964   T   T   T
  0.1626096467192230  0.3757533421375288  0.1384484959277552   T   T   T
  0.4959179167133258  0.3759567276073727  0.1387548112986676   T   T   T
  0.8294086332087010  0.3757969863710396  0.1384497167766408   T   T   T
  0.1628696592250913  0.8760258850440593  0.1385110803805696   T   T   T
  0.4959774540550038  0.8755146533393336  0.1383236299608298   T   T   T
  0.8291616142422468  0.8759270215310561  0.1385610937956976   T   T   T
  0.3294096049059917  0.1267309642609004  0.1657237874120315   T   T   T
  0.6626250916954893  0.1267622553528062  0.1657635811568230   T   T   T
  0.9959604391403593  0.1255778690313111  0.1655214505272641   T   T   T
  0.3286639933683235  0.6261343191997413  0.1656319713606199   T   T   T
  0.6631158209942073  0.6258824672219102  0.1657113011800977   T   T   T
  0.9959620963794912  0.6260822859288518  0.1655945336667465   T   T   T
  0.1630830388731964  0.3789524813626082  0.1907531026524331   T   T   T
  0.4957814931500161  0.3840344872594076  0.1917270013527354   T   T   T
  0.8301477469304559  0.3789255252513768  0.1907735954557065   T   T   T
  0.1619370650218529  0.8804942020737174  0.1910154604621862   T   T   T
  0.4960734572166222  0.8892353912998379  0.1888511031068177   T   T   T
  0.8302514177119592  0.8803483266265631  0.1910818525420353   T   T   T
  0.1626468242708881  0.3759666320595509  0.0849859598462163   T   T   T
  0.4959467902351232  0.3759980935162657  0.0851410108892063   T   T   T
  0.8294245478471699  0.3760079174401247  0.0849924570898937   T   T   T
  0.1627694525683769  0.8760554912169840  0.0850194061180929   T   T   T
  0.4959418196280047  0.8759224046387134  0.0849617861275012   T   T   T
  0.8292826715572041  0.8761041452899408  0.0850344163827333   T   T   T
  0.3293885279913722  0.1257963277633744  0.1122045912286238   T   T   T
  0.6626593492932034  0.1257490045104586  0.1122219123305258   T   T   T
  0.9958830675154641  0.1256762301693607  0.1121221435238689   T   T   T
  0.3292537762063957  0.6255308324742892  0.1121580664551821   T   T   T
  0.6627546139562949  0.6255607680356907  0.1121818023088721   T   T   T
  0.9959111597402792  0.6259578050212105  0.1121306988510323   T   T   T
  0.0798348603250888  0.3575593059537186  0.0258115364279178   T   T   T
  0.4122641973038260  0.3578678332167414  0.0260355646727741   T   T   T
  0.7448693142310652  0.3571350485006520  0.0259456442011533   T   T   T
  0.0801040086496183  0.8580371325267687  0.0258350825601596   T   T   T
  0.4125920115432204  0.8570456514669728  0.0258391358056524   T   T   T
  0.7443310464329914  0.8572358799316547  0.0260197583784612   T   T   T
  0.3278955794087828  0.0580327356167156  0.0441525223653418   T   T   T
  0.6604280516215927  0.0580411847561903  0.0441744527805570   T   T   T
  0.9940188291229995  0.0579542429424878  0.0440668733726991   T   T   T
  0.3272652849521457  0.5578450624563478  0.0441254087593618   T   T   T
  0.6609998720700082  0.5577919680316404  0.0441501109879898   T   T   T
  0.9940430220504487  0.5582925771648333  0.0440735030040121   T   T   T
  0.8326743341303342  0.8085765592253872  0.2066432222886651   T   T   T
  0.8325095432069183  0.3066490219182210  0.2063175820172140   T   T   T
  0.1647739673243722  0.3074950588104157  0.2063850581050893   T   T   T
  0.4979250994057323  0.3110124487306087  0.2071889966332528   T   T   T
  0.1642186330331961  0.8081186099990271  0.2065168070663152   T   T   T
  0.0803741816966245  0.1083584276570487  0.2247171156950050   T   T   T
  0.4158796548779379  0.1055170265620193  0.2246581229403885   T   T   T
  0.7451477817907645  0.1065353720988551  0.2252696701894540   T   T   T
  0.0853717916090326  0.6082751880817097  0.2234489967596677   T   T   T
  0.3675642501855029  0.5705104439174512  0.2301063396622050   T   T   T
  0.7760553079222189  0.5997180187810915  0.2228318412664907   T   T   T
  0.4924848215496011  0.5414477334266158  0.2657273041772791   T   T   T
  0.4691656703288250  0.4571810708026778  0.3004968620786028   T   T   T
  0.5176389366524287  0.6262348771355144  0.3080849585466470   T   T   T
  0.2894363320155032  0.2730215911176376  0.2956141239223897   T   T   T
  0.4394862832340276  0.2183059958730247  0.2875267414620467   T   T   T
  0.6394442507495394  0.7696932041957516  0.3348786823540138   T   T   T
  0.5035318921444152  0.8625418269560270  0.3281675578273405   T   T   T
  0.5645573756650265  0.5366796663303430  0.2406340052076999   T   T   T
  0.1723317972763007  0.3386237526354968  0.0332887721364149   T   T   T
  0.5051525295490995  0.3392688323906217  0.0334456135174324   T   T   T
  0.8379125569693889  0.3387481680178789  0.0332997068930863   T   T   T
  0.1725881771161114  0.8388252143349559  0.0333227786749687   T   T   T
  0.5053939333319361  0.8383036592583208  0.0332609043137010   T   T   T
  0.8375118544012695  0.8390808262251900  0.0333434351658103   T   T   T
  0.3217651602296125  0.0874072789268468  0.2176173652975126   T   T   T
  0.6531780830293669  0.0878497117395231  0.2175954938884638   T   T   T
  0.9875907638327568  0.0893494804750531  0.2173183682754450   T   T   T
  0.3094618962326428  0.6034966084849441  0.2162752588233177   T   T   T
  0.6758764176067439  0.5908665509142740  0.2174979058643355   T   T   T
  0.9891111760177077  0.5865014657200892  0.2172308931359429   T   T   T
  0.5202364471322252  0.5504404682451502  0.2953800207364788   T   T   T
  0.3896532561523895  0.2654238690644734  0.3005037638505197   T   T   T
  0.5375309172866825  0.7591084155087670  0.3311485703533112   T   T   T
  0.4785263378926563  0.5056562782144590  0.2495986761233738   T   T   T
  0.4961631914777582  0.2478060654025718  0.0589663591497131   T   T   T
  0.8294299501123974  0.2476394199348722  0.0588515957113653   T   T   T
  0.1629262556359087  0.7477278508115620  0.0588626903170029   T   T   T
  0.4961851019972583  0.7474645332455548  0.0588327381167617   T   T   T
  0.8293209137102570  0.7477574705451970  0.0588808626855312   T   T   T
  0.1628236790778622  0.2476001698051773  0.0588432409264826   T   T   T
  0.9960303779904961  0.0005427246785241  0.1387418783373505   T   T   T
  0.3297024292915576  0.0008744054950589  0.1388616615055680   T   T   T
  0.6623300573956098  0.0008816142444226  0.1388894301945801   T   T   T
  0.9960383353217743  0.5008500574991376  0.1387356043382990   T   T   T
  0.3290960788879781  0.5007224569477522  0.1388398653511891   T   T   T
  0.6627633839837997  0.5006017512107640  0.1388329009883613   T   T   T
  0.1622608568884235  0.2500219305861470  0.1650455537400017   T   T   T
  0.4957416969984035  0.2518324165666184  0.1656099320405335   T   T   T
  0.8297601855428315  0.2498837375093086  0.1650157168176358   T   T   T
  0.1624669637259610  0.7507717956269956  0.1651182823034838   T   T   T
  0.4956765362794517  0.7488673941634315  0.1651041927772043   T   T   T
  0.8293256506564146  0.7505802598048967  0.1651742529260087   T   T   T
  0.3281143435417924  0.9970926794309466  0.1920410906332607   T   T   T
  0.6638477399499102  0.9971470503632694  0.1920986210831901   T   T   T
  0.9960906851848246  0.9983476875083278  0.1917610860417046   T   T   T
  0.3272069277700120  0.5012834741308370  0.1921185055039419   T   T   T
  0.9965819642426257  0.4961121727827734  0.1915415396210939   T   T   T
  0.6648125515890777  0.4983763158985552  0.1918948855528058   T   T   T
  0.9960210844709818  0.0002969840077566  0.0855076888091876   T   T   T
  0.3294027694313172  0.0003431460521862  0.0855595382793733   T   T   T
  0.6626116158228723  0.0003169713974277  0.0855771644448720   T   T   T
  0.9960241285350144  0.5004199433581606  0.0855033641579701   T   T   T
  0.3292972236911295  0.5001990515384299  0.0855522188346595   T   T   T
  0.6627634641009985  0.5001789239282298  0.0855642431820117   T   T   T
  0.1625382218842647  0.2506619415956292  0.1118588307240599   T   T   T
  0.4958966455638517  0.2507405790888256  0.1120463951753454   T   T   T
  0.8292375581391765  0.2506556699697757  0.1118603643819224   T   T   T
  0.1627206761576721  0.7508078048365482  0.1118941669431095   T   T   T
  0.4958633015015719  0.7502898840068799  0.1117892590633666   T   T   T
  0.8290920127144523  0.7508281845233006  0.1119184100942507   T   T   T
 
  0.00000000E+00  0.00000000E+00  0.00000000E+00
  0.00000000E+00  0.00000000E+00  0.00000000E+00
  0.00000000E+00  0.00000000E+00  0.00000000E+00
  0.00000000E+00  0.00000000E+00  0.00000000E+00
  0.00000000E+00  0.00000000E+00  0.00000000E+00
  0.00000000E+00  0.00000000E+00  0.00000000E+00
  0.00000000E+00  0.00000000E+00  0.00000000E+00
  0.00000000E+00  0.00000000E+00  0.00000000E+00
  0.00000000E+00  0.00000000E+00  0.00000000E+00
  0.00000000E+00  0.00000000E+00  0.00000000E+00
  0.00000000E+00  0.00000000E+00  0.00000000E+00
  0.00000000E+00  0.00000000E+00  0.00000000E+00
  0.00000000E+00  0.00000000E+00  0.00000000E+00
  0.00000000E+00  0.00000000E+00  0.00000000E+00
  0.00000000E+00  0.00000000E+00  0.00000000E+00
  0.00000000E+00  0.00000000E+00  0.00000000E+00
  0.00000000E+00  0.00000000E+00  0.00000000E+00
  0.00000000E+00  0.00000000E+00  0.00000000E+00
  0.00000000E+00  0.00000000E+00  0.00000000E+00
  0.00000000E+00  0.00000000E+00  0.00000000E+00
  0.00000000E+00  0.00000000E+00  0.00000000E+00
  0.00000000E+00  0.00000000E+00  0.00000000E+00
  0.00000000E+00  0.00000000E+00  0.00000000E+00
  0.00000000E+00  0.00000000E+00  0.00000000E+00
  0.00000000E+00  0.00000000E+00  0.00000000E+00
  0.00000000E+00  0.00000000E+00  0.00000000E+00
  0.00000000E+00  0.00000000E+00  0.00000000E+00
  0.00000000E+00  0.00000000E+00  0.00000000E+00
  0.00000000E+00  0.00000000E+00  0.00000000E+00
  0.00000000E+00  0.00000000E+00  0.00000000E+00
  0.00000000E+00  0.00000000E+00  0.00000000E+00
  0.00000000E+00  0.00000000E+00  0.00000000E+00
  0.00000000E+00  0.00000000E+00  0.00000000E+00
  0.00000000E+00  0.00000000E+00  0.00000000E+00
  0.00000000E+00  0.00000000E+00  0.00000000E+00
  0.00000000E+00  0.00000000E+00  0.00000000E+00
  0.00000000E+00  0.00000000E+00  0.00000000E+00
  0.00000000E+00  0.00000000E+00  0.00000000E+00
  0.00000000E+00  0.00000000E+00  0.00000000E+00
  0.00000000E+00  0.00000000E+00  0.00000000E+00
  0.00000000E+00  0.00000000E+00  0.00000000E+00
  0.00000000E+00  0.00000000E+00  0.00000000E+00
  0.00000000E+00  0.00000000E+00  0.00000000E+00
  0.00000000E+00  0.00000000E+00  0.00000000E+00
  0.00000000E+00  0.00000000E+00  0.00000000E+00
  0.00000000E+00  0.00000000E+00  0.00000000E+00
  0.00000000E+00  0.00000000E+00  0.00000000E+00
  0.00000000E+00  0.00000000E+00  0.00000000E+00
  0.00000000E+00  0.00000000E+00  0.00000000E+00
  0.00000000E+00  0.00000000E+00  0.00000000E+00
  0.00000000E+00  0.00000000E+00  0.00000000E+00
  0.00000000E+00  0.00000000E+00  0.00000000E+00
  0.00000000E+00  0.00000000E+00  0.00000000E+00
  0.00000000E+00  0.00000000E+00  0.00000000E+00
  0.00000000E+00  0.00000000E+00  0.00000000E+00
  0.00000000E+00  0.00000000E+00  0.00000000E+00
  0.00000000E+00  0.00000000E+00  0.00000000E+00
  0.00000000E+00  0.00000000E+00  0.00000000E+00
  0.00000000E+00  0.00000000E+00  0.00000000E+00
  0.00000000E+00  0.00000000E+00  0.00000000E+00
  0.00000000E+00  0.00000000E+00  0.00000000E+00
  0.00000000E+00  0.00000000E+00  0.00000000E+00
  0.00000000E+00  0.00000000E+00  0.00000000E+00
  0.00000000E+00  0.00000000E+00  0.00000000E+00
  0.00000000E+00  0.00000000E+00  0.00000000E+00
  0.00000000E+00  0.00000000E+00  0.00000000E+00
  0.00000000E+00  0.00000000E+00  0.00000000E+00
  0.00000000E+00  0.00000000E+00  0.00000000E+00
  0.00000000E+00  0.00000000E+00  0.00000000E+00
  0.00000000E+00  0.00000000E+00  0.00000000E+00
  0.00000000E+00  0.00000000E+00  0.00000000E+00
  0.00000000E+00  0.00000000E+00  0.00000000E+00
  0.00000000E+00  0.00000000E+00  0.00000000E+00
  0.00000000E+00  0.00000000E+00  0.00000000E+00
  0.00000000E+00  0.00000000E+00  0.00000000E+00
  0.00000000E+00  0.00000000E+00  0.00000000E+00
  0.00000000E+00  0.00000000E+00  0.00000000E+00
  0.00000000E+00  0.00000000E+00  0.00000000E+00
  0.00000000E+00  0.00000000E+00  0.00000000E+00
  0.00000000E+00  0.00000000E+00  0.00000000E+00
  0.00000000E+00  0.00000000E+00  0.00000000E+00
  0.00000000E+00  0.00000000E+00  0.00000000E+00
  0.00000000E+00  0.00000000E+00  0.00000000E+00
  0.00000000E+00  0.00000000E+00  0.00000000E+00
  0.00000000E+00  0.00000000E+00  0.00000000E+00
  0.00000000E+00  0.00000000E+00  0.00000000E+00
  0.00000000E+00  0.00000000E+00  0.00000000E+00
  0.00000000E+00  0.00000000E+00  0.00000000E+00
  0.00000000E+00  0.00000000E+00  0.00000000E+00
  0.00000000E+00  0.00000000E+00  0.00000000E+00
  0.00000000E+00  0.00000000E+00  0.00000000E+00
  0.00000000E+00  0.00000000E+00  0.00000000E+00
  0.00000000E+00  0.00000000E+00  0.00000000E+00
  0.00000000E+00  0.00000000E+00  0.00000000E+00
  0.00000000E+00  0.00000000E+00  0.00000000E+00
  0.00000000E+00  0.00000000E+00  0.00000000E+00
  0.00000000E+00  0.00000000E+00  0.00000000E+00
  0.00000000E+00  0.00000000E+00  0.00000000E+00
  0.00000000E+00  0.00000000E+00  0.00000000E+00
  0.00000000E+00  0.00000000E+00  0.00000000E+00
  0.00000000E+00  0.00000000E+00  0.00000000E+00
  0.00000000E+00  0.00000000E+00  0.00000000E+00
  0.00000000E+00  0.00000000E+00  0.00000000E+00
  0.00000000E+00  0.00000000E+00  0.00000000E+00
  0.00000000E+00  0.00000000E+00  0.00000000E+00
  0.00000000E+00  0.00000000E+00  0.00000000E+00
  0.00000000E+00  0.00000000E+00  0.00000000E+00
  0.00000000E+00  0.00000000E+00  0.00000000E+00
  0.00000000E+00  0.00000000E+00  0.00000000E+00
  0.00000000E+00  0.00000000E+00  0.00000000E+00
  0.00000000E+00  0.00000000E+00  0.00000000E+00
  0.00000000E+00  0.00000000E+00  0.00000000E+00
  0.00000000E+00  0.00000000E+00  0.00000000E+00
  0.00000000E+00  0.00000000E+00  0.00000000E+00
  0.00000000E+00  0.00000000E+00  0.00000000E+00
  0.00000000E+00  0.00000000E+00  0.00000000E+00
  0.00000000E+00  0.00000000E+00  0.00000000E+00
  0.00000000E+00  0.00000000E+00  0.00000000E+00
  0.00000000E+00  0.00000000E+00  0.00000000E+00
  0.00000000E+00  0.00000000E+00  0.00000000E+00
  0.00000000E+00  0.00000000E+00  0.00000000E+00
