C H O Si                                
   1.00000000000000     
     9.2874599999999994    0.0000000000000000    0.0000000000000000
     0.0000000000000000    8.7563099999999991    0.0000000000000000
     0.0000000000000000    0.0000000000000000   58.0000000000000000
   C    H    O    Si
    36    32    16    36
Selective dynamics
Direct
  0.9930273538869639  0.1260561505890749  0.0603979828951115   T   T   T
  0.3263301376486837  0.1260950086699960  0.0604990190500361   T   T   T
  0.6595661591371614  0.1260948566163411  0.0604823514783503   T   T   T
  0.9929932739233809  0.6261992170229339  0.0604150273048013   T   T   T
  0.3263296407156502  0.6259710956318196  0.0605290020955750   T   T   T
  0.6596077518616505  0.6260325206735972  0.0604602265080082   T   T   T
  0.1606117310308128  0.3711936424581834  0.1393424117974661   T   T   T
  0.4938183654029255  0.3716461784677254  0.1395996951563675   T   T   T
  0.8271903034498154  0.3710966802610813  0.1392709034454427   T   T   T
  0.1608797671352984  0.8712522344565564  0.1394001009186265   T   T   T
  0.4938266764314053  0.8709476127171255  0.1394674520176851   T   T   T
  0.8270050598070499  0.8713432038540423  0.1393704079904297   T   T   T
  0.3282147501690488  0.1217933998901165  0.1666040352093377   T   T   T
  0.6602170653567617  0.1217053428331702  0.1665863655619906   T   T   T
  0.9944512015696796  0.1206689951817688  0.1663113170180768   T   T   T
  0.3273045839694768  0.6211923736626620  0.1667864987155181   T   T   T
  0.6611931785678260  0.6214388344724272  0.1664989274116333   T   T   T
  0.9942972558674843  0.6212711975443393  0.1664199263617601   T   T   T
  0.1616454613391774  0.3740550176308942  0.1916832777714430   T   T   T
  0.4950342356518371  0.3796770300111009  0.1926954362527895   T   T   T
  0.8289937612029568  0.3734064504337899  0.1914738179883098   T   T   T
  0.1610340221858139  0.8765441289464669  0.1919088383145347   T   T   T
  0.4945179109321447  0.8755265639466774  0.1920474507085929   T   T   T
  0.8281032157032331  0.8764912878607380  0.1918350699049365   T   T   T
  0.1599734509963753  0.3714213677663398  0.0858560117890752   T   T   T
  0.4932916773801160  0.3714103517922650  0.0859822228467896   T   T   T
  0.8266315985634816  0.3714177407503294  0.0858088895377462   T   T   T
  0.1600644433369357  0.8714017720572531  0.0858776822813982   T   T   T
  0.4932553432756333  0.8713648796888999  0.0859258180300934   T   T   T
  0.8265597476156568  0.8714614740134872  0.0858576199501278   T   T   T
  0.3269366345468912  0.1212966564510131  0.1130436504605528   T   T   T
  0.6600845345348968  0.1212581552644387  0.1130318959840751   T   T   T
  0.9935364990863839  0.1211586943469274  0.1129314083580932   T   T   T
  0.3268623285853909  0.6211322279099140  0.1130949265399824   T   T   T
  0.6601835720736446  0.6212183738528085  0.1129915778080269   T   T   T
  0.9935076218440517  0.6213609055422402  0.1129540227775210   T   T   T
  0.0797414179314403  0.3533117721083434  0.0261088302368239   T   T   T
  0.4117423311716260  0.3532442978999485  0.0263146976709019   T   T   T
  0.7449411137841732  0.3531138079493188  0.0261664005198101   T   T   T
  0.0799287180321573  0.8533302667324403  0.0261199840073403   T   T   T
  0.4114552645948952  0.8530556942699717  0.0262868869128959   T   T   T
  0.7449674565255153  0.8532241329724088  0.0261940148662993   T   T   T
  0.3243526562775330  0.0538294544679054  0.0449500703886055   T   T   T
  0.6569712048255871  0.0538550852154011  0.0449294576718097   T   T   T
  0.9908534520359532  0.0539870627072251  0.0448289884790993   T   T   T
  0.3242068594177849  0.5535725426935891  0.0449925479421745   T   T   T
  0.6572229500158755  0.5539067097836408  0.0448985862864035   T   T   T
  0.9907776228856181  0.5540842886235009  0.0448492175869734   T   T   T
  0.8297594169851673  0.8050105531792374  0.2074459033538019   T   T   T
  0.8310599713217086  0.3016956347602034  0.2070785943036451   T   T   T
  0.1623550241486581  0.3020549028036896  0.2072652920029145   T   T   T
  0.4983735348323005  0.3063533485555252  0.2081319655912588   T   T   T
  0.1632551190702537  0.8040505196171581  0.2074337418109169   T   T   T
  0.4946298040964526  0.8040644706815849  0.2076919294156914   T   T   T
  0.0746674581728522  0.1039593256025574  0.2261789903535350   T   T   T
  0.4086550414446772  0.1022245316758139  0.2263974787392820   T   T   T
  0.7429093174898251  0.1035340972064889  0.2261949455224979   T   T   T
  0.0797672106883443  0.5994485854974554  0.2251743767934681   T   T   T
  0.3733122030664777  0.6165680588715662  0.2306138772134493   T   T   T
  0.7791366707347251  0.5913346325720933  0.2236110147501227   T   T   T
  0.5114218157360170  0.6364095090870537  0.2646560975517880   T   T   T
  0.5057565846980513  0.4778288508919323  0.2936054301494636   T   T   T
  0.5778555608237549  0.6312494946516373  0.3024649653138637   T   T   T
  0.3051543268400623  0.3744568576433065  0.3101320409791695   T   T   T
  0.4091378247379101  0.2430418219227063  0.3034296213945791   T   T   T
  0.6494369829197089  0.7420001983622706  0.3370249025412068   T   T   T
  0.4857364650409673  0.7649786865420385  0.3330855273088267   T   T   T
  0.5699103214472436  0.6564697526722585  0.2393400726377614   T   T   T
  0.1699602247112221  0.3376187185695659  0.0344105411292691   T   T   T
  0.5024534428416401  0.3380313015730148  0.0345234810546725   T   T   T
  0.8356512258835850  0.3372651702505531  0.0343495536498677   T   T   T
  0.1701020148929651  0.8375160872312860  0.0344280136327589   T   T   T
  0.5022961000634000  0.8376408547993588  0.0344615309350551   T   T   T
  0.8356084982926797  0.8376785638272035  0.0344115226917829   T   T   T
  0.3185648293142395  0.0876912370245879  0.2180060297949223   T   T   T
  0.6523124198251770  0.0875432099053495  0.2179995118110516   T   T   T
  0.9845074773731355  0.0879172909578133  0.2178601475744883   T   T   T
  0.3010443872251135  0.5885937681843912  0.2181913436925333   T   T   T
  0.6794067572292352  0.5888256675750461  0.2178104385840094   T   T   T
  0.9856152442679589  0.5829367196588037  0.2178712463088403   T   T   T
  0.5760024904867562  0.5586912911404255  0.2892667418670063   T   T   T
  0.3707706313593021  0.3403509753074410  0.2980639905733170   T   T   T
  0.5784829577312121  0.7662389200914100  0.3252013927279644   T   T   T
  0.4867587343267379  0.6829671261331042  0.2492819411929439   T   T   T
  0.4929996391649989  0.2440353307793336  0.0595991200906986   T   T   T
  0.8263200788160519  0.2438740233053199  0.0594708521786803   T   T   T
  0.1598310993972260  0.7439019190693624  0.0595340056443674   T   T   T
  0.4929798998990290  0.7439324610057997  0.0595661749647958   T   T   T
  0.8262601176413579  0.7439810678763307  0.0595072906953240   T   T   T
  0.1597792057408050  0.2439507019858565  0.0595106336139262   T   T   T
  0.9939825308694307  0.9964483052210116  0.1395705305750499   T   T   T
  0.3275564767332309  0.9971019630739650  0.1397414987487874   T   T   T
  0.6600596258844476  0.9969834012139641  0.1397227341676547   T   T   T
  0.9938937020776726  0.4967540347342834  0.1395811514552735   T   T   T
  0.3270500142543289  0.4971300465518516  0.1398673901731711   T   T   T
  0.6605420088091181  0.4969105991706561  0.1396621575126460   T   T   T
  0.1610209729067971  0.2458384924662101  0.1659723521211212   T   T   T
  0.4940994338029263  0.2484137854373444  0.1665224412246126   T   T   T
  0.8278001583041448  0.2451437336678832  0.1658287765091845   T   T   T
  0.1609287805063680  0.7466403975667566  0.1661457189951408   T   T   T
  0.4938842609010167  0.7460933491181494  0.1662148708079295   T   T   T
  0.8276731153794030  0.7466528608321122  0.1660764918709944   T   T   T
  0.3277791504255018  0.9939756065618617  0.1929145224521567   T   T   T
  0.6612448752844681  0.9938024878530289  0.1929046182093182   T   T   T
  0.9945069803968249  0.9943010040175329  0.1927506848585602   T   T   T
  0.3258273363012109  0.4959173901436285  0.1936029062343309   T   T   T
  0.9951729108663138  0.4914968862644681  0.1924677971244128   T   T   T
  0.6644343846378872  0.4936407413487442  0.1927137386647458   T   T   T
  0.9933247348136486  0.9964739555163988  0.0862316662064860   T   T   T
  0.3266855508708654  0.9965601857942732  0.0863246184960910   T   T   T
  0.6598553434879101  0.9965578335878640  0.0863109399019418   T   T   T
  0.9932948431898336  0.4965596815731548  0.0862396045953020   T   T   T
  0.3266404164818245  0.4965087687680286  0.0863660049376823   T   T   T
  0.6599356594856849  0.4964926816959971  0.0862858733964039   T   T   T
  0.1601758756912661  0.2468790453594640  0.1126819405883312   T   T   T
  0.4934311233926938  0.2470280184360348  0.1128568245249658   T   T   T
  0.8268279520273946  0.2467707152853639  0.1126325786564218   T   T   T
  0.1603033018578241  0.7468859748564547  0.1127247288599507   T   T   T
  0.4934066397465818  0.7467888976261655  0.1127658352727474   T   T   T
  0.8267023890666959  0.7469164730362796  0.1126934245118949   T   T   T
 
  0.00000000E+00  0.00000000E+00  0.00000000E+00
  0.00000000E+00  0.00000000E+00  0.00000000E+00
  0.00000000E+00  0.00000000E+00  0.00000000E+00
  0.00000000E+00  0.00000000E+00  0.00000000E+00
  0.00000000E+00  0.00000000E+00  0.00000000E+00
  0.00000000E+00  0.00000000E+00  0.00000000E+00
  0.00000000E+00  0.00000000E+00  0.00000000E+00
  0.00000000E+00  0.00000000E+00  0.00000000E+00
  0.00000000E+00  0.00000000E+00  0.00000000E+00
  0.00000000E+00  0.00000000E+00  0.00000000E+00
  0.00000000E+00  0.00000000E+00  0.00000000E+00
  0.00000000E+00  0.00000000E+00  0.00000000E+00
  0.00000000E+00  0.00000000E+00  0.00000000E+00
  0.00000000E+00  0.00000000E+00  0.00000000E+00
  0.00000000E+00  0.00000000E+00  0.00000000E+00
  0.00000000E+00  0.00000000E+00  0.00000000E+00
  0.00000000E+00  0.00000000E+00  0.00000000E+00
  0.00000000E+00  0.00000000E+00  0.00000000E+00
  0.00000000E+00  0.00000000E+00  0.00000000E+00
  0.00000000E+00  0.00000000E+00  0.00000000E+00
  0.00000000E+00  0.00000000E+00  0.00000000E+00
  0.00000000E+00  0.00000000E+00  0.00000000E+00
  0.00000000E+00  0.00000000E+00  0.00000000E+00
  0.00000000E+00  0.00000000E+00  0.00000000E+00
  0.00000000E+00  0.00000000E+00  0.00000000E+00
  0.00000000E+00  0.00000000E+00  0.00000000E+00
  0.00000000E+00  0.00000000E+00  0.00000000E+00
  0.00000000E+00  0.00000000E+00  0.00000000E+00
  0.00000000E+00  0.00000000E+00  0.00000000E+00
  0.00000000E+00  0.00000000E+00  0.00000000E+00
  0.00000000E+00  0.00000000E+00  0.00000000E+00
  0.00000000E+00  0.00000000E+00  0.00000000E+00
  0.00000000E+00  0.00000000E+00  0.00000000E+00
  0.00000000E+00  0.00000000E+00  0.00000000E+00
  0.00000000E+00  0.00000000E+00  0.00000000E+00
  0.00000000E+00  0.00000000E+00  0.00000000E+00
  0.00000000E+00  0.00000000E+00  0.00000000E+00
  0.00000000E+00  0.00000000E+00  0.00000000E+00
  0.00000000E+00  0.00000000E+00  0.00000000E+00
  0.00000000E+00  0.00000000E+00  0.00000000E+00
  0.00000000E+00  0.00000000E+00  0.00000000E+00
  0.00000000E+00  0.00000000E+00  0.00000000E+00
  0.00000000E+00  0.00000000E+00  0.00000000E+00
  0.00000000E+00  0.00000000E+00  0.00000000E+00
  0.00000000E+00  0.00000000E+00  0.00000000E+00
  0.00000000E+00  0.00000000E+00  0.00000000E+00
  0.00000000E+00  0.00000000E+00  0.00000000E+00
  0.00000000E+00  0.00000000E+00  0.00000000E+00
  0.00000000E+00  0.00000000E+00  0.00000000E+00
  0.00000000E+00  0.00000000E+00  0.00000000E+00
  0.00000000E+00  0.00000000E+00  0.00000000E+00
  0.00000000E+00  0.00000000E+00  0.00000000E+00
  0.00000000E+00  0.00000000E+00  0.00000000E+00
  0.00000000E+00  0.00000000E+00  0.00000000E+00
  0.00000000E+00  0.00000000E+00  0.00000000E+00
  0.00000000E+00  0.00000000E+00  0.00000000E+00
  0.00000000E+00  0.00000000E+00  0.00000000E+00
  0.00000000E+00  0.00000000E+00  0.00000000E+00
  0.00000000E+00  0.00000000E+00  0.00000000E+00
  0.00000000E+00  0.00000000E+00  0.00000000E+00
  0.00000000E+00  0.00000000E+00  0.00000000E+00
  0.00000000E+00  0.00000000E+00  0.00000000E+00
  0.00000000E+00  0.00000000E+00  0.00000000E+00
  0.00000000E+00  0.00000000E+00  0.00000000E+00
  0.00000000E+00  0.00000000E+00  0.00000000E+00
  0.00000000E+00  0.00000000E+00  0.00000000E+00
  0.00000000E+00  0.00000000E+00  0.00000000E+00
  0.00000000E+00  0.00000000E+00  0.00000000E+00
  0.00000000E+00  0.00000000E+00  0.00000000E+00
  0.00000000E+00  0.00000000E+00  0.00000000E+00
  0.00000000E+00  0.00000000E+00  0.00000000E+00
  0.00000000E+00  0.00000000E+00  0.00000000E+00
  0.00000000E+00  0.00000000E+00  0.00000000E+00
  0.00000000E+00  0.00000000E+00  0.00000000E+00
  0.00000000E+00  0.00000000E+00  0.00000000E+00
  0.00000000E+00  0.00000000E+00  0.00000000E+00
  0.00000000E+00  0.00000000E+00  0.00000000E+00
  0.00000000E+00  0.00000000E+00  0.00000000E+00
  0.00000000E+00  0.00000000E+00  0.00000000E+00
  0.00000000E+00  0.00000000E+00  0.00000000E+00
  0.00000000E+00  0.00000000E+00  0.00000000E+00
  0.00000000E+00  0.00000000E+00  0.00000000E+00
  0.00000000E+00  0.00000000E+00  0.00000000E+00
  0.00000000E+00  0.00000000E+00  0.00000000E+00
  0.00000000E+00  0.00000000E+00  0.00000000E+00
  0.00000000E+00  0.00000000E+00  0.00000000E+00
  0.00000000E+00  0.00000000E+00  0.00000000E+00
  0.00000000E+00  0.00000000E+00  0.00000000E+00
  0.00000000E+00  0.00000000E+00  0.00000000E+00
  0.00000000E+00  0.00000000E+00  0.00000000E+00
  0.00000000E+00  0.00000000E+00  0.00000000E+00
  0.00000000E+00  0.00000000E+00  0.00000000E+00
  0.00000000E+00  0.00000000E+00  0.00000000E+00
  0.00000000E+00  0.00000000E+00  0.00000000E+00
  0.00000000E+00  0.00000000E+00  0.00000000E+00
  0.00000000E+00  0.00000000E+00  0.00000000E+00
  0.00000000E+00  0.00000000E+00  0.00000000E+00
  0.00000000E+00  0.00000000E+00  0.00000000E+00
  0.00000000E+00  0.00000000E+00  0.00000000E+00
  0.00000000E+00  0.00000000E+00  0.00000000E+00
  0.00000000E+00  0.00000000E+00  0.00000000E+00
  0.00000000E+00  0.00000000E+00  0.00000000E+00
  0.00000000E+00  0.00000000E+00  0.00000000E+00
  0.00000000E+00  0.00000000E+00  0.00000000E+00
  0.00000000E+00  0.00000000E+00  0.00000000E+00
  0.00000000E+00  0.00000000E+00  0.00000000E+00
  0.00000000E+00  0.00000000E+00  0.00000000E+00
  0.00000000E+00  0.00000000E+00  0.00000000E+00
  0.00000000E+00  0.00000000E+00  0.00000000E+00
  0.00000000E+00  0.00000000E+00  0.00000000E+00
  0.00000000E+00  0.00000000E+00  0.00000000E+00
  0.00000000E+00  0.00000000E+00  0.00000000E+00
  0.00000000E+00  0.00000000E+00  0.00000000E+00
  0.00000000E+00  0.00000000E+00  0.00000000E+00
  0.00000000E+00  0.00000000E+00  0.00000000E+00
  0.00000000E+00  0.00000000E+00  0.00000000E+00
  0.00000000E+00  0.00000000E+00  0.00000000E+00
  0.00000000E+00  0.00000000E+00  0.00000000E+00
  0.00000000E+00  0.00000000E+00  0.00000000E+00
  0.00000000E+00  0.00000000E+00  0.00000000E+00
