C H O Si                                
   1.00000000000000     
     9.2874599999999994    0.0000000000000000    0.0000000000000000
     0.0000000000000000    8.7563099999999991    0.0000000000000000
     0.0000000000000000    0.0000000000000000   58.0000000000000000
   C    H    O    Si
    36    32    16    36
Selective dynamics
Direct
  0.9929348459724953  0.1259287637857655  0.0604146234611176   T   T   T
  0.3263181751616651  0.1259332780612511  0.0605168228872998   T   T   T
  0.6594853019134768  0.1259518226247457  0.0604936960789046   T   T   T
  0.9928801799378200  0.6260486767749900  0.0604333966134377   T   T   T
  0.3263437423729181  0.6258415676475383  0.0605383167549230   T   T   T
  0.6595045432929377  0.6259314702392109  0.0604716770784497   T   T   T
  0.1605259276785601  0.3711232076510140  0.1393363975582593   T   T   T
  0.4937585233349893  0.3715023241649834  0.1396037293846529   T   T   T
  0.8271108139413637  0.3710889641512003  0.1392627538563945   T   T   T
  0.1607619594889214  0.8712225030351346  0.1393915869754080   T   T   T
  0.4937500320511027  0.8708761870953634  0.1394736816008712   T   T   T
  0.8269470637946305  0.8712369187683824  0.1393619352049616   T   T   T
  0.3281220430842378  0.1217268408111401  0.1666126435613736   T   T   T
  0.6601065571756165  0.1215139143271196  0.1665863166899733   T   T   T
  0.9942984774814273  0.1206460713285281  0.1662925673854798   T   T   T
  0.3272160243560405  0.6211784709978425  0.1667824357251302   T   T   T
  0.6610107999324542  0.6213611301111509  0.1664988123767943   T   T   T
  0.9941652677966387  0.6211929977913414  0.1664152763242235   T   T   T
  0.1615149608417508  0.3740379056647112  0.1916930856476947   T   T   T
  0.4949602361863762  0.3795670307491451  0.1926848726712532   T   T   T
  0.8289244028275121  0.3734784910973325  0.1914862743176060   T   T   T
  0.1609292521062626  0.8764587558726415  0.1919046152037611   T   T   T
  0.4944412883929889  0.8755280636148535  0.1920458917761880   T   T   T
  0.8280762902710305  0.8764220161851464  0.1918361793796873   T   T   T
  0.1599443775403785  0.3713231527534753  0.0858746827705858   T   T   T
  0.4932758764834293  0.3713289143846938  0.0859902703012409   T   T   T
  0.8266383274894641  0.3712821823251065  0.0858334612015157   T   T   T
  0.1600361322162667  0.8713309329713540  0.0858960401274591   T   T   T
  0.4932605193834150  0.8713325934380591  0.0859373447669078   T   T   T
  0.8265506059308219  0.8713408518582914  0.0858768469851595   T   T   T
  0.3267941711878441  0.1213737378136777  0.1130326988923438   T   T   T
  0.6599553864387236  0.1213533477008893  0.1130228387565533   T   T   T
  0.9934949069874329  0.1212056871517068  0.1129235737926353   T   T   T
  0.3267204501946804  0.6211989102960648  0.1130916033603085   T   T   T
  0.6600436830372803  0.6213056127698663  0.1129848983699404   T   T   T
  0.9934051151045243  0.6214331945227154  0.1129423921480444   T   T   T
  0.0796370688070171  0.3533263771964936  0.0261310290971490   T   T   T
  0.4116114178812929  0.3532640912226560  0.0263323521477063   T   T   T
  0.7448150317587613  0.3531504161395930  0.0261800212567950   T   T   T
  0.0798334427843167  0.8533490326032497  0.0261412510714987   T   T   T
  0.4113475147801279  0.8530800696255120  0.0263042509560588   T   T   T
  0.7448558596175138  0.8532592416858865  0.0262088968124503   T   T   T
  0.3243867035714232  0.0538686999363709  0.0449545285913208   T   T   T
  0.6569950348101812  0.0538942868544337  0.0449336440413256   T   T   T
  0.9908936324069760  0.0540431070914839  0.0448329730643937   T   T   T
  0.3242350143444365  0.5536067135124335  0.0449973283376420   T   T   T
  0.6572568331330232  0.5539296339228956  0.0448989001245312   T   T   T
  0.9908187100852850  0.5541352528961710  0.0448536957219819   T   T   T
  0.8297178944890707  0.8050423407406163  0.2074452482333703   T   T   T
  0.8310578452593973  0.3017146076078434  0.2070776368042399   T   T   T
  0.1623444327227806  0.3020662916313658  0.2072595148213899   T   T   T
  0.4983726841386017  0.3064016062560527  0.2081318842741699   T   T   T
  0.1632168979388890  0.8040870906722359  0.2074306934589397   T   T   T
  0.4946102084458036  0.8040895887223424  0.2076878270503438   T   T   T
  0.0747180089728355  0.1040613059454142  0.2261738090297340   T   T   T
  0.4086971496332075  0.1023195533139805  0.2263946956279341   T   T   T
  0.7429308306693287  0.1036406959154676  0.2261904062546201   T   T   T
  0.0798278412637139  0.5994203468715343  0.2251661874545503   T   T   T
  0.3731935470848061  0.6165149777907841  0.2306131245457126   T   T   T
  0.7791938666495168  0.5913335167189313  0.2236058434830956   T   T   T
  0.5114855149262461  0.6364683427272315  0.2646496575755798   T   T   T
  0.5059732825057807  0.4778616964198861  0.2936010852679926   T   T   T
  0.5780432273777665  0.6312355497069035  0.3024622399135669   T   T   T
  0.3051825659015315  0.3745469915251528  0.3101356349049437   T   T   T
  0.4091291551052596  0.2431000889070769  0.3034221274701376   T   T   T
  0.6494189698272197  0.7420177818577399  0.3370324189461991   T   T   T
  0.4857085824954543  0.7649269674863177  0.3330898214750459   T   T   T
  0.5699937837865190  0.6565392990391603  0.2393253537801519   T   T   T
  0.1701127024759009  0.3378627379766508  0.0343898320395251   T   T   T
  0.5025489582228005  0.3382645227276548  0.0345079839861871   T   T   T
  0.8357362972110989  0.3374162117808011  0.0343289040378730   T   T   T
  0.1702323141075016  0.8377380072626497  0.0344108483854592   T   T   T
  0.5023544171407991  0.8378246732582574  0.0344534703201410   T   T   T
  0.8356762103377728  0.8378355912035587  0.0343986343067854   T   T   T
  0.3186953745040711  0.0876510846809626  0.2179882393548496   T   T   T
  0.6524904890216648  0.0874750274402120  0.2179687479689768   T   T   T
  0.9846178070749061  0.0879095378923708  0.2178428464628152   T   T   T
  0.3012078859289882  0.5886649417680428  0.2181916276883653   T   T   T
  0.6793983143500633  0.5888512821528000  0.2178008888861807   T   T   T
  0.9856975947595468  0.5829361511521223  0.2178505296353051   T   T   T
  0.5761837424740047  0.5586875407111497  0.2892746063061934   T   T   T
  0.3707389753876510  0.3404282559965046  0.2980531795857808   T   T   T
  0.5784588563207631  0.7662759992903142  0.3251989754689588   T   T   T
  0.4869351663581484  0.6829137098740612  0.2492858446043453   T   T   T
  0.4928990252250643  0.2439450609412143  0.0596052552959386   T   T   T
  0.8262241582815802  0.2437933608813392  0.0594735074595478   T   T   T
  0.1597815828373948  0.7438234242996661  0.0595309528024816   T   T   T
  0.4928954545384111  0.7438504288681078  0.0595642211512470   T   T   T
  0.8261541063857828  0.7438771490703648  0.0595071590229763   T   T   T
  0.1597025376999736  0.2438721019784608  0.0595089876975499   T   T   T
  0.9940842175621177  0.9964152412287088  0.1395704211769763   T   T   T
  0.3276128031280183  0.9970264388873799  0.1397356901025845   T   T   T
  0.6601419067140640  0.9969574431808936  0.1397272941264810   T   T   T
  0.9940118242840729  0.4967246968545708  0.1395807462911666   T   T   T
  0.3270620892061200  0.4970852798364492  0.1398655977893277   T   T   T
  0.6606618304010818  0.4968697579262760  0.1396619732627619   T   T   T
  0.1610769997951413  0.2459018530295194  0.1659649199103681   T   T   T
  0.4941918005916811  0.2485880361887360  0.1665317464336556   T   T   T
  0.8278360412020196  0.2451969428430215  0.1658240331306320   T   T   T
  0.1609951790219641  0.7467905564549210  0.1661440222572525   T   T   T
  0.4939482051411490  0.7462099294054224  0.1662196810805324   T   T   T
  0.8276906513885302  0.7468158354956350  0.1660756314013574   T   T   T
  0.3278380521013106  0.9938993609978263  0.1929117441002280   T   T   T
  0.6612985977059422  0.9937198299712642  0.1929005320123358   T   T   T
  0.9945842362572854  0.9941733494688041  0.1927446103008961   T   T   T
  0.3257657686721278  0.4958999467452549  0.1936288239147632   T   T   T
  0.9952481473392626  0.4913804869982128  0.1924608552132626   T   T   T
  0.6645230048817001  0.4935360295813171  0.1927087825645293   T   T   T
  0.9934182098134938  0.9965392050861550  0.0862400082619044   T   T   T
  0.3267643300787579  0.9966055473866128  0.0863312562904753   T   T   T
  0.6599555592474061  0.9965788545540899  0.0863132349487092   T   T   T
  0.9934007031589048  0.4966459893206503  0.0862447161696607   T   T   T
  0.3267307907012215  0.4965117508237907  0.0863699308060034   T   T   T
  0.6600422849633172  0.4965454952808623  0.0862908631882444   T   T   T
  0.1601781427854432  0.2468668456040156  0.1126846867251052   T   T   T
  0.4934804812434397  0.2470324867572910  0.1128518153347734   T   T   T
  0.8268331224343363  0.2467584450968652  0.1126267910715726   T   T   T
  0.1602881825938360  0.7469014625566092  0.1127252654090300   T   T   T
  0.4934485703099770  0.7468038119520509  0.1127645522203011   T   T   T
  0.8267175235869263  0.7469205307189835  0.1126938550548067   T   T   T
 
  0.00000000E+00  0.00000000E+00  0.00000000E+00
  0.00000000E+00  0.00000000E+00  0.00000000E+00
  0.00000000E+00  0.00000000E+00  0.00000000E+00
  0.00000000E+00  0.00000000E+00  0.00000000E+00
  0.00000000E+00  0.00000000E+00  0.00000000E+00
  0.00000000E+00  0.00000000E+00  0.00000000E+00
  0.00000000E+00  0.00000000E+00  0.00000000E+00
  0.00000000E+00  0.00000000E+00  0.00000000E+00
  0.00000000E+00  0.00000000E+00  0.00000000E+00
  0.00000000E+00  0.00000000E+00  0.00000000E+00
  0.00000000E+00  0.00000000E+00  0.00000000E+00
  0.00000000E+00  0.00000000E+00  0.00000000E+00
  0.00000000E+00  0.00000000E+00  0.00000000E+00
  0.00000000E+00  0.00000000E+00  0.00000000E+00
  0.00000000E+00  0.00000000E+00  0.00000000E+00
  0.00000000E+00  0.00000000E+00  0.00000000E+00
  0.00000000E+00  0.00000000E+00  0.00000000E+00
  0.00000000E+00  0.00000000E+00  0.00000000E+00
  0.00000000E+00  0.00000000E+00  0.00000000E+00
  0.00000000E+00  0.00000000E+00  0.00000000E+00
  0.00000000E+00  0.00000000E+00  0.00000000E+00
  0.00000000E+00  0.00000000E+00  0.00000000E+00
  0.00000000E+00  0.00000000E+00  0.00000000E+00
  0.00000000E+00  0.00000000E+00  0.00000000E+00
  0.00000000E+00  0.00000000E+00  0.00000000E+00
  0.00000000E+00  0.00000000E+00  0.00000000E+00
  0.00000000E+00  0.00000000E+00  0.00000000E+00
  0.00000000E+00  0.00000000E+00  0.00000000E+00
  0.00000000E+00  0.00000000E+00  0.00000000E+00
  0.00000000E+00  0.00000000E+00  0.00000000E+00
  0.00000000E+00  0.00000000E+00  0.00000000E+00
  0.00000000E+00  0.00000000E+00  0.00000000E+00
  0.00000000E+00  0.00000000E+00  0.00000000E+00
  0.00000000E+00  0.00000000E+00  0.00000000E+00
  0.00000000E+00  0.00000000E+00  0.00000000E+00
  0.00000000E+00  0.00000000E+00  0.00000000E+00
  0.00000000E+00  0.00000000E+00  0.00000000E+00
  0.00000000E+00  0.00000000E+00  0.00000000E+00
  0.00000000E+00  0.00000000E+00  0.00000000E+00
  0.00000000E+00  0.00000000E+00  0.00000000E+00
  0.00000000E+00  0.00000000E+00  0.00000000E+00
  0.00000000E+00  0.00000000E+00  0.00000000E+00
  0.00000000E+00  0.00000000E+00  0.00000000E+00
  0.00000000E+00  0.00000000E+00  0.00000000E+00
  0.00000000E+00  0.00000000E+00  0.00000000E+00
  0.00000000E+00  0.00000000E+00  0.00000000E+00
  0.00000000E+00  0.00000000E+00  0.00000000E+00
  0.00000000E+00  0.00000000E+00  0.00000000E+00
  0.00000000E+00  0.00000000E+00  0.00000000E+00
  0.00000000E+00  0.00000000E+00  0.00000000E+00
  0.00000000E+00  0.00000000E+00  0.00000000E+00
  0.00000000E+00  0.00000000E+00  0.00000000E+00
  0.00000000E+00  0.00000000E+00  0.00000000E+00
  0.00000000E+00  0.00000000E+00  0.00000000E+00
  0.00000000E+00  0.00000000E+00  0.00000000E+00
  0.00000000E+00  0.00000000E+00  0.00000000E+00
  0.00000000E+00  0.00000000E+00  0.00000000E+00
  0.00000000E+00  0.00000000E+00  0.00000000E+00
  0.00000000E+00  0.00000000E+00  0.00000000E+00
  0.00000000E+00  0.00000000E+00  0.00000000E+00
  0.00000000E+00  0.00000000E+00  0.00000000E+00
  0.00000000E+00  0.00000000E+00  0.00000000E+00
  0.00000000E+00  0.00000000E+00  0.00000000E+00
  0.00000000E+00  0.00000000E+00  0.00000000E+00
  0.00000000E+00  0.00000000E+00  0.00000000E+00
  0.00000000E+00  0.00000000E+00  0.00000000E+00
  0.00000000E+00  0.00000000E+00  0.00000000E+00
  0.00000000E+00  0.00000000E+00  0.00000000E+00
  0.00000000E+00  0.00000000E+00  0.00000000E+00
  0.00000000E+00  0.00000000E+00  0.00000000E+00
  0.00000000E+00  0.00000000E+00  0.00000000E+00
  0.00000000E+00  0.00000000E+00  0.00000000E+00
  0.00000000E+00  0.00000000E+00  0.00000000E+00
  0.00000000E+00  0.00000000E+00  0.00000000E+00
  0.00000000E+00  0.00000000E+00  0.00000000E+00
  0.00000000E+00  0.00000000E+00  0.00000000E+00
  0.00000000E+00  0.00000000E+00  0.00000000E+00
  0.00000000E+00  0.00000000E+00  0.00000000E+00
  0.00000000E+00  0.00000000E+00  0.00000000E+00
  0.00000000E+00  0.00000000E+00  0.00000000E+00
  0.00000000E+00  0.00000000E+00  0.00000000E+00
  0.00000000E+00  0.00000000E+00  0.00000000E+00
  0.00000000E+00  0.00000000E+00  0.00000000E+00
  0.00000000E+00  0.00000000E+00  0.00000000E+00
  0.00000000E+00  0.00000000E+00  0.00000000E+00
  0.00000000E+00  0.00000000E+00  0.00000000E+00
  0.00000000E+00  0.00000000E+00  0.00000000E+00
  0.00000000E+00  0.00000000E+00  0.00000000E+00
  0.00000000E+00  0.00000000E+00  0.00000000E+00
  0.00000000E+00  0.00000000E+00  0.00000000E+00
  0.00000000E+00  0.00000000E+00  0.00000000E+00
  0.00000000E+00  0.00000000E+00  0.00000000E+00
  0.00000000E+00  0.00000000E+00  0.00000000E+00
  0.00000000E+00  0.00000000E+00  0.00000000E+00
  0.00000000E+00  0.00000000E+00  0.00000000E+00
  0.00000000E+00  0.00000000E+00  0.00000000E+00
  0.00000000E+00  0.00000000E+00  0.00000000E+00
  0.00000000E+00  0.00000000E+00  0.00000000E+00
  0.00000000E+00  0.00000000E+00  0.00000000E+00
  0.00000000E+00  0.00000000E+00  0.00000000E+00
  0.00000000E+00  0.00000000E+00  0.00000000E+00
  0.00000000E+00  0.00000000E+00  0.00000000E+00
  0.00000000E+00  0.00000000E+00  0.00000000E+00
  0.00000000E+00  0.00000000E+00  0.00000000E+00
  0.00000000E+00  0.00000000E+00  0.00000000E+00
  0.00000000E+00  0.00000000E+00  0.00000000E+00
  0.00000000E+00  0.00000000E+00  0.00000000E+00
  0.00000000E+00  0.00000000E+00  0.00000000E+00
  0.00000000E+00  0.00000000E+00  0.00000000E+00
  0.00000000E+00  0.00000000E+00  0.00000000E+00
  0.00000000E+00  0.00000000E+00  0.00000000E+00
  0.00000000E+00  0.00000000E+00  0.00000000E+00
  0.00000000E+00  0.00000000E+00  0.00000000E+00
  0.00000000E+00  0.00000000E+00  0.00000000E+00
  0.00000000E+00  0.00000000E+00  0.00000000E+00
  0.00000000E+00  0.00000000E+00  0.00000000E+00
  0.00000000E+00  0.00000000E+00  0.00000000E+00
  0.00000000E+00  0.00000000E+00  0.00000000E+00
  0.00000000E+00  0.00000000E+00  0.00000000E+00
  0.00000000E+00  0.00000000E+00  0.00000000E+00
