C H O Si                                
   1.00000000000000     
    18.5749199999999988    0.0000000000000000    0.0000000000000000
     0.0000000000000000   17.5126199999999983    0.0000000000000000
     0.0000000000000000    0.0000000000000000   58.0000000000000000
   C    H    O    Si
   144   105    52   144
Selective dynamics
Direct
  0.4997567021718832  0.0653714417709247  0.0600441119041154   T   T   T
  0.1664597133829442  0.0654721499088709  0.0600902779484287   T   T   T
  0.3330133801354041  0.0654413699181782  0.0600755463914686   T   T   T
  0.4997598420199028  0.3154033739014903  0.0600209052692943   T   T   T
  0.1664479028044842  0.3154946240965776  0.0601005299147227   T   T   T
  0.3330339722144785  0.3154670945705822  0.0600906526394388   T   T   T
  0.0827292585311811  0.1882203220827864  0.1389952764838267   T   T   T
  0.2493387343590024  0.1882505652284117  0.1390125875586908   T   T   T
  0.4159999739195416  0.1881862647879048  0.1389593046588492   T   T   T
  0.0826654624429981  0.4382899908057639  0.1390368887126605   T   T   T
  0.2493219960304579  0.4382946925866860  0.1390241362537377   T   T   T
  0.4160269293469854  0.4383228740948397  0.1389757597433628   T   T   T
  0.1660924980736793  0.0632691065994401  0.1661618133963115   T   T   T
  0.3326380592040008  0.0632712338680381  0.1661532624099218   T   T   T
  0.4991618850764547  0.0629990537664581  0.1660353279028804   T   T   T
  0.1660345977905426  0.3134115253569508  0.1661851228125994   T   T   T
  0.3326795163595044  0.3134409306556374  0.1661718487965025   T   T   T
  0.4992009123452078  0.3133123054047255  0.1660257389632243   T   T   T
  0.0827343098874354  0.1900985500796049  0.1915153464276836   T   T   T
  0.2492054362902140  0.1903496154332046  0.1915418198216123   T   T   T
  0.4157332837992055  0.1903026401036288  0.1914965130043718   T   T   T
  0.0823368973837614  0.4403595267625307  0.1915980337276601   T   T   T
  0.2492215789011456  0.4404201758916025  0.1915681649072299   T   T   T
  0.4161078265789577  0.4405113977487040  0.1915533885489644   T   T   T
  0.0829348276346898  0.1884274240257078  0.0854520978885102   T   T   T
  0.2495698835570842  0.1884641483899127  0.0854613783629609   T   T   T
  0.4162698294392320  0.1883956753798007  0.0854255448312830   T   T   T
  0.0829057899554988  0.4384443715594791  0.0854635181478559   T   T   T
  0.2495616932539510  0.4384889407420638  0.0854680136020177   T   T   T
  0.4162842876878222  0.4384636335191537  0.0854204314777104   T   T   T
  0.1662274392972337  0.0632385286829293  0.1126199580923845   T   T   T
  0.3328234694200944  0.0631978722800605  0.1126041935827539   T   T   T
  0.4995114994685265  0.0631704668547472  0.1125865167173965   T   T   T
  0.1662134617679581  0.3132991678556181  0.1126353337395153   T   T   T
  0.3328407201659642  0.3132788823285019  0.1126146426515067   T   T   T
  0.4995126791077223  0.3132597097220087  0.1125475045842819   T   T   T
  0.4997837538292280  0.5654822824868047  0.0600433150970535   T   T   T
  0.1664083964514158  0.5654808662172771  0.0601061778217169   T   T   T
  0.3330358013603021  0.5654969749475628  0.0600891873027677   T   T   T
  0.4998112875362388  0.8154713200867257  0.0600713047847971   T   T   T
  0.1664303444461520  0.8153858172206327  0.0601019691753383   T   T   T
  0.3330259921779866  0.8153884840493333  0.0600763896117998   T   T   T
  0.0827057984346898  0.6882417304369097  0.1390451726695442   T   T   T
  0.2493223565100845  0.6882231943142636  0.1390280868020975   T   T   T
  0.4159963249367978  0.6882973439440550  0.1389822276292229   T   T   T
  0.0827442245460706  0.9381689467884484  0.1390087730473844   T   T   T
  0.2493334425055107  0.9381549572780091  0.1390103727771167   T   T   T
  0.4159610827258646  0.9381127550451919  0.1389652576968345   T   T   T
  0.1660026633230388  0.5633606421540251  0.1662104186829598   T   T   T
  0.3326898856290348  0.5633672242823459  0.1661788342498925   T   T   T
  0.4992877032249335  0.5635215215437952  0.1660999175675197   T   T   T
  0.1660272540579516  0.8133414773400934  0.1662012077882712   T   T   T
  0.3326739731268470  0.8133257057510100  0.1661774367378487   T   T   T
  0.4993237204535442  0.8133595467968522  0.1661616824148832   T   T   T
  0.0825253674283886  0.6903043363868221  0.1915911575182006   T   T   T
  0.2492121101637464  0.6903332906395836  0.1915713976673983   T   T   T
  0.4158528125112655  0.6903114532316958  0.1915263936981559   T   T   T
  0.0825499721258216  0.9403124047571048  0.1915685734234723   T   T   T
  0.2491914903600953  0.9403066029277453  0.1915494517206449   T   T   T
  0.4158374102779921  0.9403300395891687  0.1915326490264042   T   T   T
  0.0828849929441856  0.6884085446108680  0.0854808558662030   T   T   T
  0.2495588965127210  0.6884277685279707  0.0854692036350699   T   T   T
  0.4163046049776334  0.6884480528771004  0.0854470055226329   T   T   T
  0.0829474826540450  0.9384153477435815  0.0854512236594454   T   T   T
  0.2495564796762409  0.9384137637282538  0.0854490177347988   T   T   T
  0.4162405262214857  0.9383991509955847  0.0854179772518626   T   T   T
  0.1661973968420991  0.5632804146001430  0.1126437707308185   T   T   T
  0.3328422816645190  0.5632771595871141  0.1126157670535479   T   T   T
  0.4995385035449792  0.5632861183930726  0.1125848462346325   T   T   T
  0.1662148800555000  0.8132249950757598  0.1126323231935766   T   T   T
  0.3328084401783481  0.8132148657184627  0.1126070244153825   T   T   T
  0.4995133548455973  0.8133624453413162  0.1126111468956197   T   T   T
  0.9997552544788645  0.0654034175496079  0.0600814200077012   T   T   T
  0.6664887065812299  0.0654201154385877  0.0601354149192826   T   T   T
  0.8330518681173272  0.0654737156863213  0.0601584655942532   T   T   T
  0.9997408453342930  0.3154549860846703  0.0600872103577939   T   T   T
  0.6664026899141661  0.3152947096914345  0.0600796101012697   T   T   T
  0.8331101929426190  0.3152957133168721  0.0601128659618200   T   T   T
  0.5827086345245510  0.1882044727401632  0.1388609641816195   T   T   T
  0.7492874137406366  0.1886418305969549  0.1392402880093834   T   T   T
  0.9159717902635002  0.1883367600266386  0.1389510692534806   T   T   T
  0.5826858688120062  0.4383124981537868  0.1389452096838794   T   T   T
  0.7492941590419466  0.4374044340200610  0.1389263431144493   T   T   T
  0.9159663109496047  0.4382442027769533  0.1390544031711157   T   T   T
  0.6662420404956940  0.0635742700336604  0.1662425224232150   T   T   T
  0.8323001473342678  0.0638573839867851  0.1663156346874325   T   T   T
  0.9994553269064930  0.0631662783104724  0.1661032140264285   T   T   T
  0.6656643210640645  0.3136448824238998  0.1662862985983800   T   T   T
  0.8326705598320404  0.3136175806972736  0.1663002964220412   T   T   T
  0.9994195481034905  0.3133794691872808  0.1661416698240351   T   T   T
  0.5821465694806277  0.1892161305632460  0.1909747702256662   T   T   T
  0.7487524877489932  0.1926178859519505  0.1923304292191661   T   T   T
  0.9160913819615748  0.1896526702837553  0.1911879780100261   T   T   T
  0.5826016769309342  0.4404856461725909  0.1914026291567544   T   T   T
  0.7489867681133732  0.4390615386102388  0.1919164499447532   T   T   T
  0.9156248504499001  0.4404082706746348  0.1915996422527781   T   T   T
  0.5829196011155519  0.1883632177731118  0.0853791406187512   T   T   T
  0.7495781039877969  0.1884850786989323  0.0855664813958153   T   T   T
  0.9162853485782262  0.1884059726569534  0.0854422992442923   T   T   T
  0.5829463948581253  0.4384360834547082  0.0853914127052851   T   T   T
  0.7495409743798189  0.4383244375533869  0.0853033364877873   T   T   T
  0.9162250318905057  0.4384218428816064  0.0854756686921964   T   T   T
  0.6662776665221231  0.0633352628557948  0.1126708389350480   T   T   T
  0.8327796086893494  0.0634003300260045  0.1127083955545913   T   T   T
  0.9995374902257176  0.0632489295222571  0.1126326601349060   T   T   T
  0.6661640415242204  0.3132000514924683  0.1126313462751382   T   T   T
  0.8328191694673798  0.3132376751487523  0.1126469887084179   T   T   T
  0.9995227944825832  0.3133138150750497  0.1126287694985289   T   T   T
  0.9997000196809277  0.5654218466495131  0.0601097540768945   T   T   T
  0.6664333009131612  0.5654802027024810  0.0600385503284964   T   T   T
  0.8330436928893630  0.5654598917798656  0.0600904472507156   T   T   T
  0.9996982797972137  0.8154500590005237  0.0601149329550792   T   T   T
  0.6664608392871721  0.8154887337529781  0.0601053941787592   T   T   T
  0.8330733173399363  0.8154850225332628  0.0601261884705351   T   T   T
  0.5825544959634110  0.6883994019179022  0.1389614039919757   T   T   T
  0.7493356229044054  0.6881665375672575  0.1390290762719393   T   T   T
  0.9161377781762533  0.6883071344926991  0.1390158338682888   T   T   T
  0.5828013912509104  0.9383072926893016  0.1390366059282577   T   T   T
  0.7493719451056926  0.9382520412323170  0.1390424000257124   T   T   T
  0.9159118028225850  0.9383945585513498  0.1390693242323630   T   T   T
  0.6655853491207621  0.5635085070463075  0.1662199657941798   T   T   T
  0.8329390897933465  0.5633412687302082  0.1663169295184985   T   T   T
  0.9993237287461476  0.5634149550190547  0.1662059827204406   T   T   T
  0.6660542526484129  0.8133165535329863  0.1661892833500479   T   T   T
  0.8326569654319591  0.8133024468803802  0.1662066460366820   T   T   T
  0.9993620354362848  0.8134105478147570  0.1661961737985919   T   T   T
  0.5824518629990073  0.6903381016427760  0.1915254454003963   T   T   T
  0.7491775261811184  0.6902273641027210  0.1915679525812045   T   T   T
  0.9159413774965602  0.6904654502025386  0.1915557100881807   T   T   T
  0.5825162856187454  0.9403177631128402  0.1915564429643259   T   T   T
  0.7491680147214782  0.9403775384758341  0.1915723307703066   T   T   T
  0.9158347823699868  0.9404908271724006  0.1915660305694628   T   T   T
  0.5829578087281114  0.6884451272714462  0.0854326771286414   T   T   T
  0.7495802066357075  0.6884389276828580  0.0854554457282156   T   T   T
  0.9162585697723753  0.6884019225925389  0.0854827037439115   T   T   T
  0.5829795511843328  0.9384462460779525  0.0854650653869324   T   T   T
  0.7496043484109920  0.9384761868168002  0.0854928442305065   T   T   T
  0.9162526009332922  0.9384882817114665  0.0855035978658837   T   T   T
  0.6662448894134091  0.5631306159829219  0.1126086104623642   T   T   T
  0.8327902349213268  0.5630839573757584  0.1126576636154036   T   T   T
  0.9995042411537164  0.5632411941843598  0.1126648820111628   T   T   T
  0.6662614003491469  0.8132815475662620  0.1126341936496331   T   T   T
  0.8328450739217911  0.8132514361041866  0.1126538056369278   T   T   T
  0.9995421551417691  0.8133485870404649  0.1126582241848348   T   T   T
  0.0399231335971664  0.1797538340430463  0.0270098383998635   T   T   T
  0.2064180165195063  0.1797442447271601  0.0270210124818803   T   T   T
  0.3730888399862846  0.1796967881646218  0.0270170350063074   T   T   T
  0.0399150187927088  0.4297272440030104  0.0270169109868234   T   T   T
  0.2064848117912333  0.4296863186138536  0.0270016319346524   T   T   T
  0.3730159916314121  0.4296231400630950  0.0270069732602323   T   T   T
  0.1652317749178111  0.0289355470266115  0.0446419245761407   T   T   T
  0.3317301832444038  0.0289182367938073  0.0446248511287392   T   T   T
  0.4984743647769656  0.0288530871212142  0.0445963157523658   T   T   T
  0.1651915107836462  0.2789398344678446  0.0446597562427859   T   T   T
  0.3317489215028222  0.2789163880656557  0.0446464942612538   T   T   T
  0.4984975611214745  0.2788956354294519  0.0445683092644117   T   T   T
  0.4176748822311656  0.4038248328527262  0.2069779289363199   T   T   T
  0.4171653814861494  0.1537765761245921  0.2069512440074473   T   T   T
  0.0838551828431595  0.1535846449450024  0.2069697862506276   T   T   T
  0.2505032610294743  0.1537929254576310  0.2069929568553702   T   T   T
  0.0836320610632318  0.4036741109521234  0.2070246598926717   T   T   T
  0.2505243387093811  0.4037849104547751  0.2070053895039075   T   T   T
  0.0428421297620360  0.0548537711857359  0.2245114004350258   T   T   T
  0.2091580661613448  0.0549194741831252  0.2245780629199182   T   T   T
  0.3756979053159122  0.0551516496709408  0.2245416051593201   T   T   T
  0.0412085381789380  0.3042588504267699  0.2248509399791254   T   T   T
  0.2090268952388638  0.3049339134050065  0.2245728113284146   T   T   T
  0.3754863091004817  0.3054751762178162  0.2246015842924774   T   T   T
  0.0397825981379197  0.6797593131439975  0.0270588063414468   T   T   T
  0.2064059899797086  0.6797097914631581  0.0270277161578380   T   T   T
  0.3730252953805401  0.6797015055512555  0.0270309280749992   T   T   T
  0.0400298896653216  0.9296512573559975  0.0269877664184041   T   T   T
  0.2064377756206317  0.9295807232647367  0.0269925488196176   T   T   T
  0.3730705505608466  0.9295417229015693  0.0269885999602898   T   T   T
  0.1651305432817687  0.5289363072399059  0.0446638995146646   T   T   T
  0.3318036975116244  0.5289513498808539  0.0446445572123622   T   T   T
  0.4985531593750117  0.5289614213662927  0.0445924407343559   T   T   T
  0.1651596834992971  0.7788131332353517  0.0446629272007949   T   T   T
  0.3317645535040884  0.7788313712300391  0.0446360777734442   T   T   T
  0.4986746932339550  0.7789204873714236  0.0446284273900025   T   T   T
  0.4171361978208352  0.9037558918357808  0.2069805422664437   T   T   T
  0.4172395153601611  0.6536324110251190  0.2069515791120792   T   T   T
  0.0836953338323263  0.6537273453856255  0.2070332519197045   T   T   T
  0.2504664600306854  0.6537331941157799  0.2070130246947719   T   T   T
  0.0837775326740897  0.9037779778393772  0.2070195037078097   T   T   T
  0.2504742386618749  0.9037602383175813  0.2070040427039385   T   T   T
  0.0435494979636181  0.5544292768554467  0.2244062758977315   T   T   T
  0.2092937444077763  0.5545193668247815  0.2246152394671869   T   T   T
  0.3760800144530558  0.5546977413046265  0.2245830376862115   T   T   T
  0.0428557033814020  0.8047849470369172  0.2245470601282295   T   T   T
  0.2090862647924489  0.8048044881543012  0.2246406518095874   T   T   T
  0.3761954374626103  0.8045450180581328  0.2245412864968403   T   T   T
  0.5400109834865536  0.1796329291167515  0.0269579631960224   T   T   T
  0.7064458666654783  0.1797512438605208  0.0271440630527158   T   T   T
  0.8730573346398506  0.1796911229438815  0.0270404520127867   T   T   T
  0.5398095864312975  0.4296323495232968  0.0269878689139500   T   T   T
  0.7066672736380809  0.4293931628387254  0.0268946727654400   T   T   T
  0.8729374059154870  0.4295331483608814  0.0270705971013430   T   T   T
  0.6654434817203011  0.0288444120286848  0.0447009520083328   T   T   T
  0.8316769231130280  0.0288737302791892  0.0447233857943623   T   T   T
  0.9984956066535744  0.0288702949272275  0.0446333361288835   T   T   T
  0.6650683301193029  0.2786756682047865  0.0446526208580925   T   T   T
  0.8320484916893178  0.2786669620922650  0.0446878509614343   T   T   T
  0.9984617216413041  0.2789262146265891  0.0446378482871849   T   T   T
  0.9166258896368032  0.4034561865001158  0.2069593917661368   T   T   T
  0.9174515043202270  0.1532983363689363  0.2066799447401381   T   T   T
  0.5832579484845736  0.1533283478620052  0.2065637419279608   T   T   T
  0.7501822632601340  0.1557199880975763  0.2077045890945299   T   T   T
  0.5836970873416432  0.4035707393690273  0.2067519247472207   T   T   T
  0.7697883948714211  0.4646931826150584  0.2620444264705784   T   T   T
  0.5422357916981733  0.0560377123514560  0.2243577770433486   T   T   T
  0.7089571753914219  0.0559633049520238  0.2244418905160840   T   T   T
  0.8753601549497426  0.0558869553927915  0.2245835034160577   T   T   T
  0.5493590908012603  0.3011478323832698  0.2225948874242109   T   T   T
  0.6843612323338539  0.2825808824432096  0.2309305122108510   T   T   T
  0.8915118210538434  0.2960570969811729  0.2233350969109599   T   T   T
  0.7506467045984210  0.2699318409186741  0.2663947037788515   T   T   T
  0.7354597046645970  0.2277554524528517  0.3006724848453963   T   T   T
  0.7593947549190632  0.3121212757306916  0.3086639137267054   T   T   T
  0.6439782705124513  0.1361767468561283  0.2960784592195480   T   T   T
  0.7180863561785095  0.1078395602369071  0.2874924827722590   T   T   T
  0.8180302658354773  0.3863898762381832  0.3347577285250112   T   T   T
  0.7512135400895353  0.4323991105802986  0.3267765248826350   T   T   T
  0.7525387980440496  0.4390631583119043  0.2708336541564226   T   T   T
  0.7845474901974704  0.2669540092667417  0.2408767734344077   T   T   T
  0.5397535366540386  0.6798180303072069  0.0270096936176615   T   T   T
  0.7064723580318377  0.6798306591052318  0.0270250288310355   T   T   T
  0.8731717055097145  0.6797929026747033  0.0270472264292093   T   T   T
  0.5399564030354186  0.9296995788683787  0.0269960292055470   T   T   T
  0.7065189259769645  0.9296741664852344  0.0270381047675451   T   T   T
  0.8731201636686945  0.9296990329828099  0.0270549417197249   T   T   T
  0.6652327056096048  0.5289822651823950  0.0445788921003589   T   T   T
  0.8318668726410552  0.5289477818669952  0.0446366911142368   T   T   T
  0.9984230409199520  0.5288975260443480  0.0446615849654442   T   T   T
  0.6652541834595640  0.7789832695088968  0.0446573396510297   T   T   T
  0.8318254656622500  0.7789678709387772  0.0446756616422526   T   T   T
  0.9983239922583230  0.7788992820143184  0.0446730415968860   T   T   T
  0.9170535110285967  0.9040003653657279  0.2070328390648969   T   T   T
  0.9168496363465140  0.6536839687930763  0.2069534182773178   T   T   T
  0.5841587393322317  0.6533496666373650  0.2068717527344028   T   T   T
  0.7501951689206898  0.6530867730826800  0.2068949094195613   T   T   T
  0.5837719487705776  0.9038108157539511  0.2070166657436267   T   T   T
  0.7504664332643103  0.9038110992587882  0.2070218167145140   T   T   T
  0.5445880367907738  0.5541543700852234  0.2240661707696766   T   T   T
  0.7089648885074303  0.5500802149970203  0.2248766701808828   T   T   T
  0.8791135132800137  0.5551066722978097  0.2234741703191364   T   T   T
  0.5424129971990033  0.8046926551747997  0.2245718146968208   T   T   T
  0.7090578263344250  0.8047212025982564  0.2245691861584737   T   T   T
  0.8762868702840576  0.8045573439971500  0.2245008183699705   T   T   T
  0.0873034463034666  0.1687153036743791  0.0335300012935002   T   T   T
  0.2538419179797158  0.1688282703771671  0.0335310170741365   T   T   T
  0.4205116109696199  0.1686909423335002  0.0335110301668520   T   T   T
  0.0873024718469190  0.4187723074980282  0.0335407387203099   T   T   T
  0.2538783230122672  0.4187904467083696  0.0335299108027291   T   T   T
  0.4204595862015322  0.4186706588547319  0.0334956132243108   T   T   T
  0.1617600274348745  0.0435582328522085  0.2181207623613173   T   T   T
  0.3283048912571988  0.0434147715808232  0.2181362031686763   T   T   T
  0.4948870089007043  0.0434683761032436  0.2180678267199133   T   T   T
  0.1616384323752317  0.2934233862256529  0.2181328981585688   T   T   T
  0.3282969075776803  0.2933933123703353  0.2181349181670901   T   T   T
  0.4986892448651447  0.2930254289292540  0.2179020698748895   T   T   T
  0.0872018220721439  0.6687918179478108  0.0335620933033438   T   T   T
  0.2538246058477404  0.6687979970026469  0.0335398455094758   T   T   T
  0.4204739942181896  0.6688053657809505  0.0335215726429641   T   T   T
  0.0873800126335151  0.9185955295621424  0.0335262312252870   T   T   T
  0.2538440822586700  0.9186847582924981  0.0335152705379450   T   T   T
  0.4204908879017518  0.9185658883930300  0.0334869710557563   T   T   T
  0.1618149637242714  0.5435341117263200  0.2181571263430991   T   T   T
  0.3286050585926715  0.5435516081277036  0.2181507677782585   T   T   T
  0.4962954611577721  0.5439547929615532  0.2180465303512478   T   T   T
  0.1617185719808585  0.7935293080988244  0.2181488831520180   T   T   T
  0.3286393095412481  0.7935375575084003  0.2181341629887814   T   T   T
  0.4949562822585276  0.7935429637548708  0.2181182073059216   T   T   T
  0.5873992594839784  0.1683675279925957  0.0334338134254850   T   T   T
  0.7538855137911054  0.1687050009956035  0.0336180085688181   T   T   T
  0.9205050733695235  0.1684856356931038  0.0334893369996672   T   T   T
  0.5872582959137091  0.4184814135378052  0.0334394499196243   T   T   T
  0.7540579889229789  0.4178505446310100  0.0333196139416207   T   T   T
  0.9204342451513067  0.4186450741152506  0.0335330401826308   T   T   T
  0.6615786573966794  0.0431529563526723  0.2182189300216247   T   T   T
  0.8281199135816439  0.0431660632113197  0.2182489930299067   T   T   T
  0.9953361209190590  0.0436320259666656  0.2181057872941458   T   T   T
  0.6507170131299765  0.2953927560555787  0.2179963594585277   T   T   T
  0.8406475422307964  0.2914588399119927  0.2188289820383267   T   T   T
  0.9944736173785714  0.2919450675833242  0.2180931747155356   T   T   T
  0.7633582171317573  0.2735809180019567  0.2961998479703467   T   T   T
  0.6944816864573752  0.1324884300023836  0.3005424542091674   T   T   T
  0.7670381747254765  0.3812655330290008  0.3310566581961415   T   T   T
  0.7427977642361582  0.2506317532579028  0.2505016109055093   T   T   T
  0.5871892341997581  0.6689102654927153  0.0335029413327056   T   T   T
  0.7538967794048105  0.6688270950477836  0.0335156321986926   T   T   T
  0.9205854495133603  0.6688070507520086  0.0335522423930185   T   T   T
  0.5873473855305368  0.9188143378689483  0.0335302326288345   T   T   T
  0.7539270788633889  0.9187310350797062  0.0335536638554184   T   T   T
  0.9205413562256015  0.9188122599043975  0.0335681930210816   T   T   T
  0.6614845888777593  0.5455704947498321  0.2177472283849805   T   T   T
  0.8302005966099866  0.5451992978997474  0.2180546731821168   T   T   T
  0.9957040639728452  0.5437855770053899  0.2181754863538101   T   T   T
  0.6616128604445387  0.7935046727139573  0.2181259791268031   T   T   T
  0.8286560588084434  0.7935940730070628  0.2181529230248732   T   T   T
  0.9953243254334808  0.7936900701656716  0.2181459364281332   T   T   T
  0.2498173491770335  0.1241223346710225  0.0594968175440366   T   T   T
  0.4164919696823089  0.1239899278436265  0.0594776453296996   T   T   T
  0.0831519909881512  0.3740593997355996  0.0595108305148626   T   T   T
  0.2498227545494471  0.3741269887295869  0.0595043610084483   T   T   T
  0.4165071013609808  0.3740178994422138  0.0594776987950772   T   T   T
  0.0831707949770742  0.1240217134816502  0.0595006984503923   T   T   T
  0.4993177864459387  0.0004681392785012  0.1391892479853214   T   T   T
  0.1660791072629988  0.0005601285705357  0.1392285922260947   T   T   T
  0.3326446719544277  0.0005402209662403  0.1392182870052615   T   T   T
  0.4994656755370228  0.2506801818648073  0.1391872953105423   T   T   T
  0.1660356724661340  0.2506728670896229  0.1392537559740286   T   T   T
  0.3327006945314666  0.2506479185192984  0.1392407609686878   T   T   T
  0.0827502485358476  0.1252868536154424  0.1654862651516651   T   T   T
  0.2493782145514595  0.1254175092817013  0.1655205662468588   T   T   T
  0.4160284648998025  0.1253636589296555  0.1654856175175029   T   T   T
  0.0825701199233328  0.3754825881163923  0.1655759988664387   T   T   T
  0.2493794897610548  0.3754708915048843  0.1655400175492729   T   T   T
  0.4162374907470269  0.3754873445667016  0.1655245940415283   T   T   T
  0.1656339804443322  0.4988572735799945  0.1921666709769443   T   T   T
  0.3326559672570736  0.4988991934681954  0.1921543592392289   T   T   T
  0.4998976484791200  0.4989244866842607  0.1920626289828095   T   T   T
  0.1657965028076172  0.2489435408068552  0.1921274676645086   T   T   T
  0.4993136597265238  0.2485670665926947  0.1919415338049936   T   T   T
  0.3325037447517796  0.2489432612609544  0.1921130977974634   T   T   T
  0.4995929390229003  0.0004573682187085  0.0860822461163514   T   T   T
  0.1662515888875243  0.0004839071753355  0.0861053997703681   T   T   T
  0.3329265182371969  0.0004323218887970  0.0860902068128346   T   T   T
  0.4996314596946927  0.2504953118366745  0.0860622974119279   T   T   T
  0.1662331107498598  0.2505270348178430  0.0861216664815656   T   T   T
  0.3329662637788720  0.2504659253931142  0.0861064163299578   T   T   T
  0.0828919780815837  0.1256822092890394  0.1123900748329329   T   T   T
  0.2495506209863436  0.1256927047947247  0.1124085150969252   T   T   T
  0.4161962019730910  0.1256364730804269  0.1123685776466337   T   T   T
  0.0828244663429613  0.3757443797103275  0.1124277324499673   T   T   T
  0.2495545686338378  0.3757236884026267  0.1124231567295340   T   T   T
  0.4162549540731880  0.3757075684958667  0.1123776044505497   T   T   T
  0.2497884253561752  0.6240844086121048  0.0595049142563895   T   T   T
  0.4165156977192664  0.6240537931868124  0.0594904337897163   T   T   T
  0.0831664039374633  0.8739619260626088  0.0595052055941027   T   T   T
  0.2498018700939319  0.8740345910527033  0.0594893723935916   T   T   T
  0.4164825646570976  0.8739520324713402  0.0594700800805615   T   T   T
  0.0830972156003159  0.6240127118313176  0.0595220190123143   T   T   T
  0.4996140768708304  0.5006390316830965  0.1392333182834231   T   T   T
  0.1659820401158291  0.5006401293583164  0.1392710201568255   T   T   T
  0.3327159666294048  0.5006101946304713  0.1392443973037642   T   T   T
  0.4994524115849380  0.7506201745344796  0.1392077631468216   T   T   T
  0.1660009912324129  0.7505864293180694  0.1392597299490962   T   T   T
  0.3326638160371360  0.7505659214551802  0.1392264687635313   T   T   T
  0.0824967075651920  0.6253059696291923  0.1655776798622696   T   T   T
  0.2493598755498001  0.6253715422826628  0.1655461581887714   T   T   T
  0.4161605576667336  0.6253713833642068  0.1655056609872628   T   T   T
  0.0826701462994914  0.8754057742401037  0.1655493585882952   T   T   T
  0.2493662345320395  0.8753706232258601  0.1655266364317893   T   T   T
  0.4160274076154100  0.8753987038388548  0.1655178316757260   T   T   T
  0.1657915585831731  0.9989236216940501  0.1921360712669959   T   T   T
  0.3324465675931914  0.9989314639945398  0.1921324314092069   T   T   T
  0.4990961852726624  0.9989477613119200  0.1920687569256195   T   T   T
  0.1657477997627624  0.7488702531822687  0.1921632548499956   T   T   T
  0.4992057800729119  0.7487917789737525  0.1921266856648496   T   T   T
  0.3325106406583256  0.7488723299544721  0.1921464368143823   T   T   T
  0.4996895741284316  0.5005117132415777  0.0860804248456820   T   T   T
  0.1662012962195578  0.5005170918054469  0.0861294640310758   T   T   T
  0.3329706062386707  0.5004817279734014  0.0861035914132749   T   T   T
  0.4996713556377192  0.7504988219333246  0.0861036469570148   T   T   T
  0.1662180789325645  0.7504423613618187  0.0861249690082777   T   T   T
  0.3329406029657527  0.7504224315184661  0.0861009155766748   T   T   T
  0.0827886015184257  0.6256516098145993  0.1124350184529955   T   T   T
  0.2495401622876467  0.6256636260214651  0.1124201051101116   T   T   T
  0.4162741320241962  0.6256524790153594  0.1123859693435709   T   T   T
  0.0828994901198858  0.8756498787733439  0.1123944886924252   T   T   T
  0.2495370729813916  0.8756339964170382  0.1124005892422606   T   T   T
  0.4161600300004563  0.8756389584780304  0.1123602119011442   T   T   T
  0.7498377342642741  0.1241322090150836  0.0596147356757840   T   T   T
  0.9164818892651583  0.1240329547910514  0.0595011937683861   T   T   T
  0.5832279715199532  0.3740081810211616  0.0594617127826250   T   T   T
  0.7498310470338400  0.3739251999932466  0.0594378788986490   T   T   T
  0.9164257336210674  0.3740486827496493  0.0595284250287248   T   T   T
  0.5832093361696608  0.1239635241063648  0.0594563813344277   T   T   T
  0.9993844343455943  0.0005337640276607  0.1392314398738202   T   T   T
  0.6661934321293465  0.0008108340585017  0.1393116016304534   T   T   T
  0.8324909471929142  0.0009085970621954  0.1393558220804719   T   T   T
  0.9992648078741949  0.2506953109228091  0.1392382160734227   T   T   T
  0.6659436851238589  0.2513444571307082  0.1394939586141401   T   T   T
  0.8325834547770463  0.2513286034878628  0.1394704546653756   T   T   T
  0.5825637260868378  0.1251273585504434  0.1653014217054229   T   T   T
  0.7490944855751408  0.1268995350329291  0.1660317033371971   T   T   T
  0.9160324529396584  0.1252720348420355  0.1653829295878841   T   T   T
  0.5828580198989662  0.3756887847180036  0.1655647045740210   T   T   T
  0.7490931000643952  0.3775348650762688  0.1669152865299174   T   T   T
  0.9155824711901227  0.3757057654800344  0.1657028359691092   T   T   T
  0.6686869634706367  0.4960086840678852  0.1922752894929571   T   T   T
  0.8291718958650095  0.4959817762906570  0.1924938963031882   T   T   T
  0.9984185414816164  0.4987887638293398  0.1921697688136479   T   T   T
  0.6640574018713206  0.2509119165729405  0.1925773630200770   T   T   T
  0.9991762953303163  0.2482845920324778  0.1918756428216978   T   T   T
  0.8333012393438115  0.2500347001509720  0.1923232432187621   T   T   T
  0.9996347630434167  0.0004937425079840  0.0861214915818689   T   T   T
  0.6663286768147711  0.0005525283238395  0.0861669182412991   T   T   T
  0.8328861967414010  0.0005800188890262  0.0861899488079458   T   T   T
  0.9995919593715352  0.2505299455339863  0.0861256226384485   T   T   T
  0.6662528934174420  0.2505883986142858  0.0861746454067311   T   T   T
  0.8329126879600320  0.2505757994173352  0.0861891174519352   T   T   T
  0.5829006102697133  0.1257585256804665  0.1123605996174137   T   T   T
  0.7495174469962772  0.1260322781397616  0.1126041772281939   T   T   T
  0.9161742441705492  0.1258104424250610  0.1124214708750921   T   T   T