C H O Si                                
   1.00000000000000     
    18.5749199999999988    0.0000000000000000    0.0000000000000000
     0.0000000000000000   17.5126199999999983    0.0000000000000000
     0.0000000000000000    0.0000000000000000   58.0000000000000000
   C    H    O    Si
   144   105    52   144
Selective dynamics
Direct
  0.4997624451503400  0.0654129837952994  0.0600540569729179   T   T   T
  0.1664431574965413  0.0654765621609667  0.0600985802684639   T   T   T
  0.3330564078158881  0.0654764322237430  0.0600851289828070   T   T   T
  0.4997714943213272  0.3154139899211097  0.0600405482592894   T   T   T
  0.1664338173061201  0.3155002179876487  0.0601105640858432   T   T   T
  0.3330787283074522  0.3154820156315923  0.0600963878789654   T   T   T
  0.0828546124630725  0.1883064140422303  0.1389880734182627   T   T   T
  0.2495041689860225  0.1883151822814384  0.1390080500900357   T   T   T
  0.4160941131305335  0.1882475735778694  0.1389693853220038   T   T   T
  0.0828068571613720  0.4383131796107849  0.1390259644503448   T   T   T
  0.2494868412124210  0.4383184767341122  0.1390105624634781   T   T   T
  0.4161385373758505  0.4383604988499255  0.1389909503546626   T   T   T
  0.1659611894763426  0.0632770875713087  0.1661999721025414   T   T   T
  0.3325285158599395  0.0632730857986443  0.1662027600076175   T   T   T
  0.4990256137809814  0.0629805199590750  0.1660714869692050   T   T   T
  0.1659333770005595  0.3133390261320240  0.1662262077526045   T   T   T
  0.3325744892971738  0.3133732980854085  0.1662194831739180   T   T   T
  0.4990455040972746  0.3133276335148911  0.1660259232530134   T   T   T
  0.0827580208372757  0.1901139723485260  0.1915078115693370   T   T   T
  0.2492551960370321  0.1903180621761927  0.1915448085753771   T   T   T
  0.4157006016214331  0.1902484720473285  0.1915145885368841   T   T   T
  0.0823784396009547  0.4403298964809497  0.1915687266704514   T   T   T
  0.2492733445409175  0.4403620828433654  0.1915692986967333   T   T   T
  0.4161568867620709  0.4404566569198931  0.1915395203582917   T   T   T
  0.0829674578836586  0.1884306051759577  0.0854481325993034   T   T   T
  0.2496246519548587  0.1884409559967258  0.0854675506933731   T   T   T
  0.4162730692353900  0.1883934447671676  0.0854254705296981   T   T   T
  0.0829329151164918  0.4384270700848979  0.0854643902848950   T   T   T
  0.2496302355613379  0.4384348611600833  0.0854594203795426   T   T   T
  0.4163255219198942  0.4384267041806431  0.0854145877394161   T   T   T
  0.1660746419124765  0.0633047125500488  0.1126078699726076   T   T   T
  0.3327131220251496  0.0632630710799706  0.1125956345475840   T   T   T
  0.4993847929428590  0.0632446803893146  0.1125626956836814   T   T   T
  0.1660664632585783  0.3133540491046955  0.1126261595673242   T   T   T
  0.3327536836376653  0.3133631811306459  0.1126153312038479   T   T   T
  0.4994077763202384  0.3133068737962039  0.1125365900907718   T   T   T
  0.4997892862761652  0.5655163898412019  0.0600575694158205   T   T   T
  0.1664055720073961  0.5655188005708806  0.0601154983667335   T   T   T
  0.3330776310985162  0.5655045830630657  0.0601023323394341   T   T   T
  0.4998046814862463  0.8155023993747366  0.0600856384447793   T   T   T
  0.1664293712602090  0.8153761657700964  0.0601133538755125   T   T   T
  0.3330866907158802  0.8154017079933665  0.0600893060191128   T   T   T
  0.0828556962149620  0.6883050870122427  0.1390422307081460   T   T   T
  0.2494978156174404  0.6882541111414334  0.1390245358392377   T   T   T
  0.4161209855797756  0.6883544520279578  0.1389966052648793   T   T   T
  0.0828638656031373  0.9382146349841047  0.1390047233713544   T   T   T
  0.2494723082743146  0.9382079312004038  0.1390076508678644   T   T   T
  0.4160638671615416  0.9381275309484014  0.1389653226528962   T   T   T
  0.1658550666404223  0.5633261542174376  0.1662435122630667   T   T   T
  0.3326055150237906  0.5633360748501343  0.1662198464807894   T   T   T
  0.4991774822842989  0.5635085693437782  0.1661393784875798   T   T   T
  0.1659067895400180  0.8132907964133810  0.1662360762657754   T   T   T
  0.3325599736509543  0.8132820825163676  0.1662222879312148   T   T   T
  0.4992248667760443  0.8133044626091597  0.1662150838945999   T   T   T
  0.0825704308728867  0.6903045651281083  0.1915658253748180   T   T   T
  0.2492389854159660  0.6902959972404065  0.1915671553498656   T   T   T
  0.4159145534791261  0.6902395453754852  0.1915356860340555   T   T   T
  0.0825830524827244  0.9402784801685281  0.1915453734386351   T   T   T
  0.2492245125961726  0.9402618691966180  0.1915544467396358   T   T   T
  0.4158881792580297  0.9402596315479982  0.1915466415360155   T   T   T
  0.0828911695821079  0.6884330766106354  0.0854953385268603   T   T   T
  0.2496076817687914  0.6883944443096416  0.0854747831571032   T   T   T
  0.4163155588533966  0.6884701796434366  0.0854397349149955   T   T   T
  0.0829722444426510  0.9383938545613606  0.0854441521050800   T   T   T
  0.2496251199191208  0.9383593014895341  0.0854305430773575   T   T   T
  0.4162847596014264  0.9383692854556444  0.0854096891511811   T   T   T
  0.1660432292941062  0.5633284764228463  0.1126382230907780   T   T   T
  0.3327489340467105  0.5633701989489024  0.1126110828989703   T   T   T
  0.4993973586433980  0.5633711601396306  0.1125693244205370   T   T   T
  0.1660696410481788  0.8132677149676559  0.1126252373733420   T   T   T
  0.3327048098549185  0.8132512347159617  0.1126006605427804   T   T   T
  0.4994009904672733  0.8134083634237721  0.1126125181745549   T   T   T
  0.9997512802219316  0.0654562635013593  0.0600909566369153   T   T   T
  0.6664881988888254  0.0654409631861043  0.0601450179787398   T   T   T
  0.8330907102658417  0.0654319755422260  0.0601506167790942   T   T   T
  0.9997475125423431  0.3154864393332253  0.0600954441619172   T   T   T
  0.6664207147419624  0.3152844120525435  0.0600786664970449   T   T   T
  0.8331679927907075  0.3152583418767854  0.0601213133109310   T   T   T
  0.5827855457885912  0.1882575299829003  0.1388660269851951   T   T   T
  0.7493570013598085  0.1886732531974240  0.1392581417977815   T   T   T
  0.9160545827881651  0.1883820241456740  0.1389358189150666   T   T   T
  0.5827721935555427  0.4383460806029749  0.1389489373231563   T   T   T
  0.7493812432517188  0.4374774023083612  0.1389569382095519   T   T   T
  0.9160655184633086  0.4382666372143900  0.1390663532314990   T   T   T
  0.6662047717463238  0.0635563901120469  0.1662930101009240   T   T   T
  0.8323028109647499  0.0638496325047898  0.1663539641390019   T   T   T
  0.9993628051349995  0.0631373714144584  0.1661293574531752   T   T   T
  0.6655968008862316  0.3136462189187163  0.1663114816412917   T   T   T
  0.8326344397161449  0.3136002577701388  0.1663435404143276   T   T   T
  0.9993173607550779  0.3133774673442292  0.1661753074341384   T   T   T
  0.5821280446774081  0.1893403802107555  0.1909305759039490   T   T   T
  0.7487596114304942  0.1926812644738109  0.1923148040906466   T   T   T
  0.9161020381058689  0.1897490030637169  0.1911907158958125   T   T   T
  0.5826263533200337  0.4405393132478142  0.1913732445612684   T   T   T
  0.7490356787491347  0.4390251593643976  0.1919091993051233   T   T   T
  0.9156566495828221  0.4403336654644243  0.1916082689149921   T   T   T
  0.5829657458717239  0.1884029246961084  0.0853809227112806   T   T   T
  0.7496288893225679  0.1884653147856500  0.0855768927725620   T   T   T
  0.9162916465563643  0.1884250032800744  0.0854283985537699   T   T   T
  0.5829914616302090  0.4383794355133981  0.0853851969953893   T   T   T
  0.7496291458763511  0.4383102114468581  0.0853258796680296   T   T   T
  0.9162490244093736  0.4383850582571400  0.0854727702507792   T   T   T
  0.6661509326187449  0.0634702368432038  0.1126621550221326   T   T   T
  0.8326546344481190  0.0634996807494478  0.1126862427944689   T   T   T
  0.9993978985801211  0.0633242360250887  0.1126041882301066   T   T   T
  0.6660135221129514  0.3132926673586527  0.1126164625549772   T   T   T
  0.8326836081195425  0.3132992709985593  0.1126566126079971   T   T   T
  0.9993760920828625  0.3133586230746174  0.1126112199695952   T   T   T
  0.9996984570629616  0.5655024485699481  0.0601187073060485   T   T   T
  0.6664278223477761  0.5654797526968134  0.0600385126588948   T   T   T
  0.8330896637806066  0.5654924880151574  0.0600909079153984   T   T   T
  0.9997055438118890  0.8154940362144223  0.0601223323921171   T   T   T
  0.6664568026461678  0.8155198390679130  0.0601165506295525   T   T   T
  0.8331194899715166  0.8154939349520819  0.0601293763285102   T   T   T
  0.5826803903061327  0.6884534994840007  0.1389637868306313   T   T   T
  0.7495194754669735  0.6881803691145363  0.1390414828690126   T   T   T
  0.9162823999502866  0.6883769386249123  0.1390346997722379   T   T   T
  0.5829401752146921  0.9383788280332365  0.1390312086579876   T   T   T
  0.7495438799897615  0.9382650139607980  0.1390488141570809   T   T   T
  0.9160406630660969  0.9384089815509408  0.1390729944000264   T   T   T
  0.6654273162826184  0.5634203815737679  0.1662173201020336   T   T   T
  0.8328888346867618  0.5632529858612825  0.1663683165441339   T   T   T
  0.9992055473262581  0.5633662919159256  0.1662394185718681   T   T   T
  0.6659282184993132  0.8132878734307077  0.1662286881623318   T   T   T
  0.8325576817440226  0.8132726591444834  0.1662467232183606   T   T   T
  0.9992709936366069  0.8133497124891714  0.1662363081962763   T   T   T
  0.5825303457651591  0.6903361343020080  0.1914987364945505   T   T   T
  0.7492031195976995  0.6901617110054864  0.1915567583052162   T   T   T
  0.9159732839816681  0.6904047066921392  0.1915480323782437   T   T   T
  0.5825465360018964  0.9403123780558147  0.1915408523033115   T   T   T
  0.7492264094860261  0.9403260334535057  0.1915720178044933   T   T   T
  0.9158748947731669  0.9404280984918837  0.1915727911140066   T   T   T
  0.5829744946118791  0.6884446557203491  0.0854247467249726   T   T   T
  0.7496336667881639  0.6884035941372189  0.0854575021716319   T   T   T
  0.9162589798917118  0.6884163571322421  0.0854968209033971   T   T   T
  0.5830178345628413  0.9384725446845484  0.0854638940818459   T   T   T
  0.7496403506617648  0.9384524461487578  0.0855081446446419   T   T   T
  0.9162611130798298  0.9384676240092265  0.0855095694781629   T   T   T
  0.6660691855314540  0.5631792436568785  0.1125942001464041   T   T   T
  0.8326830468186903  0.5631246506471449  0.1126721168038049   T   T   T
  0.9993658916931876  0.5632994915398482  0.1126516211174723   T   T   T
  0.6661058807408070  0.8133513497545813  0.1126292657931008   T   T   T
  0.8327375700367766  0.8133276078779721  0.1126509148172506   T   T   T
  0.9994164040913402  0.8134235751532052  0.1126496675418643   T   T   T
  0.0399906026556775  0.1795588204954019  0.0269540421724391   T   T   T
  0.2065167405224450  0.1795524417487229  0.0269635731582671   T   T   T
  0.3731513874739901  0.1794926480752832  0.0269655408238382   T   T   T
  0.0400066352135034  0.4295280844934893  0.0269529548158856   T   T   T
  0.2066227560810928  0.4294648225820455  0.0269469506675288   T   T   T
  0.3730772822370679  0.4294203100974374  0.0269487570491211   T   T   T
  0.1651888652970088  0.0289399786473498  0.0446454172971913   T   T   T
  0.3317428948169071  0.0289264996686094  0.0446345404671239   T   T   T
  0.4984443055939552  0.0288617524974467  0.0446055429164816   T   T   T
  0.1651570750224137  0.2789314330420996  0.0446629476216750   T   T   T
  0.3317610230060805  0.2789118005279620  0.0446504068268236   T   T   T
  0.4984813594928967  0.2789260621696157  0.0445771323431857   T   T   T
  0.4177015295948376  0.4038644814381428  0.2069783557154637   T   T   T
  0.4171893656609340  0.1537243417440130  0.2069581096032242   T   T   T
  0.0838909693681298  0.1535923285601578  0.2069491111862072   T   T   T
  0.2505488227429043  0.1537815574639201  0.2069854207063118   T   T   T
  0.0836658861061989  0.4037401479178773  0.2070047076913552   T   T   T
  0.2505598555564199  0.4037961152540918  0.2070099758812513   T   T   T
  0.0428128511070068  0.0547454811262623  0.2245687443100903   T   T   T
  0.2091122370340387  0.0547897165458635  0.2246205409663386   T   T   T
  0.3756691892346239  0.0550064855410063  0.2245895130329734   T   T   T
  0.0411901346805520  0.3041582187332605  0.2248947194189442   T   T   T
  0.2089567823368283  0.3047976794797049  0.2246090548634832   T   T   T
  0.3754858936716659  0.3053006196736992  0.2246324959491432   T   T   T
  0.0398516831377030  0.6795810903605323  0.0269960175964793   T   T   T
  0.2065088661901145  0.6795168350745361  0.0269713200841204   T   T   T
  0.3730896591488128  0.6795058267467704  0.0269754915649126   T   T   T
  0.0401121779892036  0.9294441257013822  0.0269272135619087   T   T   T
  0.2065726628742261  0.9293796306973008  0.0269318428674064   T   T   T
  0.3731272112176697  0.9293583324468099  0.0269273604774473   T   T   T
  0.1650981945451649  0.5289487109510121  0.0446685978211434   T   T   T
  0.3318100796060869  0.5289585516667172  0.0446503815457023   T   T   T
  0.4985274779520714  0.5289789112306889  0.0446056472760187   T   T   T
  0.1651229287736368  0.7788269174821453  0.0446649927012901   T   T   T
  0.3317702157952233  0.7788423943178503  0.0446437383402682   T   T   T
  0.4986412232704101  0.7789489326743403  0.0446339466414744   T   T   T
  0.4171901807900039  0.9037392872268555  0.2069934168973843   T   T   T
  0.4172851685664332  0.6535922872021351  0.2069543514750815   T   T   T
  0.0837471231578481  0.6537578503883889  0.2070032241108124   T   T   T
  0.2505062858638098  0.6537288117921948  0.2070053989781128   T   T   T
  0.0838328893413191  0.9038271041014263  0.2070072954198101   T   T   T
  0.2505402118264974  0.9037760687131465  0.2070092268323028   T   T   T
  0.0435019176569186  0.5542537410428027  0.2244488126542425   T   T   T
  0.2092654821944117  0.5543398125772824  0.2246603043201562   T   T   T
  0.3760578831579774  0.5545435848031101  0.2246350516902456   T   T   T
  0.0428039581095737  0.8046385451903671  0.2245904638661625   T   T   T
  0.2090313051489636  0.8046417843367312  0.2246754909401470   T   T   T
  0.3761906906505977  0.8043902675545854  0.2245855757606800   T   T   T
  0.5400594241897009  0.1794494060778702  0.0269072914177492   T   T   T
  0.7065495391818998  0.1795708675134204  0.0270857036032509   T   T   T
  0.8731240781273569  0.1795139886632826  0.0269809964723059   T   T   T
  0.5398513010757484  0.4294833765543123  0.0269183210980219   T   T   T
  0.7067734745171411  0.4292281788730389  0.0268305924194481   T   T   T
  0.8730194745564477  0.4293690795943722  0.0270021095283451   T   T   T
  0.6653963288896196  0.0288411048536820  0.0447031114243560   T   T   T
  0.8316798607118978  0.0288501539537082  0.0447156572842273   T   T   T
  0.9984758107289907  0.0289041138291327  0.0446412114504409   T   T   T
  0.6650064878115702  0.2786906278402612  0.0446418509386691   T   T   T
  0.8320511674614937  0.2786743493629111  0.0446800284346311   T   T   T
  0.9984351224260681  0.2789469469601248  0.0446425528060815   T   T   T
  0.9166426828205624  0.4034726637467635  0.2069681538459280   T   T   T
  0.9175304054199158  0.1533110010572308  0.2066568869176387   T   T   T
  0.5833158752139319  0.1534556745878103  0.2065195842725251   T   T   T
  0.7501965383367901  0.1557942730029523  0.2076755648306206   T   T   T
  0.5838027793985835  0.4036897000111302  0.2067307911888951   T   T   T
  0.7698693546856599  0.4645335479786563  0.2619357441521404   T   T   T
  0.5422451075277166  0.0558966778218514  0.2244080826599555   T   T   T
  0.7089081201711799  0.0557704319377802  0.2244757823725718   T   T   T
  0.8753436891195068  0.0557343381773417  0.2246208064991211   T   T   T
  0.5492923034993966  0.3012587726724114  0.2225768951088199   T   T   T
  0.6842177051931668  0.2827379948977246  0.2309768848464509   T   T   T
  0.8912358005189752  0.2959666084984592  0.2232744215708048   T   T   T
  0.7502668134949303  0.2701097589459477  0.2663723078271041   T   T   T
  0.7352914508435652  0.2280342832775129  0.3005992941025514   T   T   T
  0.7592213673058931  0.3121756110912390  0.3085848954879699   T   T   T
  0.6440070900486535  0.1361456621596915  0.2959977327845801   T   T   T
  0.7182041222425130  0.1080458602116516  0.2873674308392780   T   T   T
  0.8181751509073656  0.3863099963053909  0.3347274277919717   T   T   T
  0.7513654468074669  0.4324456433563582  0.3268215283981459   T   T   T
  0.7524191832405459  0.4387937978159775  0.2706434932165785   T   T   T
  0.7845083325845430  0.2671242413452754  0.2408749145539905   T   T   T
  0.5398104942845439  0.6796155730558693  0.0269604562774820   T   T   T
  0.7065475011866349  0.6796432764801090  0.0269721187725737   T   T   T
  0.8732067777199500  0.6796274220870758  0.0269802976425392   T   T   T
  0.5400110913466618  0.9295274291604060  0.0269230367993836   T   T   T
  0.7066286866158620  0.9294873939573430  0.0269764934487981   T   T   T
  0.8731876420526651  0.9295099144880072  0.0269866472418201   T   T   T
  0.6652082843877919  0.5289904874842836  0.0445724267236448   T   T   T
  0.8318560977582887  0.5289649738848484  0.0446322609751715   T   T   T
  0.9984112261636446  0.5289459940456980  0.0446709175755154   T   T   T
  0.6652126524684604  0.7789776329107791  0.0446620268622884   T   T   T
  0.8318159080730383  0.7789479689117162  0.0446801942971331   T   T   T
  0.9982998773387265  0.7789222532460925  0.0446767527644310   T   T   T
  0.9170898897400372  0.9039978894372690  0.2070403878022874   T   T   T
  0.9168913823045024  0.6536495137933760  0.2069400409188122   T   T   T
  0.5842191198556473  0.6533842765109863  0.2068456147462753   T   T   T
  0.7502500097789564  0.6530796726281488  0.2068828839193876   T   T   T
  0.5838545032196147  0.9038615506719589  0.2070038368009528   T   T   T
  0.7505359690002757  0.9038387733042869  0.2070275345820167   T   T   T
  0.5444433800602955  0.5541101290850297  0.2241081655205789   T   T   T
  0.7091158901781006  0.5500410877003699  0.2249152833638770   T   T   T
  0.8789580745338312  0.5548677857356759  0.2235280175101389   T   T   T
  0.5423562995320165  0.8045336766203132  0.2246041123838877   T   T   T
  0.7090118898399856  0.8045661779234656  0.2246081135336049   T   T   T
  0.8762739702646043  0.8043904400670641  0.2245439928014477   T   T   T
  0.0873386154728310  0.1688246673574294  0.0335468219345182   T   T   T
  0.2538938840231318  0.1689682973362145  0.0335622898313405   T   T   T
  0.4205485669272930  0.1688726831189343  0.0335408231005676   T   T   T
  0.0873216781624901  0.4188748381349799  0.0335680164085884   T   T   T
  0.2539678660462424  0.4189267583058072  0.0335558793017107   T   T   T
  0.4205132862719678  0.4188149223640023  0.0335023535467511   T   T   T
  0.1617272534766116  0.0436562593332654  0.2181193480472937   T   T   T
  0.3282744783336201  0.0435507811512099  0.2181362308035257   T   T   T
  0.4948520837369826  0.0436033505926063  0.2181016434125270   T   T   T
  0.1615723397477663  0.2935567024175318  0.2181260117552510   T   T   T
  0.3282634067428356  0.2935491949056717  0.2181341114644078   T   T   T
  0.4986852893453930  0.2929935912867025  0.2178188464956606   T   T   T
  0.0872097164079723  0.6688788629736023  0.0335845744405442   T   T   T
  0.2538767296917421  0.6689570116536397  0.0335764333893317   T   T   T
  0.4204856343432569  0.6689930760743421  0.0335585170055459   T   T   T
  0.0874252055518237  0.9186861378455793  0.0335431877139346   T   T   T
  0.2539175678283551  0.9188013247228844  0.0335432609742155   T   T   T
  0.4205127444125312  0.9186638509173430  0.0334912834623020   T   T   T
  0.1617998006601069  0.5436596003827568  0.2181419829639387   T   T   T
  0.3286410161140729  0.5437384638590956  0.2181144426842669   T   T   T
  0.4962133776445766  0.5439364611958949  0.2180461936442333   T   T   T
  0.1616494584907996  0.7936002900193262  0.2181546655053362   T   T   T
  0.3286528248132447  0.7937444717824562  0.2181078033003310   T   T   T
  0.4948993992646735  0.7935702922858392  0.2181255076420383   T   T   T
  0.5874027654553078  0.1684079868985651  0.0334497882503157   T   T   T
  0.7539069065860827  0.1687349350876493  0.0336469901355348   T   T   T
  0.9205185102945816  0.1685658275472167  0.0335133245269944   T   T   T
  0.5872464340497967  0.4185397740103419  0.0334427851969992   T   T   T
  0.7540769634633387  0.4177212005808732  0.0333211777181077   T   T   T
  0.9204429295894609  0.4187155238504037  0.0335504488606860   T   T   T
  0.6615271722570344  0.0432666542288077  0.2181991755101925   T   T   T
  0.8281019172752376  0.0432159504945936  0.2182460473399767   T   T   T
  0.9953418152829107  0.0437169238549457  0.2180996118204798   T   T   T
  0.6507188506170166  0.2956340307260613  0.2180370960895960   T   T   T
  0.8402580474498379  0.2914740230592623  0.2188670337553441   T   T   T
  0.9944625876647134  0.2920524470203253  0.2180960174047344   T   T   T
  0.7633252343489952  0.2736870408550125  0.2961261932239506   T   T   T
  0.6944511275540963  0.1321288061328749  0.3004638648668053   T   T   T
  0.7672032919832352  0.3812941421225717  0.3310186481579235   T   T   T
  0.7428960088930988  0.2506000696823974  0.2504902973667029   T   T   T
  0.5872276488360807  0.6691164870940469  0.0335187997691346   T   T   T
  0.7539504736594742  0.6690162739614827  0.0335330818567997   T   T   T
  0.9205859040427087  0.6689557269239361  0.0335587503013564   T   T   T
  0.5873308315843957  0.9188928392055949  0.0335474681968712   T   T   T
  0.7539752713348304  0.9187829002800767  0.0335777200088952   T   T   T
  0.9205404900441559  0.9189186967155547  0.0335918994066541   T   T   T
  0.6616672968121745  0.5453415646858004  0.2177681302602552   T   T   T
  0.8300730473603239  0.5452823125145045  0.2180310718936054   T   T   T
  0.9957266577113340  0.5438365934458599  0.2181398657437579   T   T   T
  0.6615590002559277  0.7935373304660922  0.2181372600872081   T   T   T
  0.8286901467723385  0.7937784329143860  0.2181087265851419   T   T   T
  0.9953309771648258  0.7937680981347894  0.2181167336022438   T   T   T
  0.2498237727787182  0.1240765093534017  0.0595051857399932   T   T   T
  0.4165100929245563  0.1239918781198093  0.0594808216015914   T   T   T
  0.0831406675551010  0.3740387211547367  0.0595195042197850   T   T   T
  0.2498367306188088  0.3740555582911532  0.0595028506784694   T   T   T
  0.4165423820462526  0.3739959971003132  0.0594682058474847   T   T   T
  0.0831681393744645  0.1240164483314811  0.0595041829617146   T   T   T
  0.4994238564765243  0.0005733917504513  0.1391852324113187   T   T   T
  0.1662021385959642  0.0006936644890714  0.1392338869317703   T   T   T
  0.3327829027051294  0.0006943995104693  0.1392305888591161   T   T   T
  0.4995557913049223  0.2507970169064542  0.1391815191071472   T   T   T
  0.1661879252450425  0.2507874632634363  0.1392581911907363   T   T   T
  0.3328469476130897  0.2508016023715954  0.1392483411130126   T   T   T
  0.0826281853604222  0.1252679678101934  0.1654793781350933   T   T   T
  0.2492641576330864  0.1253829305656180  0.1655175854157192   T   T   T
  0.4158864463094595  0.1253393111500223  0.1655013862239031   T   T   T
  0.0824884825869704  0.3754056247600813  0.1655645562191240   T   T   T
  0.2492640523887579  0.3753829702623673  0.1655334703512323   T   T   T
  0.4160812952292966  0.3754192071337080  0.1655258806131301   T   T   T
  0.1656733802399010  0.4988130652825512  0.1921815575496313   T   T   T
  0.3327298077594960  0.4988287292327315  0.1921647078584895   T   T   T
  0.4999128279653489  0.4988672246972243  0.1920736884123945   T   T   T
  0.1658422006120019  0.2488719009955833  0.1921527563078635   T   T   T
  0.4992645001520729  0.2485156218285345  0.1918884056794364   T   T   T
  0.3325194298536170  0.2488918680051580  0.1921463570743876   T   T   T
  0.4996161167998661  0.0004640008722983  0.0860733221040771   T   T   T
  0.1663065005669868  0.0004493929524825  0.0861006971484112   T   T   T
  0.3329949294466867  0.0004307916182945  0.0860870636386502   T   T   T
  0.4996492222035613  0.2504813530641355  0.0860673692111016   T   T   T
  0.1662869647640134  0.2505139327397291  0.0861250461803475   T   T   T
  0.3330088781376784  0.2505000404719068  0.0861137769225632   T   T   T
  0.0827467559365457  0.1257319679349302  0.1123810437332693   T   T   T
  0.2494190664698625  0.1257123156314459  0.1124076450850211   T   T   T
  0.4160758747685500  0.1256800707801742  0.1123688742367241   T   T   T
  0.0826790833561160  0.3757478352504687  0.1124152548395423   T   T   T
  0.2494242566575891  0.3757292575711009  0.1124087810001197   T   T   T
  0.4161698433987429  0.3757525083019891  0.1123809912041030   T   T   T
  0.2498141358059223  0.6240433050264749  0.0595156132851453   T   T   T
  0.4165210488786292  0.6240378200431499  0.0594994217719632   T   T   T
  0.0831786417714599  0.8739321465256048  0.0595058296286095   T   T   T
  0.2498350708415582  0.8739278900136951  0.0594851652446565   T   T   T
  0.4165063069778183  0.8739440747704611  0.0594636480837903   T   T   T
  0.0830969499629808  0.6240415749955985  0.0595395568888286   T   T   T
  0.4997200150737279  0.5007744916521876  0.1392404469297761   T   T   T
  0.1661251304803495  0.5007283826122000  0.1392735086984535   T   T   T
  0.3328728426964176  0.5007595965188986  0.1392522940592729   T   T   T
  0.4995850458607525  0.7507355939555083  0.1392273804859790   T   T   T
  0.1661729381614516  0.7506860971381750  0.1392642697227419   T   T   T
  0.3328085624331344  0.7507050139918983  0.1392414861880727   T   T   T
  0.0823684757001072  0.6252609164304818  0.1655712513981695   T   T   T
  0.2492330762114605  0.6252833152554408  0.1655437426039899   T   T   T
  0.4160731675130462  0.6253144667962888  0.1655123931966687   T   T   T
  0.0825574303797203  0.8753188780676371  0.1655377831072858   T   T   T
  0.2492375944596598  0.8752988964066224  0.1655281010672490   T   T   T
  0.4159236241758367  0.8753016785698718  0.1655221462931248   T   T   T
  0.1658103647973241  0.9988786626858827  0.1921540908795562   T   T   T
  0.3324870576021859  0.9988786718714057  0.1921588851943278   T   T   T
  0.4991136567798029  0.9989459236665778  0.1921076268161443   T   T   T
  0.1657756621548826  0.7488415423745796  0.1921844196986338   T   T   T
  0.4992541030627184  0.7487049365656091  0.1921543371926099   T   T   T
  0.3325639153433093  0.7487909634443274  0.1921659587585840   T   T   T
  0.4997417435663398  0.5004783847709725  0.0860818638027542   T   T   T
  0.1662571941233530  0.5004982155454724  0.0861249307422432   T   T   T
  0.3330387097782570  0.5004822406885843  0.0861108882423866   T   T   T
  0.4996908699354931  0.7505090483533023  0.0861060169625562   T   T   T
  0.1662599270087702  0.7504187788909394  0.0861296283509851   T   T   T
  0.3329829408758543  0.7504317393593339  0.0861031941957331   T   T   T
  0.0826446547032322  0.6256783058773266  0.1124331126004298   T   T   T
  0.2493977558479025  0.6256652593305965  0.1124198854310140   T   T   T
  0.4161485888869395  0.6257601100903269  0.1123794434270272   T   T   T
  0.0827657154428931  0.8756816992374334  0.1123882256901431   T   T   T
  0.2494118231120160  0.8756428265887795  0.1123868213585806   T   T   T
  0.4160488772750385  0.8756367960316386  0.1123536236763486   T   T   T
  0.7498572926370171  0.1240685812374403  0.0596304143857036   T   T   T
  0.9164730756515228  0.1240196715303141  0.0595069734513075   T   T   T
  0.5832372362678077  0.3739493414511337  0.0594543966555119   T   T   T
  0.7498788450850069  0.3738565998956824  0.0594579596649976   T   T   T
  0.9164294604145391  0.3740043697388684  0.0595294312405983   T   T   T
  0.5832173884315642  0.1239618785756837  0.0594707537275142   T   T   T
  0.9994941766932073  0.0006435176505158  0.1392212576561107   T   T   T
  0.6663797974754175  0.0009534916501233  0.1393158819729617   T   T   T
  0.8326518496054693  0.0010501447344002  0.1393503571866596   T   T   T
  0.9993616243567168  0.2508181489950990  0.1392375252219771   T   T   T
  0.6660012094449584  0.2514548266446895  0.1394878251345675   T   T   T
  0.8326506170214115  0.2514149485850560  0.1394829322781212   T   T   T
  0.5824857463332487  0.1250703143101811  0.1653073468001657   T   T   T
  0.7490646811925252  0.1268479880571297  0.1660522580724743   T   T   T
  0.9159848241435024  0.1252939446009954  0.1653757983878637   T   T   T
  0.5827642685439702  0.3756362034751022  0.1655625534371358   T   T   T
  0.7490458468807305  0.3774676331973337  0.1669356398430639   T   T   T
  0.9155108541178038  0.3756593969293031  0.1657080826151197   T   T   T
  0.6687363223544085  0.4959479780922244  0.1922666965802728   T   T   T
  0.8292141600422164  0.4958753687656872  0.1925087742710684   T   T   T
  0.9984622294111477  0.4986917860182385  0.1921667049959168   T   T   T
  0.6640339745186984  0.2509882785611333  0.1926087329704665   T   T   T
  0.9992138035759316  0.2482941247413649  0.1918958321494267   T   T   T
  0.8332497163119125  0.2500338320319343  0.1923459465259741   T   T   T
  0.9996561285279774  0.0004912019733391  0.0861108705466104   T   T   T
  0.6663750933907021  0.0005936045845825  0.0861712892055868   T   T   T
  0.8329104231492098  0.0005873131978917  0.0861857644585206   T   T   T
  0.9996168801162411  0.2505271664074302  0.0861140563238735   T   T   T
  0.6663183507276863  0.2506087348282987  0.0861663094684501   T   T   T
  0.8329350698376532  0.2505873362667924  0.0861998053751026   T   T   T
  0.5827469159838594  0.1258454811063983  0.1123552785991753   T   T   T
  0.7493837508017878  0.1261187608995060  0.1126168191198745   T   T   T
  0.9160486201187990  0.1258766464980926  0.1123952207535431   T   T   T