C H O Si                                
   1.00000000000000     
     9.2874599999999994    0.0000000000000000    0.0000000000000000
     0.0000000000000000    8.7563099999999991    0.0000000000000000
     0.0000000000000000    0.0000000000000000   58.0000000000000000
   C    H    O    Si
    36    33    16    36
Selective dynamics
Direct
  0.9956305676217722  0.1291841054195348  0.0595755087696000   T   T   T
  0.3288945358954630  0.1291066644061886  0.0595889439377009   T   T   T
  0.6624855965851097  0.1292372114340421  0.0595505769594629   T   T   T
  0.9957267147341353  0.6292647667885107  0.0596200440812335   T   T   T
  0.3290266311868636  0.6289438295633759  0.0595376587504205   T   T   T
  0.6625232207409927  0.6291087035646428  0.0595541116678052   T   T   T
  0.1628779044341160  0.3748940575302471  0.1386525318357743   T   T   T
  0.4958023957265441  0.3752864266936738  0.1386334496984382   T   T   T
  0.8287915016748537  0.3746748267840143  0.1385241791070951   T   T   T
  0.1624822468121138  0.8757638722999416  0.1385372630175282   T   T   T
  0.4956430817622180  0.8773673998424564  0.1379813668361023   T   T   T
  0.8293812266442858  0.8757609107324751  0.1385831760154007   T   T   T
  0.3304381241528430  0.1263101021927970  0.1655877171397377   T   T   T
  0.6614777029721832  0.1258488723553155  0.1655061776545461   T   T   T
  0.9965313848986290  0.1258456433507767  0.1656281260289227   T   T   T
  0.3283436921713550  0.6260161950636307  0.1653174368781722   T   T   T
  0.6633476988871511  0.6258626890518673  0.1655464354796110   T   T   T
  0.9957616722406232  0.6260560652595528  0.1657876022076184   T   T   T
  0.1655767939996500  0.3819970873996082  0.1913747408461495   T   T   T
  0.4973132145247928  0.3835859567071449  0.1914769524218672   T   T   T
  0.8307082440872674  0.3789872355687079  0.1908071131042330   T   T   T
  0.1611934165394137  0.8800663440622298  0.1911822388414082   T   T   T
  0.4957131847207905  0.8972369511777988  0.1866543044312152   T   T   T
  0.8306986390491793  0.8811456642137038  0.1911762289571483   T   T   T
  0.1622195713246239  0.3747201825923354  0.0850113999504963   T   T   T
  0.4957439121979246  0.3746935803146025  0.0850470484995426   T   T   T
  0.8290057255841716  0.3749116974663827  0.0849523732535797   T   T   T
  0.1621188090658376  0.8746626757396865  0.0849992327425772   T   T   T
  0.4955768820264076  0.8749151019921291  0.0849120023061816   T   T   T
  0.8290308908097206  0.8746877769624224  0.0850168857601692   T   T   T
  0.3287362837746362  0.1253357315847885  0.1121151343735291   T   T   T
  0.6622832351121813  0.1252096289801667  0.1120773618000881   T   T   T
  0.9954507859910562  0.1251278680927503  0.1121258591430754   T   T   T
  0.3286713655444686  0.6245452442047009  0.1120549972680363   T   T   T
  0.6623231722901072  0.6246946271377463  0.1121100233377746   T   T   T
  0.9954803546639290  0.6247019967697218  0.1122200437330904   T   T   T
  0.0861078259429303  0.3512126392837123  0.0243594240800097   T   T   T
  0.4182371525099752  0.3512682699071568  0.0244721550610105   T   T   T
  0.7523794382143070  0.3510129193253089  0.0243587468330147   T   T   T
  0.0865432014470190  0.8512815883117858  0.0243405840519643   T   T   T
  0.4192243455166867  0.8518807067023386  0.0243978780635386   T   T   T
  0.7525001188095541  0.8513487609293647  0.0244086062096041   T   T   T
  0.3268008098250179  0.0568856533751943  0.0440207947639093   T   T   T
  0.6602645294892421  0.0570567864278016  0.0439815878295115   T   T   T
  0.9935987930173701  0.0568900214356491  0.0440266503368007   T   T   T
  0.3267246838695999  0.5571112172495682  0.0439377015965739   T   T   T
  0.6606855505411214  0.5569092498196112  0.0439894378834579   T   T   T
  0.9936774392840304  0.5569343946852997  0.0440668928208141   T   T   T
  0.8338469084938601  0.8109299768432405  0.2068993716783955   T   T   T
  0.8321043469360696  0.3079121267406307  0.2065098300981206   T   T   T
  0.1672103911369278  0.3104093135104165  0.2070311995614268   T   T   T
  0.4986503024164594  0.3122941279010487  0.2071263132869000   T   T   T
  0.1639826791613064  0.8081278579042784  0.2067578280379867   T   T   T
  0.5475953932202654  0.9224526242123423  0.2613692126030304   T   T   T
  0.0659484137758539  0.0911528805659058  0.2277159925929239   T   T   T
  0.4169655851594409  0.1033194636630840  0.2255552618351875   T   T   T
  0.7233569850378843  0.0937495605996677  0.2283653805657614   T   T   T
  0.0618820870136773  0.6047232866088617  0.2272678849115257   T   T   T
  0.3753041105393710  0.5849171988967931  0.2297778975811582   T   T   T
  0.7733584132670472  0.6042097045110771  0.2228771549889532   T   T   T
  0.4835443857416160  0.5472679116995730  0.2663365407397840   T   T   T
  0.4720779583396713  0.4535051098350296  0.3000576973540295   T   T   T
  0.5181253481331048  0.6244074247673237  0.3074380499641510   T   T   T
  0.2944507581396723  0.2719934912429658  0.2978728984137161   T   T   T
  0.4416539441369743  0.2088182257905750  0.2897548657976190   T   T   T
  0.6363617482455886  0.7674957035363965  0.3347244209753550   T   T   T
  0.5011734572759742  0.8586387876279492  0.3271260846548589   T   T   T
  0.5045945287210531  0.8722441390937565  0.2692931315363571   T   T   T
  0.5635415040492455  0.5436677443570849  0.2420410345618697   T   T   T
  0.1731818098464590  0.3417411393098098  0.0336661252665300   T   T   T
  0.5056114332706304  0.3424862086280437  0.0337282760533747   T   T   T
  0.8393233458199779  0.3423827266609502  0.0336992421669999   T   T   T
  0.1734597149577614  0.8416554202948235  0.0336650982691661   T   T   T
  0.5065629692517577  0.8418735644614007  0.0336415804780271   T   T   T
  0.8395596475469402  0.8421200511230276  0.0337152750099058   T   T   T
  0.3251995325086916  0.0884435935305791  0.2175955243865505   T   T   T
  0.6456764665395851  0.0928652964321267  0.2170367775946441   T   T   T
  0.9892868089250272  0.1010154588859949  0.2163341593993023   T   T   T
  0.3268675678620654  0.6190108787110832  0.2147968598161059   T   T   T
  0.6747056159406040  0.5980036757014259  0.2166760787976932   T   T   T
  0.9797846355508066  0.5926072405262190  0.2169318862326575   T   T   T
  0.5190250915731793  0.5488695367260463  0.2946612809901090   T   T   T
  0.3959379719475798  0.2666053007447030  0.3021263614485388   T   T   T
  0.5355340406515320  0.7557143171225151  0.3303842842756848   T   T   T
  0.4722311661353439  0.5176251251618019  0.2497190060204528   T   T   T
  0.4957253088347731  0.2470252644765418  0.0585074661579435   T   T   T
  0.8291494041578090  0.2471803195031179  0.0584713984366819   T   T   T
  0.1624285558419339  0.7470188326418311  0.0584893700945972   T   T   T
  0.4957876873683680  0.7465340196760016  0.0584007166856619   T   T   T
  0.8291881078221709  0.7471055521464692  0.0585120220645889   T   T   T
  0.1622937343628377  0.2470416026570766  0.0584952686670124   T   T   T
  0.9961320080969218  0.0013122954241554  0.1387491416430176   T   T   T
  0.3283899974080771  0.0012831811962836  0.1387021054726197   T   T   T
  0.6632088590574392  0.0010386757495065  0.1386602755951809   T   T   T
  0.9958085660486240  0.5008715858741699  0.1389320050694574   T   T   T
  0.3289563391188866  0.5002951061290718  0.1386574155113241   T   T   T
  0.6626699737797844  0.5001951954705340  0.1386949486484680   T   T   T
  0.1617876757485672  0.2520161234734603  0.1656225463432991   T   T   T
  0.4961322561411978  0.2528316665298886  0.1656397942930901   T   T   T
  0.8312146302363275  0.2504051233302403  0.1652794979114728   T   T   T
  0.1622048642587739  0.7512659936188688  0.1651928533126868   T   T   T
  0.4957402152141893  0.7455246412169957  0.1644124094289549   T   T   T
  0.8295353422097633  0.7513787645828505  0.1652540203650370   T   T   T
  0.3251348195706609  0.9989571110720737  0.1925880721607610   T   T   T
  0.6665460749325141  0.9995371699977099  0.1925228261333694   T   T   T
  0.9966407508102251  0.0006283428651071  0.1921577356918467   T   T   T
  0.3311907973029212  0.5042639699832098  0.1922586507858038   T   T   T
  0.9972130260628576  0.4975056042798566  0.1921760094394426   T   T   T
  0.6656591237817437  0.4989873173853160  0.1920404014788172   T   T   T
  0.9956514383778096 -0.0000173420159158  0.0853158546589732   T   T   T
  0.3287361704577186 -0.0001613887828687  0.0853007980550942   T   T   T
  0.6625327121536091 -0.0001393899373224  0.0852700426114699   T   T   T
  0.9957065927394115  0.4999152446219569  0.0853444296621029   T   T   T
  0.3289206533514766  0.4995202429392263  0.0852662308653414   T   T   T
  0.6625245913465894  0.4996984189788778  0.0852791978285962   T   T   T
  0.1619369699404280  0.2506045685936492  0.1117900480142905   T   T   T
  0.4956256393439784  0.2504736676126753  0.1118336362491842   T   T   T
  0.8291235924759971  0.2505835192896145  0.1116861613177883   T   T   T
  0.1622677513749824  0.7505795592879437  0.1117746425083689   T   T   T
  0.4954413239406555  0.7488335813958072  0.1114245885991193   T   T   T
  0.8289577129106608  0.7507003032590054  0.1118005222490630   T   T   T
 
  0.00000000E+00  0.00000000E+00  0.00000000E+00
  0.00000000E+00  0.00000000E+00  0.00000000E+00
  0.00000000E+00  0.00000000E+00  0.00000000E+00
  0.00000000E+00  0.00000000E+00  0.00000000E+00
  0.00000000E+00  0.00000000E+00  0.00000000E+00
  0.00000000E+00  0.00000000E+00  0.00000000E+00
  0.00000000E+00  0.00000000E+00  0.00000000E+00
  0.00000000E+00  0.00000000E+00  0.00000000E+00
  0.00000000E+00  0.00000000E+00  0.00000000E+00
  0.00000000E+00  0.00000000E+00  0.00000000E+00
  0.00000000E+00  0.00000000E+00  0.00000000E+00
  0.00000000E+00  0.00000000E+00  0.00000000E+00
  0.00000000E+00  0.00000000E+00  0.00000000E+00
  0.00000000E+00  0.00000000E+00  0.00000000E+00
  0.00000000E+00  0.00000000E+00  0.00000000E+00
  0.00000000E+00  0.00000000E+00  0.00000000E+00
  0.00000000E+00  0.00000000E+00  0.00000000E+00
  0.00000000E+00  0.00000000E+00  0.00000000E+00
  0.00000000E+00  0.00000000E+00  0.00000000E+00
  0.00000000E+00  0.00000000E+00  0.00000000E+00
  0.00000000E+00  0.00000000E+00  0.00000000E+00
  0.00000000E+00  0.00000000E+00  0.00000000E+00
  0.00000000E+00  0.00000000E+00  0.00000000E+00
  0.00000000E+00  0.00000000E+00  0.00000000E+00
  0.00000000E+00  0.00000000E+00  0.00000000E+00
  0.00000000E+00  0.00000000E+00  0.00000000E+00
  0.00000000E+00  0.00000000E+00  0.00000000E+00
  0.00000000E+00  0.00000000E+00  0.00000000E+00
  0.00000000E+00  0.00000000E+00  0.00000000E+00
  0.00000000E+00  0.00000000E+00  0.00000000E+00
  0.00000000E+00  0.00000000E+00  0.00000000E+00
  0.00000000E+00  0.00000000E+00  0.00000000E+00
  0.00000000E+00  0.00000000E+00  0.00000000E+00
  0.00000000E+00  0.00000000E+00  0.00000000E+00
  0.00000000E+00  0.00000000E+00  0.00000000E+00
  0.00000000E+00  0.00000000E+00  0.00000000E+00
  0.00000000E+00  0.00000000E+00  0.00000000E+00
  0.00000000E+00  0.00000000E+00  0.00000000E+00
  0.00000000E+00  0.00000000E+00  0.00000000E+00
  0.00000000E+00  0.00000000E+00  0.00000000E+00
  0.00000000E+00  0.00000000E+00  0.00000000E+00
  0.00000000E+00  0.00000000E+00  0.00000000E+00
  0.00000000E+00  0.00000000E+00  0.00000000E+00
  0.00000000E+00  0.00000000E+00  0.00000000E+00
  0.00000000E+00  0.00000000E+00  0.00000000E+00
  0.00000000E+00  0.00000000E+00  0.00000000E+00
  0.00000000E+00  0.00000000E+00  0.00000000E+00
  0.00000000E+00  0.00000000E+00  0.00000000E+00
  0.00000000E+00  0.00000000E+00  0.00000000E+00
  0.00000000E+00  0.00000000E+00  0.00000000E+00
  0.00000000E+00  0.00000000E+00  0.00000000E+00
  0.00000000E+00  0.00000000E+00  0.00000000E+00
  0.00000000E+00  0.00000000E+00  0.00000000E+00
  0.00000000E+00  0.00000000E+00  0.00000000E+00
  0.00000000E+00  0.00000000E+00  0.00000000E+00
  0.00000000E+00  0.00000000E+00  0.00000000E+00
  0.00000000E+00  0.00000000E+00  0.00000000E+00
  0.00000000E+00  0.00000000E+00  0.00000000E+00
  0.00000000E+00  0.00000000E+00  0.00000000E+00
  0.00000000E+00  0.00000000E+00  0.00000000E+00
  0.00000000E+00  0.00000000E+00  0.00000000E+00
  0.00000000E+00  0.00000000E+00  0.00000000E+00
  0.00000000E+00  0.00000000E+00  0.00000000E+00
  0.00000000E+00  0.00000000E+00  0.00000000E+00
  0.00000000E+00  0.00000000E+00  0.00000000E+00
  0.00000000E+00  0.00000000E+00  0.00000000E+00
  0.00000000E+00  0.00000000E+00  0.00000000E+00
  0.00000000E+00  0.00000000E+00  0.00000000E+00
  0.00000000E+00  0.00000000E+00  0.00000000E+00
  0.00000000E+00  0.00000000E+00  0.00000000E+00
  0.00000000E+00  0.00000000E+00  0.00000000E+00
  0.00000000E+00  0.00000000E+00  0.00000000E+00
  0.00000000E+00  0.00000000E+00  0.00000000E+00
  0.00000000E+00  0.00000000E+00  0.00000000E+00
  0.00000000E+00  0.00000000E+00  0.00000000E+00
  0.00000000E+00  0.00000000E+00  0.00000000E+00
  0.00000000E+00  0.00000000E+00  0.00000000E+00
  0.00000000E+00  0.00000000E+00  0.00000000E+00
  0.00000000E+00  0.00000000E+00  0.00000000E+00
  0.00000000E+00  0.00000000E+00  0.00000000E+00
  0.00000000E+00  0.00000000E+00  0.00000000E+00
  0.00000000E+00  0.00000000E+00  0.00000000E+00
  0.00000000E+00  0.00000000E+00  0.00000000E+00
  0.00000000E+00  0.00000000E+00  0.00000000E+00
  0.00000000E+00  0.00000000E+00  0.00000000E+00
  0.00000000E+00  0.00000000E+00  0.00000000E+00
  0.00000000E+00  0.00000000E+00  0.00000000E+00
  0.00000000E+00  0.00000000E+00  0.00000000E+00
  0.00000000E+00  0.00000000E+00  0.00000000E+00
  0.00000000E+00  0.00000000E+00  0.00000000E+00
  0.00000000E+00  0.00000000E+00  0.00000000E+00
  0.00000000E+00  0.00000000E+00  0.00000000E+00
  0.00000000E+00  0.00000000E+00  0.00000000E+00
  0.00000000E+00  0.00000000E+00  0.00000000E+00
  0.00000000E+00  0.00000000E+00  0.00000000E+00
  0.00000000E+00  0.00000000E+00  0.00000000E+00
  0.00000000E+00  0.00000000E+00  0.00000000E+00
  0.00000000E+00  0.00000000E+00  0.00000000E+00
  0.00000000E+00  0.00000000E+00  0.00000000E+00
  0.00000000E+00  0.00000000E+00  0.00000000E+00
  0.00000000E+00  0.00000000E+00  0.00000000E+00
  0.00000000E+00  0.00000000E+00  0.00000000E+00
  0.00000000E+00  0.00000000E+00  0.00000000E+00
  0.00000000E+00  0.00000000E+00  0.00000000E+00
  0.00000000E+00  0.00000000E+00  0.00000000E+00
  0.00000000E+00  0.00000000E+00  0.00000000E+00
  0.00000000E+00  0.00000000E+00  0.00000000E+00
  0.00000000E+00  0.00000000E+00  0.00000000E+00
  0.00000000E+00  0.00000000E+00  0.00000000E+00
  0.00000000E+00  0.00000000E+00  0.00000000E+00
  0.00000000E+00  0.00000000E+00  0.00000000E+00
  0.00000000E+00  0.00000000E+00  0.00000000E+00
  0.00000000E+00  0.00000000E+00  0.00000000E+00
  0.00000000E+00  0.00000000E+00  0.00000000E+00
  0.00000000E+00  0.00000000E+00  0.00000000E+00
  0.00000000E+00  0.00000000E+00  0.00000000E+00
  0.00000000E+00  0.00000000E+00  0.00000000E+00
  0.00000000E+00  0.00000000E+00  0.00000000E+00
  0.00000000E+00  0.00000000E+00  0.00000000E+00
  0.00000000E+00  0.00000000E+00  0.00000000E+00
  0.00000000E+00  0.00000000E+00  0.00000000E+00
