C H O Si                                
   1.00000000000000     
     9.2874599999999994    0.0000000000000000    0.0000000000000000
     0.0000000000000000    8.7562999999999995    0.0000000000000000
     0.0000000000000000    0.0000000000000000   90.0000000000000000
   C    H    O    Si
    36    33    16    36
Selective dynamics
Direct
  0.0011571099713718  0.1357055776414705  0.4232798931435141   T   T   T
  0.0011288614743776  0.6358186823414328  0.4232895583755248   T   T   T
  0.3345148295558114  0.1358101883820513  0.4233430049739602   T   T   T
  0.3344767856185529  0.6357224512829200  0.4233473186155505   T   T   T
  0.6676202636008223  0.1357405552889086  0.4233526439028719   T   T   T
  0.6676533383939262  0.6356528854488744  0.4233453244753062   T   T   T
  0.1677360162353329  0.3815332768993903  0.4396679137713790   T   T   T
  0.1677872188622820  0.8815449809400538  0.4396877578322709   T   T   T
  0.5010435344895723  0.3815664547325822  0.4397736456515588   T   T   T
  0.5010009303700296  0.8815116203002671  0.4397243382831573   T   T   T
  0.8343465291306030  0.3814927537318146  0.4396513729203335   T   T   T
  0.8342527974822784  0.8815411129801948  0.4396745178620173   T   T   T
  0.0009517153388751  0.1311987782613657  0.4571234169530046   T   T   T
  0.0009400774856641  0.6314590453250727  0.4571350786492669   T   T   T
  0.3343851686268290  0.1313500813358364  0.4572005516107677   T   T   T
  0.3343327269191496  0.6312394906362279  0.4572136948661557   T   T   T
  0.6674479229729829  0.1313401461908789  0.4572157117574961   T   T   T
  0.6675409520372779  0.6313418432728624  0.4571944110925682   T   T   T
  0.1676004625726774  0.3811919087249430  0.4741379596573930   T   T   T
  0.1678661569527858  0.8813695650405114  0.4741821833281919   T   T   T
  0.5008418075562673  0.3815832653936001  0.4743361124468256   T   T   T
  0.5008645246332821  0.8810254862947881  0.4742258909395201   T   T   T
  0.8341367078242939  0.3810883811211240  0.4741111552569538   T   T   T
  0.8339768626028865  0.8813907688172958  0.4741704627732752   T   T   T
  0.0010386548762118  0.1308698757626058  0.4915317856495091   T   T   T
  0.0009960304070057  0.6314236262333663  0.4915840093243529   T   T   T
  0.3347280663055501  0.1321417625251392  0.4917476545566479   T   T   T
  0.3339152453454399  0.6314563911657535  0.4917834233485792   T   T   T
  0.6668321804897090  0.1317487890066133  0.4917852633045008   T   T   T
  0.6678174305382913  0.6316353664511725  0.4917191042062081   T   T   T
  0.1672820774308619  0.3837070233300011  0.5078756522765956   T   T   T
  0.1668595914431959  0.8861235291479674  0.5080270437177054   T   T   T
  0.5010058794927930  0.3895480982063405  0.5085979270623674   T   T   T
  0.5003313622500627  0.8849835914213113  0.5080585305184848   T   T   T
  0.8350683837544384  0.3828094924186657  0.5077364715084229   T   T   T
  0.8343686090739286  0.8857663815171122  0.5079602001427916   T   T   T
  0.0036724046835626  0.0635426231784393  0.4132518138082892   T   T   T
  0.0036096599824875  0.5636679794470144  0.4132606262836262   T   T   T
  0.3373202730836165  0.0635398091621884  0.4133214009393968   T   T   T
  0.3370763373320217  0.5633540845436039  0.4133322058693452   T   T   T
  0.6695934074757655  0.0633587717580969  0.4133401671615867   T   T   T
  0.6698699154746875  0.5632874297837823  0.4133321334091816   T   T   T
  0.1685477564934555  0.3117359625557485  0.5179126574297708   T   T   T
  0.1684375171994463  0.8134355740175735  0.5180110342286781   T   T   T
  0.5039393577853755  0.3156842266735296  0.5185034681254712   T   T   T
  0.4999886409850487  0.8120366587338528  0.5180216399588778   T   T   T
  0.8382024783411547  0.3111208184196139  0.5177922425381781   T   T   T
  0.8377532616002443  0.8142695934032977  0.5180076203310413   T   T   T
  0.0848103698378998  0.1123892508896441  0.5294940194909317   T   T   T
  0.0850022430575231  0.6074031284423977  0.5292385359560686   T   T   T
  0.4206186972137018  0.1175165504910465  0.5291644871806105   T   T   T
  0.3819115108882784  0.6331051365102599  0.5313789507283273   T   T   T
  0.7554122459539581  0.1111485002134287  0.5293558114016754   T   T   T
  0.7937185490432551  0.5969987366412610  0.5279143307725482   T   T   T
  0.2543025930608239  0.3590323274611066  0.4016852287878643   T   T   T
  0.2543414493827278  0.8589181155875777  0.4016983548669982   T   T   T
  0.5871917179417973  0.3590560563486323  0.4017519059593359   T   T   T
  0.5870865420093286  0.8587945157026202  0.4017066443483636   T   T   T
  0.9195496710449730  0.3588400018135802  0.4016173999941140   T   T   T
  0.9195193319056729  0.8589766410448192  0.4016427689649633   T   T   T
  0.5491650735710348  0.6201912190445233  0.5590070996422324   T   T   T
  0.4929952994142368  0.4770254229016990  0.5712418115900036   T   T   T
  0.5711490178063530  0.6357805432782682  0.5779460105604891   T   T   T
  0.3116305159901785  0.3858751154410091  0.5827840679861052   T   T   T
  0.4177896079828434  0.2539361895750247  0.5786103959719654   T   T   T
  0.6444345127213883  0.7386699613552931  0.5983820108629522   T   T   T
  0.4791840498385360  0.7626586999367791  0.5956981064553233   T   T   T
  0.5383571951759852  0.8090369656693411  0.5455085978077424   T   T   T
  0.6002985131311318  0.6585718572915390  0.5369652887735608   T   T   T
  0.1602495455182803  0.3451275372509442  0.4063605996710578   T   T   T
  0.1603088182730170  0.8452324634243628  0.4063852395409265   T   T   T
  0.4932740268392795  0.3458806371774923  0.4064804736528568   T   T   T
  0.4931557436273881  0.8453472392296166  0.4064247441022570   T   T   T
  0.8257880613586385  0.3447600206733978  0.4063482308229531   T   T   T
  0.8257577445539057  0.8449197058736717  0.4063722209601262   T   T   T
  0.9908786176149751  0.0948208567739295  0.5249201727782580   T   T   T
  0.9897706160705335  0.5906672431306402  0.5248093460436051   T   T   T
  0.3258769947374747  0.0925838441323494  0.5251292188834144   T   T   T
  0.3043565718275139  0.5939033780924978  0.5250757712384594   T   T   T
  0.6597153382717141  0.0892452402105827  0.5253330255034424   T   T   T
  0.6902520025193241  0.5930756534105243  0.5251673824126850   T   T   T
  0.5685891540708724  0.5603796047631464  0.5691308618879788   T   T   T
  0.3794664736715717  0.3519071303706972  0.5750694965587364   T   T   T
  0.5728270474830849  0.7563089333794321  0.5905302833245649   T   T   T
  0.5286464088749283  0.6982317767047311  0.5450651064294755   T   T   T
  0.1677441310255696  0.2530781961898885  0.4228062631134249   T   T   T
  0.1677705240391713  0.7530972138669616  0.4228250827083083   T   T   T
  0.5009728744849946  0.2532427920761270  0.4228979825175890   T   T   T
  0.5009474487009470  0.7531010214663348  0.4228617877735550   T   T   T
  0.8342185847534130  0.2528970194519715  0.4228044399857386   T   T   T
  0.8341647513479391  0.7529454127640387  0.4228228798839452   T   T   T
  0.0010299442120830  0.0056671352486902  0.4399623768869650   T   T   T
  0.0010271892752941  0.5057464220169458  0.4399651971002878   T   T   T
  0.3344074534057038  0.0057813637273147  0.4400190870810794   T   T   T
  0.3343614845310343  0.5057398748330075  0.4400321612835305   T   T   T
  0.6675621565238157  0.0057192498910797  0.4400290248022204   T   T   T
  0.6676583072720308  0.5056529486357785  0.4400201044652731   T   T   T
  0.1676481998748733  0.2562008101709553  0.4569483147224962   T   T   T
  0.1678053721183664  0.7562993335596175  0.4569795160129199   T   T   T
  0.5008774268185399  0.2563378995952604  0.4570726760487134   T   T   T
  0.5008726697886313  0.7561950986235848  0.4570039349566814   T   T   T
  0.8342588372079692  0.2560701817378380  0.4569258032410543   T   T   T
  0.8341657668718796  0.7562861619201042  0.4569654916958994   T   T   T
  0.0009957864008394  0.0058008788948795  0.4742208085697265   T   T   T
  0.0009360820487398  0.5060139789145435  0.4742092663235641   T   T   T
  0.3345652660186073  0.0063871051224706  0.4743255733840441   T   T   T
  0.3340085098335831  0.5062321205692233  0.4743556354513843   T   T   T
  0.6671069175918515  0.0062028099211787  0.4743341432942105   T   T   T
  0.6676555185903885  0.5060089634119561  0.4742862749232952   T   T   T
  0.1674133951885673  0.2550479320852874  0.4911699371840369   T   T   T
  0.1674225142809958  0.7560718970290646  0.4912816566055825   T   T   T
  0.5007716754262241  0.2574315057799700  0.4915267670994500   T   T   T
  0.5005113824872014  0.7552679765425735  0.4912851519810062   T   T   T
  0.8344678919751914  0.2541663188827960  0.4910831197396716   T   T   T
  0.8345948376597634  0.7559420665280301  0.4912374760692604   T   T   T
  0.0003819693915558  0.0035458672667454  0.5083586241629625   T   T   T
  0.0009948020434614  0.5007553935490848  0.5081266314670506   T   T   T
  0.3333105592238088  0.0030525765614705  0.5084603779598587   T   T   T
  0.3312847580423758  0.5043909572551867  0.5086923606024228   T   T   T
  0.6673792859814727  0.0021202471443093  0.5084820312801562   T   T   T
  0.6706668760586932  0.5019280928776011  0.5082747328381492   T   T   T
 
  0.00000000E+00  0.00000000E+00  0.00000000E+00
  0.00000000E+00  0.00000000E+00  0.00000000E+00
  0.00000000E+00  0.00000000E+00  0.00000000E+00
  0.00000000E+00  0.00000000E+00  0.00000000E+00
  0.00000000E+00  0.00000000E+00  0.00000000E+00
  0.00000000E+00  0.00000000E+00  0.00000000E+00
  0.00000000E+00  0.00000000E+00  0.00000000E+00
  0.00000000E+00  0.00000000E+00  0.00000000E+00
  0.00000000E+00  0.00000000E+00  0.00000000E+00
  0.00000000E+00  0.00000000E+00  0.00000000E+00
  0.00000000E+00  0.00000000E+00  0.00000000E+00
  0.00000000E+00  0.00000000E+00  0.00000000E+00
  0.00000000E+00  0.00000000E+00  0.00000000E+00
  0.00000000E+00  0.00000000E+00  0.00000000E+00
  0.00000000E+00  0.00000000E+00  0.00000000E+00
  0.00000000E+00  0.00000000E+00  0.00000000E+00
  0.00000000E+00  0.00000000E+00  0.00000000E+00
  0.00000000E+00  0.00000000E+00  0.00000000E+00
  0.00000000E+00  0.00000000E+00  0.00000000E+00
  0.00000000E+00  0.00000000E+00  0.00000000E+00
  0.00000000E+00  0.00000000E+00  0.00000000E+00
  0.00000000E+00  0.00000000E+00  0.00000000E+00
  0.00000000E+00  0.00000000E+00  0.00000000E+00
  0.00000000E+00  0.00000000E+00  0.00000000E+00
  0.00000000E+00  0.00000000E+00  0.00000000E+00
  0.00000000E+00  0.00000000E+00  0.00000000E+00
  0.00000000E+00  0.00000000E+00  0.00000000E+00
  0.00000000E+00  0.00000000E+00  0.00000000E+00
  0.00000000E+00  0.00000000E+00  0.00000000E+00
  0.00000000E+00  0.00000000E+00  0.00000000E+00
  0.00000000E+00  0.00000000E+00  0.00000000E+00
  0.00000000E+00  0.00000000E+00  0.00000000E+00
  0.00000000E+00  0.00000000E+00  0.00000000E+00
  0.00000000E+00  0.00000000E+00  0.00000000E+00
  0.00000000E+00  0.00000000E+00  0.00000000E+00
  0.00000000E+00  0.00000000E+00  0.00000000E+00
  0.00000000E+00  0.00000000E+00  0.00000000E+00
  0.00000000E+00  0.00000000E+00  0.00000000E+00
  0.00000000E+00  0.00000000E+00  0.00000000E+00
  0.00000000E+00  0.00000000E+00  0.00000000E+00
  0.00000000E+00  0.00000000E+00  0.00000000E+00
  0.00000000E+00  0.00000000E+00  0.00000000E+00
  0.00000000E+00  0.00000000E+00  0.00000000E+00
  0.00000000E+00  0.00000000E+00  0.00000000E+00
  0.00000000E+00  0.00000000E+00  0.00000000E+00
  0.00000000E+00  0.00000000E+00  0.00000000E+00
  0.00000000E+00  0.00000000E+00  0.00000000E+00
  0.00000000E+00  0.00000000E+00  0.00000000E+00
  0.00000000E+00  0.00000000E+00  0.00000000E+00
  0.00000000E+00  0.00000000E+00  0.00000000E+00
  0.00000000E+00  0.00000000E+00  0.00000000E+00
  0.00000000E+00  0.00000000E+00  0.00000000E+00
  0.00000000E+00  0.00000000E+00  0.00000000E+00
  0.00000000E+00  0.00000000E+00  0.00000000E+00
  0.00000000E+00  0.00000000E+00  0.00000000E+00
  0.00000000E+00  0.00000000E+00  0.00000000E+00
  0.00000000E+00  0.00000000E+00  0.00000000E+00
  0.00000000E+00  0.00000000E+00  0.00000000E+00
  0.00000000E+00  0.00000000E+00  0.00000000E+00
  0.00000000E+00  0.00000000E+00  0.00000000E+00
  0.00000000E+00  0.00000000E+00  0.00000000E+00
  0.00000000E+00  0.00000000E+00  0.00000000E+00
  0.00000000E+00  0.00000000E+00  0.00000000E+00
  0.00000000E+00  0.00000000E+00  0.00000000E+00
  0.00000000E+00  0.00000000E+00  0.00000000E+00
  0.00000000E+00  0.00000000E+00  0.00000000E+00
  0.00000000E+00  0.00000000E+00  0.00000000E+00
  0.00000000E+00  0.00000000E+00  0.00000000E+00
  0.00000000E+00  0.00000000E+00  0.00000000E+00
  0.00000000E+00  0.00000000E+00  0.00000000E+00
  0.00000000E+00  0.00000000E+00  0.00000000E+00
  0.00000000E+00  0.00000000E+00  0.00000000E+00
  0.00000000E+00  0.00000000E+00  0.00000000E+00
  0.00000000E+00  0.00000000E+00  0.00000000E+00
  0.00000000E+00  0.00000000E+00  0.00000000E+00
  0.00000000E+00  0.00000000E+00  0.00000000E+00
  0.00000000E+00  0.00000000E+00  0.00000000E+00
  0.00000000E+00  0.00000000E+00  0.00000000E+00
  0.00000000E+00  0.00000000E+00  0.00000000E+00
  0.00000000E+00  0.00000000E+00  0.00000000E+00
  0.00000000E+00  0.00000000E+00  0.00000000E+00
  0.00000000E+00  0.00000000E+00  0.00000000E+00
  0.00000000E+00  0.00000000E+00  0.00000000E+00
  0.00000000E+00  0.00000000E+00  0.00000000E+00
  0.00000000E+00  0.00000000E+00  0.00000000E+00
  0.00000000E+00  0.00000000E+00  0.00000000E+00
  0.00000000E+00  0.00000000E+00  0.00000000E+00
  0.00000000E+00  0.00000000E+00  0.00000000E+00
  0.00000000E+00  0.00000000E+00  0.00000000E+00
  0.00000000E+00  0.00000000E+00  0.00000000E+00
  0.00000000E+00  0.00000000E+00  0.00000000E+00
  0.00000000E+00  0.00000000E+00  0.00000000E+00
  0.00000000E+00  0.00000000E+00  0.00000000E+00
  0.00000000E+00  0.00000000E+00  0.00000000E+00
  0.00000000E+00  0.00000000E+00  0.00000000E+00
  0.00000000E+00  0.00000000E+00  0.00000000E+00
  0.00000000E+00  0.00000000E+00  0.00000000E+00
  0.00000000E+00  0.00000000E+00  0.00000000E+00
  0.00000000E+00  0.00000000E+00  0.00000000E+00
  0.00000000E+00  0.00000000E+00  0.00000000E+00
  0.00000000E+00  0.00000000E+00  0.00000000E+00
  0.00000000E+00  0.00000000E+00  0.00000000E+00
  0.00000000E+00  0.00000000E+00  0.00000000E+00
  0.00000000E+00  0.00000000E+00  0.00000000E+00
  0.00000000E+00  0.00000000E+00  0.00000000E+00
  0.00000000E+00  0.00000000E+00  0.00000000E+00
  0.00000000E+00  0.00000000E+00  0.00000000E+00
  0.00000000E+00  0.00000000E+00  0.00000000E+00
  0.00000000E+00  0.00000000E+00  0.00000000E+00
  0.00000000E+00  0.00000000E+00  0.00000000E+00
  0.00000000E+00  0.00000000E+00  0.00000000E+00
  0.00000000E+00  0.00000000E+00  0.00000000E+00
  0.00000000E+00  0.00000000E+00  0.00000000E+00
  0.00000000E+00  0.00000000E+00  0.00000000E+00
  0.00000000E+00  0.00000000E+00  0.00000000E+00
  0.00000000E+00  0.00000000E+00  0.00000000E+00
  0.00000000E+00  0.00000000E+00  0.00000000E+00
  0.00000000E+00  0.00000000E+00  0.00000000E+00
  0.00000000E+00  0.00000000E+00  0.00000000E+00
  0.00000000E+00  0.00000000E+00  0.00000000E+00
  0.00000000E+00  0.00000000E+00  0.00000000E+00
