C H O Si                                
   1.00000000000000     
     9.2874599999999994    0.0000000000000000    0.0000000000000000
     0.0000000000000000    8.7562999999999995    0.0000000000000000
     0.0000000000000000    0.0000000000000000   58.0000000000000000
   C    H    O    Si
    36    33    16    36
Selective dynamics
Direct
  0.0027965129649480  0.1353879552410430  0.3754456850335828   T   T   T
  0.0027705885475279  0.6355020223009414  0.3754643745149137   T   T   T
  0.3361410416584653  0.1354805647802597  0.3755554898946565   T   T   T
  0.3361179719938728  0.6353598553125858  0.3755668371362983   T   T   T
  0.6692735077874203  0.1353333476449294  0.3755587172650844   T   T   T
  0.6692934626211446  0.6352838626998482  0.3755569433568131   T   T   T
  0.1692835426517144  0.3808190889186371  0.4009264593476776   T   T   T
  0.1693395602848098  0.8808350903183159  0.4009444880623683   T   T   T
  0.5026183581566829  0.3808334175725827  0.4010712400880700   T   T   T
  0.5026130941135861  0.8807943193893268  0.4010009762227593   T   T   T
  0.8359693232000315  0.3807025809342807  0.4008795181048470   T   T   T
  0.8359127558247005  0.8807548732382100  0.4009193953752552   T   T   T
  0.0026821387339133  0.1306087531549403  0.4280154665612261   T   T   T
  0.0026679116038979  0.6308354838130554  0.4280365082738486   T   T   T
  0.3360432033262272  0.1307944215406115  0.4281407253064845   T   T   T
  0.3359716787905835  0.6306668650379945  0.4281587909175571   T   T   T
  0.6691980195663112  0.1307109780680094  0.4281147837712881   T   T   T
  0.6692845713849471  0.6306695451320502  0.4281009601096740   T   T   T
  0.1693730567947801  0.3806655703241135  0.4544580552996659   T   T   T
  0.1696517489166500  0.8807190927153401  0.4545066178096429   T   T   T
  0.5026298769581714  0.3810547753193868  0.4547003282355005   T   T   T
  0.5027027150258895  0.8804578225502164  0.4545617376447052   T   T   T
  0.8359986401050052  0.3805250596113293  0.4543682191263203   T   T   T
  0.8358770968938126  0.8807105205631711  0.4544616559479829   T   T   T
  0.0030608732417895  0.1301420996513821  0.4814336729073974   T   T   T
  0.0029247948503056  0.6307420948279605  0.4815571198129742   T   T   T
  0.3366635215619498  0.1313901487361906  0.4817271556342719   T   T   T
  0.3359386517500352  0.6307556863465099  0.4817863140306475   T   T   T
  0.6687530954255677  0.1311508233343426  0.4816809409605016   T   T   T
  0.6697184775932373  0.6308999755655956  0.4816774221511684   T   T   T
  0.1695355603031783  0.3838849044648369  0.5068604911507539   T   T   T
  0.1692545616852849  0.8858490198829473  0.5070291749470139   T   T   T
  0.5032079785820243  0.3889907448749849  0.5077984669440303   T   T   T
  0.5028455537681701  0.8851105999129275  0.5070944882412143   T   T   T
  0.8371044714377150  0.3828535330294644  0.5066126245894824   T   T   T
  0.8364239931050171  0.8858661346021346  0.5069543033887649   T   T   T
  0.0051566638392653  0.0631529687839703  0.3598882876791984   T   T   T
  0.0050991957594408  0.5632464310081626  0.3599083950218741   T   T   T
  0.3386156549868743  0.0631612190201274  0.3600103504073185   T   T   T
  0.3384373825215112  0.5629741052464504  0.3600284665572447   T   T   T
  0.6711013432612111  0.0630613388924004  0.3600053808987315   T   T   T
  0.6713298604473059  0.5630072960070913  0.3600055514148479   T   T   T
  0.1709841911377031  0.3118788369692965  0.5224387658195812   T   T   T
  0.1715603590726845  0.8133458177353250  0.5225501656170168   T   T   T
  0.5059926373545196  0.3156679998374458  0.5232370394984678   T   T   T
  0.5034518615629113  0.8128391267629191  0.5226402299639461   T   T   T
  0.8394175227414373  0.3109297654508649  0.5221979927680688   T   T   T
  0.8384978362405336  0.8144526950512097  0.5225683529091165   T   T   T
  0.0813421047015334  0.1118546531623163  0.5415957888767373   T   T   T
  0.0798624118973713  0.6112673190996261  0.5411620163010765   T   T   T
  0.4153843323339295  0.1134341566510594  0.5415634084294958   T   T   T
  0.3818274006202232  0.6295917054753067  0.5445317505088288   T   T   T
  0.7493402330056803  0.1119318280980746  0.5415610163091696   T   T   T
  0.7875883417664525  0.5997057584133890  0.5387756135027659   T   T   T
  0.2499293993761549  0.3610640427432097  0.3409761326747256   T   T   T
  0.2501623584196749  0.8609608262932712  0.3410109682651480   T   T   T
  0.5823462737442746  0.3612035671061350  0.3410444235995989   T   T   T
  0.5821466736578660  0.8610731432402766  0.3409816912165775   T   T   T
  0.9141613159295034  0.3611566022475256  0.3407502316448219   T   T   T
  0.9141530384169537  0.8611886399605493  0.3407851573379648   T   T   T
  0.5372101881412618  0.6103683971041047  0.5887927347213098   T   T   T
  0.4837831985863885  0.4719972869320883  0.6075568686687273   T   T   T
  0.5634658507383800  0.6388511048208882  0.6175868247661993   T   T   T
  0.3033189981094170  0.3762481592094453  0.6218498933368726   T   T   T
  0.4230025488819620  0.2553136010699419  0.6165777478380328   T   T   T
  0.6482119260952368  0.7350795572922311  0.6469054165975237   T   T   T
  0.4839793679942889  0.7704050136161724  0.6440297504841201   T   T   T
  0.5088861426216508  0.7985866469775800  0.5676359848817597   T   T   T
  0.5867367248254234  0.6613287308675484  0.5543329655476410   T   T   T
  0.1599533584268850  0.3469182288899977  0.3494201137452402   T   T   T
  0.1601269677699630  0.8469875759911099  0.3494479659798361   T   T   T
  0.4926553944206568  0.3474115076372872  0.3495797305545345   T   T   T
  0.4924846334104850  0.8469879725037519  0.3495120225458334   T   T   T
  0.8250303445830521  0.3466401116370136  0.3493940474575661   T   T   T
  0.8250208582362408  0.8468368701820570  0.3494355514686731   T   T   T
  0.9920329335375576  0.0975028595742862  0.5329898412392039   T   T   T
  0.9892457013050775  0.5926212362517490  0.5330084160761157   T   T   T
  0.3256691517037376  0.0964463557134974  0.5331815453360000   T   T   T
  0.3083033271173869  0.5981884724321300  0.5330682888372927   T   T   T
  0.6594676583529339  0.0966151904984579  0.5331337419624692   T   T   T
  0.6868600252806595  0.5963896714408156  0.5332967043400798   T   T   T
  0.5606071016545330  0.5575972946684176  0.6042136080869258   T   T   T
  0.3783346162164263  0.3487082003981432  0.6108152932915411   T   T   T
  0.5737913690315817  0.7573948355120435  0.6355096928701179   T   T   T
  0.5064850119643290  0.6881034985687143  0.5652374711580300   T   T   T
  0.1694855604487429  0.2534348300052761  0.3745153286545151   T   T   T
  0.1695385665907669  0.7534234680009688  0.3745366035514148   T   T   T
  0.5027149258512458  0.2534984023593734  0.3746430187124298   T   T   T
  0.5026925742657715  0.7533630481588800  0.3745970229514524   T   T   T
  0.8359433387458070  0.2532461783267793  0.3744854830802516   T   T   T
  0.8358989368242351  0.7533224121443777  0.3745174648411380   T   T   T
  0.0026121011017165  0.0060867619713732  0.4012800467090163   T   T   T
  0.0026034210525281  0.5061450117555947  0.4012893294356530   T   T   T
  0.3359664565865016  0.0061867735943780  0.4013784395585291   T   T   T
  0.3359215658074808  0.5061333988604811  0.4014019895407016   T   T   T
  0.6691938042287854  0.0060664573249574  0.4013691857799482   T   T   T
  0.6692586106615153  0.5059935027325788  0.4013653605979088   T   T   T
  0.1693300407924052  0.2563914823056913  0.4277724778763350   T   T   T
  0.1694685051049540  0.7564599088371196  0.4278037164886319   T   T   T
  0.5026123309035242  0.2565136995888170  0.4279392129684466   T   T   T
  0.5025891823732080  0.7563174103866093  0.4278406610743100   T   T   T
  0.8359960235462823  0.2562393045994151  0.4277070973089447   T   T   T
  0.8359059598982550  0.7563721355521640  0.4277690137897194   T   T   T
  0.0028735817976787  0.0059305423308549  0.4546720026038339   T   T   T
  0.0027461973630677  0.5062353951047674  0.4546818797701579   T   T   T
  0.3363739166503427  0.0065566798566143  0.4548355016883661   T   T   T
  0.3358740195204434  0.5065154303382787  0.4548905921275616   T   T   T
  0.6690316214472660  0.0063963114073347  0.4548050027549036   T   T   T
  0.6694610988081546  0.5062960748020949  0.4547754076591821   T   T   T
  0.1694116641758581  0.2554373670133832  0.4811002158751778   T   T   T
  0.1694691512555370  0.7561754989092146  0.4812414175430320   T   T   T
  0.5027046089076764  0.2577725986667652  0.4815894039421046   T   T   T
  0.5025290140789304  0.7556436725283822  0.4812624190677880   T   T   T
  0.8363938841624636  0.2545784635836817  0.4809279461074264   T   T   T
  0.8363424623950414  0.7561818762853426  0.4811805663171522   T   T   T
  0.0028334191974583  0.0037708015107262  0.5079100259299588   T   T   T
  0.0030833864904618  0.5011941258860817  0.5076450365387937   T   T   T
  0.3359010174473266  0.0034984117677954  0.5080437758783299   T   T   T
  0.3340148134263336  0.5049300543420759  0.5084494869478663   T   T   T
  0.6696845294329007  0.0033821645973850  0.5080158946001383   T   T   T
  0.6725468509794262  0.5026982737053921  0.5078728332953437   T   T   T
 
  0.00000000E+00  0.00000000E+00  0.00000000E+00
  0.00000000E+00  0.00000000E+00  0.00000000E+00
  0.00000000E+00  0.00000000E+00  0.00000000E+00
  0.00000000E+00  0.00000000E+00  0.00000000E+00
  0.00000000E+00  0.00000000E+00  0.00000000E+00
  0.00000000E+00  0.00000000E+00  0.00000000E+00
  0.00000000E+00  0.00000000E+00  0.00000000E+00
  0.00000000E+00  0.00000000E+00  0.00000000E+00
  0.00000000E+00  0.00000000E+00  0.00000000E+00
  0.00000000E+00  0.00000000E+00  0.00000000E+00
  0.00000000E+00  0.00000000E+00  0.00000000E+00
  0.00000000E+00  0.00000000E+00  0.00000000E+00
  0.00000000E+00  0.00000000E+00  0.00000000E+00
  0.00000000E+00  0.00000000E+00  0.00000000E+00
  0.00000000E+00  0.00000000E+00  0.00000000E+00
  0.00000000E+00  0.00000000E+00  0.00000000E+00
  0.00000000E+00  0.00000000E+00  0.00000000E+00
  0.00000000E+00  0.00000000E+00  0.00000000E+00
  0.00000000E+00  0.00000000E+00  0.00000000E+00
  0.00000000E+00  0.00000000E+00  0.00000000E+00
  0.00000000E+00  0.00000000E+00  0.00000000E+00
  0.00000000E+00  0.00000000E+00  0.00000000E+00
  0.00000000E+00  0.00000000E+00  0.00000000E+00
  0.00000000E+00  0.00000000E+00  0.00000000E+00
  0.00000000E+00  0.00000000E+00  0.00000000E+00
  0.00000000E+00  0.00000000E+00  0.00000000E+00
  0.00000000E+00  0.00000000E+00  0.00000000E+00
  0.00000000E+00  0.00000000E+00  0.00000000E+00
  0.00000000E+00  0.00000000E+00  0.00000000E+00
  0.00000000E+00  0.00000000E+00  0.00000000E+00
  0.00000000E+00  0.00000000E+00  0.00000000E+00
  0.00000000E+00  0.00000000E+00  0.00000000E+00
  0.00000000E+00  0.00000000E+00  0.00000000E+00
  0.00000000E+00  0.00000000E+00  0.00000000E+00
  0.00000000E+00  0.00000000E+00  0.00000000E+00
  0.00000000E+00  0.00000000E+00  0.00000000E+00
  0.00000000E+00  0.00000000E+00  0.00000000E+00
  0.00000000E+00  0.00000000E+00  0.00000000E+00
  0.00000000E+00  0.00000000E+00  0.00000000E+00
  0.00000000E+00  0.00000000E+00  0.00000000E+00
  0.00000000E+00  0.00000000E+00  0.00000000E+00
  0.00000000E+00  0.00000000E+00  0.00000000E+00
  0.00000000E+00  0.00000000E+00  0.00000000E+00
  0.00000000E+00  0.00000000E+00  0.00000000E+00
  0.00000000E+00  0.00000000E+00  0.00000000E+00
  0.00000000E+00  0.00000000E+00  0.00000000E+00
  0.00000000E+00  0.00000000E+00  0.00000000E+00
  0.00000000E+00  0.00000000E+00  0.00000000E+00
  0.00000000E+00  0.00000000E+00  0.00000000E+00
  0.00000000E+00  0.00000000E+00  0.00000000E+00
  0.00000000E+00  0.00000000E+00  0.00000000E+00
  0.00000000E+00  0.00000000E+00  0.00000000E+00
  0.00000000E+00  0.00000000E+00  0.00000000E+00
  0.00000000E+00  0.00000000E+00  0.00000000E+00
  0.00000000E+00  0.00000000E+00  0.00000000E+00
  0.00000000E+00  0.00000000E+00  0.00000000E+00
  0.00000000E+00  0.00000000E+00  0.00000000E+00
  0.00000000E+00  0.00000000E+00  0.00000000E+00
  0.00000000E+00  0.00000000E+00  0.00000000E+00
  0.00000000E+00  0.00000000E+00  0.00000000E+00
  0.00000000E+00  0.00000000E+00  0.00000000E+00
  0.00000000E+00  0.00000000E+00  0.00000000E+00
  0.00000000E+00  0.00000000E+00  0.00000000E+00
  0.00000000E+00  0.00000000E+00  0.00000000E+00
  0.00000000E+00  0.00000000E+00  0.00000000E+00
  0.00000000E+00  0.00000000E+00  0.00000000E+00
  0.00000000E+00  0.00000000E+00  0.00000000E+00
  0.00000000E+00  0.00000000E+00  0.00000000E+00
  0.00000000E+00  0.00000000E+00  0.00000000E+00
  0.00000000E+00  0.00000000E+00  0.00000000E+00
  0.00000000E+00  0.00000000E+00  0.00000000E+00
  0.00000000E+00  0.00000000E+00  0.00000000E+00
  0.00000000E+00  0.00000000E+00  0.00000000E+00
  0.00000000E+00  0.00000000E+00  0.00000000E+00
  0.00000000E+00  0.00000000E+00  0.00000000E+00
  0.00000000E+00  0.00000000E+00  0.00000000E+00
  0.00000000E+00  0.00000000E+00  0.00000000E+00
  0.00000000E+00  0.00000000E+00  0.00000000E+00
  0.00000000E+00  0.00000000E+00  0.00000000E+00
  0.00000000E+00  0.00000000E+00  0.00000000E+00
  0.00000000E+00  0.00000000E+00  0.00000000E+00
  0.00000000E+00  0.00000000E+00  0.00000000E+00
  0.00000000E+00  0.00000000E+00  0.00000000E+00
  0.00000000E+00  0.00000000E+00  0.00000000E+00
  0.00000000E+00  0.00000000E+00  0.00000000E+00
  0.00000000E+00  0.00000000E+00  0.00000000E+00
  0.00000000E+00  0.00000000E+00  0.00000000E+00
  0.00000000E+00  0.00000000E+00  0.00000000E+00
  0.00000000E+00  0.00000000E+00  0.00000000E+00
  0.00000000E+00  0.00000000E+00  0.00000000E+00
  0.00000000E+00  0.00000000E+00  0.00000000E+00
  0.00000000E+00  0.00000000E+00  0.00000000E+00
  0.00000000E+00  0.00000000E+00  0.00000000E+00
  0.00000000E+00  0.00000000E+00  0.00000000E+00
  0.00000000E+00  0.00000000E+00  0.00000000E+00
  0.00000000E+00  0.00000000E+00  0.00000000E+00
  0.00000000E+00  0.00000000E+00  0.00000000E+00
  0.00000000E+00  0.00000000E+00  0.00000000E+00
  0.00000000E+00  0.00000000E+00  0.00000000E+00
  0.00000000E+00  0.00000000E+00  0.00000000E+00
  0.00000000E+00  0.00000000E+00  0.00000000E+00
  0.00000000E+00  0.00000000E+00  0.00000000E+00
  0.00000000E+00  0.00000000E+00  0.00000000E+00
  0.00000000E+00  0.00000000E+00  0.00000000E+00
  0.00000000E+00  0.00000000E+00  0.00000000E+00
  0.00000000E+00  0.00000000E+00  0.00000000E+00
  0.00000000E+00  0.00000000E+00  0.00000000E+00
  0.00000000E+00  0.00000000E+00  0.00000000E+00
  0.00000000E+00  0.00000000E+00  0.00000000E+00
  0.00000000E+00  0.00000000E+00  0.00000000E+00
  0.00000000E+00  0.00000000E+00  0.00000000E+00
  0.00000000E+00  0.00000000E+00  0.00000000E+00
  0.00000000E+00  0.00000000E+00  0.00000000E+00
  0.00000000E+00  0.00000000E+00  0.00000000E+00
  0.00000000E+00  0.00000000E+00  0.00000000E+00
  0.00000000E+00  0.00000000E+00  0.00000000E+00
  0.00000000E+00  0.00000000E+00  0.00000000E+00
  0.00000000E+00  0.00000000E+00  0.00000000E+00
  0.00000000E+00  0.00000000E+00  0.00000000E+00
  0.00000000E+00  0.00000000E+00  0.00000000E+00
  0.00000000E+00  0.00000000E+00  0.00000000E+00
