C H O Si                                
   1.00000000000000     
    18.5749199999999988    0.0000000000000000    0.0000000000000000
     0.0000000000000000   17.5126199999999983    0.0000000000000000
     0.0000000000000000    0.0000000000000000   58.0000000000000000
   C    H    O    Si
   144   105    52   144
Selective dynamics
Direct
  0.4973827759589945  0.0660853962517227  0.0602396945550711   T   T   T
  0.1640875929518466  0.0659526163942143  0.0602966703299100   T   T   T
  0.3306926435864561  0.0659647289212146  0.0602926990364919   T   T   T
  0.4973855364348433  0.3160495849009310  0.0602673638611500   T   T   T
  0.1640819376613785  0.3158929077412314  0.0603345232230468   T   T   T
  0.3307167575342836  0.3159261147799209  0.0603318949498855   T   T   T
  0.0809052365466129  0.1887053775041664  0.1391430098788008   T   T   T
  0.2475362011839864  0.1886803883635528  0.1391649797902577   T   T   T
  0.4141298832050192  0.1887012949140890  0.1392001285208571   T   T   T
  0.0809237350648146  0.4387715831317690  0.1391944684261408   T   T   T
  0.2475501224555255  0.4388027871306087  0.1392194375956119   T   T   T
  0.4141467661613550  0.4387818731294225  0.1392189345574441   T   T   T
  0.1643683470423884  0.0635965104974066  0.1662873340384003   T   T   T
  0.3308557095358353  0.0636415988157085  0.1663118021478940   T   T   T
  0.4973502143340468  0.0634647990921648  0.1662357044691996   T   T   T
  0.1643020380475453  0.3138359320370494  0.1663164669460774   T   T   T
  0.3308370291150374  0.3138304778671474  0.1663601692870709   T   T   T
  0.4974383709527816  0.3138194035541745  0.1663332063362872   T   T   T
  0.0814603698981898  0.1905843196298607  0.1915660087386817   T   T   T
  0.2477854096971896  0.1908014100242973  0.1916667342668449   T   T   T
  0.4141689666509701  0.1906382844551618  0.1917030718964491   T   T   T
  0.0810148558121242  0.4408889764102917  0.1916995945853079   T   T   T
  0.2476097245242172  0.4410000420908110  0.1917569367003389   T   T   T
  0.4142954883670291  0.4409334735502171  0.1917207526373344   T   T   T
  0.0807338724641700  0.1888582374740849  0.0856562815863414   T   T   T
  0.2474232441396214  0.1888361521635276  0.0857061932464212   T   T   T
  0.4140797460931610  0.1888676218562620  0.0856861907097292   T   T   T
  0.0807632103115059  0.4388814964926010  0.0856810931318858   T   T   T
  0.2474324952039803  0.4388932861106289  0.0857125054554402   T   T   T
  0.4140790017095854  0.4388770401455466  0.0856932312090239   T   T   T
  0.1640820074127442  0.0636198955472396  0.1127846613239630   T   T   T
  0.3307722565549201  0.0636217197587313  0.1127928838985702   T   T   T
  0.4973986433320853  0.0636889778919878  0.1127912920345618   T   T   T
  0.1640866771712078  0.3137286330746560  0.1128115323364951   T   T   T
  0.3307206470742194  0.3137451057831394  0.1128312930071435   T   T   T
  0.4973402930023380  0.3137395377771285  0.1128185332775395   T   T   T
  0.4973913841758309  0.5659105381268030  0.0602663495216672   T   T   T
  0.1640687996989459  0.5658818727162571  0.0603151240156504   T   T   T
  0.3307292594088958  0.5659002360312433  0.0603093234891871   T   T   T
  0.4974088441151178  0.8160539289516535  0.0602190065773758   T   T   T
  0.1640634296054077  0.8158634142826741  0.0602977250923675   T   T   T
  0.3307180933090578  0.8159028245849601  0.0602790752763111   T   T   T
  0.0809122092574340  0.6887648820751957  0.1391532961170890   T   T   T
  0.2475509336293591  0.6887540324055991  0.1392022518468065   T   T   T
  0.4141858440860476  0.6888188288851356  0.1391620669756498   T   T   T
  0.0809404745435204  0.9385823314242168  0.1391171959687570   T   T   T
  0.2475571901342017  0.9386066470323697  0.1391648653742717   T   T   T
  0.4141518478115979  0.9385967403660292  0.1391331555456773   T   T   T
  0.1642661067353044  0.5638828409578742  0.1663481343253541   T   T   T
  0.3308853550185731  0.5639186358894456  0.1663667904453975   T   T   T
  0.4973805397871727  0.5639901612865500  0.1663156621470842   T   T   T
  0.1642088865566512  0.8138129662282744  0.1663144015356664   T   T   T
  0.3308642488052571  0.8138214616163583  0.1663183010734795   T   T   T
  0.4975204150137090  0.8138476858587557  0.1662687482426137   T   T   T
  0.0809999257337496  0.6908697750537149  0.1916352534010189   T   T   T
  0.2476402012667014  0.6910208302478544  0.1917364646199985   T   T   T
  0.4143126536484342  0.6910405636901217  0.1916785224068726   T   T   T
  0.0809420043623651  0.9407602321588143  0.1916495722039813   T   T   T
  0.2476090709667258  0.9407803847788481  0.1917297674565592   T   T   T
  0.4142758753130334  0.9407393263585566  0.1916778503875764   T   T   T
  0.0807068017077028  0.6888155666484889  0.0856538531491182   T   T   T
  0.2474246957672327  0.6887876488864461  0.0856873559508340   T   T   T
  0.4141311284560261  0.6888380463728766  0.0856556497714183   T   T   T
  0.0807486977763673  0.9388574120205161  0.0856252161368684   T   T   T
  0.2474407049893984  0.9388103735805701  0.0856714378529603   T   T   T
  0.4141242069349651  0.9388656626129235  0.0856344666715961   T   T   T
  0.1640740766439799  0.5637431897758410  0.1128218379064680   T   T   T
  0.3307521364529627  0.5637532090467331  0.1128275842756006   T   T   T
  0.4973873862655478  0.5637048285629144  0.1128127295404117   T   T   T
  0.1640860840189981  0.8136048851398432  0.1127764191213800   T   T   T
  0.3307529730224318  0.8136134173600977  0.1127715480464919   T   T   T
  0.4974443411900054  0.8137485738246899  0.1127516682166560   T   T   T
  0.9973453214492297  0.0660734721595472  0.0602279759341981   T   T   T
  0.6641026002669371  0.0660426057081816  0.0603537289426427   T   T   T
  0.8306797187865853  0.0660295208507479  0.0603386939489517   T   T   T
  0.9973669210773108  0.3160599458096288  0.0602477271280792   T   T   T
  0.6641117396613915  0.3158706024973170  0.0604353713548348   T   T   T
  0.8307081093577596  0.3159150758996762  0.0603983219461840   T   T   T
  0.5807852842124683  0.1887206014551530  0.1391846745629388   T   T   T
  0.7474618995503345  0.1889474913360389  0.1394738593210188   T   T   T
  0.9142162385608864  0.1887290452042560  0.1391357714535856   T   T   T
  0.5808156301796112  0.4387854983035588  0.1392565874992636   T   T   T
  0.7475229599710705  0.4385285876918146  0.1394957601388222   T   T   T
  0.9142160216910530  0.4387585405361516  0.1392592420136811   T   T   T
  0.6643959712036799  0.0639931029997622  0.1664551701964285   T   T   T
  0.8307483780744271  0.0640794948139246  0.1664439537772868   T   T   T
  0.9978128974714161  0.0633888529179180  0.1662010222345301   T   T   T
  0.6638904353168152  0.3138344899284609  0.1667023562186124   T   T   T
  0.8310961463249649  0.3137803653698464  0.1666058799725008   T   T   T
  0.9976208126873518  0.3138738540705597  0.1662791929274982   T   T   T
  0.5804912382065390  0.1897336074493932  0.1914149515143078   T   T   T
  0.7475889817453785  0.1924519957860706  0.1925071237949596   T   T   T
  0.9152631850481261  0.1897639500584310  0.1913423855640437   T   T   T
  0.5807995744415728  0.4414875346428061  0.1916985137525369   T   T   T
  0.7476138983097118  0.4438488976491508  0.1912971084510977   T   T   T
  0.9143558035821649  0.4414192945720213  0.1917243629062761   T   T   T
  0.5807294549220088  0.1889063873252847  0.0856972191159794   T   T   T
  0.7473952169792311  0.1889181640113412  0.0858586931159591   T   T   T
  0.9140586250975858  0.1888998228416964  0.0856669245925902   T   T   T
  0.5807527151790400  0.4388333709140343  0.0857331303148188   T   T   T
  0.7474205153572251  0.4388100689062304  0.0858415255571176   T   T   T
  0.9140700354933100  0.4388499920063614  0.0857224755958521   T   T   T
  0.6640797707192636  0.0638099782481902  0.1128829327252164   T   T   T
  0.8306726152785132  0.0638026870010395  0.1128733806967079   T   T   T
  0.9973909542820442  0.0636511172493806  0.1127686153811317   T   T   T
  0.6640178411328560  0.3137602549541108  0.1129934160795576   T   T   T
  0.8307525807614077  0.3137555765608670  0.1129446561800365   T   T   T
  0.9974103066806116  0.3137382969043717  0.1127897838496557   T   T   T
  0.9973648464085293  0.5659196159565645  0.0602651130325124   T   T   T
  0.6640862442905267  0.5657906023495232  0.0603442959155143   T   T   T
  0.8306840543696936  0.5658173906506552  0.0603341434228731   T   T   T
  0.9973406021159970  0.8160520417236301  0.0602215281826556   T   T   T
  0.6640799761349074  0.8159018390392303  0.0603146748748253   T   T   T
  0.8306978809998473  0.8159301655156987  0.0602964021263157   T   T   T
  0.5808125474328644  0.6888818481989100  0.1391286896982076   T   T   T
  0.7475220898164429  0.6888926267792337  0.1391748296892348   T   T   T
  0.9142568899167888  0.6888770895860509  0.1391448394561070   T   T   T
  0.5809499130632115  0.9388223228075161  0.1391810033412832   T   T   T
  0.7475201089216879  0.9387304134195388  0.1392142487539590   T   T   T
  0.9141066006743315  0.9388126016195706  0.1391814639794560   T   T   T
  0.6640056161576819  0.5644114261143239  0.1662577773321173   T   T   T
  0.8310449883630644  0.5644045921981955  0.1662643200275187   T   T   T
  0.9976236121182748  0.5639274092820417  0.1663208174954832   T   T   T
  0.6641879115295923  0.8138823166441062  0.1663250650749703   T   T   T
  0.8308821143862948  0.8138825433251713  0.1663259078895324   T   T   T
  0.9975449343114571  0.8138482197660784  0.1662668573664303   T   T   T
  0.5808634828845182  0.6909581821241494  0.1916203580810869   T   T   T
  0.7476170006002490  0.6911200482570302  0.1917188965059487   T   T   T
  0.9144260034529604  0.6911000599341116  0.1916693781660801   T   T   T
  0.5808860513977442  0.9408509482273716  0.1916626408763380   T   T   T
  0.7476077795043863  0.9408694754147136  0.1917479645156349   T   T   T
  0.9143180341819251  0.9408536275256429  0.1916798656354587   T   T   T
  0.5807696172971165  0.6887983824275906  0.0856613487501544   T   T   T
  0.7474032465340612  0.6887784173777928  0.0857076958747536   T   T   T
  0.9140494782785047  0.6888069570457712  0.0856663296693295   T   T   T
  0.5807869989888111  0.9389655228699477  0.0856581593863349   T   T   T
  0.7474066528366257  0.9389158057215824  0.0857061049635314   T   T   T
  0.9140592208434827  0.9389390174397507  0.0856603564188194   T   T   T
  0.6641050769731341  0.5636577349454355  0.1128659649698505   T   T   T
  0.8307040873823502  0.5636479043698659  0.1128643091125825   T   T   T
  0.9973826816155273  0.5636903171991345  0.1128128260923096   T   T   T
  0.6640656506310633  0.8137482379279020  0.1127971926346479   T   T   T
  0.8307360251232545  0.8137335287361144  0.1127917550027349   T   T   T
  0.9973788839225748  0.8137294785775211  0.1127540889165106   T   T   T
  0.0395518107726184  0.1795160537805126  0.0263776295343483   T   T   T
  0.2053152243846102  0.1796052996863240  0.0266550958430834   T   T   T
  0.3716814644098644  0.1793504014159570  0.0265881615139536   T   T   T
  0.0399442164119957  0.4296802024382205  0.0263487176535643   T   T   T
  0.2051723088124328  0.4293375129341727  0.0266812549908645   T   T   T
  0.3714597865972118  0.4292982126641203  0.0266482706369167   T   T   T
  0.1630554754540482  0.0298003214182611  0.0447684572535072   T   T   T
  0.3294316985823600  0.0297984097743701  0.0447659797408470   T   T   T
  0.4962368212031977  0.0298752785518239  0.0447168736247020   T   T   T
  0.1629853354202423  0.2797215801767221  0.0448099030820745   T   T   T
  0.3295218975275894  0.2797044665790793  0.0448143798155760   T   T   T
  0.4962630867125823  0.2798659561153259  0.0447397188685102   T   T   T
  0.4156540037675317  0.4048137625726253  0.2072632640212055   T   T   T
  0.4152197464430543  0.1545809363501139  0.2072558638095214   T   T   T
  0.0824462858565191  0.1545583239224375  0.2071194685992964   T   T   T
  0.2487843949459465  0.1542392243553976  0.2071125838500232   T   T   T
  0.0821096897527717  0.4048615932286403  0.2072616935572710   T   T   T
  0.2488181335659117  0.4049114074018921  0.2073080440603438   T   T   T
  0.0398742452178389  0.0544504413814488  0.2253595262609190   T   T   T
  0.2053647147065997  0.0548872656928905  0.2255670218095179   T   T   T
  0.3732137605348034  0.0545312557267912  0.2253962303862977   T   T   T
  0.0391311564100005  0.3037341947010023  0.2255603000959743   T   T   T
  0.2046963058603038  0.3048291903333707  0.2258297837786423   T   T   T
  0.3736641567931525  0.3040672993892523  0.2254629264212485   T   T   T
  0.0395344631997379  0.6794818469413565  0.0264050304257195   T   T   T
  0.2053757122722512  0.6795006471307611  0.0266317022664516   T   T   T
  0.3717632601982940  0.6792771953947117  0.0265986597101603   T   T   T
  0.0398823711612148  0.9297476216157046  0.0263293793005781   T   T   T
  0.2051939514700075  0.9293898997839198  0.0266306117960642   T   T   T
  0.3714890028617534  0.9293792664224192  0.0265994021015535   T   T   T
  0.1629430320403362  0.5296510590482587  0.0448025750446082   T   T   T
  0.3295614392920063  0.5296510178833654  0.0447991544122156   T   T   T
  0.4962015316475719  0.5296394476767829  0.0447565708754304   T   T   T
  0.1629735495264465  0.7797590489333179  0.0447585065016429   T   T   T
  0.3295462519971321  0.7797715819424194  0.0447438442035234   T   T   T
  0.4962820582256866  0.7798561732109401  0.0446927405374299   T   T   T
  0.4155356433331010  0.9044942132965210  0.2071916119370878   T   T   T
  0.4156227035330380  0.6548953136475788  0.2072133340094351   T   T   T
  0.0821494354259448  0.6547690311983375  0.2071782505903948   T   T   T
  0.2489373674677568  0.6548867887418713  0.2072742497272647   T   T   T
  0.0820591240906346  0.9045262255172520  0.2071636208125129   T   T   T
  0.2488660318228590  0.9045358437905268  0.2072450709111637   T   T   T
  0.0400783890105825  0.5547676244091824  0.2254237086516169   T   T   T
  0.2052594309775907  0.5551830496440422  0.2256705450358548   T   T   T
  0.3734488229439418  0.5544831449337900  0.2253970310236972   T   T   T
  0.0407475964365850  0.8041418740872143  0.2252000931040065   T   T   T
  0.2051377877818656  0.8048273070905479  0.2256235784892636   T   T   T
  0.3732368984324158  0.8041875102103078  0.2254765372598071   T   T   T
  0.5395814054776048  0.1795056937703425  0.0263842792694230   T   T   T
  0.7053645443162110  0.1795789056283409  0.0267050250826089   T   T   T
  0.8716535124645435  0.1793634577480562  0.0265724247932168   T   T   T
  0.5400235639926689  0.4296238822832406  0.0263729516467066   T   T   T
  0.7052121891660259  0.4293009548193398  0.0267399296531188   T   T   T
  0.8714496139013740  0.4292977576146305  0.0266542531292427   T   T   T
  0.6631360484919239  0.0298586035957724  0.0448266498917464   T   T   T
  0.8293211125776074  0.0298362104961158  0.0448145975441694   T   T   T
  0.9962023781865454  0.0298566900134797  0.0447057796266975   T   T   T
  0.6630470963417716  0.2796200937821824  0.0449259227623766   T   T   T
  0.8294423954051443  0.2796794410965097  0.0448837809351328   T   T   T
  0.9962435965103663  0.2798880441593765  0.0447174194342828   T   T   T
  0.9148731780533247  0.4056740015772812  0.2073325721269283   T   T   T
  0.9166469692462166  0.1536787204561671  0.2068874297754057   T   T   T
  0.5811983531750156  0.1537942228942135  0.2069965803685063   T   T   T
  0.7490955693922925  0.1554136527608268  0.2078515852293033   T   T   T
  0.5824344346877662  0.4054943762170923  0.2072502185307862   T   T   T
  0.7478900846983342  0.4123744969127265  0.2126948726882561   T   T   T
  0.5397314298954559  0.0547383862055361  0.2253077589984388   T   T   T
  0.7055331012514723  0.0547536332364274  0.2256309809206686   T   T   T
  0.8731710451114618  0.0546644798819846  0.2254668553331078   T   T   T
  0.5444631923562894  0.3033978782518225  0.2238604048896760   T   T   T
  0.6834126700184047  0.2866864610111150  0.2313436960915763   T   T   T
  0.8895256613952763  0.2983557498579305  0.2234678123147557   T   T   T
  0.7547718680553109  0.2734069653626151  0.2679511746380399   T   T   T
  0.7493607921047832  0.2311622206533580  0.3022006462104919   T   T   T
  0.7793652070702384  0.3139745746339579  0.3085607235462485   T   T   T
  0.6441064674898083  0.1669542464863273  0.2984166957064828   T   T   T
  0.7072475169076294  0.1094345948979672  0.2970705006720462   T   T   T
  0.8229047766399181  0.3848760298572032  0.3397128950639205   T   T   T
  0.7407523613800583  0.3989446925557371  0.3375139501464341   T   T   T
  0.7482676466109059  0.4012521428580223  0.2283863876727156   T   T   T
  0.7837703919768606  0.2723954151061050  0.2420412019448123   T   T   T
  0.5395718236781104  0.6794590382592310  0.0264137761910741   T   T   T
  0.7053909948258508  0.6794896446256603  0.0266360627349298   T   T   T
  0.8717495796376290  0.6792781410478247  0.0265976320596378   T   T   T
  0.5398862111942802  0.9297492761148278  0.0263383614917670   T   T   T
  0.7052105036327428  0.9293912381433564  0.0266359842511996   T   T   T
  0.8714951790424714  0.9293842750068737  0.0266030543852029   T   T   T
  0.6629605476640329  0.5296035705722408  0.0448211442401543   T   T   T
  0.8295271945516671  0.5296007744342195  0.0448159986734607   T   T   T
  0.9961967684690782  0.5296391268321505  0.0447571302493177   T   T   T
  0.6629744778345942  0.7797970539435949  0.0447736228756734   T   T   T
  0.8295408714663912  0.7798051161792063  0.0447575616294001   T   T   T
  0.9961990806180179  0.7798587792682872  0.0446949631129527   T   T   T
  0.9155332952682095  0.9046373626619925  0.2072000003579224   T   T   T
  0.9156578312304419  0.6548709785835423  0.2071836235950095   T   T   T
  0.5820249177027028  0.6547833172261807  0.2071460237509829   T   T   T
  0.7489244738914381  0.6549319334790377  0.2072413327144303   T   T   T
  0.5819809626350632  0.9046428600586099  0.2071803724682359   T   T   T
  0.7488719289115046  0.9045693788997318  0.2072519143186487   T   T   T
  0.5395984743320696  0.5546788500202736  0.2254138861025088   T   T   T
  0.7049397816189491  0.5551693496833043  0.2257351979733624   T   T   T
  0.8737894937072018  0.5542551829310693  0.2256330535482856   T   T   T
  0.5406868359148332  0.8041188789550336  0.2251888217851294   T   T   T
  0.7051145402665739  0.8047717863102507  0.2256133720460037   T   T   T
  0.8732594003299442  0.8041649348268057  0.2254814974365539   T   T   T
  0.0857183709840060  0.1703420007205494  0.0339420783274469   T   T   T
  0.2518344725060806  0.1705427191123391  0.0340257548623088   T   T   T
  0.4182125384517550  0.1704623174360204  0.0339676918207769   T   T   T
  0.0859778883260375  0.4201818687060578  0.0339532366697763   T   T   T
  0.2517557473426981  0.4202399902146751  0.0340112924717300   T   T   T
  0.4180741637110886  0.4203210545524341  0.0339675191888256   T   T   T
  0.1592633488224100  0.0450753256198162  0.2180363923967123   T   T   T
  0.3267023257769097  0.0450201525411981  0.2180709634417046   T   T   T
  0.4931704242839704  0.0449775038935955  0.2180409488232723   T   T   T
  0.1590884327412934  0.2949441639124715  0.2180190543903442   T   T   T
  0.3271514270261077  0.2950701460122032  0.2180901589658263   T   T   T
  0.4954265236229115  0.2945345739297369  0.2180208264084023   T   T   T
  0.0857005148819639  0.6702041996403281  0.0339560689813817   T   T   T
  0.2518585515250002  0.6702857145542088  0.0340055849686376   T   T   T
  0.4182901903466477  0.6703548916066204  0.0339761614164913   T   T   T
  0.0859511051262340  0.9201749806114269  0.0339057935506484   T   T   T
  0.2517379852325890  0.9202796088352881  0.0339835420903018   T   T   T
  0.4180858134603299  0.9203720004741691  0.0339266617931214   T   T   T
  0.1592753297686544  0.5452690392162017  0.2180822181979269   T   T   T
  0.3268154854099125  0.5452240067276457  0.2181150783678352   T   T   T
  0.4930305079779987  0.5455264339614773  0.2180745882589550   T   T   T
  0.1590901199473728  0.7951388469748379  0.2180490524113750   T   T   T
  0.3267627974311222  0.7952334426325077  0.2180708293428680   T   T   T
  0.4938126505208171  0.7951293720237305  0.2180255475363758   T   T   T
  0.5857438905061507  0.1703063982089599  0.0339493799966535   T   T   T
  0.7518097381988678  0.1705432208338389  0.0341234692309876   T   T   T
  0.9181824624371375  0.1704265718278323  0.0339475029780083   T   T   T
  0.5860376450785914  0.4201193225720853  0.0339905889180533   T   T   T
  0.7517618686151357  0.4202990111859305  0.0341055293168560   T   T   T
  0.9180460364017875  0.4203257399401863  0.0339853395614729   T   T   T
  0.6593765708785175  0.0449056624607947  0.2181405821989126   T   T   T
  0.8266978891743472  0.0450339788038714  0.2181340654616565   T   T   T
  0.9933672070590355  0.0451962693311940  0.2179972270558400   T   T   T
  0.6522287309933724  0.2986711074153086  0.2177220219363229   T   T   T
  0.8391547673381574  0.2939096114419938  0.2183658875020047   T   T   T
  0.9932169807905027  0.2943593438627199  0.2178372526014401   T   T   T
  0.7819246100301583  0.2725568055104688  0.2969078323359486   T   T   T
  0.6888849891957931  0.1523909751283541  0.3060048066450192   T   T   T
  0.7844328500533713  0.3916907340843400  0.3284692556577324   T   T   T
  0.7418665093860265  0.2591825590559515  0.2518378616049170   T   T   T
  0.5857409045299448  0.6701738864653140  0.0339635402309000   T   T   T
  0.7518560312790165  0.6702395965854006  0.0340182307208631   T   T   T
  0.9182471596306211  0.6702899032465705  0.0339842698225412   T   T   T
  0.5859628238891474  0.9202096060355639  0.0339156572450741   T   T   T
  0.7517436039076384  0.9203091924382218  0.0339998235754383   T   T   T
  0.9180767169395604  0.9204110146815340  0.0339431268730748   T   T   T
  0.6589472869468888  0.5462489584303520  0.2180413889673919   T   T   T
  0.8274860659516007  0.5472262183307383  0.2179322230158469   T   T   T
  0.9935673965889995  0.5453935708731600  0.2180799610189728   T   T   T
  0.6590517253284549  0.7950731234466155  0.2180505925532092   T   T   T
  0.8267959529731012  0.7952276088266858  0.2180681487878674   T   T   T
  0.9939050997079324  0.7951210334384133  0.2180207348872381   T   T   T
  0.2474349443338625  0.1246908864163507  0.0595416267618267   T   T   T
  0.4140420415021568  0.1247107819145042  0.0594978783875916   T   T   T
  0.0808490966977514  0.3746411667132133  0.0595145829471363   T   T   T
  0.2474413199992255  0.3746048414866170  0.0595618699493567   T   T   T
  0.4140438694335745  0.3746740102385572  0.0595166178246811   T   T   T
  0.0808176696799800  0.1246697191705968  0.0594835650217634   T   T   T
  0.4974765613038770  0.0010771413171636  0.1394096544919087   T   T   T
  0.1642873010587462  0.0010544579351160  0.1394150084019901   T   T   T
  0.3309048016377689  0.0010876211900634  0.1394314196351234   T   T   T
  0.4975001477970591  0.2512395497844330  0.1394695601071220   T   T   T
  0.1642838885464940  0.2511877192637482  0.1394389257120763   T   T   T
  0.3308711883913393  0.2512311676668830  0.1394725440892637   T   T   T
  0.0810988686528805  0.1256513887316035  0.1657085671176353   T   T   T
  0.2476330222603893  0.1258430910621413  0.1657664269544882   T   T   T
  0.4141692088163506  0.1257858581121481  0.1658040895634043   T   T   T
  0.0810090781876666  0.3759923146014697  0.1658165399300711   T   T   T
  0.2475947311430402  0.3760504382279906  0.1658553571306687   T   T   T
  0.4141872638417118  0.3759547565546794  0.1658461908579915   T   T   T
  0.1642140210876594  0.9994755823627876  0.1924833186674051   T   T   T
  0.3309355516504998  0.9994933867455070  0.1924997867768481   T   T   T
  0.4975095766304984  0.9995197795661087  0.1924473328524417   T   T   T
  0.1645154773835271  0.2495381801007620  0.1924545984089723   T   T   T
  0.4975809316220615  0.2490922109921973  0.1924230078334717   T   T   T
  0.3310523659032105  0.2495523518823107  0.1925158375670410   T   T   T
  0.4974737728928272  0.0010813534480432  0.0861429662844901   T   T   T
  0.1641593845191301  0.0009491183616189  0.0861540593004415   T   T   T
  0.3308228818386205  0.0009641662480933  0.0861585928225246   T   T   T
  0.4974518828918099  0.2510755622197747  0.0861788474603801   T   T   T
  0.1641601678212096  0.2509787874215026  0.0861966589928081   T   T   T
  0.3308060793667566  0.2510067984882369  0.0862106942888067   T   T   T
  0.0807695433108016  0.1261506938363572  0.1125024372277187   T   T   T
  0.2474610408778030  0.1261138477158512  0.1125339251019729   T   T   T
  0.4141071831412522  0.1261850117971111  0.1125432668941403   T   T   T
  0.0808021218617996  0.3762460483895849  0.1125445430541665   T   T   T
  0.2474521423100989  0.3762646220369641  0.1125699458970765   T   T   T
  0.4140856591325749  0.3762582602661959  0.1125645840992032   T   T   T
  0.2474381336622167  0.6245701536424932  0.0595360897859737   T   T   T
  0.4140875531382721  0.6246003056293169  0.0595005614992112   T   T   T
  0.0808377477504897  0.8746289721757188  0.0594687010962682   T   T   T
  0.2474291914180295  0.8745795733053823  0.0595216986166479   T   T   T
  0.4140569645839711  0.8746724955984925  0.0594669666646387   T   T   T
  0.0807967505667656  0.6245741747040107  0.0594992852035646   T   T   T
  0.4974932950967461  0.5012622180934333  0.1394735934276566   T   T   T
  0.1642701095606606  0.5012759172331966  0.1394738990063492   T   T   T
  0.3308900757197115  0.5013003107407622  0.1394822121468881   T   T   T
  0.4975242311905461  0.7513212112756621  0.1394002164616142   T   T   T
  0.1642600225921912  0.7512206808805013  0.1394406404477532   T   T   T
  0.3308905240941694  0.7512502387558256  0.1394412525461310   T   T   T
  0.0809665956467080  0.6259917146336660  0.1657810368592082   T   T   T
  0.2475880836551312  0.6260541088707415  0.1658517134819654   T   T   T
  0.4141696654752224  0.6261094034218643  0.1658040929345832   T   T   T
  0.0808928831129234  0.8759106302823547  0.1657609607767842   T   T   T
  0.2475493496728263  0.8759293356270712  0.1658125027241072   T   T   T
  0.4142046846703528  0.8759202424817532  0.1657718737156175   T   T   T
  0.1642474749676086  0.4997165692820770  0.1925268548055006   T   T   T
  0.3309512523642907  0.4996904210300309  0.1925379234715978   T   T   T
  0.4974146354835998  0.4999091660313744  0.1925015943332870   T   T   T
  0.1641983297694544  0.7496326679702286  0.1924800852363816   T   T   T
  0.4976017408664740  0.7497132640626728  0.1924323768329002   T   T   T
  0.3309606954292672  0.7497177808184367  0.1925002546067005   T   T   T
  0.4974691499409813  0.5009989610007933  0.0861859860776157   T   T   T
  0.1641571859472583  0.5010108637227728  0.0862001315819018   T   T   T
  0.3308210129635327  0.5010244808362166  0.0862035270827035   T   T   T
  0.4975123458833732  0.7510286093874428  0.0861265451817685   T   T   T
  0.1641444887371035  0.7509041802912535  0.0861630016128743   T   T   T
  0.3308167706848341  0.7509357681369260  0.0861546121211709   T   T   T
  0.0807573950757141  0.6262086156631036  0.1125306439902254   T   T   T
  0.2474539222572113  0.6262254331568134  0.1125583625694054   T   T   T
  0.4141300931942430  0.6262509795169686  0.1125339182556782   T   T   T
  0.0807974298047794  0.8761259684670627  0.1124802222542010   T   T   T
  0.2474539581218014  0.8761077523513170  0.1125170559311538   T   T   T
  0.4140961255079273  0.8761499989924529  0.1124865347426256   T   T   T
  0.7474239721069547  0.1247822923113284  0.0596467300735826   T   T   T
  0.9140114771361139  0.1247391888168713  0.0594865099670242   T   T   T
  0.5808796188925596  0.3746168747695303  0.0595590767847387   T   T   T
  0.7474322725131793  0.3745912838161368  0.0596543670742012   T   T   T
  0.9140129144817556  0.3746688330184940  0.0595344300868324   T   T   T
  0.5808292533893593  0.1247525761487588  0.0595116783204081   T   T   T
  0.9976574514307933  0.0009862091080053  0.1393749244157921   T   T   T
  0.6643608409005505  0.0013728350899863  0.1395310479931604   T   T   T
  0.8307303522592941  0.0013555473899211  0.1395216705111927   T   T   T
  0.9975799237944132  0.2512076369204204  0.1394008010189487   T   T   T
  0.6640546402130979  0.2513637457293240  0.1397053327855126   T   T   T
  0.8308989479485744  0.2512906391467337  0.1396045281627887   T   T   T
  0.5806863368112282  0.1255222321621383  0.1657179761925886   T   T   T
  0.7475045253596607  0.1268017806907771  0.1662643495661459   T   T   T
  0.9145648431756490  0.1253694179736612  0.1656200413595873   T   T   T
  0.5807200757236538  0.3761619682010537  0.1659293710118587   T   T   T
  0.7474339064401209  0.3754317352251587  0.1663926751170532   T   T   T
  0.9142922749688386  0.3761655040265218  0.1659189168418402   T   T   T
  0.6641637175561274  0.9995570789526153  0.1925533336579833   T   T   T
  0.8309595955503046  0.9996037655053195  0.1925521496613295   T   T   T
  0.9976422374860664  0.9995078879158298  0.1924402908680522   T   T   T
  0.6627687767273578  0.2502251532674458  0.1930801802720815   T   T   T
  0.9981678534704385  0.2489176031012481  0.1921877882880278   T   T   T
  0.8325325505831583  0.2491431169331816  0.1926198324013155   T   T   T
  0.9974594547397607  0.0010419298567683  0.0861237567580668   T   T   T
  0.6641625089398663  0.0011092620379259  0.0862303633649255   T   T   T
  0.8307515854650216  0.0010912457946472  0.0862225236200666   T   T   T
  0.9974589327568981  0.2510544547413179  0.0861479510144813   T   T   T
  0.6641216212767262  0.2510359562288897  0.0863368963524844   T   T   T
  0.8307814220224660  0.2510409376219596  0.0862940342341679   T   T   T
  0.5807477773326105  0.1262800757605284  0.1125559702699950   T   T   T
  0.7474003528731678  0.1263518623078596  0.1127432796656376   T   T   T
  0.9140934113440800  0.1262211681575422  0.1125090489214082   T   T   T