C H O Si                                
   1.00000000000000     
    18.5749199999999988    0.0000000000000000    0.0000000000000000
     0.0000000000000000   17.5126199999999983    0.0000000000000000
     0.0000000000000000    0.0000000000000000   58.0000000000000000
   C    H    O    Si
   144   105    52   144
Selective dynamics
Direct
  0.4973847042301643  0.0660768679597775  0.0602342148472231   T   T   T
  0.1640879407412497  0.0659459275688493  0.0602928567083815   T   T   T
  0.3306885463603339  0.0659492293162882  0.0602884987493040   T   T   T
  0.4973866919668820  0.3160367336072504  0.0602630560538797   T   T   T
  0.1640809029686847  0.3158869989265050  0.0603310974985004   T   T   T
  0.3307117897419866  0.3159122088060659  0.0603275050209299   T   T   T
  0.0808938580266812  0.1887163948127988  0.1391405545463099   T   T   T
  0.2475371283297518  0.1886890946635081  0.1391625488436209   T   T   T
  0.4141242561787319  0.1887015404507912  0.1391970044669359   T   T   T
  0.0809147734155371  0.4387774828410815  0.1391928335395720   T   T   T
  0.2475555540014429  0.4388124141462793  0.1392175874296284   T   T   T
  0.4141437124455855  0.4387852217954288  0.1392166139254736   T   T   T
  0.1643592023185212  0.0635884060123383  0.1662880976490793   T   T   T
  0.3308343511921343  0.0636442742971512  0.1663108412657647   T   T   T
  0.4973480856109065  0.0634713550892963  0.1662346996934029   T   T   T
  0.1642873454907360  0.3138360809813706  0.1663158383434264   T   T   T
  0.3308156751853294  0.3138324566853835  0.1663589594188016   T   T   T
  0.4974303984999900  0.3138228283475510  0.1663320511807126   T   T   T
  0.0814581700017498  0.1905777237237039  0.1915648091594310   T   T   T
  0.2477900690105444  0.1907870519331098  0.1916634787115105   T   T   T
  0.4141634276517011  0.1906126228199069  0.1917036106049347   T   T   T
  0.0810157022014302  0.4408690599910425  0.1916968346873743   T   T   T
  0.2476045667790855  0.4409852444356206  0.1917529226601751   T   T   T
  0.4142947586325331  0.4409202123387625  0.1917201498745691   T   T   T
  0.0807195086465651  0.1888623787174220  0.0856594609710836   T   T   T
  0.2474166495556032  0.1888399792847623  0.0857092202017220   T   T   T
  0.4140713967450519  0.1888711554295081  0.0856905449762575   T   T   T
  0.0807517559842747  0.4388917670271131  0.0856847121473520   T   T   T
  0.2474269086659358  0.4389032603993252  0.0857153263702366   T   T   T
  0.4140719087257681  0.4388853791589655  0.0856971598146562   T   T   T
  0.1640687741695980  0.0636124527371801  0.1127847982112071   T   T   T
  0.3307571031267964  0.0636160449891846  0.1127938810593567   T   T   T
  0.4973900844297086  0.0636838258553010  0.1127941767624957   T   T   T
  0.1640690963219387  0.3137223542523378  0.1128108054743964   T   T   T
  0.3306999661797395  0.3137398842174134  0.1128318721197081   T   T   T
  0.4973275382400891  0.3137373753975439  0.1128192460982186   T   T   T
  0.4973945505497914  0.5659003317194176  0.0602639927668709   T   T   T
  0.1640687377065722  0.5658775486413723  0.0603110983006236   T   T   T
  0.3307253213361278  0.5658866572754303  0.0603051255349692   T   T   T
  0.4974118911764844  0.8160451376922494  0.0602146908618965   T   T   T
  0.1640607360402417  0.8158592723902280  0.0602933328674356   T   T   T
  0.3307122737639486  0.8158901235918761  0.0602750460847802   T   T   T
  0.0809038785880686  0.6887715851529734  0.1391501672526555   T   T   T
  0.2475566630096570  0.6887630322403889  0.1392006065019486   T   T   T
  0.4141834644505384  0.6888203292947370  0.1391574178796110   T   T   T
  0.0809278629387600  0.9385952828601100  0.1391161997912078   T   T   T
  0.2475600350449953  0.9386172310793123  0.1391629061736634   T   T   T
  0.4141469542311088  0.9386032324768168  0.1391314226370533   T   T   T
  0.1642543117601231  0.5638839201602378  0.1663491179285813   T   T   T
  0.3308665614005528  0.5639248436219202  0.1663672955305184   T   T   T
  0.4973718886579326  0.5639894346171523  0.1663165690545851   T   T   T
  0.1641940866800018  0.8138133736893428  0.1663159363213055   T   T   T
  0.3308440737008221  0.8138249803417665  0.1663182540686871   T   T   T
  0.4975134617092242  0.8138434845720386  0.1662674119157153   T   T   T
  0.0809956303908514  0.6908558453817895  0.1916338820467617   T   T   T
  0.2476378411723740  0.6910010370916284  0.1917332694362192   T   T   T
  0.4143097507455046  0.6910257571884684  0.1916767236006542   T   T   T
  0.0809321210806927  0.9407464903807271  0.1916488355649548   T   T   T
  0.2476102538205958  0.9407555671534539  0.1917290135743561   T   T   T
  0.4142714035802038  0.9407192304055401  0.1916773979142204   T   T   T
  0.0806943558411823  0.6888202553535111  0.0856567085502402   T   T   T
  0.2474189672962103  0.6887935292441273  0.0856906839182110   T   T   T
  0.4141258320323285  0.6888403726472755  0.0856578605389101   T   T   T
  0.0807369336867827  0.9388644962643824  0.0856281876882857   T   T   T
  0.2474385040713045  0.9388180275107513  0.0856745206977189   T   T   T
  0.4141228420992794  0.9388720496662126  0.0856366754383112   T   T   T
  0.1640569977526546  0.5637418902864397  0.1128223153412765   T   T   T
  0.3307306605680345  0.5637477277413482  0.1128296903813353   T   T   T
  0.4973787868159311  0.5637014894165042  0.1128142967070351   T   T   T
  0.1640712917643104  0.8135935276744020  0.1127773715146569   T   T   T
  0.3307349391661177  0.8136029014023406  0.1127724108234450   T   T   T
  0.4974371125691216  0.8137375512001387  0.1127518921460518   T   T   T
  0.9973446684014743  0.0660678896557199  0.0602241425388720   T   T   T
  0.6641062033701959  0.0660348404367240  0.0603477567846175   T   T   T
  0.8306818874773457  0.0660118985466295  0.0603314859011716   T   T   T
  0.9973651440520568  0.3160474223540960  0.0602437868132793   T   T   T
  0.6641112217378430  0.3158557748848018  0.0604289933033442   T   T   T
  0.8307104580255009  0.3158968240694308  0.0603925162447277   T   T   T
  0.5807685994605339  0.1887269625992635  0.1391824302396353   T   T   T
  0.7474607991541008  0.1889501961818278  0.1394730721161844   T   T   T
  0.9142139933611048  0.1887331283663892  0.1391322024902190   T   T   T
  0.5808064154001278  0.4387941943308400  0.1392549798244444   T   T   T
  0.7475271136254215  0.4385333545450875  0.1394923863565911   T   T   T
  0.9142148684159270  0.4387590680042734  0.1392565215337795   T   T   T
  0.6643786195165416  0.0639917367515628  0.1664585545478684   T   T   T
  0.8307392576468184  0.0640872936361933  0.1664437018075668   T   T   T
  0.9978102052430643  0.0633900968268216  0.1662010255372284   T   T   T
  0.6638836457158375  0.3138375819584159  0.1667037031652594   T   T   T
  0.8310873000362636  0.3137813991929269  0.1666088468162928   T   T   T
  0.9976104382285770  0.3138724032422523  0.1662785182478738   T   T   T
  0.5804694107775084  0.1897191027430137  0.1914172516530181   T   T   T
  0.7475839362959618  0.1924445938922574  0.1925132920344546   T   T   T
  0.9152580024753749  0.1897665003312710  0.1913492599325405   T   T   T
  0.5807948168297355  0.4414700028657519  0.1916933875856168   T   T   T
  0.7476048287077002  0.4438348254893784  0.1912929869730980   T   T   T
  0.9143541439125535  0.4413979031572954  0.1917217955190771   T   T   T
  0.5807153954880035  0.1889124747411170  0.0857011821092874   T   T   T
  0.7473923640373384  0.1889252798987126  0.0858603363515037   T   T   T
  0.9140519683496288  0.1889037981095536  0.0856693046542732   T   T   T
  0.5807414399547841  0.4388421817560356  0.0857372757723274   T   T   T
  0.7474221901596588  0.4388196072670896  0.0858429149055240   T   T   T
  0.9140624241747365  0.4388581940189244  0.0857265365028382   T   T   T
  0.6640631328126709  0.0638023361781384  0.1128847683401718   T   T   T
  0.8306521078333567  0.0637958873323981  0.1128743648514000   T   T   T
  0.9973828957183035  0.0636435189561030  0.1127710952045434   T   T   T
  0.6640029144897149  0.3137578636565875  0.1129945080251838   T   T   T
  0.8307320731324990  0.3137554971395211  0.1129441194367460   T   T   T
  0.9974022635297867  0.3137289130522269  0.1127920111064138   T   T   T
  0.9973694756387002  0.5659093021406079  0.0602625081470470   T   T   T
  0.6640874974425337  0.5657808017949635  0.0603404747896340   T   T   T
  0.8306755780563526  0.5658006735082480  0.0603292464699812   T   T   T
  0.9973402969622299  0.8160433950828999  0.0602174086109654   T   T   T
  0.6640782692888968  0.8158962871013182  0.0603104561101182   T   T   T
  0.8306926799536571  0.8159146682337991  0.0602917092883035   T   T   T
  0.5808044375256134  0.6888848936778040  0.1391263800158398   T   T   T
  0.7475242060373892  0.6888963149837740  0.1391726433478711   T   T   T
  0.9142493253022014  0.6888766233854985  0.1391419238993995   T   T   T
  0.5809381390175088  0.9388268616846176  0.1391795052050349   T   T   T
  0.7475252873947212  0.9387369934926215  0.1392136105128667   T   T   T
  0.9141048175377050  0.9388150132189087  0.1391783418956356   T   T   T
  0.6639874322372510  0.5644078141052051  0.1662591183956334   T   T   T
  0.8310285042593104  0.5644046074708207  0.1662647265145719   T   T   T
  0.9976179690542750  0.5639258820221749  0.1663212065220024   T   T   T
  0.6641753484751682  0.8138823204107229  0.1663263953564249   T   T   T
  0.8308610659782457  0.8138869104105779  0.1663256025638812   T   T   T
  0.9975398219303973  0.8138487083658130  0.1662655481064259   T   T   T
  0.5808533208662361  0.6909429203117683  0.1916173629454556   T   T   T
  0.7476131833675506  0.6911036799221674  0.1917142353600263   T   T   T
  0.9144260567600546  0.6910805553062982  0.1916675201098194   T   T   T
  0.5808761366898543  0.9408373712542752  0.1916600737383929   T   T   T
  0.7476057424733248  0.9408469689409918  0.1917444428834274   T   T   T
  0.9143143837543202  0.9408388898432039  0.1916789135860303   T   T   T
  0.5807590103527908  0.6888041327392300  0.0856640647201724   T   T   T
  0.7473957396313533  0.6887827071120080  0.0857106654815054   T   T   T
  0.9140415893294499  0.6888112153947099  0.0856691962540019   T   T   T
  0.5807778169480994  0.9389763545043214  0.0856624845655798   T   T   T
  0.7473999873328612  0.9389239200745185  0.0857086188528219   T   T   T
  0.9140592690645128  0.9389454852898316  0.0856625496716701   T   T   T
  0.6640909562571080  0.5636590965181731  0.1128661340282259   T   T   T
  0.8306836075500612  0.5636488573686109  0.1128646126234119   T   T   T
  0.9973732682791953  0.5636883630592823  0.1128142119183837   T   T   T
  0.6640481212786518  0.8137391504383070  0.1127987612172711   T   T   T
  0.8307173219875201  0.8137245220816594  0.1127936395122818   T   T   T
  0.9973688379726271  0.8137203577201836  0.1127544673833359   T   T   T
  0.0395443444533978  0.1795127070039856  0.0263769933717606   T   T   T
  0.2053096403599901  0.1796026418887925  0.0266559619663273   T   T   T
  0.3716778085964127  0.1793470009330068  0.0265883623306645   T   T   T
  0.0399404387335861  0.4296774882967466  0.0263481751431154   T   T   T
  0.2051656474897508  0.4293348124193158  0.0266817116834354   T   T   T
  0.3714565694949350  0.4292958129338841  0.0266488247469914   T   T   T
  0.1630581636003219  0.0298103067542058  0.0447730490735364   T   T   T
  0.3294301501115597  0.0298077040995387  0.0447703286876835   T   T   T
  0.4962377463712174  0.0298835549588252  0.0447205471291213   T   T   T
  0.1629869289564265  0.2797295391840646  0.0448138365767746   T   T   T
  0.3295221449071927  0.2797116992276762  0.0448178539015141   T   T   T
  0.4962642909469543  0.2798757988451748  0.0447430301750343   T   T   T
  0.4156565466739960  0.4048199649790620  0.2072614077564181   T   T   T
  0.4152159811321866  0.1545891147170297  0.2072545993290558   T   T   T
  0.0824470474296368  0.1545681675445608  0.2071163424584654   T   T   T
  0.2487807517235809  0.1542350834592180  0.2071079884385180   T   T   T
  0.0821085130324824  0.4048702966728158  0.2072608265740783   T   T   T
  0.2488188882523647  0.4049190312102328  0.2073077136489918   T   T   T
  0.0398705239070508  0.0544487649541894  0.2253589638763306   T   T   T
  0.2053648860687268  0.0548874542438249  0.2255670739927009   T   T   T
  0.3732214850047303  0.0545323380690179  0.2253970190289626   T   T   T
  0.0391423700901865  0.3037358090666701  0.2255596997281781   T   T   T
  0.2046925205759560  0.3048324237569986  0.2258334198539887   T   T   T
  0.3736718893922296  0.3040659340296440  0.2254627236554282   T   T   T
  0.0395242194544702  0.6794793978741422  0.0264039353665756   T   T   T
  0.2053688837389128  0.6794989328704186  0.0266318134281770   T   T   T
  0.3717576036782439  0.6792743936138186  0.0265987603721866   T   T   T
  0.0398749408435359  0.9297453628126743  0.0263286549906312   T   T   T
  0.2051905380616820  0.9293874549970550  0.0266310361290576   T   T   T
  0.3714864964773534  0.9293769415433761  0.0265998088471309   T   T   T
  0.1629442363074599  0.5296594028796812  0.0448063123604924   T   T   T
  0.3295620780544702  0.5296597493050019  0.0448030371137707   T   T   T
  0.4962021676081314  0.5296461997611671  0.0447593364266528   T   T   T
  0.1629754218343821  0.7797699283284539  0.0447622119823785   T   T   T
  0.3295467885926492  0.7797818709030588  0.0447473504440116   T   T   T
  0.4962822588478774  0.7798634205288811  0.0446954974619048   T   T   T
  0.4155385899238082  0.9044993427392158  0.2071893181752928   T   T   T
  0.4156250047437087  0.6549015017526049  0.2072118243460549   T   T   T
  0.0821515081479415  0.6547750946651136  0.2071765292892991   T   T   T
  0.2489398228101853  0.6548934106594966  0.2072725760158526   T   T   T
  0.0820579729156968  0.9045303971601423  0.2071614618908661   T   T   T
  0.2488672747286003  0.9045413758845798  0.2072428283301602   T   T   T
  0.0400756937747569  0.5547675488890814  0.2254233549089862   T   T   T
  0.2052565549324903  0.5551842194625251  0.2256715694507519   T   T   T
  0.3734548031732198  0.5544814643560383  0.2253966026297773   T   T   T
  0.0407538487768502  0.8041394346054330  0.2251985525990003   T   T   T
  0.2051389265864219  0.8048248816408085  0.2256230396184020   T   T   T
  0.3732401736280214  0.8041840646046341  0.2254759368757234   T   T   T
  0.5395709221226700  0.1795030983497321  0.0263829354448767   T   T   T
  0.7053606406893453  0.1795768378075972  0.0267047346360640   T   T   T
  0.8716517813672934  0.1793597714619015  0.0265726444197212   T   T   T
  0.5400170935990284  0.4296222459868360  0.0263718486598899   T   T   T
  0.7052061105549460  0.4292984677890082  0.0267396967807205   T   T   T
  0.8714478100602230  0.4292949687476559  0.0266545362273363   T   T   T
  0.6631371921122924  0.0298666880666580  0.0448299485645510   T   T   T
  0.8293217059999082  0.0298453905224127  0.0448183771966568   T   T   T
  0.9962052498377191  0.0298631471976775  0.0447087906503680   T   T   T
  0.6630482852306000  0.2796322347201518  0.0449301846526808   T   T   T
  0.8294425605480804  0.2796900204510185  0.0448873106497598   T   T   T
  0.9962462384651365  0.2798969724322429  0.0447205476124586   T   T   T
  0.9148756731358102  0.4056805561690759  0.2073307843451503   T   T   T
  0.9166480131597702  0.1536867762966354  0.2068834134913228   T   T   T
  0.5811980561816289  0.1538008099387762  0.2069933149327701   T   T   T
  0.7490955824614586  0.1554216126485594  0.2078477617475840   T   T   T
  0.5824350752673563  0.4054983918052791  0.2072491469555740   T   T   T
  0.7478913540879544  0.4123711268922267  0.2127017464622248   T   T   T
  0.5397306281101631  0.0547371665933085  0.2253064606293315   T   T   T
  0.7055299043025074  0.0547541607315269  0.2256308772782029   T   T   T
  0.8731751357385527  0.0546634325228005  0.2254667084277143   T   T   T
  0.5444617044227116  0.3033983983836738  0.2238606760432195   T   T   T
  0.6833994003777325  0.2866922138735185  0.2313377290541088   T   T   T
  0.8895299109075726  0.2983547009500337  0.2234680765120133   T   T   T
  0.7547722799644975  0.2734061425483423  0.2679479533766547   T   T   T
  0.7493680679625034  0.2311643085147596  0.3022002712781449   T   T   T
  0.7793693332434394  0.3139674657342061  0.3085599935069902   T   T   T
  0.6441154597723975  0.1669585745997208  0.2984148837869556   T   T   T
  0.7072444166101363  0.1094408631769476  0.2970686688639280   T   T   T
  0.8229027874634852  0.3848818993226296  0.3397122065714275   T   T   T
  0.7407614949237195  0.3989467982640369  0.3375129538355796   T   T   T
  0.7482667232976107  0.4012487369384617  0.2283861018754395   T   T   T
  0.7837662588415992  0.2723976180136584  0.2420423483117449   T   T   T
  0.5395613826234710  0.6794569943775003  0.0264126421195411   T   T   T
  0.7053826434828618  0.6794886873687527  0.0266355941073394   T   T   T
  0.8717461967996353  0.6792752304248828  0.0265977674437732   T   T   T
  0.5398814428348225  0.9297465458358465  0.0263379198329174   T   T   T
  0.7052050495180702  0.9293889389581032  0.0266358426544338   T   T   T
  0.8714937079672066  0.9293810836407378  0.0266035167742162   T   T   T
  0.6629612811961486  0.5296131230186233  0.0448240759461673   T   T   T
  0.8295288114306956  0.5296103899225155  0.0448193395299394   T   T   T
  0.9961984710030529  0.5296455259950534  0.0447599430332841   T   T   T
  0.6629756931552929  0.7798063447208792  0.0447767997729644   T   T   T
  0.8295427118081771  0.7798144393098705  0.0447607526412190   T   T   T
  0.9962021892431047  0.7798668100027719  0.0446978974868413   T   T   T
  0.9155333619529148  0.9046429068784015  0.2071974528056066   T   T   T
  0.9156604393378144  0.6548782366346043  0.2071819155663272   T   T   T
  0.5820273978137402  0.6547884613443697  0.2071443972639387   T   T   T
  0.7489273350155851  0.6549377066503397  0.2072401256655217   T   T   T
  0.5819820348566440  0.9046492477365596  0.2071777396709585   T   T   T
  0.7488721600020697  0.9045729163572972  0.2072498603321990   T   T   T
  0.5396098159896199  0.5546774924274455  0.2254137345938250   T   T   T
  0.7049434305364181  0.5551683638174365  0.2257353325662967   T   T   T
  0.8737855855875928  0.5542539570703496  0.2256321296488160   T   T   T
  0.5406896572100992  0.8041155369062757  0.2251865149836469   T   T   T
  0.7051161327232383  0.8047696771023899  0.2256128265081095   T   T   T
  0.8732643946382088  0.8041618825922344  0.2254811678973512   T   T   T
  0.0857287390758254  0.1703477046854917  0.0339409484673483   T   T   T
  0.2518379304324287  0.1705507191813924  0.0340270142743827   T   T   T
  0.4182122543641820  0.1704649048612331  0.0339674557552720   T   T   T
  0.0859861897229458  0.4201863924386483  0.0339509764949173   T   T   T
  0.2517581660932109  0.4202409607700467  0.0340129660038955   T   T   T
  0.4180720401278020  0.4203236738146810  0.0339664030563268   T   T   T
  0.1592614284426715  0.0450774701005765  0.2180384068535011   T   T   T
  0.3267034153158749  0.0450201814269411  0.2180714015914914   T   T   T
  0.4931781269338705  0.0449847412501344  0.2180444251114269   T   T   T
  0.1590945079172802  0.2949474187266966  0.2180205153648753   T   T   T
  0.3271598135832967  0.2950720921253683  0.2180917654630084   T   T   T
  0.4954206104988542  0.2945360541851857  0.2180209828256724   T   T   T
  0.0857155124404779  0.6702073587109508  0.0339570534330043   T   T   T
  0.2518624704682287  0.6702859084131239  0.0340084004071867   T   T   T
  0.4182911213727687  0.6703579715574912  0.0339776949129488   T   T   T
  0.0859637405762844  0.9201811599818505  0.0339033001133661   T   T   T
  0.2517360706524474  0.9202816491949602  0.0339849917293534   T   T   T
  0.4180814246814193  0.9203757546523935  0.0339254865535664   T   T   T
  0.1592796816456561  0.5452724484641858  0.2180839891712698   T   T   T
  0.3268166320592095  0.5452279787356437  0.2181180534257418   T   T   T
  0.4930262273330890  0.5455327985966297  0.2180768526029916   T   T   T
  0.1590844216616510  0.7951428700316512  0.2180507931059457   T   T   T
  0.3267681672126732  0.7952355088033919  0.2180721244656768   T   T   T
  0.4938178682137360  0.7951269355481414  0.2180261855218311   T   T   T
  0.5857567400388997  0.1703087024910041  0.0339483324869330   T   T   T
  0.7518085571692059  0.1705387239691278  0.0341266545321954   T   T   T
  0.9181807645726211  0.1704302040522639  0.0339469145202640   T   T   T
  0.5860454738340930  0.4201237336751593  0.0339886047089812   T   T   T
  0.7517644058365109  0.4203038044827540  0.0341046325798415   T   T   T
  0.9180451522695283  0.4203304688869182  0.0339831733159153   T   T   T
  0.6593825513684562  0.0449075343628629  0.2181407823777901   T   T   T
  0.8267023401406556  0.0450382965994584  0.2181359124260615   T   T   T
  0.9933736829567262  0.0452051482032351  0.2180018684571849   T   T   T
  0.6522368390352572  0.2986909315011387  0.2177313072908880   T   T   T
  0.8391519025059803  0.2939061983991650  0.2183625493137142   T   T   T
  0.9932350574105421  0.2943626311950066  0.2178353938682512   T   T   T
  0.7819280755948478  0.2725590806111006  0.2969104279186074   T   T   T
  0.6888834387822486  0.1523868185608609  0.3060001783685014   T   T   T
  0.7844359014902345  0.3916912448218477  0.3284751056179162   T   T   T
  0.7418716421993894  0.2591925582822295  0.2518402439162556   T   T   T
  0.5857537920529896  0.6701777750301389  0.0339643961781664   T   T   T
  0.7518617347879146  0.6702405118235329  0.0340208911983870   T   T   T
  0.9182476681457232  0.6702911658498832  0.0339863842171883   T   T   T
  0.5859710350991432  0.9202161351468066  0.0339113249605569   T   T   T
  0.7517437642177420  0.9203090888648772  0.0340014312307572   T   T   T
  0.9180735916540727  0.9204146294165307  0.0339414402387434   T   T   T
  0.6589484346088267  0.5462514992044496  0.2180443505615765   T   T   T
  0.8274935805294874  0.5472416996627951  0.2179388497298357   T   T   T
  0.9935709233728774  0.5453992347172452  0.2180827029571055   T   T   T
  0.6590473983522824  0.7950732456724703  0.2180507455097964   T   T   T
  0.8267985062690625  0.7952302764591181  0.2180689430205325   T   T   T
  0.9939051256326932  0.7951174855003063  0.2180203402988890   T   T   T
  0.2474295087555970  0.1246856685722318  0.0595419928949762   T   T   T
  0.4140381252310087  0.1247060732715106  0.0594993766005674   T   T   T
  0.0808434507943145  0.3746326673812093  0.0595171545994984   T   T   T
  0.2474384342538535  0.3745981451880213  0.0595614386411207   T   T   T
  0.4140398360654631  0.3746687626893808  0.0595183107852407   T   T   T
  0.0808133067140117  0.1246622436021463  0.0594855211595216   T   T   T
  0.4974913823263940  0.0010830763914027  0.1394106471043529   T   T   T
  0.1642983329323649  0.0010576552053994  0.1394167125331069   T   T   T
  0.3309158346312998  0.0010852419150219  0.1394324353246728   T   T   T
  0.4975129867330516  0.2512422764999904  0.1394694299513750   T   T   T
  0.1642982969717691  0.2511866972642219  0.1394391315109887   T   T   T
  0.3308796832763455  0.2512353263568881  0.1394725948014463   T   T   T
  0.0811075185410787  0.1256456633529812  0.1657089731218553   T   T   T
  0.2476377879008163  0.1258321128883209  0.1657650934477471   T   T   T
  0.4141688137262036  0.1257837963783381  0.1658073180367706   T   T   T
  0.0810149769250403  0.3759890535000709  0.1658192437991106   T   T   T
  0.2476028155453609  0.3760505758403827  0.1658582946299128   T   T   T
  0.4141862030410732  0.3759529110137781  0.1658490252308640   T   T   T
  0.1642185347232001  0.9994823761640845  0.1924825693139207   T   T   T
  0.3309422913890879  0.9995012429468388  0.1924994505363955   T   T   T
  0.4975174451747750  0.9995247117682331  0.1924466159190967   T   T   T
  0.1645287147780455  0.2495385167050566  0.1924510697091831   T   T   T
  0.4975896882280463  0.2490950843083333  0.1924257298241967   T   T   T
  0.3310578630953544  0.2495601031739690  0.1925159200321373   T   T   T
  0.4974874637546255  0.0010791195952423  0.0861433279943364   T   T   T
  0.1641703431982437  0.0009516163961565  0.0861529909083138   T   T   T
  0.3308355529768253  0.0009637389732360  0.0861575525518764   T   T   T
  0.4974693477097735  0.2510777126344542  0.0861783145869751   T   T   T
  0.1641756039816209  0.2509867832393449  0.0861960770426891   T   T   T
  0.3308206830225361  0.2510112329110284  0.0862102794765370   T   T   T
  0.0807732660714367  0.1261492480181974  0.1125014922918824   T   T   T
  0.2474665686774597  0.1261089611424664  0.1125331820828851   T   T   T
  0.4141127156687225  0.1261835191112505  0.1125424195486157   T   T   T
  0.0808089867154019  0.3762473081323990  0.1125434891037322   T   T   T
  0.2474595731612171  0.3762660101735190  0.1125689428584691   T   T   T
  0.4140932808591703  0.3762586819843444  0.1125636970763627   T   T   T
  0.2474340533944030  0.6245675658077845  0.0595351062722131   T   T   T
  0.4140828262310254  0.6245972015044489  0.0595014079587787   T   T   T
  0.0808343994267660  0.8746231870204197  0.0594720801566275   T   T   T
  0.2474268604602547  0.8745751115217310  0.0595217968381621   T   T   T
  0.4140551577477134  0.8746679265522541  0.0594692868106336   T   T   T
  0.0807926298781399  0.6245716000539616  0.0595004309308659   T   T   T
  0.4975053627786447  0.5012631834519385  0.1394724339869323   T   T   T
  0.1642810282840729  0.5012781415050811  0.1394745510292671   T   T   T
  0.3308964764563008  0.5013021877243087  0.1394813948549269   T   T   T
  0.4975360664450382  0.7513287338224877  0.1394013282242589   T   T   T
  0.1642707001008446  0.7512271094504809  0.1394412204486842   T   T   T
  0.3309014382088719  0.7512554146544574  0.1394417891769817   T   T   T
  0.0809697374084146  0.6259852305853132  0.1657826921015290   T   T   T
  0.2475968903475682  0.6260528790705506  0.1658554698879745   T   T   T
  0.4141758220206304  0.6261087732639371  0.1658074445127925   T   T   T
  0.0808973082831121  0.8759034838199374  0.1657621916342815   T   T   T
  0.2475551558284747  0.8759229426829183  0.1658146970580478   T   T   T
  0.4142106056301353  0.8759138611866450  0.1657731078587420   T   T   T
  0.1642556542960504  0.4997213964334822  0.1925268883522639   T   T   T
  0.3309568690356204  0.4996931534130144  0.1925355437914121   T   T   T
  0.4974248570045965  0.4999098622640074  0.1925005824161194   T   T   T
  0.1642054420798415  0.7496377053696146  0.1924795720768844   T   T   T
  0.4976104143523351  0.7497194611009991  0.1924318552630693   T   T   T
  0.3309658625073226  0.7497205565831412  0.1924991764802084   T   T   T
  0.4974832506975769  0.5010013726352820  0.0861855506245110   T   T   T
  0.1641699101345738  0.5010151248499199  0.0861996771373032   T   T   T
  0.3308353912900285  0.5010262597171000  0.0862030939322379   T   T   T
  0.4975266391002738  0.7510307330297249  0.0861267815879327   T   T   T
  0.1641578021533068  0.7509106347762948  0.0861626521596033   T   T   T
  0.3308301610518883  0.7509413526719526  0.0861545158451952   T   T   T
  0.0807626476893342  0.6262056465071113  0.1125306309662493   T   T   T
  0.2474614813234193  0.6262225441197846  0.1125571301586252   T   T   T
  0.4141384044571492  0.6262526654343510  0.1125335215932000   T   T   T
  0.0807995352710725  0.8761234336747802  0.1124788533111261   T   T   T
  0.2474590720309828  0.8761041761965808  0.1125157200316541   T   T   T
  0.4141008673165095  0.8761477962517715  0.1124849169849516   T   T   T
  0.7474216494094235  0.1247826046612238  0.0596452490330762   T   T   T
  0.9140055389718614  0.1247346152603966  0.0594882879598996   T   T   T
  0.5808760489963475  0.3746108329210629  0.0595605383381736   T   T   T
  0.7474275264258189  0.3745851148533969  0.0596543779519659   T   T   T
  0.9140073056424948  0.3746623920471013  0.0595358184645216   T   T   T
  0.5808205302170272  0.1247495826915282  0.0595130732870598   T   T   T
  0.9976675408016853  0.0009885505731970  0.1393747147241996   T   T   T
  0.6643682223983440  0.0013766463770822  0.1395300589886080   T   T   T
  0.8307387307242174  0.0013575730494866  0.1395214504345274   T   T   T
  0.9975919802821925  0.2512114820642777  0.1394012674320271   T   T   T
  0.6640633564927030  0.2513662791749134  0.1397027006973297   T   T   T
  0.8309057531825557  0.2512894682294874  0.1396038232160082   T   T   T
  0.5806864445785243  0.1255199405519435  0.1657187553582821   T   T   T
  0.7475172577878892  0.1268005408302560  0.1662631280089298   T   T   T
  0.9145625585804288  0.1253611994481118  0.1656214193122960   T   T   T
  0.5807191641735112  0.3761616776297847  0.1659322295967751   T   T   T
  0.7474403754684440  0.3754289326296361  0.1663930016328148   T   T   T
  0.9142969084922254  0.3761665120076421  0.1659220201122582   T   T   T
  0.6641668534876082  0.9995634090449095  0.1925538974393169   T   T   T
  0.8309637094537721  0.9996099239232783  0.1925507093883469   T   T   T
  0.9976473867796806  0.9995120413071223  0.1924388524980814   T   T   T
  0.6627660403746727  0.2502220394998814  0.1930770488929798   T   T   T
  0.9981769084085338  0.2489185084684374  0.1921869364239530   T   T   T
  0.8325454109023541  0.2491433567948561  0.1926163130540306   T   T   T
  0.9974731193482242  0.0010397430278091  0.0861239053476632   T   T   T
  0.6641716520454699  0.0011108259777178  0.0862309855272741   T   T   T
  0.8307616224415718  0.0010926536918575  0.0862234594281882   T   T   T
  0.9974744160855660  0.2510564071439594  0.0861478556090612   T   T   T
  0.6641349414020222  0.2510394542228621  0.0863357544886667   T   T   T
  0.8307913529756998  0.2510424051217435  0.0862937008282021   T   T   T
  0.5807549726903189  0.1262801944004193  0.1125550206486882   T   T   T
  0.7474091971787659  0.1263498367561245  0.1127431813037399   T   T   T
  0.9140970955290241  0.1262205058311365  0.1125084403213671   T   T   T