C H O Si                                
   1.00000000000000     
     9.2874599999999994    0.0000000000000000    0.0000000000000000
     0.0000000000000000    8.7563099999999991    0.0000000000000000
     0.0000000000000000    0.0000000000000000   58.0000000000000000
   C    H    O    Si
    36    32    16    36
Selective dynamics
Direct
  0.9928137298455859  0.1259999675763792  0.0603401715184572   T   T   T
  0.3260873701111182  0.1260936745701580  0.0604421741015687   T   T   T
  0.6593954374048444  0.1260715197979880  0.0604215205869711   T   T   T
  0.9927674312949556  0.6261507947240014  0.0603630030007742   T   T   T
  0.3261170929118544  0.6259422827198682  0.0604679310943684   T   T   T
  0.6594156161108727  0.6260459486024643  0.0603990444296648   T   T   T
  0.1607351848596964  0.3709324324128431  0.1393721031289092   T   T   T
  0.4939743854599143  0.3712954727490367  0.1396055347360793   T   T   T
  0.8273270617380567  0.3708195391269737  0.1392964631751006   T   T   T
  0.1610484738147834  0.8709377644103216  0.1394186052013116   T   T   T
  0.4939666297527530  0.8706784950904413  0.1394810911837173   T   T   T
  0.8271819357172036  0.8710359679342858  0.1393911285182363   T   T   T
  0.3285524930492691  0.1214331086854628  0.1666288176672171   T   T   T
  0.6606002872971571  0.1212801523666999  0.1666186715619919   T   T   T
  0.9947673966282421  0.1203730104205285  0.1663541371715526   T   T   T
  0.3275920834403454  0.6208672788980358  0.1667829552691010   T   T   T
  0.6614844924212946  0.6211545457042176  0.1665311132842867   T   T   T
  0.9946283951457757  0.6209912372303253  0.1664559746914162   T   T   T
  0.1620935699818546  0.3739174651804344  0.1917696827736138   T   T   T
  0.4954574547358549  0.3793278030997775  0.1926966842183351   T   T   T
  0.8294091169981411  0.3732331153713459  0.1915407377897520   T   T   T
  0.1615446406732017  0.8764255072943814  0.1919736279465931   T   T   T
  0.4949344845523618  0.8753976255106013  0.1921138506227671   T   T   T
  0.8285854224033317  0.8763293867312772  0.1919153180001323   T   T   T
  0.1598947071397490  0.3711569357068763  0.0858406134959348   T   T   T
  0.4932300524851227  0.3711427083451403  0.0859645429842236   T   T   T
  0.8265774819083844  0.3711676994215821  0.0857899577415569   T   T   T
  0.1599933571082283  0.8711326269301687  0.0858613018672207   T   T   T
  0.4932071059954302  0.8710807297321014  0.0859066404519577   T   T   T
  0.8265236121092250  0.8712063592195565  0.0858407056861462   T   T   T
  0.3269260484249572  0.1210408829887245  0.1130275957736185   T   T   T
  0.6601056289209442  0.1210125283150735  0.1130238102596830   T   T   T
  0.9935407133690632  0.1209278703902241  0.1129235189445219   T   T   T
  0.3268779461802804  0.6208613116099102  0.1130771430566797   T   T   T
  0.6601828606101160  0.6209670075938549  0.1129808686942945   T   T   T
  0.9935032168093006  0.6211273345263818  0.1129445503599139   T   T   T
  0.0824821363816986  0.3513177938445891  0.0254201006561779   T   T   T
  0.4145953953187079  0.3513486757626023  0.0256470352390410   T   T   T
  0.7478833499119394  0.3512360322848322  0.0254925910555737   T   T   T
  0.0827525222433307  0.8513167723931979  0.0254359094904018   T   T   T
  0.4142897819032468  0.8511861251111528  0.0256208286412682   T   T   T
  0.7479508936292846  0.8513248497681242  0.0255219650803380   T   T   T
  0.3240125055227961  0.0538936726656499  0.0448859882421788   T   T   T
  0.6566829539075981  0.0538609609708398  0.0448696600877083   T   T   T
  0.9905198373847151  0.0539931689188176  0.0447671020283236   T   T   T
  0.3238488175374856  0.5536150740866782  0.0449241580171175   T   T   T
  0.6569182987373877  0.5539117575415645  0.0448367454771859   T   T   T
  0.9904414520636281  0.5541268133612541  0.0447901385548854   T   T   T
  0.8306309466865298  0.8049660381975345  0.2075336201316474   T   T   T
  0.8315722801242763  0.3016021315008139  0.2071609136451033   T   T   T
  0.1628440431982522  0.3021464544535571  0.2073731933550337   T   T   T
  0.4987572528637487  0.3062315041122037  0.2081549676968222   T   T   T
  0.1641205049099182  0.8040196335962843  0.2075060544790527   T   T   T
  0.4952217505855694  0.8039585879617729  0.2077627198732237   T   T   T
  0.0721394893579036  0.1017493944009154  0.2268558827016100   T   T   T
  0.4061398858815967  0.1003220109165904  0.2270430098806217   T   T   T
  0.7402282718788203  0.1014703211050238  0.2268830269309988   T   T   T
  0.0769453738253563  0.5994779998961796  0.2257731537857975   T   T   T
  0.3740338602021850  0.6168041122339116  0.2308548112051637   T   T   T
  0.7777802635741600  0.5907370946530787  0.2239875502826130   T   T   T
  0.5076713482193269  0.6352178348475090  0.2647776697609376   T   T   T
  0.5030446948099937  0.4777989823054962  0.2935639207127185   T   T   T
  0.5750350008373685  0.6317248072836879  0.3023856641916510   T   T   T
  0.3047184563726415  0.3728991039499937  0.3100773930263609   T   T   T
  0.4095615753358100  0.2417615171029045  0.3036055188990435   T   T   T
  0.6498630921150027  0.7414378868065084  0.3369657100890192   T   T   T
  0.4862568197374417  0.7657074262763406  0.3330920862868441   T   T   T
  0.5686191954856281  0.6562767383963395  0.2396287832311340   T   T   T
  0.1700143389449006  0.3402243333102470  0.0345723609668603   T   T   T
  0.5026614829681222  0.3404370389535872  0.0346820895301842   T   T   T
  0.8359758717751222  0.3398380149056725  0.0345038951662458   T   T   T
  0.1702301655813123  0.8401628098084573  0.0345973477796189   T   T   T
  0.5024607065845125  0.8401938879885639  0.0346296534225209   T   T   T
  0.8358926141542330  0.8403081574604977  0.0345726000202943   T   T   T
  0.3185309020887502  0.0896310210081669  0.2178991976350477   T   T   T
  0.6520640667914718  0.0894872517834248  0.2179077801803043   T   T   T
  0.9844256151561336  0.0897852313027887  0.2177709986167106   T   T   T
  0.3028245409694743  0.5904942502132334  0.2180375165490988   T   T   T
  0.6789940741667284  0.5896875108756506  0.2177931912046208   T   T   T
  0.9848580345643435  0.5844048143697346  0.2178094566630151   T   T   T
  0.5718051718945435  0.5598342481038929  0.2891083476261331   T   T   T
  0.3708630871621337  0.3386362391767888  0.2981061897132266   T   T   T
  0.5788061084249693  0.7654850918322982  0.3251494461286841   T   T   T
  0.4838863860762684  0.6810861255055033  0.2492712363500005   T   T   T
  0.4927224673731986  0.2443821656835285  0.0594475204663598   T   T   T
  0.8260834152624671  0.2443014222297661  0.0593022730234374   T   T   T
  0.1595441039245246  0.7443518799158436  0.0593679970180929   T   T   T
  0.4926992124312751  0.7442949009336586  0.0594055592226731   T   T   T
  0.8260342975908850  0.7444326441545434  0.0593409244486479   T   T   T
  0.1594884372771960  0.2443876188481847  0.0593404649419385   T   T   T
  0.9941046384580170  0.9964940045318535  0.1396066337603997   T   T   T
  0.3276360284477092  0.9971640494805868  0.1397670355453413   T   T   T
  0.6602259789532994  0.9970141826043138  0.1397585568526332   T   T   T
  0.9940099680631499  0.4968689791592884  0.1396210891478953   T   T   T
  0.3271850082313595  0.4971811725013248  0.1398900412777744   T   T   T
  0.6606522520834693  0.4969511247699796  0.1396948105243844   T   T   T
  0.1613164203946763  0.2460518619615203  0.1660678630379041   T   T   T
  0.4944137349240973  0.2484913580839964  0.1665869455996731   T   T   T
  0.8280964830378977  0.2453027882864605  0.1659199321425706   T   T   T
  0.1612577022853748  0.7468918091795955  0.1662391644183644   T   T   T
  0.4941688599983288  0.7463050232411121  0.1662939272386715   T   T   T
  0.8279363893601145  0.7468533776096015  0.1661705852207272   T   T   T
  0.3282643389120809  0.9943310838302265  0.1930856401887981   T   T   T
  0.6617301069585623  0.9940890724754176  0.1930976885778922   T   T   T
  0.9950438958866059  0.9945230254161707  0.1929392528122855   T   T   T
  0.3264128684329901  0.4961295017951355  0.1937443762005080   T   T   T
  0.9956566866698171  0.4916612117822529  0.1926348956861567   T   T   T
  0.6647604556987233  0.4936797244756569  0.1928692794312356   T   T   T
  0.9932406990917085  0.9968287970724514  0.0861457024846271   T   T   T
  0.3265786012540115  0.9968491579487047  0.0862297389607459   T   T   T
  0.6597787709397668  0.9968605606229015  0.0862192444397959   T   T   T
  0.9931778356126041  0.4968859419914154  0.0861517871027803   T   T   T
  0.3265227604298018  0.4967866712785782  0.0862679096767871   T   T   T
  0.6598531850663726  0.4967932876872958  0.0861922990690707   T   T   T
  0.1601614963667265  0.2469823739761334  0.1126547331664086   T   T   T
  0.4934102940892817  0.2471062567490155  0.1128210907381167   T   T   T
  0.8268167253912408  0.2469181941320665  0.1126049003003185   T   T   T
  0.1603069903522006  0.7469538934381553  0.1126939232203613   T   T   T
  0.4933882321492949  0.7468748023008862  0.1127326681639381   T   T   T
  0.8267025648616532  0.7470309800795976  0.1126604192151080   T   T   T
 
  0.00000000E+00  0.00000000E+00  0.00000000E+00
  0.00000000E+00  0.00000000E+00  0.00000000E+00
  0.00000000E+00  0.00000000E+00  0.00000000E+00
  0.00000000E+00  0.00000000E+00  0.00000000E+00
  0.00000000E+00  0.00000000E+00  0.00000000E+00
  0.00000000E+00  0.00000000E+00  0.00000000E+00
  0.00000000E+00  0.00000000E+00  0.00000000E+00
  0.00000000E+00  0.00000000E+00  0.00000000E+00
  0.00000000E+00  0.00000000E+00  0.00000000E+00
  0.00000000E+00  0.00000000E+00  0.00000000E+00
  0.00000000E+00  0.00000000E+00  0.00000000E+00
  0.00000000E+00  0.00000000E+00  0.00000000E+00
  0.00000000E+00  0.00000000E+00  0.00000000E+00
  0.00000000E+00  0.00000000E+00  0.00000000E+00
  0.00000000E+00  0.00000000E+00  0.00000000E+00
  0.00000000E+00  0.00000000E+00  0.00000000E+00
  0.00000000E+00  0.00000000E+00  0.00000000E+00
  0.00000000E+00  0.00000000E+00  0.00000000E+00
  0.00000000E+00  0.00000000E+00  0.00000000E+00
  0.00000000E+00  0.00000000E+00  0.00000000E+00
  0.00000000E+00  0.00000000E+00  0.00000000E+00
  0.00000000E+00  0.00000000E+00  0.00000000E+00
  0.00000000E+00  0.00000000E+00  0.00000000E+00
  0.00000000E+00  0.00000000E+00  0.00000000E+00
  0.00000000E+00  0.00000000E+00  0.00000000E+00
  0.00000000E+00  0.00000000E+00  0.00000000E+00
  0.00000000E+00  0.00000000E+00  0.00000000E+00
  0.00000000E+00  0.00000000E+00  0.00000000E+00
  0.00000000E+00  0.00000000E+00  0.00000000E+00
  0.00000000E+00  0.00000000E+00  0.00000000E+00
  0.00000000E+00  0.00000000E+00  0.00000000E+00
  0.00000000E+00  0.00000000E+00  0.00000000E+00
  0.00000000E+00  0.00000000E+00  0.00000000E+00
  0.00000000E+00  0.00000000E+00  0.00000000E+00
  0.00000000E+00  0.00000000E+00  0.00000000E+00
  0.00000000E+00  0.00000000E+00  0.00000000E+00
  0.00000000E+00  0.00000000E+00  0.00000000E+00
  0.00000000E+00  0.00000000E+00  0.00000000E+00
  0.00000000E+00  0.00000000E+00  0.00000000E+00
  0.00000000E+00  0.00000000E+00  0.00000000E+00
  0.00000000E+00  0.00000000E+00  0.00000000E+00
  0.00000000E+00  0.00000000E+00  0.00000000E+00
  0.00000000E+00  0.00000000E+00  0.00000000E+00
  0.00000000E+00  0.00000000E+00  0.00000000E+00
  0.00000000E+00  0.00000000E+00  0.00000000E+00
  0.00000000E+00  0.00000000E+00  0.00000000E+00
  0.00000000E+00  0.00000000E+00  0.00000000E+00
  0.00000000E+00  0.00000000E+00  0.00000000E+00
  0.00000000E+00  0.00000000E+00  0.00000000E+00
  0.00000000E+00  0.00000000E+00  0.00000000E+00
  0.00000000E+00  0.00000000E+00  0.00000000E+00
  0.00000000E+00  0.00000000E+00  0.00000000E+00
  0.00000000E+00  0.00000000E+00  0.00000000E+00
  0.00000000E+00  0.00000000E+00  0.00000000E+00
  0.00000000E+00  0.00000000E+00  0.00000000E+00
  0.00000000E+00  0.00000000E+00  0.00000000E+00
  0.00000000E+00  0.00000000E+00  0.00000000E+00
  0.00000000E+00  0.00000000E+00  0.00000000E+00
  0.00000000E+00  0.00000000E+00  0.00000000E+00
  0.00000000E+00  0.00000000E+00  0.00000000E+00
  0.00000000E+00  0.00000000E+00  0.00000000E+00
  0.00000000E+00  0.00000000E+00  0.00000000E+00
  0.00000000E+00  0.00000000E+00  0.00000000E+00
  0.00000000E+00  0.00000000E+00  0.00000000E+00
  0.00000000E+00  0.00000000E+00  0.00000000E+00
  0.00000000E+00  0.00000000E+00  0.00000000E+00
  0.00000000E+00  0.00000000E+00  0.00000000E+00
  0.00000000E+00  0.00000000E+00  0.00000000E+00
  0.00000000E+00  0.00000000E+00  0.00000000E+00
  0.00000000E+00  0.00000000E+00  0.00000000E+00
  0.00000000E+00  0.00000000E+00  0.00000000E+00
  0.00000000E+00  0.00000000E+00  0.00000000E+00
  0.00000000E+00  0.00000000E+00  0.00000000E+00
  0.00000000E+00  0.00000000E+00  0.00000000E+00
  0.00000000E+00  0.00000000E+00  0.00000000E+00
  0.00000000E+00  0.00000000E+00  0.00000000E+00
  0.00000000E+00  0.00000000E+00  0.00000000E+00
  0.00000000E+00  0.00000000E+00  0.00000000E+00
  0.00000000E+00  0.00000000E+00  0.00000000E+00
  0.00000000E+00  0.00000000E+00  0.00000000E+00
  0.00000000E+00  0.00000000E+00  0.00000000E+00
  0.00000000E+00  0.00000000E+00  0.00000000E+00
  0.00000000E+00  0.00000000E+00  0.00000000E+00
  0.00000000E+00  0.00000000E+00  0.00000000E+00
  0.00000000E+00  0.00000000E+00  0.00000000E+00
  0.00000000E+00  0.00000000E+00  0.00000000E+00
  0.00000000E+00  0.00000000E+00  0.00000000E+00
  0.00000000E+00  0.00000000E+00  0.00000000E+00
  0.00000000E+00  0.00000000E+00  0.00000000E+00
  0.00000000E+00  0.00000000E+00  0.00000000E+00
  0.00000000E+00  0.00000000E+00  0.00000000E+00
  0.00000000E+00  0.00000000E+00  0.00000000E+00
  0.00000000E+00  0.00000000E+00  0.00000000E+00
  0.00000000E+00  0.00000000E+00  0.00000000E+00
  0.00000000E+00  0.00000000E+00  0.00000000E+00
  0.00000000E+00  0.00000000E+00  0.00000000E+00
  0.00000000E+00  0.00000000E+00  0.00000000E+00
  0.00000000E+00  0.00000000E+00  0.00000000E+00
  0.00000000E+00  0.00000000E+00  0.00000000E+00
  0.00000000E+00  0.00000000E+00  0.00000000E+00
  0.00000000E+00  0.00000000E+00  0.00000000E+00
  0.00000000E+00  0.00000000E+00  0.00000000E+00
  0.00000000E+00  0.00000000E+00  0.00000000E+00
  0.00000000E+00  0.00000000E+00  0.00000000E+00
  0.00000000E+00  0.00000000E+00  0.00000000E+00
  0.00000000E+00  0.00000000E+00  0.00000000E+00
  0.00000000E+00  0.00000000E+00  0.00000000E+00
  0.00000000E+00  0.00000000E+00  0.00000000E+00
  0.00000000E+00  0.00000000E+00  0.00000000E+00
  0.00000000E+00  0.00000000E+00  0.00000000E+00
  0.00000000E+00  0.00000000E+00  0.00000000E+00
  0.00000000E+00  0.00000000E+00  0.00000000E+00
  0.00000000E+00  0.00000000E+00  0.00000000E+00
  0.00000000E+00  0.00000000E+00  0.00000000E+00
  0.00000000E+00  0.00000000E+00  0.00000000E+00
  0.00000000E+00  0.00000000E+00  0.00000000E+00
  0.00000000E+00  0.00000000E+00  0.00000000E+00
  0.00000000E+00  0.00000000E+00  0.00000000E+00
  0.00000000E+00  0.00000000E+00  0.00000000E+00
  0.00000000E+00  0.00000000E+00  0.00000000E+00
