C H O Si                                
   1.00000000000000     
     9.2874599999999994    0.0000000000000000    0.0000000000000000
     0.0000000000000000    8.7563099999999991    0.0000000000000000
     0.0000000000000000    0.0000000000000000   58.0000000000000000
   C    H    O    Si
    36    32    16    36
Selective dynamics
Direct
  0.9927525261346410  0.1260323014731995  0.0603499855678842   T   T   T
  0.3260758832639768  0.1260579384381129  0.0604538221447416   T   T   T
  0.6593367094199899  0.1260302676209619  0.0604368015264182   T   T   T
  0.9927131185229153  0.6261874116809356  0.0603717098420881   T   T   T
  0.3260440623101783  0.6259060632472224  0.0604770727603217   T   T   T
  0.6593616391398920  0.6259982480812420  0.0604107251424026   T   T   T
  0.1605710731319450  0.3709624108032758  0.1393512203122436   T   T   T
  0.4938393175816729  0.3712282589754106  0.1396066021979870   T   T   T
  0.8272553087153450  0.3709299566855069  0.1392808959269621   T   T   T
  0.1608802709902987  0.8709937111142874  0.1393990212001744   T   T   T
  0.4938295509323573  0.8707061447639843  0.1394788933093326   T   T   T
  0.8270404837099514  0.8709856757425806  0.1393716100938303   T   T   T
  0.3283687072483062  0.1214959635845528  0.1666216016970590   T   T   T
  0.6604456082976760  0.1211702570854505  0.1666249236332060   T   T   T
  0.9946465915735480  0.1202531155639332  0.1663441731204797   T   T   T
  0.3274831775700718  0.6209900151104633  0.1667876390205469   T   T   T
  0.6612494546581843  0.6211132669621049  0.1665297091818950   T   T   T
  0.9944940972667816  0.6209855567077208  0.1664765738194849   T   T   T
  0.1619459264641342  0.3740094019243344  0.1917849801940241   T   T   T
  0.4953925740517749  0.3792642865630665  0.1926781946189060   T   T   T
  0.8293567563150541  0.3733720696320009  0.1915672031347525   T   T   T
  0.1614515665823378  0.8765089068367391  0.1919775786687548   T   T   T
  0.4949277248993828  0.8753618543055948  0.1921102302639075   T   T   T
  0.8285938775475573  0.8763490304361574  0.1919104730204150   T   T   T
  0.1598343170741593  0.3711504738325431  0.0858396566249747   T   T   T
  0.4932082332507129  0.3711965752945844  0.0859608649667326   T   T   T
  0.8265142117302412  0.3711010201846365  0.0857923730866782   T   T   T
  0.1599691393095238  0.8711314826520304  0.0858681448344863   T   T   T
  0.4931965490901655  0.8711816686786281  0.0859060669215921   T   T   T
  0.8264666853545770  0.8712374709323076  0.0858403303723720   T   T   T
  0.3267613891086528  0.1210743364670555  0.1130253452477118   T   T   T
  0.6599196538109694  0.1210614994082411  0.1130225392921033   T   T   T
  0.9934343397263725  0.1209831010474025  0.1129400323676042   T   T   T
  0.3266764021226769  0.6208298035823596  0.1130846820078245   T   T   T
  0.6600231522008078  0.6210248177542241  0.1129829908486911   T   T   T
  0.9933527143782696  0.6211903306519357  0.1129508912872681   T   T   T
  0.0824308498435750  0.3513857312902995  0.0254330861906703   T   T   T
  0.4145333476531759  0.3514061561863439  0.0256594514250680   T   T   T
  0.7478268688588501  0.3512886892171742  0.0255071037751040   T   T   T
  0.0826980592134085  0.8513820838548612  0.0254492789767891   T   T   T
  0.4142202734024980  0.8512466375410729  0.0256309823517023   T   T   T
  0.7479043016739411  0.8513796288378596  0.0255374928701178   T   T   T
  0.3240044013501374  0.0538959235885073  0.0448875516631604   T   T   T
  0.6566729095069321  0.0538609518990078  0.0448681711890596   T   T   T
  0.9905124647109319  0.0540095050418561  0.0447645258649231   T   T   T
  0.3238456764937110  0.5536153533533720  0.0449241011204126   T   T   T
  0.6569026264477134  0.5539051392133817  0.0448347537553860   T   T   T
  0.9904392353848434  0.5541392311817136  0.0447894635498163   T   T   T
  0.8306188285595422  0.8049722315731856  0.2075367429548670   T   T   T
  0.8315997491715840  0.3015435169779814  0.2071698925851907   T   T   T
  0.1628379192636495  0.3020957571002260  0.2073834359907361   T   T   T
  0.4988009842546939  0.3062503847733455  0.2081601689856564   T   T   T
  0.1641060485571003  0.8039976031452700  0.2075117549798059   T   T   T
  0.4952480604617163  0.8039376444586002  0.2077677273581053   T   T   T
  0.0721477621428817  0.1018638575573133  0.2268499554623402   T   T   T
  0.4061615769214658  0.1004203865942298  0.2270388351291277   T   T   T
  0.7402653299636164  0.1015839517760406  0.2268783541507452   T   T   T
  0.0769566473721996  0.5994602943869728  0.2257673281482495   T   T   T
  0.3740490862148943  0.6167807433684973  0.2308490116508746   T   T   T
  0.7778117634804265  0.5907065270083306  0.2239816761798124   T   T   T
  0.5077989796081320  0.6352304176235934  0.2647725093150990   T   T   T
  0.5032332465943321  0.4778242516709667  0.2935592292848553   T   T   T
  0.5752253643242662  0.6317312527233189  0.3023907892950803   T   T   T
  0.3048296616810818  0.3729268030066868  0.3100790970839518   T   T   T
  0.4094510094392256  0.2418759344292851  0.3036039147010178   T   T   T
  0.6497766450867171  0.7415034191971059  0.3369785448085748   T   T   T
  0.4863009481319413  0.7656333102871667  0.3330956621115898   T   T   T
  0.5687202611247768  0.6563254296583250  0.2396179690047884   T   T   T
  0.1700918742209885  0.3404673611587183  0.0345648043636102   T   T   T
  0.5026630333452718  0.3406294398113974  0.0346824133965698   T   T   T
  0.8360509173458929  0.3400572687268265  0.0344965942167972   T   T   T
  0.1703037557391414  0.8404049046031757  0.0345900638896304   T   T   T
  0.5024762243538838  0.8404216462637955  0.0346277407991407   T   T   T
  0.8359495052673237  0.8405495429775207  0.0345702603099177   T   T   T
  0.3185925292036830  0.0896299606914173  0.2178942595873676   T   T   T
  0.6521531698398205  0.0895335605432536  0.2178999464030637   T   T   T
  0.9845376759304070  0.0896920011662039  0.2177566879847694   T   T   T
  0.3029325086561596  0.5905421999233899  0.2180374833888365   T   T   T
  0.6789643467005804  0.5897521891833722  0.2178093812097082   T   T   T
  0.9851096666920774  0.5842691251834364  0.2177530759433471   T   T   T
  0.5720107154014784  0.5599003862982171  0.2891039813555198   T   T   T
  0.3709118880734695  0.3387756887053196  0.2980872308179325   T   T   T
  0.5788069039387090  0.7654795221823102  0.3251443265099759   T   T   T
  0.4839597876105719  0.6810040107172269  0.2492656503961874   T   T   T
  0.4926831430447786  0.2443220726635929  0.0594341799587642   T   T   T
  0.8259901509895767  0.2442150839359903  0.0592886792493751   T   T   T
  0.1594868849407871  0.7442401422118049  0.0593531338587003   T   T   T
  0.4926205152304453  0.7442008004854301  0.0593920358643930   T   T   T
  0.8259242894648481  0.7443383855721135  0.0593307351563442   T   T   T
  0.1594048155592391  0.2443051641524435  0.0593285603526751   T   T   T
  0.9942846475300176  0.9963864496979706  0.1396050332964494   T   T   T
  0.3277697903764916  0.9970452103702357  0.1397574042288491   T   T   T
  0.6603272308691095  0.9969210280598920  0.1397567439297461   T   T   T
  0.9941516990944256  0.4968527306880213  0.1396267866338461   T   T   T
  0.3272351004161553  0.4970476888740357  0.1398898882087437   T   T   T
  0.6607527246530099  0.4968350247285888  0.1396885342700838   T   T   T
  0.1614161635955581  0.2460417650106846  0.1660687988107936   T   T   T
  0.4945809136297059  0.2484459203427088  0.1665958251816844   T   T   T
  0.8281958943082235  0.2452578087754812  0.1659243365293606   T   T   T
  0.1613758983074568  0.7469081979390026  0.1662367765748820   T   T   T
  0.4942213927044990  0.7462852137541222  0.1662932575155801   T   T   T
  0.8280684989873699  0.7468420782249817  0.1661687383484194   T   T   T
  0.3283670064921205  0.9942362479396666  0.1930919758638439   T   T   T
  0.6618287835748764  0.9939622916868669  0.1931072902775415   T   T   T
  0.9951132979979557  0.9944720006424966  0.1929407294635689   T   T   T
  0.3264155879686885  0.4961821417986084  0.1937643914560830   T   T   T
  0.9957015694447606  0.4915624308986539  0.1926216426263878   T   T   T
  0.6648603236612618  0.4936683921332304  0.1928725323650227   T   T   T
  0.9933624343995995  0.9967031356394148  0.0861533362503859   T   T   T
  0.3267017043472807  0.9967602445071889  0.0862340905087129   T   T   T
  0.6599152064278100  0.9967524837452408  0.0862262017106155   T   T   T
  0.9933063015089999  0.4967636696840517  0.0861595299938501   T   T   T
  0.3266440064907816  0.4966514646785680  0.0862782894549296   T   T   T
  0.6599693260190708  0.4967144870146075  0.0862004977312889   T   T   T
  0.1601618297324412  0.2469347528921446  0.1126584246509511   T   T   T
  0.4934347729018740  0.2470439389779306  0.1128210163591441   T   T   T
  0.8267945398845052  0.2467980711881563  0.1126014478857177   T   T   T
  0.1602530998884044  0.7468958550334408  0.1126962835152365   T   T   T
  0.4934081497701974  0.7468202913566746  0.1127333970793582   T   T   T
  0.8266941646052811  0.7469453787328022  0.1126590986960178   T   T   T
 
  0.00000000E+00  0.00000000E+00  0.00000000E+00
  0.00000000E+00  0.00000000E+00  0.00000000E+00
  0.00000000E+00  0.00000000E+00  0.00000000E+00
  0.00000000E+00  0.00000000E+00  0.00000000E+00
  0.00000000E+00  0.00000000E+00  0.00000000E+00
  0.00000000E+00  0.00000000E+00  0.00000000E+00
  0.00000000E+00  0.00000000E+00  0.00000000E+00
  0.00000000E+00  0.00000000E+00  0.00000000E+00
  0.00000000E+00  0.00000000E+00  0.00000000E+00
  0.00000000E+00  0.00000000E+00  0.00000000E+00
  0.00000000E+00  0.00000000E+00  0.00000000E+00
  0.00000000E+00  0.00000000E+00  0.00000000E+00
  0.00000000E+00  0.00000000E+00  0.00000000E+00
  0.00000000E+00  0.00000000E+00  0.00000000E+00
  0.00000000E+00  0.00000000E+00  0.00000000E+00
  0.00000000E+00  0.00000000E+00  0.00000000E+00
  0.00000000E+00  0.00000000E+00  0.00000000E+00
  0.00000000E+00  0.00000000E+00  0.00000000E+00
  0.00000000E+00  0.00000000E+00  0.00000000E+00
  0.00000000E+00  0.00000000E+00  0.00000000E+00
  0.00000000E+00  0.00000000E+00  0.00000000E+00
  0.00000000E+00  0.00000000E+00  0.00000000E+00
  0.00000000E+00  0.00000000E+00  0.00000000E+00
  0.00000000E+00  0.00000000E+00  0.00000000E+00
  0.00000000E+00  0.00000000E+00  0.00000000E+00
  0.00000000E+00  0.00000000E+00  0.00000000E+00
  0.00000000E+00  0.00000000E+00  0.00000000E+00
  0.00000000E+00  0.00000000E+00  0.00000000E+00
  0.00000000E+00  0.00000000E+00  0.00000000E+00
  0.00000000E+00  0.00000000E+00  0.00000000E+00
  0.00000000E+00  0.00000000E+00  0.00000000E+00
  0.00000000E+00  0.00000000E+00  0.00000000E+00
  0.00000000E+00  0.00000000E+00  0.00000000E+00
  0.00000000E+00  0.00000000E+00  0.00000000E+00
  0.00000000E+00  0.00000000E+00  0.00000000E+00
  0.00000000E+00  0.00000000E+00  0.00000000E+00
  0.00000000E+00  0.00000000E+00  0.00000000E+00
  0.00000000E+00  0.00000000E+00  0.00000000E+00
  0.00000000E+00  0.00000000E+00  0.00000000E+00
  0.00000000E+00  0.00000000E+00  0.00000000E+00
  0.00000000E+00  0.00000000E+00  0.00000000E+00
  0.00000000E+00  0.00000000E+00  0.00000000E+00
  0.00000000E+00  0.00000000E+00  0.00000000E+00
  0.00000000E+00  0.00000000E+00  0.00000000E+00
  0.00000000E+00  0.00000000E+00  0.00000000E+00
  0.00000000E+00  0.00000000E+00  0.00000000E+00
  0.00000000E+00  0.00000000E+00  0.00000000E+00
  0.00000000E+00  0.00000000E+00  0.00000000E+00
  0.00000000E+00  0.00000000E+00  0.00000000E+00
  0.00000000E+00  0.00000000E+00  0.00000000E+00
  0.00000000E+00  0.00000000E+00  0.00000000E+00
  0.00000000E+00  0.00000000E+00  0.00000000E+00
  0.00000000E+00  0.00000000E+00  0.00000000E+00
  0.00000000E+00  0.00000000E+00  0.00000000E+00
  0.00000000E+00  0.00000000E+00  0.00000000E+00
  0.00000000E+00  0.00000000E+00  0.00000000E+00
  0.00000000E+00  0.00000000E+00  0.00000000E+00
  0.00000000E+00  0.00000000E+00  0.00000000E+00
  0.00000000E+00  0.00000000E+00  0.00000000E+00
  0.00000000E+00  0.00000000E+00  0.00000000E+00
  0.00000000E+00  0.00000000E+00  0.00000000E+00
  0.00000000E+00  0.00000000E+00  0.00000000E+00
  0.00000000E+00  0.00000000E+00  0.00000000E+00
  0.00000000E+00  0.00000000E+00  0.00000000E+00
  0.00000000E+00  0.00000000E+00  0.00000000E+00
  0.00000000E+00  0.00000000E+00  0.00000000E+00
  0.00000000E+00  0.00000000E+00  0.00000000E+00
  0.00000000E+00  0.00000000E+00  0.00000000E+00
  0.00000000E+00  0.00000000E+00  0.00000000E+00
  0.00000000E+00  0.00000000E+00  0.00000000E+00
  0.00000000E+00  0.00000000E+00  0.00000000E+00
  0.00000000E+00  0.00000000E+00  0.00000000E+00
  0.00000000E+00  0.00000000E+00  0.00000000E+00
  0.00000000E+00  0.00000000E+00  0.00000000E+00
  0.00000000E+00  0.00000000E+00  0.00000000E+00
  0.00000000E+00  0.00000000E+00  0.00000000E+00
  0.00000000E+00  0.00000000E+00  0.00000000E+00
  0.00000000E+00  0.00000000E+00  0.00000000E+00
  0.00000000E+00  0.00000000E+00  0.00000000E+00
  0.00000000E+00  0.00000000E+00  0.00000000E+00
  0.00000000E+00  0.00000000E+00  0.00000000E+00
  0.00000000E+00  0.00000000E+00  0.00000000E+00
  0.00000000E+00  0.00000000E+00  0.00000000E+00
  0.00000000E+00  0.00000000E+00  0.00000000E+00
  0.00000000E+00  0.00000000E+00  0.00000000E+00
  0.00000000E+00  0.00000000E+00  0.00000000E+00
  0.00000000E+00  0.00000000E+00  0.00000000E+00
  0.00000000E+00  0.00000000E+00  0.00000000E+00
  0.00000000E+00  0.00000000E+00  0.00000000E+00
  0.00000000E+00  0.00000000E+00  0.00000000E+00
  0.00000000E+00  0.00000000E+00  0.00000000E+00
  0.00000000E+00  0.00000000E+00  0.00000000E+00
  0.00000000E+00  0.00000000E+00  0.00000000E+00
  0.00000000E+00  0.00000000E+00  0.00000000E+00
  0.00000000E+00  0.00000000E+00  0.00000000E+00
  0.00000000E+00  0.00000000E+00  0.00000000E+00
  0.00000000E+00  0.00000000E+00  0.00000000E+00
  0.00000000E+00  0.00000000E+00  0.00000000E+00
  0.00000000E+00  0.00000000E+00  0.00000000E+00
  0.00000000E+00  0.00000000E+00  0.00000000E+00
  0.00000000E+00  0.00000000E+00  0.00000000E+00
  0.00000000E+00  0.00000000E+00  0.00000000E+00
  0.00000000E+00  0.00000000E+00  0.00000000E+00
  0.00000000E+00  0.00000000E+00  0.00000000E+00
  0.00000000E+00  0.00000000E+00  0.00000000E+00
  0.00000000E+00  0.00000000E+00  0.00000000E+00
  0.00000000E+00  0.00000000E+00  0.00000000E+00
  0.00000000E+00  0.00000000E+00  0.00000000E+00
  0.00000000E+00  0.00000000E+00  0.00000000E+00
  0.00000000E+00  0.00000000E+00  0.00000000E+00
  0.00000000E+00  0.00000000E+00  0.00000000E+00
  0.00000000E+00  0.00000000E+00  0.00000000E+00
  0.00000000E+00  0.00000000E+00  0.00000000E+00
  0.00000000E+00  0.00000000E+00  0.00000000E+00
  0.00000000E+00  0.00000000E+00  0.00000000E+00
  0.00000000E+00  0.00000000E+00  0.00000000E+00
  0.00000000E+00  0.00000000E+00  0.00000000E+00
  0.00000000E+00  0.00000000E+00  0.00000000E+00
  0.00000000E+00  0.00000000E+00  0.00000000E+00
  0.00000000E+00  0.00000000E+00  0.00000000E+00
