C H O Si                                
   1.00000000000000     
     9.2874599999999994    0.0000000000000000    0.0000000000000000
     0.0000000000000000   17.5126199999999983    0.0000000000000000
     0.0000000000000000    0.0000000000000000   55.0000000000000000
   C    H    O    Si
    72    57    28    72
Selective dynamics
Direct
  0.9947182687468907  0.0660500038840793  0.0635312297732598   T   T   T
  0.3281591273733058  0.0660703267946609  0.0636746417029452   T   T   T
  0.6612401918214754  0.0660696351437244  0.0636610367403062   T   T   T
  0.9947337560908601  0.3161323283198686  0.0635251699109801   T   T   T
  0.3281397772450943  0.3159488135172340  0.0637473677809210   T   T   T
  0.6612823878176838  0.3159995815828025  0.0637059616256608   T   T   T
  0.1616212024683688  0.1886559594092337  0.1467252643767824   T   T   T
  0.4949424653190295  0.1889477252997085  0.1470591643789108   T   T   T
  0.8284404764473137  0.1886758868066507  0.1467027376380359   T   T   T
  0.1615793384766615  0.4387718774067761  0.1467960628708051   T   T   T
  0.4950210906706042  0.4384507129466524  0.1470554144252052   T   T   T
  0.8283867627148314  0.4386945617929980  0.1468096947830664   T   T   T
  0.3290608080852273  0.0639367103756607  0.1755003684639102   T   T   T
  0.6613702887098982  0.0640547395298608  0.1755078259617790   T   T   T
  0.9953031590523380  0.0630537220121533  0.1752018088006054   T   T   T
  0.3278561763176449  0.3138370348874573  0.1757491311810498   T   T   T
  0.6622303301061094  0.3138114400627459  0.1756569891291817   T   T   T
  0.9951908838309909  0.3138611447624056  0.1753020492785108   T   T   T
  0.1616358635503954  0.1895854208997243  0.2017151353976767   T   T   T
  0.4952296880999202  0.1926170587460547  0.2029835455333870   T   T   T
  0.8300075964073411  0.1895962656212094  0.2016812193009352   T   T   T
  0.1615476448867570  0.4415085866392999  0.2021070555149217   T   T   T
  0.4953370452710084  0.4437647899386100  0.2017168767552613   T   T   T
  0.8287890326563858  0.4414501932164939  0.2021593168603806   T   T   T
  0.1614054787176029  0.1888606283644365  0.0903155311674301   T   T   T
  0.4947733681013733  0.1889104361935552  0.0905222192653572   T   T   T
  0.8281298446371879  0.1888812494553634  0.0902924446654329   T   T   T
  0.1614323309294671  0.4388452940827470  0.0903534597322895   T   T   T
  0.4948141435059594  0.4388111139824467  0.0904910571932479   T   T   T
  0.8281848495028920  0.4388257001150556  0.0903546600119734   T   T   T
  0.3282921422566596  0.0637969475325442  0.1190346261369745   T   T   T
  0.6614888523960027  0.0638316796627050  0.1190294722376222   T   T   T
  0.9948879267170658  0.0636862904081932  0.1189227621344289   T   T   T
  0.3280883811525990  0.3136947821807041  0.1191272916966168   T   T   T
  0.6616374222485594  0.3136856182494762  0.1190840790695303   T   T   T
  0.9948971487693334  0.3136671828838918  0.1188995621298429   T   T   T
  0.9947156265493547  0.5659872266705075  0.0635513377632096   T   T   T
  0.3281675778111287  0.5659439130894114  0.0636609964603084   T   T   T
  0.6612553626860096  0.5659325154176523  0.0636515602391732   T   T   T
  0.9947242662801641  0.8161437454462568  0.0635383383480842   T   T   T
  0.3281444220290056  0.8159393764621823  0.0636663122624333   T   T   T
  0.6613097955431151  0.8159882454199876  0.0636565459947744   T   T   T
  0.1615598758621267  0.6889231835121371  0.1466729561492945   T   T   T
  0.4950544555720724  0.6887323835601928  0.1467521541860594   T   T   T
  0.8283583054006464  0.6889829673871603  0.1467136589242587   T   T   T
  0.1619968201933479  0.9386895165780174  0.1467600143333893   T   T   T
  0.4950765340061687  0.9386731397050527  0.1468367840397843   T   T   T
  0.8280425551500546  0.9387079202210785  0.1467796225514787   T   T   T
  0.3282843322264180  0.5644138597724044  0.1752977368650535   T   T   T
  0.6620486077907011  0.5643699461175821  0.1753122627285141   T   T   T
  0.9950176547130892  0.5640589547813339  0.1753404701928015   T   T   T
  0.3284728901311637  0.8138361674031366  0.1753881874061856   T   T   T
  0.6618036782101836  0.8138844386518266  0.1754455940072853   T   T   T
  0.9950769362638910  0.8140010601591480  0.1753519600234758   T   T   T
  0.1620113667732568  0.6910402820618428  0.2019841360368012   T   T   T
  0.4955381566902886  0.6911439625365126  0.2021295584636458   T   T   T
  0.8291365197982288  0.6912060517915094  0.2021151374212289   T   T   T
  0.1620658514182079  0.9409123192668191  0.2021435305158538   T   T   T
  0.4952849935889544  0.9411223591029053  0.2022476580664356   T   T   T
  0.8285406943790616  0.9409287719041657  0.2021663658039088   T   T   T
  0.1614094005148215  0.6888254833093215  0.0903190889487269   T   T   T
  0.4948137483252563  0.6888045714922234  0.0903888926831957   T   T   T
  0.8281283238327075  0.6888394447754319  0.0903245843814176   T   T   T
  0.1615382768009795  0.9389572258911552  0.0903326610649580   T   T   T
  0.4948209822889586  0.9389552040423627  0.0903977323065223   T   T   T
  0.8280694317473637  0.9389617733998681  0.0903389672194343   T   T   T
  0.3282315759209488  0.5636031116204638  0.1189903327506776   T   T   T
  0.6616288025623036  0.5635778646162896  0.1189971838289232   T   T   T
  0.9948391545518896  0.5637641073305648  0.1189540334863388   T   T   T
  0.3283066228805557  0.8137625681504034  0.1189382731373369   T   T   T
  0.6614623733987227  0.8137615349910102  0.1189696440905225   T   T   T
  0.9948644203184634  0.8138930035360018  0.1189203601676656   T   T   T
  0.0790604007950911  0.1790441138115467  0.0277535410182501   T   T   T
  0.4102273991055557  0.1793098766633960  0.0281725542872306   T   T   T
  0.7428152469386309  0.1789825733595412  0.0280078934299365   T   T   T
  0.0801027458978691  0.4293702366328750  0.0277256516349113   T   T   T
  0.4097953154319557  0.4290757390678389  0.0281953544061944   T   T   T
  0.7421914053199199  0.4291390429568971  0.0281192001696024   T   T   T
  0.3262964667235948  0.0297681893021594  0.0473022651051408   T   T   T
  0.6584287040893240  0.0297522784982588  0.0472940523398772   T   T   T
  0.9923966893398583  0.0297730558628343  0.0471479503783491   T   T   T
  0.3260832951895349  0.2796988949357003  0.0473642985016608   T   T   T
  0.6587444249552064  0.2797473435008259  0.0473249601169302   T   T   T
  0.9924214822472056  0.2799753371164141  0.0471215661670259   T   T   T
  0.8301207082573535  0.4055668052968721  0.2186115446180592   T   T   T
  0.8328129750581000  0.1535805335979454  0.2181123277292009   T   T   T
  0.1624763132877631  0.1538113695875082  0.2182056096437238   T   T   T
  0.4981201200131933  0.1555658704181551  0.2191850515988763   T   T   T
  0.1646959824042244  0.4053845397318906  0.2185038264041210   T   T   T
  0.4957371714538655  0.4121474586664324  0.2242094269147829   T   T   T
  0.0799040290023592  0.0545274304439495  0.2375770858622555   T   T   T
  0.4105438727512551  0.0548435201239515  0.2380436368265475   T   T   T
  0.7470337507894441  0.0543788512934109  0.2377420544686236   T   T   T
  0.0856999722985752  0.3029776308597627  0.2362539629840850   T   T   T
  0.3658277313484146  0.2870523802495095  0.2439187683850145   T   T   T
  0.7797391712528084  0.2981851306966489  0.2356362022952935   T   T   T
  0.5098261633857728  0.2738951886978631  0.2826011415495330   T   T   T
  0.5002578879100722  0.2309124814334575  0.3186482608987886   T   T   T
  0.5599400741368240  0.3137908435056562  0.3254927288367586   T   T   T
  0.2892143810823596  0.1678617639210015  0.3142886602747302   T   T   T
  0.4141536980074649  0.1094762857255280  0.3128358998058570   T   T   T
  0.6465599797161979  0.3856478440950368  0.3583941148500873   T   T   T
  0.4821168818832150  0.3994941875106008  0.3560484594094524   T   T   T
  0.4965603972213208  0.4006729487947081  0.2408225067906842   T   T   T
  0.5675520266119958  0.2728387304206298  0.2552312296155798   T   T   T
  0.0790801795257719  0.6790413208666820  0.0277596811864612   T   T   T
  0.4101737789201101  0.6793241709650228  0.0281501740839638   T   T   T
  0.7428551335813114  0.6789773827643343  0.0280144019857855   T   T   T
  0.0800349085442045  0.9293951122194413  0.0277218939216793   T   T   T
  0.4097119438134462  0.9290972864332180  0.0281681911371458   T   T   T
  0.7422025398127009  0.9291358581385489  0.0281187031992241   T   T   T
  0.3262165389259189  0.5297327969929467  0.0472756975864382   T   T   T
  0.6585091297684736  0.5297133445707967  0.0472688861498457   T   T   T
  0.9923953380033563  0.5297501182082598  0.0471615792701074   T   T   T
  0.3260549495580679  0.7797535508433276  0.0472736016173792   T   T   T
  0.6587617201632098  0.7797718274324790  0.0472685300018124   T   T   T
  0.9924254999711229  0.7799878383019497  0.0471292324653032   T   T   T
  0.8308750915381963  0.9048205609135609  0.2185862053097870   T   T   T
  0.8312656511067245  0.6546825180752355  0.2184316583175871   T   T   T
  0.1635640060340599  0.6546440970421814  0.2183326079427249   T   T   T
  0.4972027442838195  0.6546252796523701  0.2184656677285087   T   T   T
  0.1640761960280301  0.9048928926213334  0.2185749274688349   T   T   T
  0.4977142911879399  0.9050993644325992  0.2186981747664819   T   T   T
  0.0799339377424415  0.5544570928004554  0.2377193040518203   T   T   T
  0.4099399325593449  0.5548492253634605  0.2380228108301033   T   T   T
  0.7474514932942780  0.5540521617226871  0.2379449267249897   T   T   T
  0.0836867119485268  0.8039650743188932  0.2373097440250712   T   T   T
  0.4101217279886757  0.8047322624589343  0.2380743247932074   T   T   T
  0.7477044870018964  0.8037218110042341  0.2377507721864316   T   T   T
  0.1712695180645130  0.1702353733752077  0.0358373594238723   T   T   T
  0.5032526016601645  0.1705892177064146  0.0360233988417866   T   T   T
  0.8359846593038647  0.1701985292272675  0.0357970812978636   T   T   T
  0.1719862769318498  0.4201183775823503  0.0358569992120236   T   T   T
  0.5030167607939268  0.4201800310395947  0.0359679166778649   T   T   T
  0.8355448608631831  0.4202245527839889  0.0358345212835519   T   T   T
  0.3185439253218779  0.0451301383811070  0.2300012913542621   T   T   T
  0.6538940078408350  0.0452848119933479  0.2299775348147191   T   T   T
  0.9867888434765648  0.0452125035792405  0.2298229977377251   T   T   T
  0.3029788821348409  0.2983082868684881  0.2295430410117126   T   T   T
  0.6789345261457945  0.2938686714817023  0.2302442239513168   T   T   T
  0.9888306121414263  0.2935879731518857  0.2296253946546611   T   T   T
  0.5655704767735504  0.2724361641447002  0.3131624178774550   T   T   T
  0.3780074729907389  0.1523506578201535  0.3223797386571078   T   T   T
  0.5694740974918094  0.3918225019671455  0.3465176948985152   T   T   T
  0.4835837860477785  0.2599179485813635  0.2655902787861675   T   T   T
  0.1712593424409480  0.6702261547104167  0.0358531948677994   T   T   T
  0.5032907136540318  0.6705530271718496  0.0359634802071966   T   T   T
  0.8359768022711973  0.6701778498780633  0.0358195974621619   T   T   T
  0.1719410160848007  0.9201427454777711  0.0358435773589998   T   T   T
  0.5030657328486250  0.9202119672147727  0.0358975294337932   T   T   T
  0.8355819809931696  0.9202453942378594  0.0358273129797018   T   T   T
  0.3179987872828151  0.5461458234773633  0.2298494199186946   T   T   T
  0.6549846608295053  0.5471011514007260  0.2297510531260000   T   T   T
  0.9867873969821759  0.5458735837050036  0.2298917019815384   T   T   T
  0.3184894376917022  0.7948068527714872  0.2299405994293323   T   T   T
  0.6544150177671743  0.7950344127831864  0.2299971714113639   T   T   T
  0.9892402490564911  0.7953967741362103  0.2298826290203596   T   T   T
  0.4947856617327327  0.1247748294878220  0.0629164984969810   T   T   T
  0.8279941338499256  0.1246764931029324  0.0627283499706480   T   T   T
  0.1616893148843911  0.3746513969512778  0.0627869853713047   T   T   T
  0.4947556574835660  0.3746305263527802  0.0629101829370864   T   T   T
  0.8279676032966776  0.3746903430432297  0.0627674527416139   T   T   T
  0.1616014572115949  0.1246619011160476  0.0627547695216678   T   T   T
  0.9950396733216920  0.0008483409487822  0.1469601086110390   T   T   T
  0.3288013273913900  0.0012807597116735  0.1471385496932178   T   T   T
  0.6612754023614954  0.0013340362870939  0.1471374460327210   T   T   T
  0.9950114709069888  0.2511865316313219  0.1469740292633566   T   T   T
  0.3280589114800367  0.2513323358865317  0.1472941528948084   T   T   T
  0.6617703186176082  0.2512596773615058  0.1472027879766514   T   T   T
  0.1616378453148617  0.1252966531234327  0.1746455152816226   T   T   T
  0.4949879218351826  0.1268504131138221  0.1753168300498083   T   T   T
  0.8290297919336324  0.1252220555647525  0.1745919316157844   T   T   T
  0.1615820445382873  0.3762135137461759  0.1749016587444779   T   T   T
  0.4948972116253506  0.3754064898127485  0.1754199244677823   T   T   T
  0.8286534394848887  0.3761503057705204  0.1749206921825000   T   T   T
  0.3284350167560910 -0.0002689951718827  0.2030561197847530   T   T   T
  0.6619886952352553 -0.0002364372314702  0.2030483683051841   T   T   T
  0.9952228485839210  0.9994599465518540  0.2029144542181576   T   T   T
  0.3255521342725153  0.2502503899512332  0.2035482802202387   T   T   T
  0.9958503699080439  0.2484954207516822  0.2025213164343652   T   T   T
  0.6651093292686201  0.2491757639878747  0.2030927172276193   T   T   T
  0.9948230865114729  0.0010977436330760  0.0908423449497710   T   T   T
  0.3282481678343737  0.0011252804374351  0.0909369932442335   T   T   T
  0.6614224127681939  0.0011381033477772  0.0909350071136088   T   T   T
  0.9947674694995938  0.2510193377267864  0.0908083942564188   T   T   T
  0.3280615816638605  0.2509898900185351  0.0910220960440816   T   T   T
  0.6614142720812333  0.2510056200006582  0.0909810617966542   T   T   T
  0.1615048684988472  0.1262328556171739  0.1186478060330330   T   T   T
  0.4948499982747444  0.1263407815466557  0.1188729441221699   T   T   T
  0.8282512982642044  0.1262439449664615  0.1186226090053863   T   T   T
  0.1614611822590980  0.3762169873407607  0.1187024375683328   T   T   T
  0.4948476405884908  0.3760701171916266  0.1188440748767430   T   T   T
  0.8282987026568071  0.3761807564393961  0.1186962737253958   T   T   T
  0.4948182878246268  0.6246509791996597  0.0628402579620312   T   T   T
  0.8279948241405918  0.6246108459033479  0.0627469973631601   T   T   T
  0.1617282780383008  0.8746908263492983  0.0627750619324046   T   T   T
  0.4947945536717870  0.8746705861358379  0.0628428219087283   T   T   T
  0.8279169878843782  0.8747421258356224  0.0627634686080569   T   T   T
  0.1615958357195293  0.6245896782968099  0.0627597464408396   T   T   T
  0.9949234294714677  0.5012722536046911  0.1470553026006278   T   T   T
  0.3283985817437987  0.5011594690275715  0.1471270292973410   T   T   T
  0.6616411070376006  0.5011373914227424  0.1471370709777531   T   T   T
  0.9949252943721424  0.7514463018761972  0.1469914237795349   T   T   T
  0.3284053594765927  0.7512634814111544  0.1470151758835403   T   T   T
  0.6614896048756075  0.7513495685943825  0.1470659802645255   T   T   T
  0.1614981065830252  0.6262865431338636  0.1747189918252252   T   T   T
  0.4951701871660532  0.6262263164940503  0.1748010854386318   T   T   T
  0.8286914248790466  0.6264313368262751  0.1747920191141160   T   T   T
  0.1618576378192083  0.8760070957733852  0.1748367112286464   T   T   T
  0.4950494750827171  0.8760261333025254  0.1749554129014276   T   T   T
  0.8282469509247027  0.8760499016885428  0.1748604475616178   T   T   T
  0.3273120195876881  0.5006306494888590  0.2029629233646770   T   T   T
  0.6630220243715328  0.5007588390491247  0.2030242683525256   T   T   T
  0.9951354252768708  0.5001619124610838  0.2029795747813251   T   T   T
  0.3286728274453569  0.7495608188986095  0.2029325935345288   T   T   T
  0.9956200436319788  0.7498539973073068  0.2029232700942671   T   T   T
  0.6622770238321241  0.7496649567937322  0.2030199979470493   T   T   T
  0.9948105206103014  0.5010449551624149  0.0908747700663898   T   T   T
  0.3281730378968608  0.5009322392611655  0.0909209811146614   T   T   T
  0.6615323072663768  0.5009319526504422  0.0909227213340750   T   T   T
  0.9947479726435078  0.7510615226088576  0.0908413910367728   T   T   T
  0.3281290913171845  0.7509393265058765  0.0909063114684703   T   T   T
  0.6613968071251067  0.7509779157993842  0.0909181579873093   T   T   T
  0.1615014951215034  0.6261944986171406  0.1186465929956920   T   T   T
  0.4949519661633340  0.6260944917736396  0.1186977791311201   T   T   T
  0.8281981731518459  0.6262365415928117  0.1186659861362808   T   T   T
  0.1617024130347175  0.8762875235116778  0.1186559817447713   T   T   T
  0.4949119603708533  0.8762857741719896  0.1187144233660614   T   T   T
  0.8280254900168798  0.8763166365919368  0.1186693217953892   T   T   T
 
             NaN             NaN             NaN
             NaN             NaN             NaN
             NaN             NaN             NaN
             NaN             NaN             NaN
             NaN             NaN             NaN
             NaN             NaN             NaN
             NaN             NaN             NaN
             NaN             NaN             NaN
             NaN             NaN             NaN
             NaN             NaN             NaN
             NaN             NaN             NaN
             NaN             NaN             NaN
             NaN             NaN             NaN
             NaN             NaN             NaN
             NaN             NaN             NaN
             NaN             NaN             NaN
             NaN             NaN             NaN
             NaN             NaN             NaN
             NaN             NaN             NaN
             NaN             NaN             NaN
             NaN             NaN             NaN
             NaN             NaN             NaN
             NaN             NaN             NaN
             NaN             NaN             NaN
             NaN             NaN             NaN
             NaN             NaN             NaN
             NaN             NaN             NaN
             NaN             NaN             NaN
             NaN             NaN             NaN
             NaN             NaN             NaN
             NaN             NaN             NaN
             NaN             NaN             NaN
             NaN             NaN             NaN
             NaN             NaN             NaN
             NaN             NaN             NaN
             NaN             NaN             NaN
             NaN             NaN             NaN
             NaN             NaN             NaN
             NaN             NaN             NaN
             NaN             NaN             NaN
             NaN             NaN             NaN
             NaN             NaN             NaN
             NaN             NaN             NaN
             NaN             NaN             NaN
             NaN             NaN             NaN
             NaN             NaN             NaN
             NaN             NaN             NaN
             NaN             NaN             NaN
             NaN             NaN             NaN
             NaN             NaN             NaN
             NaN             NaN             NaN
             NaN             NaN             NaN
             NaN             NaN             NaN
             NaN             NaN             NaN
             NaN             NaN             NaN
             NaN             NaN             NaN
             NaN             NaN             NaN
             NaN             NaN             NaN
             NaN             NaN             NaN
             NaN             NaN             NaN
             NaN             NaN             NaN
             NaN             NaN             NaN
             NaN             NaN             NaN
             NaN             NaN             NaN
             NaN             NaN             NaN
             NaN             NaN             NaN
             NaN             NaN             NaN
             NaN             NaN             NaN
             NaN             NaN             NaN
             NaN             NaN             NaN
             NaN             NaN             NaN
             NaN             NaN             NaN
             NaN             NaN             NaN
             NaN             NaN             NaN
             NaN             NaN             NaN
             NaN             NaN             NaN
             NaN             NaN             NaN
             NaN             NaN             NaN
             NaN             NaN             NaN
             NaN             NaN             NaN
             NaN             NaN             NaN
             NaN             NaN             NaN
             NaN             NaN             NaN
             NaN             NaN             NaN
             NaN             NaN             NaN
             NaN             NaN             NaN
             NaN             NaN             NaN
             NaN             NaN             NaN
             NaN             NaN             NaN
             NaN             NaN             NaN
             NaN             NaN             NaN
             NaN             NaN             NaN
             NaN             NaN             NaN
             NaN             NaN             NaN
             NaN             NaN             NaN
             NaN             NaN             NaN
             NaN             NaN             NaN
             NaN             NaN             NaN
             NaN             NaN             NaN
             NaN             NaN             NaN
             NaN             NaN             NaN
             NaN             NaN             NaN
             NaN             NaN             NaN
             NaN             NaN             NaN
             NaN             NaN             NaN
             NaN             NaN             NaN
             NaN             NaN             NaN
             NaN             NaN             NaN
             NaN             NaN             NaN
             NaN             NaN             NaN
             NaN             NaN             NaN
             NaN             NaN             NaN
             NaN             NaN             NaN
             NaN             NaN             NaN
             NaN             NaN             NaN
             NaN             NaN             NaN
             NaN             NaN             NaN
             NaN             NaN             NaN
             NaN             NaN             NaN
             NaN             NaN             NaN
             NaN             NaN             NaN
             NaN             NaN             NaN
             NaN             NaN             NaN
             NaN             NaN             NaN
             NaN             NaN             NaN
             NaN             NaN             NaN
             NaN             NaN             NaN
             NaN             NaN             NaN
             NaN             NaN             NaN
             NaN             NaN             NaN
             NaN             NaN             NaN
             NaN             NaN             NaN
             NaN             NaN             NaN
             NaN             NaN             NaN
             NaN             NaN             NaN
             NaN             NaN             NaN
             NaN             NaN             NaN
             NaN             NaN             NaN
             NaN             NaN             NaN
             NaN             NaN             NaN
             NaN             NaN             NaN
             NaN             NaN             NaN
             NaN             NaN             NaN
             NaN             NaN             NaN
             NaN             NaN             NaN
             NaN             NaN             NaN
             NaN             NaN             NaN
             NaN             NaN             NaN
             NaN             NaN             NaN
             NaN             NaN             NaN
             NaN             NaN             NaN
             NaN             NaN             NaN
             NaN             NaN             NaN
             NaN             NaN             NaN
             NaN             NaN             NaN
             NaN             NaN             NaN
             NaN             NaN             NaN
             NaN             NaN             NaN
             NaN             NaN             NaN
             NaN             NaN             NaN
             NaN             NaN             NaN
             NaN             NaN             NaN
             NaN             NaN             NaN
             NaN             NaN             NaN
             NaN             NaN             NaN
             NaN             NaN             NaN
             NaN             NaN             NaN
             NaN             NaN             NaN
             NaN             NaN             NaN
             NaN             NaN             NaN
             NaN             NaN             NaN
             NaN             NaN             NaN
             NaN             NaN             NaN
             NaN             NaN             NaN
             NaN             NaN             NaN
             NaN             NaN             NaN
             NaN             NaN             NaN
             NaN             NaN             NaN
             NaN             NaN             NaN
             NaN             NaN             NaN
             NaN             NaN             NaN
             NaN             NaN             NaN
             NaN             NaN             NaN
             NaN             NaN             NaN
             NaN             NaN             NaN
             NaN             NaN             NaN
             NaN             NaN             NaN
             NaN             NaN             NaN
             NaN             NaN             NaN
             NaN             NaN             NaN
             NaN             NaN             NaN
             NaN             NaN             NaN
             NaN             NaN             NaN
             NaN             NaN             NaN
             NaN             NaN             NaN
             NaN             NaN             NaN
             NaN             NaN             NaN
             NaN             NaN             NaN
             NaN             NaN             NaN
             NaN             NaN             NaN
             NaN             NaN             NaN
             NaN             NaN             NaN
             NaN             NaN             NaN
             NaN             NaN             NaN
             NaN             NaN             NaN
             NaN             NaN             NaN
             NaN             NaN             NaN
             NaN             NaN             NaN
             NaN             NaN             NaN
             NaN             NaN             NaN
             NaN             NaN             NaN
             NaN             NaN             NaN
             NaN             NaN             NaN
             NaN             NaN             NaN
             NaN             NaN             NaN
             NaN             NaN             NaN
             NaN             NaN             NaN
             NaN             NaN             NaN
             NaN             NaN             NaN
             NaN             NaN             NaN
             NaN             NaN             NaN
             NaN             NaN             NaN
             NaN             NaN             NaN
             NaN             NaN             NaN
             NaN             NaN             NaN
             NaN             NaN             NaN
             NaN             NaN             NaN
             NaN             NaN             NaN
             NaN             NaN             NaN
