C H O Si                                
   1.00000000000000     
     9.2874599999999994    0.0000000000000000    0.0000000000000000
     0.0000000000000000    8.7562999999999995    0.0000000000000000
     0.0000000000000000    0.0000000000000000   58.0000000000000000
   C    H    O    Si
    36    33    16    36
Selective dynamics
Direct
  0.0005926962144251  0.1351356868619512  0.3755249884362558   T   T   T
  0.0005641728859020  0.6352794213021937  0.3755406476148940   T   T   T
  0.3339767050065172  0.1351334165285362  0.3756351934741215   T   T   T
  0.3339297657297173  0.6350641970696668  0.3756429533514323   T   T   T
  0.6671232509195543  0.1350790551716871  0.3756314751450366   T   T   T
  0.6671383749897637  0.6350268165408076  0.3756275804229517   T   T   T
  0.1675784814397621  0.3815794821757630  0.4009441086980001   T   T   T
  0.1676551210943858  0.8815721315697577  0.4009724006072795   T   T   T
  0.5008806831414201  0.3815649521434092  0.4010977442136454   T   T   T
  0.5008539126930839  0.8815147019318179  0.4010253070461013   T   T   T
  0.8342387929579318  0.3815320893735394  0.4009136893765470   T   T   T
  0.8341828987713237  0.8815329628495843  0.4009523455810747   T   T   T
  0.0010544179155609  0.1313443079296090  0.4280797909633176   T   T   T
  0.0010762223499448  0.6314873099624627  0.4280867830915571   T   T   T
  0.3345379060971278  0.1314496149871425  0.4282055062295406   T   T   T
  0.3344990281358647  0.6313774138898843  0.4282296871356224   T   T   T
  0.6675211268616380  0.1314586375119392  0.4281863295662916   T   T   T
  0.6676003340032794  0.6314249327172934  0.4281776877692896   T   T   T
  0.1677672845417653  0.3813880189439542  0.4544621956255046   T   T   T
  0.1680282065459148  0.8815221817502775  0.4545350679550465   T   T   T
  0.5010232298835168  0.3817377854018105  0.4547505057723383   T   T   T
  0.5010778560632083  0.8812195280953052  0.4546162613224049   T   T   T
  0.8343742605446810  0.3813659415467567  0.4544182609797865   T   T   T
  0.8342161589946713  0.8815359355908841  0.4545001788720854   T   T   T
  0.0010239608259381  0.1308780558063779  0.4815052379181705   T   T   T
  0.0010695664953469  0.6315287188465016  0.4815839921391863   T   T   T
  0.3348578797637472  0.1320619188251380  0.4818054976650037   T   T   T
  0.3341404870022310  0.6316575121399094  0.4818783896849962   T   T   T
  0.6669604144900463  0.1319675240313137  0.4817857689036076   T   T   T
  0.6678988321253044  0.6318793309611606  0.4817698370786400   T   T   T
  0.1671489627342592  0.3831576560230670  0.5067710933018252   T   T   T
  0.1668940917096871  0.8856018654198389  0.5070726907491462   T   T   T
  0.5008812677908019  0.3890469269273840  0.5079008587665224   T   T   T
  0.5005042052752184  0.8849832114838644  0.5071955946974188   T   T   T
  0.8348976816137134  0.3828764331005226  0.5066919226745770   T   T   T
  0.8341644926580186  0.8855206901269757  0.5070249620320422   T   T   T
  0.0034074679269856  0.0619604524234497  0.3600960650179816   T   T   T
  0.0033388962781767  0.5620959096543948  0.3601117847687874   T   T   T
  0.3369098891721556  0.0618446097792903  0.3602219136613833   T   T   T
  0.3366933837278815  0.5616466961832667  0.3602430534564598   T   T   T
  0.6693773325442178  0.0618003389780363  0.3602142809392586   T   T   T
  0.6696495288727946  0.5617558830861135  0.3602106276092389   T   T   T
  0.1691545617939372  0.3105704379915278  0.5222568022411739   T   T   T
  0.1688020674161098  0.8121594652408980  0.5224649703358328   T   T   T
  0.5042902068075465  0.3145022378856863  0.5231798736184264   T   T   T
  0.5015546685757214  0.8118687510618843  0.5226416765794984   T   T   T
  0.8377562932863911  0.3101077706891484  0.5221565116251852   T   T   T
  0.8364442451197655  0.8128437187971417  0.5224814121400778   T   T   T
  0.0888076448555716  0.1189692471256552  0.5391787663118484   T   T   T
  0.0903750354562560  0.6115567231630779  0.5388812256070035   T   T   T
  0.4220033813134266  0.1192910936967867  0.5393017103027482   T   T   T
  0.3828536069907236  0.6358995490483038  0.5427021103271660   T   T   T
  0.7576069632035338  0.1176255884616337  0.5391934642937533   T   T   T
  0.7899498461850856  0.6008274473435130  0.5378127612660711   T   T   T
  0.2571777150743479  0.3676025418598070  0.3434640190161559   T   T   T
  0.2573469334450714  0.8675397465615567  0.3434918904901957   T   T   T
  0.5898449796715011  0.3677663485805295  0.3435367747794959   T   T   T
  0.5897117921143502  0.8676443820749384  0.3434803559239824   T   T   T
  0.9217428042201450  0.3684161936151472  0.3433288419502467   T   T   T
  0.9216570125935294  0.8685443499387717  0.3433599549502420   T   T   T
  0.5461676388137077  0.6173350717717866  0.5871644635104485   T   T   T
  0.4886145051840826  0.4773192445936902  0.6062685841153889   T   T   T
  0.5673960787592719  0.6395253476477171  0.6164954911794945   T   T   T
  0.3086714421539292  0.3828085219376421  0.6222375472346848   T   T   T
  0.4233457634774356  0.2590263019448908  0.6159373187580718   T   T   T
  0.6462769595927377  0.7352109610688968  0.6468931424881604   T   T   T
  0.4819537302427206  0.7666895775159821  0.6435408212785129   T   T   T
  0.5319013335482129  0.8039390753853876  0.5670570883127198   T   T   T
  0.5946932709039549  0.6578515327562080  0.5529641518607011   T   T   T
  0.1607726596595670  0.3402296435932466  0.3488372768824240   T   T   T
  0.1609014369571971  0.8402933753832966  0.3488609580950343   T   T   T
  0.4935468114084127  0.3405589016270852  0.3489773404010946   T   T   T
  0.4934652199515339  0.8402050956096943  0.3489132414471796   T   T   T
  0.8258959108685703  0.3399237747221145  0.3488073589358153   T   T   T
  0.8258186185871296  0.8400765184640948  0.3488421682875399   T   T   T
  0.9928153921070422  0.0912343091421136  0.5336733079919063   T   T   T
  0.9925943996344534  0.5874326507216885  0.5335036859976003   T   T   T
  0.3261943391685563  0.0903217614226584  0.5338701493160162   T   T   T
  0.3042858996713908  0.5891686664646217  0.5339156955020371   T   T   T
  0.6610548650787603  0.0906959574217365  0.5338315385927310   T   T   T
  0.6868097411759957  0.5910522818952830  0.5339163853914973   T   T   T
  0.5660737737041660  0.5606923900929600  0.6030628807180222   T   T   T
  0.3790704421320994  0.3535778702293099  0.6105540626229367   T   T   T
  0.5732642250727737  0.7584106361748667  0.6353140885758622   T   T   T
  0.5222264529125117  0.6935773950204424  0.5653554897611484   T   T   T
  0.1671223963205388  0.2522333289452478  0.3751950993954670   T   T   T
  0.1671481456725476  0.7522728882149335  0.3752171016993335   T   T   T
  0.5003252890816294  0.2522661560360105  0.3753179510989865   T   T   T
  0.5002950762455937  0.7521462688130371  0.3752714361023480   T   T   T
  0.8335709459241154  0.2520981291151898  0.3751799112224256   T   T   T
  0.8335163137473530  0.7521702741168576  0.3752074954564547   T   T   T
  0.0008962396132733  0.0053635707427034  0.4016970089884817   T   T   T
  0.0008990033167570  0.5054294705758376  0.4016953731996162   T   T   T
  0.3342944196831691  0.0054582504727257  0.4017998352961172   T   T   T
  0.3342470586197785  0.5054371582877453  0.4018205923229106   T   T   T
  0.6674244905888841  0.0053800715370449  0.4017872390592647   T   T   T
  0.6674981015954724  0.5053468000208647  0.4017872373331083   T   T   T
  0.1677774261997543  0.2558763494852745  0.4279245677739945   T   T   T
  0.1679103359315866  0.7559619745892111  0.4279722901296717   T   T   T
  0.5010055947967919  0.2560409755564994  0.4281059546926541   T   T   T
  0.5010106955135277  0.7559167777404106  0.4280138573807169   T   T   T
  0.8343456437966471  0.2557991450815089  0.4278910999128336   T   T   T
  0.8342957290982884  0.7558936293940736  0.4279480211702409   T   T   T
  0.0011414303864011  0.0055667227897569  0.4546045595992927   T   T   T
  0.0011025898081648  0.5058541764966630  0.4545939471604540   T   T   T
  0.3347571050920417  0.0060967820719425  0.4547650377260514   T   T   T
  0.3342207860677885  0.5060323378374023  0.4548173917303493   T   T   T
  0.6673431332763886  0.0060778135960025  0.4547506591445292   T   T   T
  0.6678083525339314  0.5059250166367103  0.4547203139876217   T   T   T
  0.1675114186362591  0.2546228033694684  0.4807321402868107   T   T   T
  0.1675632118905027  0.7557288035206366  0.4809256575792806   T   T   T
  0.5008864083669718  0.2571500325091506  0.4812874557679735   T   T   T
  0.5007807660469074  0.7553200242301690  0.4810042890188284   T   T   T
  0.8344948649111296  0.2542084699217111  0.4806466665679582   T   T   T
  0.8346234843223185  0.7558105740127607  0.4808828959044553   T   T   T
  0.0002856962476032  0.0027337030383069  0.5073406214522830   T   T   T
  0.0008651894525624  0.5003003156695150  0.5070329064498380   T   T   T
  0.3333918782074656  0.0024550635337827  0.5075061664598545   T   T   T
  0.3312837166265760  0.5035527985735470  0.5078057788121316   T   T   T
  0.6672304950691328  0.0023473482215320  0.5074979206551408   T   T   T
  0.6701275149653523  0.5018510674566236  0.5072723088769086   T   T   T
 
  0.00000000E+00  0.00000000E+00  0.00000000E+00
  0.00000000E+00  0.00000000E+00  0.00000000E+00
  0.00000000E+00  0.00000000E+00  0.00000000E+00
  0.00000000E+00  0.00000000E+00  0.00000000E+00
  0.00000000E+00  0.00000000E+00  0.00000000E+00
  0.00000000E+00  0.00000000E+00  0.00000000E+00
  0.00000000E+00  0.00000000E+00  0.00000000E+00
  0.00000000E+00  0.00000000E+00  0.00000000E+00
  0.00000000E+00  0.00000000E+00  0.00000000E+00
  0.00000000E+00  0.00000000E+00  0.00000000E+00
  0.00000000E+00  0.00000000E+00  0.00000000E+00
  0.00000000E+00  0.00000000E+00  0.00000000E+00
  0.00000000E+00  0.00000000E+00  0.00000000E+00
  0.00000000E+00  0.00000000E+00  0.00000000E+00
  0.00000000E+00  0.00000000E+00  0.00000000E+00
  0.00000000E+00  0.00000000E+00  0.00000000E+00
  0.00000000E+00  0.00000000E+00  0.00000000E+00
  0.00000000E+00  0.00000000E+00  0.00000000E+00
  0.00000000E+00  0.00000000E+00  0.00000000E+00
  0.00000000E+00  0.00000000E+00  0.00000000E+00
  0.00000000E+00  0.00000000E+00  0.00000000E+00
  0.00000000E+00  0.00000000E+00  0.00000000E+00
  0.00000000E+00  0.00000000E+00  0.00000000E+00
  0.00000000E+00  0.00000000E+00  0.00000000E+00
  0.00000000E+00  0.00000000E+00  0.00000000E+00
  0.00000000E+00  0.00000000E+00  0.00000000E+00
  0.00000000E+00  0.00000000E+00  0.00000000E+00
  0.00000000E+00  0.00000000E+00  0.00000000E+00
  0.00000000E+00  0.00000000E+00  0.00000000E+00
  0.00000000E+00  0.00000000E+00  0.00000000E+00
  0.00000000E+00  0.00000000E+00  0.00000000E+00
  0.00000000E+00  0.00000000E+00  0.00000000E+00
  0.00000000E+00  0.00000000E+00  0.00000000E+00
  0.00000000E+00  0.00000000E+00  0.00000000E+00
  0.00000000E+00  0.00000000E+00  0.00000000E+00
  0.00000000E+00  0.00000000E+00  0.00000000E+00
  0.00000000E+00  0.00000000E+00  0.00000000E+00
  0.00000000E+00  0.00000000E+00  0.00000000E+00
  0.00000000E+00  0.00000000E+00  0.00000000E+00
  0.00000000E+00  0.00000000E+00  0.00000000E+00
  0.00000000E+00  0.00000000E+00  0.00000000E+00
  0.00000000E+00  0.00000000E+00  0.00000000E+00
  0.00000000E+00  0.00000000E+00  0.00000000E+00
  0.00000000E+00  0.00000000E+00  0.00000000E+00
  0.00000000E+00  0.00000000E+00  0.00000000E+00
  0.00000000E+00  0.00000000E+00  0.00000000E+00
  0.00000000E+00  0.00000000E+00  0.00000000E+00
  0.00000000E+00  0.00000000E+00  0.00000000E+00
  0.00000000E+00  0.00000000E+00  0.00000000E+00
  0.00000000E+00  0.00000000E+00  0.00000000E+00
  0.00000000E+00  0.00000000E+00  0.00000000E+00
  0.00000000E+00  0.00000000E+00  0.00000000E+00
  0.00000000E+00  0.00000000E+00  0.00000000E+00
  0.00000000E+00  0.00000000E+00  0.00000000E+00
  0.00000000E+00  0.00000000E+00  0.00000000E+00
  0.00000000E+00  0.00000000E+00  0.00000000E+00
  0.00000000E+00  0.00000000E+00  0.00000000E+00
  0.00000000E+00  0.00000000E+00  0.00000000E+00
  0.00000000E+00  0.00000000E+00  0.00000000E+00
  0.00000000E+00  0.00000000E+00  0.00000000E+00
  0.00000000E+00  0.00000000E+00  0.00000000E+00
  0.00000000E+00  0.00000000E+00  0.00000000E+00
  0.00000000E+00  0.00000000E+00  0.00000000E+00
  0.00000000E+00  0.00000000E+00  0.00000000E+00
  0.00000000E+00  0.00000000E+00  0.00000000E+00
  0.00000000E+00  0.00000000E+00  0.00000000E+00
  0.00000000E+00  0.00000000E+00  0.00000000E+00
  0.00000000E+00  0.00000000E+00  0.00000000E+00
  0.00000000E+00  0.00000000E+00  0.00000000E+00
  0.00000000E+00  0.00000000E+00  0.00000000E+00
  0.00000000E+00  0.00000000E+00  0.00000000E+00
  0.00000000E+00  0.00000000E+00  0.00000000E+00
  0.00000000E+00  0.00000000E+00  0.00000000E+00
  0.00000000E+00  0.00000000E+00  0.00000000E+00
  0.00000000E+00  0.00000000E+00  0.00000000E+00
  0.00000000E+00  0.00000000E+00  0.00000000E+00
  0.00000000E+00  0.00000000E+00  0.00000000E+00
  0.00000000E+00  0.00000000E+00  0.00000000E+00
  0.00000000E+00  0.00000000E+00  0.00000000E+00
  0.00000000E+00  0.00000000E+00  0.00000000E+00
  0.00000000E+00  0.00000000E+00  0.00000000E+00
  0.00000000E+00  0.00000000E+00  0.00000000E+00
  0.00000000E+00  0.00000000E+00  0.00000000E+00
  0.00000000E+00  0.00000000E+00  0.00000000E+00
  0.00000000E+00  0.00000000E+00  0.00000000E+00
  0.00000000E+00  0.00000000E+00  0.00000000E+00
  0.00000000E+00  0.00000000E+00  0.00000000E+00
  0.00000000E+00  0.00000000E+00  0.00000000E+00
  0.00000000E+00  0.00000000E+00  0.00000000E+00
  0.00000000E+00  0.00000000E+00  0.00000000E+00
  0.00000000E+00  0.00000000E+00  0.00000000E+00
  0.00000000E+00  0.00000000E+00  0.00000000E+00
  0.00000000E+00  0.00000000E+00  0.00000000E+00
  0.00000000E+00  0.00000000E+00  0.00000000E+00
  0.00000000E+00  0.00000000E+00  0.00000000E+00
  0.00000000E+00  0.00000000E+00  0.00000000E+00
  0.00000000E+00  0.00000000E+00  0.00000000E+00
  0.00000000E+00  0.00000000E+00  0.00000000E+00
  0.00000000E+00  0.00000000E+00  0.00000000E+00
  0.00000000E+00  0.00000000E+00  0.00000000E+00
  0.00000000E+00  0.00000000E+00  0.00000000E+00
  0.00000000E+00  0.00000000E+00  0.00000000E+00
  0.00000000E+00  0.00000000E+00  0.00000000E+00
  0.00000000E+00  0.00000000E+00  0.00000000E+00
  0.00000000E+00  0.00000000E+00  0.00000000E+00
  0.00000000E+00  0.00000000E+00  0.00000000E+00
  0.00000000E+00  0.00000000E+00  0.00000000E+00
  0.00000000E+00  0.00000000E+00  0.00000000E+00
  0.00000000E+00  0.00000000E+00  0.00000000E+00
  0.00000000E+00  0.00000000E+00  0.00000000E+00
  0.00000000E+00  0.00000000E+00  0.00000000E+00
  0.00000000E+00  0.00000000E+00  0.00000000E+00
  0.00000000E+00  0.00000000E+00  0.00000000E+00
  0.00000000E+00  0.00000000E+00  0.00000000E+00
  0.00000000E+00  0.00000000E+00  0.00000000E+00
  0.00000000E+00  0.00000000E+00  0.00000000E+00
  0.00000000E+00  0.00000000E+00  0.00000000E+00
  0.00000000E+00  0.00000000E+00  0.00000000E+00
  0.00000000E+00  0.00000000E+00  0.00000000E+00
  0.00000000E+00  0.00000000E+00  0.00000000E+00
  0.00000000E+00  0.00000000E+00  0.00000000E+00
